# vtk DataFile Version 2.0
               (MEGA VTK FILE)
ASCII
DATASET UNSTRUCTURED_GRID
POINTS       1950    double
  0.10378E-02  0.67292E-03 -0.19217E-01
  0.17452E-02  0.12308E-02 -0.19204E-01
  0.23177E-02  0.59151E-03 -0.19202E-01
  0.16698E-02 -0.33775E-03 -0.19227E-01
  0.10379E-02  0.67237E-03 -0.11750E-01
  0.17453E-02  0.12301E-02 -0.11750E-01
  0.23178E-02  0.59098E-03 -0.11750E-01
  0.16700E-02 -0.33851E-03 -0.11750E-01
  0.30377E-02  0.14882E-03 -0.19177E-01
  0.27791E-02 -0.67643E-03 -0.19207E-01
  0.30377E-02  0.14846E-03 -0.11750E-01
  0.27788E-02 -0.67692E-03 -0.11750E-01
  0.12850E-02  0.18412E-02 -0.19189E-01
  0.65139E-03  0.14576E-02 -0.19208E-01
  0.12851E-02  0.18410E-02 -0.11750E-01
  0.65164E-03  0.14566E-02 -0.11750E-01
  0.12757E-03  0.29933E-03 -0.19219E-01
 -0.12822E-03  0.11672E-02 -0.19222E-01
  0.12783E-03  0.29819E-03 -0.11750E-01
 -0.12804E-03  0.11655E-02 -0.11750E-01
  0.94500E-03  0.22748E-02 -0.19179E-01
  0.11327E-02  0.28286E-02 -0.19168E-01
  0.17490E-02  0.24238E-02 -0.19173E-01
  0.94533E-03  0.22746E-02 -0.11750E-01
  0.11330E-02  0.28291E-02 -0.11750E-01
  0.17494E-02  0.24236E-02 -0.11750E-01
  0.40588E-03  0.21685E-02 -0.19203E-01
  0.39779E-03  0.29366E-02 -0.19195E-01
  0.40594E-03  0.21684E-02 -0.11750E-01
  0.39781E-03  0.29369E-02 -0.11750E-01
 -0.76303E-03 -0.10033E-02 -0.19229E-01
 -0.86604E-03  0.78969E-04 -0.19236E-01
  0.46119E-03 -0.70318E-03 -0.19225E-01
 -0.76268E-03 -0.10032E-02 -0.11750E-01
 -0.86593E-03  0.78160E-04 -0.11750E-01
  0.46164E-03 -0.70391E-03 -0.11750E-01
 -0.18300E-02 -0.71196E-03 -0.19202E-01
 -0.18440E-02  0.82749E-04 -0.19230E-01
 -0.18297E-02 -0.71210E-03 -0.11750E-01
 -0.18441E-02  0.82626E-04 -0.11750E-01
 -0.27238E-02 -0.77865E-03 -0.19194E-01
 -0.28028E-02  0.40713E-04 -0.19217E-01
 -0.27238E-02 -0.77882E-03 -0.11750E-01
 -0.28031E-02  0.40439E-04 -0.11750E-01
 -0.25365E-02 -0.15195E-02 -0.19173E-01
 -0.19287E-02 -0.13230E-02 -0.19184E-01
 -0.25363E-02 -0.15195E-02 -0.11750E-01
 -0.19283E-02 -0.13231E-02 -0.11750E-01
 -0.99363E-03  0.98847E-03 -0.19238E-01
 -0.99377E-03  0.98712E-03 -0.11750E-01
 -0.14380E-02 -0.17325E-02 -0.19199E-01
 -0.14377E-02 -0.17325E-02 -0.11750E-01
 -0.31574E-03  0.20220E-02 -0.19228E-01
 -0.31594E-03  0.20217E-02 -0.11750E-01
 -0.11068E-02  0.18615E-02 -0.19236E-01
 -0.11071E-02  0.18616E-02 -0.11750E-01
 -0.18845E-02  0.17175E-02 -0.19213E-01
 -0.18713E-02  0.90940E-03 -0.19231E-01
 -0.18846E-02  0.17175E-02 -0.11750E-01
 -0.18714E-02  0.90916E-03 -0.11750E-01
 -0.15871E-03 -0.19800E-02 -0.19223E-01
 -0.94089E-03 -0.23489E-02 -0.19199E-01
 -0.15844E-03 -0.19800E-02 -0.11750E-01
 -0.94029E-03 -0.23489E-02 -0.11750E-01
  0.78856E-03 -0.17074E-02 -0.19222E-01
  0.78922E-03 -0.17074E-02 -0.11750E-01
  0.17211E-02 -0.14894E-02 -0.19212E-01
  0.17211E-02 -0.14892E-02 -0.11750E-01
  0.32050E-02  0.76036E-03 -0.19139E-01
  0.28046E-02  0.12477E-02 -0.19168E-01
  0.32047E-02  0.75936E-03 -0.11750E-01
  0.28047E-02  0.12473E-02 -0.11750E-01
  0.23059E-02  0.18665E-02 -0.19179E-01
  0.23060E-02  0.18664E-02 -0.11750E-01
 -0.40614E-03  0.29038E-02 -0.19211E-01
 -0.40627E-03  0.29049E-02 -0.11750E-01
 -0.12092E-02  0.27207E-02 -0.19208E-01
 -0.12092E-02  0.27212E-02 -0.11750E-01
 -0.19448E-02  0.24642E-02 -0.19180E-01
 -0.19448E-02  0.24645E-02 -0.11750E-01
 -0.25029E-02  0.22359E-02 -0.19149E-01
 -0.26371E-02  0.16503E-02 -0.19188E-01
 -0.25029E-02  0.22359E-02 -0.11750E-01
 -0.26372E-02  0.16503E-02 -0.11750E-01
 -0.27671E-02  0.87493E-03 -0.19220E-01
 -0.27674E-02  0.87466E-03 -0.11750E-01
 -0.21123E-02 -0.21373E-02 -0.19176E-01
 -0.21122E-02 -0.21373E-02 -0.11750E-01
 -0.16087E-02 -0.26931E-02 -0.19165E-01
 -0.16087E-02 -0.26931E-02 -0.11750E-01
 -0.11939E-02 -0.31291E-02 -0.19136E-01
 -0.58641E-03 -0.30382E-02 -0.19175E-01
 -0.11937E-02 -0.31291E-02 -0.11750E-01
 -0.58606E-03 -0.30382E-02 -0.11750E-01
  0.20912E-03 -0.28748E-02 -0.19201E-01
  0.20952E-03 -0.28748E-02 -0.11750E-01
  0.10586E-02 -0.26423E-02 -0.19197E-01
  0.10589E-02 -0.26420E-02 -0.11750E-01
  0.18413E-02 -0.23707E-02 -0.19176E-01
  0.18413E-02 -0.23705E-02 -0.11750E-01
  0.24544E-02 -0.21445E-02 -0.19146E-01
  0.26022E-02 -0.15105E-02 -0.19181E-01
  0.24543E-02 -0.21439E-02 -0.11750E-01
  0.26021E-02 -0.15106E-02 -0.11750E-01
  0.37964E-02  0.93572E-03 -0.19059E-01
  0.39100E-02  0.00000E+00 -0.19073E-01
  0.37964E-02  0.93572E-03 -0.11750E-01
  0.39100E-02  0.00000E+00 -0.11750E-01
  0.34621E-02  0.18171E-02 -0.19071E-01
  0.34621E-02  0.18171E-02 -0.11750E-01
  0.29267E-02  0.25928E-02 -0.19061E-01
  0.29267E-02  0.25928E-02 -0.11750E-01
  0.22211E-02  0.32179E-02 -0.19062E-01
  0.22211E-02  0.32179E-02 -0.11750E-01
  0.13865E-02  0.36559E-02 -0.19060E-01
  0.13865E-02  0.36559E-02 -0.11750E-01
  0.47130E-03  0.38815E-02 -0.19068E-01
  0.47130E-03  0.38815E-02 -0.11750E-01
 -0.47130E-03  0.38815E-02 -0.19072E-01
 -0.47130E-03  0.38815E-02 -0.11750E-01
 -0.13865E-02  0.36559E-02 -0.19070E-01
 -0.13865E-02  0.36559E-02 -0.11750E-01
 -0.22211E-02  0.32179E-02 -0.19068E-01
 -0.22211E-02  0.32179E-02 -0.11750E-01
 -0.29267E-02  0.25928E-02 -0.19056E-01
 -0.29267E-02  0.25928E-02 -0.11750E-01
 -0.34621E-02  0.18171E-02 -0.19072E-01
 -0.34621E-02  0.18171E-02 -0.11750E-01
 -0.37964E-02  0.93572E-03 -0.19077E-01
 -0.37964E-02  0.93572E-03 -0.11750E-01
 -0.39100E-02  0.22152E-17 -0.19076E-01
 -0.39100E-02 -0.47884E-18 -0.11750E-01
 -0.37964E-02 -0.93572E-03 -0.19069E-01
 -0.37964E-02 -0.93572E-03 -0.11750E-01
 -0.34621E-02 -0.18171E-02 -0.19063E-01
 -0.34621E-02 -0.18171E-02 -0.11750E-01
 -0.29267E-02 -0.25928E-02 -0.19060E-01
 -0.29267E-02 -0.25928E-02 -0.11750E-01
 -0.22211E-02 -0.32179E-02 -0.19070E-01
 -0.22211E-02 -0.32179E-02 -0.11750E-01
 -0.13865E-02 -0.36559E-02 -0.19060E-01
 -0.13865E-02 -0.36559E-02 -0.11750E-01
 -0.47130E-03 -0.38815E-02 -0.19074E-01
 -0.47130E-03 -0.38815E-02 -0.11750E-01
  0.47130E-03 -0.38815E-02 -0.19070E-01
  0.47130E-03 -0.38815E-02 -0.11750E-01
  0.13865E-02 -0.36559E-02 -0.19065E-01
  0.13865E-02 -0.36559E-02 -0.11750E-01
  0.22211E-02 -0.32179E-02 -0.19073E-01
  0.22211E-02 -0.32179E-02 -0.11750E-01
  0.29267E-02 -0.25928E-02 -0.19062E-01
  0.29267E-02 -0.25928E-02 -0.11750E-01
  0.34621E-02 -0.18171E-02 -0.19073E-01
  0.34621E-02 -0.18171E-02 -0.11750E-01
  0.37964E-02 -0.93572E-03 -0.19073E-01
  0.37964E-02 -0.93572E-03 -0.11750E-01
  0.10376E-02  0.67348E-03 -0.21697E-01
  0.17450E-02  0.12314E-02 -0.21695E-01
  0.23175E-02  0.59203E-03 -0.21694E-01
  0.16696E-02 -0.33700E-03 -0.21698E-01
  0.30377E-02  0.14918E-03 -0.21691E-01
  0.27795E-02 -0.67594E-03 -0.21695E-01
  0.12849E-02  0.18414E-02 -0.21692E-01
  0.65115E-03  0.14586E-02 -0.21695E-01
  0.12731E-03  0.30048E-03 -0.21698E-01
 -0.12841E-03  0.11690E-02 -0.21698E-01
  0.94467E-03  0.22749E-02 -0.21691E-01
  0.11323E-02  0.28282E-02 -0.21690E-01
  0.17487E-02  0.24239E-02 -0.21690E-01
  0.40583E-03  0.21685E-02 -0.21694E-01
  0.39777E-03  0.29364E-02 -0.21693E-01
 -0.76338E-03 -0.10035E-02 -0.21698E-01
 -0.86615E-03  0.79778E-04 -0.21700E-01
  0.46074E-03 -0.70245E-03 -0.21698E-01
 -0.18303E-02 -0.71182E-03 -0.21695E-01
 -0.18439E-02  0.82873E-04 -0.21699E-01
 -0.27238E-02 -0.77848E-03 -0.21693E-01
 -0.28025E-02  0.40986E-04 -0.21697E-01
 -0.25366E-02 -0.15194E-02 -0.21690E-01
 -0.19292E-02 -0.13228E-02 -0.21692E-01
 -0.99349E-03  0.98983E-03 -0.21700E-01
 -0.14384E-02 -0.17324E-02 -0.21694E-01
 -0.31554E-03  0.20223E-02 -0.21698E-01
 -0.11064E-02  0.18614E-02 -0.21699E-01
 -0.18845E-02  0.17175E-02 -0.21696E-01
 -0.18712E-02  0.90964E-03 -0.21699E-01
 -0.15899E-03 -0.19800E-02 -0.21698E-01
 -0.94149E-03 -0.23489E-02 -0.21694E-01
  0.78790E-03 -0.17074E-02 -0.21698E-01
  0.17210E-02 -0.14896E-02 -0.21696E-01
  0.32053E-02  0.76137E-03 -0.21685E-01
  0.28046E-02  0.12481E-02 -0.21689E-01
  0.23058E-02  0.18665E-02 -0.21691E-01
 -0.40600E-03  0.29027E-02 -0.21696E-01
 -0.12092E-02  0.27202E-02 -0.21695E-01
 -0.19447E-02  0.24640E-02 -0.21691E-01
 -0.25028E-02  0.22359E-02 -0.21687E-01
 -0.26370E-02  0.16503E-02 -0.21692E-01
 -0.27668E-02  0.87519E-03 -0.21697E-01
 -0.21125E-02 -0.21373E-02 -0.21690E-01
 -0.16088E-02 -0.26932E-02 -0.21689E-01
 -0.11940E-02 -0.31291E-02 -0.21685E-01
 -0.58676E-03 -0.30382E-02 -0.21690E-01
  0.20871E-03 -0.28748E-02 -0.21694E-01
  0.10583E-02 -0.26426E-02 -0.21694E-01
  0.18413E-02 -0.23709E-02 -0.21690E-01
  0.24545E-02 -0.21450E-02 -0.21686E-01
  0.26022E-02 -0.15104E-02 -0.21691E-01
  0.37964E-02  0.93572E-03 -0.21677E-01
  0.39100E-02  0.00000E+00 -0.21679E-01
  0.34621E-02  0.18171E-02 -0.21679E-01
  0.29267E-02  0.25928E-02 -0.21678E-01
  0.22211E-02  0.32179E-02 -0.21678E-01
  0.13865E-02  0.36559E-02 -0.21678E-01
  0.47130E-03  0.38815E-02 -0.21679E-01
 -0.47130E-03  0.38815E-02 -0.21679E-01
 -0.13865E-02  0.36559E-02 -0.21679E-01
 -0.22211E-02  0.32179E-02 -0.21678E-01
 -0.29267E-02  0.25928E-02 -0.21676E-01
 -0.34621E-02  0.18171E-02 -0.21679E-01
 -0.37964E-02  0.93572E-03 -0.21680E-01
 -0.39100E-02 -0.47884E-18 -0.21680E-01
 -0.37964E-02 -0.93572E-03 -0.21679E-01
 -0.34621E-02 -0.18171E-02 -0.21678E-01
 -0.29267E-02 -0.25928E-02 -0.21678E-01
 -0.22211E-02 -0.32179E-02 -0.21679E-01
 -0.13865E-02 -0.36559E-02 -0.21677E-01
 -0.47130E-03 -0.38815E-02 -0.21680E-01
  0.47130E-03 -0.38815E-02 -0.21679E-01
  0.13865E-02 -0.36559E-02 -0.21678E-01
  0.22211E-02 -0.32179E-02 -0.21679E-01
  0.29267E-02 -0.25928E-02 -0.21677E-01
  0.34621E-02 -0.18171E-02 -0.21679E-01
  0.37964E-02 -0.93572E-03 -0.21680E-01
  0.10375E-02  0.67403E-03 -0.21001E-01
  0.17448E-02  0.12321E-02 -0.21001E-01
  0.23174E-02  0.59255E-03 -0.21001E-01
  0.16694E-02 -0.33624E-03 -0.21001E-01
  0.30377E-02  0.14955E-03 -0.21001E-01
  0.27798E-02 -0.67544E-03 -0.21001E-01
  0.12848E-02  0.18415E-02 -0.21001E-01
  0.65090E-03  0.14596E-02 -0.21001E-01
  0.12705E-03  0.30163E-03 -0.21001E-01
 -0.12859E-03  0.11707E-02 -0.21001E-01
  0.94434E-03  0.22750E-02 -0.21001E-01
  0.11320E-02  0.28277E-02 -0.21001E-01
  0.17483E-02  0.24241E-02 -0.21001E-01
  0.40577E-03  0.21685E-02 -0.21001E-01
  0.39776E-03  0.29361E-02 -0.21001E-01
 -0.76374E-03 -0.10036E-02 -0.21001E-01
 -0.86626E-03  0.80588E-04 -0.21001E-01
  0.46029E-03 -0.70173E-03 -0.21001E-01
 -0.18306E-02 -0.71168E-03 -0.21001E-01
 -0.18438E-02  0.82996E-04 -0.21001E-01
 -0.27238E-02 -0.77831E-03 -0.21001E-01
 -0.28022E-02  0.41259E-04 -0.21001E-01
 -0.25368E-02 -0.15194E-02 -0.21001E-01
 -0.19296E-02 -0.13227E-02 -0.21001E-01
 -0.99334E-03  0.99119E-03 -0.21001E-01
 -0.14387E-02 -0.17324E-02 -0.21001E-01
 -0.31534E-03  0.20226E-02 -0.21001E-01
 -0.11061E-02  0.18613E-02 -0.21001E-01
 -0.18844E-02  0.17175E-02 -0.21001E-01
 -0.18710E-02  0.90988E-03 -0.21001E-01
 -0.15926E-03 -0.19801E-02 -0.21001E-01
 -0.94209E-03 -0.23490E-02 -0.21001E-01
  0.78724E-03 -0.17074E-02 -0.21001E-01
  0.17210E-02 -0.14899E-02 -0.21001E-01
  0.32056E-02  0.76237E-03 -0.21001E-01
  0.28046E-02  0.12485E-02 -0.21001E-01
  0.23057E-02  0.18666E-02 -0.21001E-01
 -0.40586E-03  0.29017E-02 -0.21001E-01
 -0.12092E-02  0.27198E-02 -0.21001E-01
 -0.19447E-02  0.24638E-02 -0.21001E-01
 -0.25028E-02  0.22359E-02 -0.21001E-01
 -0.26369E-02  0.16503E-02 -0.21001E-01
 -0.27665E-02  0.87545E-03 -0.21001E-01
 -0.21126E-02 -0.21374E-02 -0.21001E-01
 -0.16088E-02 -0.26932E-02 -0.21001E-01
 -0.11941E-02 -0.31291E-02 -0.21001E-01
 -0.58711E-03 -0.30382E-02 -0.21001E-01
  0.20830E-03 -0.28748E-02 -0.21001E-01
  0.10580E-02 -0.26428E-02 -0.21001E-01
  0.18414E-02 -0.23711E-02 -0.21001E-01
  0.24546E-02 -0.21456E-02 -0.21001E-01
  0.26023E-02 -0.15103E-02 -0.21001E-01
  0.37964E-02  0.93572E-03 -0.21001E-01
  0.39100E-02  0.00000E+00 -0.21001E-01
  0.34621E-02  0.18171E-02 -0.21001E-01
  0.29267E-02  0.25928E-02 -0.21001E-01
  0.22211E-02  0.32179E-02 -0.21001E-01
  0.13865E-02  0.36559E-02 -0.21001E-01
  0.47130E-03  0.38815E-02 -0.21001E-01
 -0.47130E-03  0.38815E-02 -0.21001E-01
 -0.13865E-02  0.36559E-02 -0.21001E-01
 -0.22211E-02  0.32179E-02 -0.21001E-01
 -0.29267E-02  0.25928E-02 -0.21001E-01
 -0.34621E-02  0.18171E-02 -0.21001E-01
 -0.37964E-02  0.93572E-03 -0.21001E-01
 -0.39100E-02  0.39516E-17 -0.21001E-01
 -0.37964E-02 -0.93572E-03 -0.21001E-01
 -0.34621E-02 -0.18171E-02 -0.21001E-01
 -0.29267E-02 -0.25928E-02 -0.21001E-01
 -0.22211E-02 -0.32179E-02 -0.21001E-01
 -0.13865E-02 -0.36559E-02 -0.21001E-01
 -0.47130E-03 -0.38815E-02 -0.21001E-01
  0.47130E-03 -0.38815E-02 -0.21001E-01
  0.13865E-02 -0.36559E-02 -0.21001E-01
  0.22211E-02 -0.32179E-02 -0.21001E-01
  0.29267E-02 -0.25928E-02 -0.21001E-01
  0.34621E-02 -0.18171E-02 -0.21001E-01
  0.37964E-02 -0.93572E-03 -0.21001E-01
  0.10374E-02  0.67459E-03 -0.20022E-01
  0.17446E-02  0.12328E-02 -0.20022E-01
  0.23173E-02  0.59308E-03 -0.20022E-01
  0.16692E-02 -0.33549E-03 -0.20022E-01
  0.30376E-02  0.14991E-03 -0.20022E-01
  0.27801E-02 -0.67495E-03 -0.20022E-01
  0.12847E-02  0.18417E-02 -0.20022E-01
  0.65065E-03  0.14606E-02 -0.20022E-01
  0.12678E-03  0.30278E-03 -0.20022E-01
 -0.12878E-03  0.11725E-02 -0.20022E-01
  0.94401E-03  0.22752E-02 -0.20022E-01
  0.11316E-02  0.28273E-02 -0.20022E-01
  0.17479E-02  0.24242E-02 -0.20022E-01
  0.40572E-03  0.21686E-02 -0.20022E-01
  0.39774E-03  0.29359E-02 -0.20022E-01
 -0.76409E-03 -0.10038E-02 -0.20022E-01
 -0.86637E-03  0.81397E-04 -0.20022E-01
  0.45985E-03 -0.70100E-03 -0.20022E-01
 -0.18309E-02 -0.71154E-03 -0.20022E-01
 -0.18437E-02  0.83120E-04 -0.20022E-01
 -0.27237E-02 -0.77814E-03 -0.20022E-01
 -0.28020E-02  0.41533E-04 -0.20022E-01
 -0.25369E-02 -0.15193E-02 -0.20022E-01
 -0.19300E-02 -0.13227E-02 -0.20022E-01
 -0.99320E-03  0.99254E-03 -0.20022E-01
 -0.14391E-02 -0.17324E-02 -0.20022E-01
 -0.31514E-03  0.20228E-02 -0.20022E-01
 -0.11057E-02  0.18611E-02 -0.20022E-01
 -0.18844E-02  0.17175E-02 -0.20022E-01
 -0.18709E-02  0.91012E-03 -0.20022E-01
 -0.15954E-03 -0.19801E-02 -0.20022E-01
 -0.94269E-03 -0.23490E-02 -0.20022E-01
  0.78658E-03 -0.17074E-02 -0.20022E-01
  0.17209E-02 -0.14901E-02 -0.20022E-01
  0.32060E-02  0.76338E-03 -0.20022E-01
  0.28046E-02  0.12490E-02 -0.20022E-01
  0.23056E-02  0.18666E-02 -0.20022E-01
 -0.40572E-03  0.29006E-02 -0.20022E-01
 -0.12092E-02  0.27193E-02 -0.20022E-01
 -0.19446E-02  0.24636E-02 -0.20022E-01
 -0.25028E-02  0.22359E-02 -0.20022E-01
 -0.26368E-02  0.16503E-02 -0.20022E-01
 -0.27662E-02  0.87571E-03 -0.20022E-01
 -0.21128E-02 -0.21374E-02 -0.20022E-01
 -0.16088E-02 -0.26932E-02 -0.20022E-01
 -0.11942E-02 -0.31291E-02 -0.20022E-01
 -0.58746E-03 -0.30382E-02 -0.20022E-01
  0.20790E-03 -0.28748E-02 -0.20022E-01
  0.10577E-02 -0.26431E-02 -0.20022E-01
  0.18414E-02 -0.23713E-02 -0.20022E-01
  0.24548E-02 -0.21461E-02 -0.20022E-01
  0.26024E-02 -0.15102E-02 -0.20022E-01
  0.37964E-02  0.93572E-03 -0.20022E-01
  0.39100E-02  0.00000E+00 -0.20022E-01
  0.34621E-02  0.18171E-02 -0.20022E-01
  0.29267E-02  0.25928E-02 -0.20022E-01
  0.22211E-02  0.32179E-02 -0.20022E-01
  0.13865E-02  0.36559E-02 -0.20022E-01
  0.47130E-03  0.38815E-02 -0.20022E-01
 -0.47130E-03  0.38815E-02 -0.20022E-01
 -0.13865E-02  0.36559E-02 -0.20022E-01
 -0.22211E-02  0.32179E-02 -0.20022E-01
 -0.29267E-02  0.25928E-02 -0.20022E-01
 -0.34621E-02  0.18171E-02 -0.20022E-01
 -0.37964E-02  0.93572E-03 -0.20022E-01
 -0.39100E-02 -0.47884E-18 -0.20022E-01
 -0.37964E-02 -0.93572E-03 -0.20022E-01
 -0.34621E-02 -0.18171E-02 -0.20022E-01
 -0.29267E-02 -0.25928E-02 -0.20022E-01
 -0.22211E-02 -0.32179E-02 -0.20022E-01
 -0.13865E-02 -0.36559E-02 -0.20022E-01
 -0.47130E-03 -0.38815E-02 -0.20022E-01
  0.47130E-03 -0.38815E-02 -0.20022E-01
  0.13865E-02 -0.36559E-02 -0.20022E-01
  0.22211E-02 -0.32179E-02 -0.20022E-01
  0.29267E-02 -0.25928E-02 -0.20022E-01
  0.34621E-02 -0.18171E-02 -0.20022E-01
  0.37964E-02 -0.93572E-03 -0.20022E-01
  0.10373E-02  0.67514E-03 -0.19043E-01
  0.17445E-02  0.12334E-02 -0.19043E-01
  0.23172E-02  0.59360E-03 -0.19043E-01
  0.16689E-02 -0.33474E-03 -0.19043E-01
  0.30376E-02  0.15027E-03 -0.19043E-01
  0.27805E-02 -0.67446E-03 -0.19043E-01
  0.12846E-02  0.18419E-02 -0.19043E-01
  0.65041E-03  0.14616E-02 -0.19043E-01
  0.12652E-03  0.30393E-03 -0.19043E-01
 -0.12896E-03  0.11742E-02 -0.19043E-01
  0.94367E-03  0.22753E-02 -0.19043E-01
  0.11313E-02  0.28269E-02 -0.19043E-01
  0.17475E-02  0.24244E-02 -0.19043E-01
  0.40566E-03  0.21686E-02 -0.19043E-01
  0.39772E-03  0.29356E-02 -0.19043E-01
 -0.76444E-03 -0.10039E-02 -0.19043E-01
 -0.86648E-03  0.82206E-04 -0.19043E-01
  0.45940E-03 -0.70028E-03 -0.19043E-01
 -0.18312E-02 -0.71140E-03 -0.19043E-01
 -0.18436E-02  0.83243E-04 -0.19043E-01
 -0.27237E-02 -0.77797E-03 -0.19043E-01
 -0.28017E-02  0.41806E-04 -0.19043E-01
 -0.25371E-02 -0.15193E-02 -0.19043E-01
 -0.19305E-02 -0.13226E-02 -0.19043E-01
 -0.99305E-03  0.99390E-03 -0.19043E-01
 -0.14394E-02 -0.17323E-02 -0.19043E-01
 -0.31494E-03  0.20231E-02 -0.19043E-01
 -0.11054E-02  0.18610E-02 -0.19043E-01
 -0.18843E-02  0.17175E-02 -0.19043E-01
 -0.18708E-02  0.91036E-03 -0.19043E-01
 -0.15981E-03 -0.19801E-02 -0.19043E-01
 -0.94328E-03 -0.23490E-02 -0.19043E-01
  0.78592E-03 -0.17074E-02 -0.19043E-01
  0.17209E-02 -0.14904E-02 -0.19043E-01
  0.32063E-02  0.76439E-03 -0.19043E-01
  0.28045E-02  0.12494E-02 -0.19043E-01
  0.23055E-02  0.18666E-02 -0.19043E-01
 -0.40558E-03  0.28995E-02 -0.19043E-01
 -0.12092E-02  0.27188E-02 -0.19043E-01
 -0.19446E-02  0.24633E-02 -0.19043E-01
 -0.25027E-02  0.22359E-02 -0.19043E-01
 -0.26367E-02  0.16503E-02 -0.19043E-01
 -0.27658E-02  0.87597E-03 -0.19043E-01
 -0.21129E-02 -0.21374E-02 -0.19043E-01
 -0.16089E-02 -0.26932E-02 -0.19043E-01
 -0.11943E-02 -0.31291E-02 -0.19043E-01
 -0.58781E-03 -0.30382E-02 -0.19043E-01
  0.20749E-03 -0.28748E-02 -0.19043E-01
  0.10574E-02 -0.26434E-02 -0.19043E-01
  0.18415E-02 -0.23715E-02 -0.19043E-01
  0.24549E-02 -0.21467E-02 -0.19043E-01
  0.26025E-02 -0.15101E-02 -0.19043E-01
  0.37964E-02  0.93572E-03 -0.19043E-01
  0.39100E-02  0.00000E+00 -0.19043E-01
  0.34621E-02  0.18171E-02 -0.19043E-01
  0.29267E-02  0.25928E-02 -0.19043E-01
  0.22211E-02  0.32179E-02 -0.19043E-01
  0.13865E-02  0.36559E-02 -0.19043E-01
  0.47130E-03  0.38815E-02 -0.19043E-01
 -0.47130E-03  0.38815E-02 -0.19043E-01
 -0.13865E-02  0.36559E-02 -0.19043E-01
 -0.22211E-02  0.32179E-02 -0.19043E-01
 -0.29267E-02  0.25928E-02 -0.19043E-01
 -0.34621E-02  0.18171E-02 -0.19043E-01
 -0.37964E-02  0.93572E-03 -0.19043E-01
 -0.39100E-02 -0.47884E-18 -0.19043E-01
 -0.37964E-02 -0.93572E-03 -0.19043E-01
 -0.34621E-02 -0.18171E-02 -0.19043E-01
 -0.29267E-02 -0.25928E-02 -0.19043E-01
 -0.22211E-02 -0.32179E-02 -0.19043E-01
 -0.13865E-02 -0.36559E-02 -0.19043E-01
 -0.47130E-03 -0.38815E-02 -0.19043E-01
  0.47130E-03 -0.38815E-02 -0.19043E-01
  0.13865E-02 -0.36559E-02 -0.19043E-01
  0.22211E-02 -0.32179E-02 -0.19043E-01
  0.29267E-02 -0.25928E-02 -0.19043E-01
  0.34621E-02 -0.18171E-02 -0.19043E-01
  0.37964E-02 -0.93572E-03 -0.19043E-01
  0.10372E-02  0.67570E-03 -0.18064E-01
  0.17443E-02  0.12341E-02 -0.18064E-01
  0.23171E-02  0.59412E-03 -0.18064E-01
  0.16687E-02 -0.33398E-03 -0.18064E-01
  0.30376E-02  0.15064E-03 -0.18064E-01
  0.27808E-02 -0.67396E-03 -0.18064E-01
  0.12845E-02  0.18421E-02 -0.18064E-01
  0.65016E-03  0.14626E-02 -0.18064E-01
  0.12626E-03  0.30507E-03 -0.18064E-01
 -0.12915E-03  0.11760E-02 -0.18064E-01
  0.94334E-03  0.22754E-02 -0.18064E-01
  0.11310E-02  0.28264E-02 -0.18064E-01
  0.17471E-02  0.24245E-02 -0.18064E-01
  0.40561E-03  0.21686E-02 -0.18064E-01
  0.39770E-03  0.29353E-02 -0.18064E-01
 -0.76480E-03 -0.10040E-02 -0.18064E-01
 -0.86659E-03  0.83015E-04 -0.18064E-01
  0.45895E-03 -0.69955E-03 -0.18064E-01
 -0.18315E-02 -0.71126E-03 -0.18064E-01
 -0.18435E-02  0.83367E-04 -0.18064E-01
 -0.27237E-02 -0.77780E-03 -0.18064E-01
 -0.28014E-02  0.42080E-04 -0.18064E-01
 -0.25372E-02 -0.15192E-02 -0.18064E-01
 -0.19309E-02 -0.13224E-02 -0.18064E-01
 -0.99291E-03  0.99526E-03 -0.18064E-01
 -0.14398E-02 -0.17323E-02 -0.18064E-01
 -0.31474E-03  0.20234E-02 -0.18064E-01
 -0.11051E-02  0.18609E-02 -0.18064E-01
 -0.18843E-02  0.17175E-02 -0.18064E-01
 -0.18706E-02  0.91060E-03 -0.18064E-01
 -0.16009E-03 -0.19801E-02 -0.18064E-01
 -0.94388E-03 -0.23490E-02 -0.18064E-01
  0.78526E-03 -0.17074E-02 -0.18064E-01
  0.17208E-02 -0.14906E-02 -0.18064E-01
  0.32066E-02  0.76539E-03 -0.18064E-01
  0.28045E-02  0.12498E-02 -0.18064E-01
  0.23053E-02  0.18667E-02 -0.18064E-01
 -0.40545E-03  0.28984E-02 -0.18064E-01
 -0.12092E-02  0.27184E-02 -0.18064E-01
 -0.19446E-02  0.24631E-02 -0.18064E-01
 -0.25027E-02  0.22359E-02 -0.18064E-01
 -0.26366E-02  0.16503E-02 -0.18064E-01
 -0.27655E-02  0.87623E-03 -0.18064E-01
 -0.21130E-02 -0.21374E-02 -0.18064E-01
 -0.16089E-02 -0.26932E-02 -0.18064E-01
 -0.11944E-02 -0.31291E-02 -0.18064E-01
 -0.58816E-03 -0.30382E-02 -0.18064E-01
  0.20709E-03 -0.28748E-02 -0.18064E-01
  0.10571E-02 -0.26436E-02 -0.18064E-01
  0.18415E-02 -0.23717E-02 -0.18064E-01
  0.24550E-02 -0.21472E-02 -0.18064E-01
  0.26025E-02 -0.15100E-02 -0.18064E-01
  0.37964E-02  0.93572E-03 -0.18064E-01
  0.39100E-02  0.00000E+00 -0.18064E-01
  0.34621E-02  0.18171E-02 -0.18064E-01
  0.29267E-02  0.25928E-02 -0.18064E-01
  0.22211E-02  0.32179E-02 -0.18064E-01
  0.13865E-02  0.36559E-02 -0.18064E-01
  0.47130E-03  0.38815E-02 -0.18064E-01
 -0.47130E-03  0.38815E-02 -0.18064E-01
 -0.13865E-02  0.36559E-02 -0.18064E-01
 -0.22211E-02  0.32179E-02 -0.18064E-01
 -0.29267E-02  0.25928E-02 -0.18064E-01
 -0.34621E-02  0.18171E-02 -0.18064E-01
 -0.37964E-02  0.93572E-03 -0.18064E-01
 -0.39100E-02 -0.47884E-18 -0.18064E-01
 -0.37964E-02 -0.93572E-03 -0.18064E-01
 -0.34621E-02 -0.18171E-02 -0.18064E-01
 -0.29267E-02 -0.25928E-02 -0.18064E-01
 -0.22211E-02 -0.32179E-02 -0.18064E-01
 -0.13865E-02 -0.36559E-02 -0.18064E-01
 -0.47130E-03 -0.38815E-02 -0.18064E-01
  0.47130E-03 -0.38815E-02 -0.18064E-01
  0.13865E-02 -0.36559E-02 -0.18064E-01
  0.22211E-02 -0.32179E-02 -0.18064E-01
  0.29267E-02 -0.25928E-02 -0.18064E-01
  0.34621E-02 -0.18171E-02 -0.18064E-01
  0.37964E-02 -0.93572E-03 -0.18064E-01
  0.10371E-02  0.67625E-03 -0.17084E-01
  0.17441E-02  0.12348E-02 -0.17084E-01
  0.23169E-02  0.59465E-03 -0.17084E-01
  0.16685E-02 -0.33323E-03 -0.17084E-01
  0.30376E-02  0.15100E-03 -0.17084E-01
  0.27812E-02 -0.67347E-03 -0.17084E-01
  0.12844E-02  0.18423E-02 -0.17084E-01
  0.64992E-03  0.14636E-02 -0.17084E-01
  0.12600E-03  0.30622E-03 -0.17084E-01
 -0.12933E-03  0.11777E-02 -0.17084E-01
  0.94301E-03  0.22755E-02 -0.17084E-01
  0.11306E-02  0.28260E-02 -0.17084E-01
  0.17467E-02  0.24247E-02 -0.17084E-01
  0.40556E-03  0.21687E-02 -0.17084E-01
  0.39769E-03  0.29351E-02 -0.17084E-01
 -0.76515E-03 -0.10042E-02 -0.17084E-01
 -0.86670E-03  0.83825E-04 -0.17084E-01
  0.45850E-03 -0.69882E-03 -0.17084E-01
 -0.18318E-02 -0.71112E-03 -0.17084E-01
 -0.18434E-02  0.83490E-04 -0.17084E-01
 -0.27236E-02 -0.77763E-03 -0.17084E-01
 -0.28011E-02  0.42353E-04 -0.17084E-01
 -0.25374E-02 -0.15192E-02 -0.17084E-01
 -0.19313E-02 -0.13223E-02 -0.17084E-01
 -0.99277E-03  0.99661E-03 -0.17084E-01
 -0.14401E-02 -0.17322E-02 -0.17084E-01
 -0.31454E-03  0.20237E-02 -0.17084E-01
 -0.11047E-02  0.18607E-02 -0.17084E-01
 -0.18842E-02  0.17175E-02 -0.17084E-01
 -0.18705E-02  0.91084E-03 -0.17084E-01
 -0.16036E-03 -0.19801E-02 -0.17084E-01
 -0.94448E-03 -0.23491E-02 -0.17084E-01
  0.78460E-03 -0.17074E-02 -0.17084E-01
  0.17208E-02 -0.14909E-02 -0.17084E-01
  0.32070E-02  0.76640E-03 -0.17084E-01
  0.28045E-02  0.12503E-02 -0.17084E-01
  0.23052E-02  0.18667E-02 -0.17084E-01
 -0.40531E-03  0.28974E-02 -0.17084E-01
 -0.12092E-02  0.27179E-02 -0.17084E-01
 -0.19445E-02  0.24629E-02 -0.17084E-01
 -0.25027E-02  0.22359E-02 -0.17084E-01
 -0.26366E-02  0.16503E-02 -0.17084E-01
 -0.27652E-02  0.87650E-03 -0.17084E-01
 -0.21132E-02 -0.21374E-02 -0.17084E-01
 -0.16090E-02 -0.26933E-02 -0.17084E-01
 -0.11946E-02 -0.31291E-02 -0.17084E-01
 -0.58851E-03 -0.30382E-02 -0.17084E-01
  0.20668E-03 -0.28749E-02 -0.17084E-01
  0.10567E-02 -0.26439E-02 -0.17084E-01
  0.18416E-02 -0.23719E-02 -0.17084E-01
  0.24551E-02 -0.21478E-02 -0.17084E-01
  0.26026E-02 -0.15099E-02 -0.17084E-01
  0.37964E-02  0.93572E-03 -0.17084E-01
  0.39100E-02  0.00000E+00 -0.17084E-01
  0.34621E-02  0.18171E-02 -0.17084E-01
  0.29267E-02  0.25928E-02 -0.17084E-01
  0.22211E-02  0.32179E-02 -0.17084E-01
  0.13865E-02  0.36559E-02 -0.17084E-01
  0.47130E-03  0.38815E-02 -0.17084E-01
 -0.47130E-03  0.38815E-02 -0.17084E-01
 -0.13865E-02  0.36559E-02 -0.17084E-01
 -0.22211E-02  0.32179E-02 -0.17084E-01
 -0.29267E-02  0.25928E-02 -0.17084E-01
 -0.34621E-02  0.18171E-02 -0.17084E-01
 -0.37964E-02  0.93572E-03 -0.17084E-01
 -0.39100E-02 -0.47884E-18 -0.17084E-01
 -0.37964E-02 -0.93572E-03 -0.17084E-01
 -0.34621E-02 -0.18171E-02 -0.17084E-01
 -0.29267E-02 -0.25928E-02 -0.17084E-01
 -0.22211E-02 -0.32179E-02 -0.17084E-01
 -0.13865E-02 -0.36559E-02 -0.17084E-01
 -0.47130E-03 -0.38815E-02 -0.17084E-01
  0.47130E-03 -0.38815E-02 -0.17084E-01
  0.13865E-02 -0.36559E-02 -0.17084E-01
  0.22211E-02 -0.32179E-02 -0.17084E-01
  0.29267E-02 -0.25928E-02 -0.17084E-01
  0.34621E-02 -0.18171E-02 -0.17084E-01
  0.37964E-02 -0.93572E-03 -0.17084E-01
  0.10370E-02  0.67680E-03 -0.16105E-01
  0.17439E-02  0.12354E-02 -0.16105E-01
  0.23168E-02  0.59517E-03 -0.16105E-01
  0.16683E-02 -0.33247E-03 -0.16105E-01
  0.30375E-02  0.15136E-03 -0.16105E-01
  0.27815E-02 -0.67298E-03 -0.16105E-01
  0.12843E-02  0.18425E-02 -0.16105E-01
  0.64967E-03  0.14646E-02 -0.16105E-01
  0.12573E-03  0.30737E-03 -0.16105E-01
 -0.12952E-03  0.11795E-02 -0.16105E-01
  0.94268E-03  0.22757E-02 -0.16105E-01
  0.11303E-02  0.28255E-02 -0.16105E-01
  0.17463E-02  0.24248E-02 -0.16105E-01
  0.40550E-03  0.21687E-02 -0.16105E-01
  0.39767E-03  0.29348E-02 -0.16105E-01
 -0.76551E-03 -0.10043E-02 -0.16105E-01
 -0.86680E-03  0.84634E-04 -0.16105E-01
  0.45806E-03 -0.69810E-03 -0.16105E-01
 -0.18321E-02 -0.71098E-03 -0.16105E-01
 -0.18433E-02  0.83614E-04 -0.16105E-01
 -0.27236E-02 -0.77746E-03 -0.16105E-01
 -0.28009E-02  0.42626E-04 -0.16105E-01
 -0.25375E-02 -0.15191E-02 -0.16105E-01
 -0.19317E-02 -0.13223E-02 -0.16105E-01
 -0.99262E-03  0.99797E-03 -0.16105E-01
 -0.14405E-02 -0.17322E-02 -0.16105E-01
 -0.31434E-03  0.20240E-02 -0.16105E-01
 -0.11044E-02  0.18606E-02 -0.16105E-01
 -0.18842E-02  0.17175E-02 -0.16105E-01
 -0.18704E-02  0.91108E-03 -0.16105E-01
 -0.16064E-03 -0.19802E-02 -0.16105E-01
 -0.94508E-03 -0.23491E-02 -0.16105E-01
  0.78394E-03 -0.17074E-02 -0.16105E-01
  0.17208E-02 -0.14911E-02 -0.16105E-01
  0.32073E-02  0.76740E-03 -0.16105E-01
  0.28045E-02  0.12507E-02 -0.16105E-01
  0.23051E-02  0.18668E-02 -0.16105E-01
 -0.40517E-03  0.28963E-02 -0.16105E-01
 -0.12092E-02  0.27174E-02 -0.16105E-01
 -0.19445E-02  0.24627E-02 -0.16105E-01
 -0.25026E-02  0.22358E-02 -0.16105E-01
 -0.26365E-02  0.16503E-02 -0.16105E-01
 -0.27649E-02  0.87676E-03 -0.16105E-01
 -0.21133E-02 -0.21374E-02 -0.16105E-01
 -0.16090E-02 -0.26933E-02 -0.16105E-01
 -0.11947E-02 -0.31291E-02 -0.16105E-01
 -0.58886E-03 -0.30382E-02 -0.16105E-01
  0.20627E-03 -0.28749E-02 -0.16105E-01
  0.10564E-02 -0.26442E-02 -0.16105E-01
  0.18416E-02 -0.23721E-02 -0.16105E-01
  0.24553E-02 -0.21483E-02 -0.16105E-01
  0.26027E-02 -0.15097E-02 -0.16105E-01
  0.37964E-02  0.93572E-03 -0.16105E-01
  0.39100E-02  0.00000E+00 -0.16105E-01
  0.34621E-02  0.18171E-02 -0.16105E-01
  0.29267E-02  0.25928E-02 -0.16105E-01
  0.22211E-02  0.32179E-02 -0.16105E-01
  0.13865E-02  0.36559E-02 -0.16105E-01
  0.47130E-03  0.38815E-02 -0.16105E-01
 -0.47130E-03  0.38815E-02 -0.16105E-01
 -0.13865E-02  0.36559E-02 -0.16105E-01
 -0.22211E-02  0.32179E-02 -0.16105E-01
 -0.29267E-02  0.25928E-02 -0.16105E-01
 -0.34621E-02  0.18171E-02 -0.16105E-01
 -0.37964E-02  0.93572E-03 -0.16105E-01
 -0.39100E-02 -0.47884E-18 -0.16105E-01
 -0.37964E-02 -0.93572E-03 -0.16105E-01
 -0.34621E-02 -0.18171E-02 -0.16105E-01
 -0.29267E-02 -0.25928E-02 -0.16105E-01
 -0.22211E-02 -0.32179E-02 -0.16105E-01
 -0.13865E-02 -0.36559E-02 -0.16105E-01
 -0.47130E-03 -0.38815E-02 -0.16105E-01
  0.47130E-03 -0.38815E-02 -0.16105E-01
  0.13865E-02 -0.36559E-02 -0.16105E-01
  0.22211E-02 -0.32179E-02 -0.16105E-01
  0.29267E-02 -0.25928E-02 -0.16105E-01
  0.34621E-02 -0.18171E-02 -0.16105E-01
  0.37964E-02 -0.93572E-03 -0.16105E-01
  0.10368E-02  0.67736E-03 -0.15126E-01
  0.17438E-02  0.12361E-02 -0.15126E-01
  0.23167E-02  0.59570E-03 -0.15126E-01
  0.16681E-02 -0.33172E-03 -0.15126E-01
  0.30375E-02  0.15173E-03 -0.15126E-01
  0.27819E-02 -0.67248E-03 -0.15126E-01
  0.12842E-02  0.18427E-02 -0.15126E-01
  0.64943E-03  0.14656E-02 -0.15126E-01
  0.12547E-03  0.30852E-03 -0.15126E-01
 -0.12970E-03  0.11812E-02 -0.15126E-01
  0.94235E-03  0.22758E-02 -0.15126E-01
  0.11300E-02  0.28251E-02 -0.15126E-01
  0.17459E-02  0.24249E-02 -0.15126E-01
  0.40545E-03  0.21688E-02 -0.15126E-01
  0.39766E-03  0.29345E-02 -0.15126E-01
 -0.76586E-03 -0.10044E-02 -0.15126E-01
 -0.86691E-03  0.85443E-04 -0.15126E-01
  0.45761E-03 -0.69737E-03 -0.15126E-01
 -0.18324E-02 -0.71084E-03 -0.15126E-01
 -0.18432E-02  0.83737E-04 -0.15126E-01
 -0.27236E-02 -0.77729E-03 -0.15126E-01
 -0.28006E-02  0.42899E-04 -0.15126E-01
 -0.25377E-02 -0.15191E-02 -0.15126E-01
 -0.19322E-02 -0.13222E-02 -0.15126E-01
 -0.99248E-03  0.99932E-03 -0.15126E-01
 -0.14408E-02 -0.17322E-02 -0.15126E-01
 -0.31414E-03  0.20243E-02 -0.15126E-01
 -0.11040E-02  0.18605E-02 -0.15126E-01
 -0.18841E-02  0.17175E-02 -0.15126E-01
 -0.18703E-02  0.91132E-03 -0.15126E-01
 -0.16091E-03 -0.19802E-02 -0.15126E-01
 -0.94568E-03 -0.23491E-02 -0.15126E-01
  0.78328E-03 -0.17074E-02 -0.15126E-01
  0.17207E-02 -0.14914E-02 -0.15126E-01
  0.32076E-02  0.76841E-03 -0.15126E-01
  0.28044E-02  0.12511E-02 -0.15126E-01
  0.23050E-02  0.18668E-02 -0.15126E-01
 -0.40503E-03  0.28952E-02 -0.15126E-01
 -0.12092E-02  0.27170E-02 -0.15126E-01
 -0.19445E-02  0.24624E-02 -0.15126E-01
 -0.25026E-02  0.22358E-02 -0.15126E-01
 -0.26364E-02  0.16503E-02 -0.15126E-01
 -0.27646E-02  0.87702E-03 -0.15126E-01
 -0.21134E-02 -0.21374E-02 -0.15126E-01
 -0.16091E-02 -0.26933E-02 -0.15126E-01
 -0.11948E-02 -0.31291E-02 -0.15126E-01
 -0.58921E-03 -0.30382E-02 -0.15126E-01
  0.20587E-03 -0.28749E-02 -0.15126E-01
  0.10561E-02 -0.26444E-02 -0.15126E-01
  0.18416E-02 -0.23723E-02 -0.15126E-01
  0.24554E-02 -0.21489E-02 -0.15126E-01
  0.26027E-02 -0.15096E-02 -0.15126E-01
  0.37964E-02  0.93572E-03 -0.15126E-01
  0.39100E-02  0.00000E+00 -0.15126E-01
  0.34621E-02  0.18171E-02 -0.15126E-01
  0.29267E-02  0.25928E-02 -0.15126E-01
  0.22211E-02  0.32179E-02 -0.15126E-01
  0.13865E-02  0.36559E-02 -0.15126E-01
  0.47130E-03  0.38815E-02 -0.15126E-01
 -0.47130E-03  0.38815E-02 -0.15126E-01
 -0.13865E-02  0.36559E-02 -0.15126E-01
 -0.22211E-02  0.32179E-02 -0.15126E-01
 -0.29267E-02  0.25928E-02 -0.15126E-01
 -0.34621E-02  0.18171E-02 -0.15126E-01
 -0.37964E-02  0.93572E-03 -0.15126E-01
 -0.39100E-02 -0.47884E-18 -0.15126E-01
 -0.37964E-02 -0.93572E-03 -0.15126E-01
 -0.34621E-02 -0.18171E-02 -0.15126E-01
 -0.29267E-02 -0.25928E-02 -0.15126E-01
 -0.22211E-02 -0.32179E-02 -0.15126E-01
 -0.13865E-02 -0.36559E-02 -0.15126E-01
 -0.47130E-03 -0.38815E-02 -0.15126E-01
  0.47130E-03 -0.38815E-02 -0.15126E-01
  0.13865E-02 -0.36559E-02 -0.15126E-01
  0.22211E-02 -0.32179E-02 -0.15126E-01
  0.29267E-02 -0.25928E-02 -0.15126E-01
  0.34621E-02 -0.18171E-02 -0.15126E-01
  0.37964E-02 -0.93572E-03 -0.15126E-01
  0.10367E-02  0.67791E-03 -0.14147E-01
  0.17436E-02  0.12368E-02 -0.14147E-01
  0.23166E-02  0.59622E-03 -0.14147E-01
  0.16679E-02 -0.33096E-03 -0.14147E-01
  0.30375E-02  0.15209E-03 -0.14147E-01
  0.27822E-02 -0.67199E-03 -0.14147E-01
  0.12841E-02  0.18429E-02 -0.14147E-01
  0.64918E-03  0.14666E-02 -0.14147E-01
  0.12521E-03  0.30967E-03 -0.14147E-01
 -0.12989E-03  0.11830E-02 -0.14147E-01
  0.94202E-03  0.22759E-02 -0.14147E-01
  0.11296E-02  0.28247E-02 -0.14147E-01
  0.17455E-02  0.24251E-02 -0.14147E-01
  0.40539E-03  0.21688E-02 -0.14147E-01
  0.39764E-03  0.29343E-02 -0.14147E-01
 -0.76621E-03 -0.10046E-02 -0.14147E-01
 -0.86702E-03  0.86253E-04 -0.14147E-01
  0.45716E-03 -0.69665E-03 -0.14147E-01
 -0.18326E-02 -0.71070E-03 -0.14147E-01
 -0.18431E-02  0.83861E-04 -0.14147E-01
 -0.27235E-02 -0.77712E-03 -0.14147E-01
 -0.28003E-02  0.43173E-04 -0.14147E-01
 -0.25379E-02 -0.15190E-02 -0.14147E-01
 -0.19326E-02 -0.13220E-02 -0.14147E-01
 -0.99233E-03  0.10007E-02 -0.14147E-01
 -0.14412E-02 -0.17321E-02 -0.14147E-01
 -0.31394E-03  0.20245E-02 -0.14147E-01
 -0.11037E-02  0.18603E-02 -0.14147E-01
 -0.18841E-02  0.17175E-02 -0.14147E-01
 -0.18701E-02  0.91156E-03 -0.14147E-01
 -0.16119E-03 -0.19802E-02 -0.14147E-01
 -0.94628E-03 -0.23491E-02 -0.14147E-01
  0.78262E-03 -0.17074E-02 -0.14147E-01
  0.17207E-02 -0.14916E-02 -0.14147E-01
  0.32079E-02  0.76941E-03 -0.14147E-01
  0.28044E-02  0.12515E-02 -0.14147E-01
  0.23049E-02  0.18668E-02 -0.14147E-01
 -0.40490E-03  0.28942E-02 -0.14147E-01
 -0.12093E-02  0.27165E-02 -0.14147E-01
 -0.19444E-02  0.24622E-02 -0.14147E-01
 -0.25026E-02  0.22358E-02 -0.14147E-01
 -0.26363E-02  0.16503E-02 -0.14147E-01
 -0.27643E-02  0.87728E-03 -0.14147E-01
 -0.21136E-02 -0.21374E-02 -0.14147E-01
 -0.16091E-02 -0.26933E-02 -0.14147E-01
 -0.11949E-02 -0.31291E-02 -0.14147E-01
 -0.58956E-03 -0.30382E-02 -0.14147E-01
  0.20546E-03 -0.28749E-02 -0.14147E-01
  0.10558E-02 -0.26447E-02 -0.14147E-01
  0.18417E-02 -0.23725E-02 -0.14147E-01
  0.24555E-02 -0.21494E-02 -0.14147E-01
  0.26028E-02 -0.15095E-02 -0.14147E-01
  0.37964E-02  0.93572E-03 -0.14147E-01
  0.39100E-02  0.00000E+00 -0.14147E-01
  0.34621E-02  0.18171E-02 -0.14147E-01
  0.29267E-02  0.25928E-02 -0.14147E-01
  0.22211E-02  0.32179E-02 -0.14147E-01
  0.13865E-02  0.36559E-02 -0.14147E-01
  0.47130E-03  0.38815E-02 -0.14147E-01
 -0.47130E-03  0.38815E-02 -0.14147E-01
 -0.13865E-02  0.36559E-02 -0.14147E-01
 -0.22211E-02  0.32179E-02 -0.14147E-01
 -0.29267E-02  0.25928E-02 -0.14147E-01
 -0.34621E-02  0.18171E-02 -0.14147E-01
 -0.37964E-02  0.93572E-03 -0.14147E-01
 -0.39100E-02 -0.47884E-18 -0.14147E-01
 -0.37964E-02 -0.93572E-03 -0.14147E-01
 -0.34621E-02 -0.18171E-02 -0.14147E-01
 -0.29267E-02 -0.25928E-02 -0.14147E-01
 -0.22211E-02 -0.32179E-02 -0.14147E-01
 -0.13865E-02 -0.36559E-02 -0.14147E-01
 -0.47130E-03 -0.38815E-02 -0.14147E-01
  0.47130E-03 -0.38815E-02 -0.14147E-01
  0.13865E-02 -0.36559E-02 -0.14147E-01
  0.22211E-02 -0.32179E-02 -0.14147E-01
  0.29267E-02 -0.25928E-02 -0.14147E-01
  0.34621E-02 -0.18171E-02 -0.14147E-01
  0.37964E-02 -0.93572E-03 -0.14147E-01
  0.10366E-02  0.67847E-03 -0.13168E-01
  0.17434E-02  0.12374E-02 -0.13168E-01
  0.23164E-02  0.59674E-03 -0.13168E-01
  0.16677E-02 -0.33021E-03 -0.13168E-01
  0.30375E-02  0.15245E-03 -0.13168E-01
  0.27825E-02 -0.67150E-03 -0.13168E-01
  0.12840E-02  0.18430E-02 -0.13168E-01
  0.64894E-03  0.14676E-02 -0.13168E-01
  0.12495E-03  0.31081E-03 -0.13168E-01
 -0.13007E-03  0.11847E-02 -0.13168E-01
  0.94169E-03  0.22761E-02 -0.13168E-01
  0.11293E-02  0.28242E-02 -0.13168E-01
  0.17451E-02  0.24252E-02 -0.13168E-01
  0.40534E-03  0.21688E-02 -0.13168E-01
  0.39762E-03  0.29340E-02 -0.13168E-01
 -0.76657E-03 -0.10047E-02 -0.13168E-01
 -0.86713E-03  0.87062E-04 -0.13168E-01
  0.45671E-03 -0.69592E-03 -0.13168E-01
 -0.18329E-02 -0.71056E-03 -0.13168E-01
 -0.18430E-02  0.83985E-04 -0.13168E-01
 -0.27235E-02 -0.77695E-03 -0.13168E-01
 -0.28001E-02  0.43446E-04 -0.13168E-01
 -0.25380E-02 -0.15190E-02 -0.13168E-01
 -0.19330E-02 -0.13219E-02 -0.13168E-01
 -0.99219E-03  0.10020E-02 -0.13168E-01
 -0.14415E-02 -0.17321E-02 -0.13168E-01
 -0.31374E-03  0.20248E-02 -0.13168E-01
 -0.11033E-02  0.18602E-02 -0.13168E-01
 -0.18840E-02  0.17175E-02 -0.13168E-01
 -0.18700E-02  0.91180E-03 -0.13168E-01
 -0.16146E-03 -0.19803E-02 -0.13168E-01
 -0.94687E-03 -0.23491E-02 -0.13168E-01
  0.78195E-03 -0.17073E-02 -0.13168E-01
  0.17207E-02 -0.14919E-02 -0.13168E-01
  0.32083E-02  0.77042E-03 -0.13168E-01
  0.28044E-02  0.12520E-02 -0.13168E-01
  0.23048E-02  0.18669E-02 -0.13168E-01
 -0.40476E-03  0.28931E-02 -0.13168E-01
 -0.12093E-02  0.27160E-02 -0.13168E-01
 -0.19444E-02  0.24620E-02 -0.13168E-01
 -0.25026E-02  0.22358E-02 -0.13168E-01
 -0.26362E-02  0.16503E-02 -0.13168E-01
 -0.27640E-02  0.87754E-03 -0.13168E-01
 -0.21137E-02 -0.21374E-02 -0.13168E-01
 -0.16091E-02 -0.26933E-02 -0.13168E-01
 -0.11950E-02 -0.31291E-02 -0.13168E-01
 -0.58991E-03 -0.30382E-02 -0.13168E-01
  0.20505E-03 -0.28749E-02 -0.13168E-01
  0.10555E-02 -0.26450E-02 -0.13168E-01
  0.18417E-02 -0.23727E-02 -0.13168E-01
  0.24556E-02 -0.21500E-02 -0.13168E-01
  0.26029E-02 -0.15094E-02 -0.13168E-01
  0.37964E-02  0.93572E-03 -0.13168E-01
  0.39100E-02  0.00000E+00 -0.13168E-01
  0.34621E-02  0.18171E-02 -0.13168E-01
  0.29267E-02  0.25928E-02 -0.13168E-01
  0.22211E-02  0.32179E-02 -0.13168E-01
  0.13865E-02  0.36559E-02 -0.13168E-01
  0.47130E-03  0.38815E-02 -0.13168E-01
 -0.47130E-03  0.38815E-02 -0.13168E-01
 -0.13865E-02  0.36559E-02 -0.13168E-01
 -0.22211E-02  0.32179E-02 -0.13168E-01
 -0.29267E-02  0.25928E-02 -0.13168E-01
 -0.34621E-02  0.18171E-02 -0.13168E-01
 -0.37964E-02  0.93572E-03 -0.13168E-01
 -0.39100E-02  0.39516E-17 -0.13168E-01
 -0.37964E-02 -0.93572E-03 -0.13168E-01
 -0.34621E-02 -0.18171E-02 -0.13168E-01
 -0.29267E-02 -0.25928E-02 -0.13168E-01
 -0.22211E-02 -0.32179E-02 -0.13168E-01
 -0.13865E-02 -0.36559E-02 -0.13168E-01
 -0.47130E-03 -0.38815E-02 -0.13168E-01
  0.47130E-03 -0.38815E-02 -0.13168E-01
  0.13865E-02 -0.36559E-02 -0.13168E-01
  0.22211E-02 -0.32179E-02 -0.13168E-01
  0.29267E-02 -0.25928E-02 -0.13168E-01
  0.34621E-02 -0.18171E-02 -0.13168E-01
  0.37964E-02 -0.93572E-03 -0.13168E-01
  0.10365E-02  0.67902E-03 -0.12189E-01
  0.17432E-02  0.12381E-02 -0.12189E-01
  0.23163E-02  0.59727E-03 -0.12189E-01
  0.16675E-02 -0.32945E-03 -0.12189E-01
  0.30374E-02  0.15282E-03 -0.12189E-01
  0.27829E-02 -0.67100E-03 -0.12189E-01
  0.12839E-02  0.18432E-02 -0.12189E-01
  0.64869E-03  0.14686E-02 -0.12189E-01
  0.12468E-03  0.31196E-03 -0.12189E-01
 -0.13026E-03  0.11865E-02 -0.12189E-01
  0.94135E-03  0.22762E-02 -0.12189E-01
  0.11289E-02  0.28238E-02 -0.12189E-01
  0.17447E-02  0.24254E-02 -0.12189E-01
  0.40528E-03  0.21688E-02 -0.12189E-01
  0.39760E-03  0.29337E-02 -0.12189E-01
 -0.76692E-03 -0.10049E-02 -0.12189E-01
 -0.86724E-03  0.87871E-04 -0.12189E-01
  0.45626E-03 -0.69519E-03 -0.12189E-01
 -0.18332E-02 -0.71042E-03 -0.12189E-01
 -0.18430E-02  0.84108E-04 -0.12189E-01
 -0.27235E-02 -0.77678E-03 -0.12189E-01
 -0.27998E-02  0.43720E-04 -0.12189E-01
 -0.25382E-02 -0.15189E-02 -0.12189E-01
 -0.19334E-02 -0.13219E-02 -0.12189E-01
 -0.99205E-03  0.10034E-02 -0.12189E-01
 -0.14419E-02 -0.17320E-02 -0.12189E-01
 -0.31354E-03  0.20251E-02 -0.12189E-01
 -0.11030E-02  0.18601E-02 -0.12189E-01
 -0.18840E-02  0.17175E-02 -0.12189E-01
 -0.18699E-02  0.91204E-03 -0.12189E-01
 -0.16174E-03 -0.19803E-02 -0.12189E-01
 -0.94747E-03 -0.23492E-02 -0.12189E-01
  0.78129E-03 -0.17073E-02 -0.12189E-01
  0.17206E-02 -0.14921E-02 -0.12189E-01
  0.32086E-02  0.77142E-03 -0.12189E-01
  0.28044E-02  0.12524E-02 -0.12189E-01
  0.23047E-02  0.18669E-02 -0.12189E-01
 -0.40462E-03  0.28920E-02 -0.12189E-01
 -0.12093E-02  0.27155E-02 -0.12189E-01
 -0.19444E-02  0.24618E-02 -0.12189E-01
 -0.25025E-02  0.22358E-02 -0.12189E-01
 -0.26361E-02  0.16503E-02 -0.12189E-01
 -0.27637E-02  0.87781E-03 -0.12189E-01
 -0.21139E-02 -0.21374E-02 -0.12189E-01
 -0.16092E-02 -0.26934E-02 -0.12189E-01
 -0.11951E-02 -0.31291E-02 -0.12189E-01
 -0.59025E-03 -0.30382E-02 -0.12189E-01
  0.20465E-03 -0.28749E-02 -0.12189E-01
  0.10552E-02 -0.26452E-02 -0.12189E-01
  0.18418E-02 -0.23729E-02 -0.12189E-01
  0.24558E-02 -0.21505E-02 -0.12189E-01
  0.26030E-02 -0.15093E-02 -0.12189E-01
  0.37964E-02  0.93572E-03 -0.12189E-01
  0.39100E-02  0.00000E+00 -0.12189E-01
  0.34621E-02  0.18171E-02 -0.12189E-01
  0.29267E-02  0.25928E-02 -0.12189E-01
  0.22211E-02  0.32179E-02 -0.12189E-01
  0.13865E-02  0.36559E-02 -0.12189E-01
  0.47130E-03  0.38815E-02 -0.12189E-01
 -0.47130E-03  0.38815E-02 -0.12189E-01
 -0.13865E-02  0.36559E-02 -0.12189E-01
 -0.22211E-02  0.32179E-02 -0.12189E-01
 -0.29267E-02  0.25928E-02 -0.12189E-01
 -0.34621E-02  0.18171E-02 -0.12189E-01
 -0.37964E-02  0.93572E-03 -0.12189E-01
 -0.39100E-02 -0.47884E-18 -0.12189E-01
 -0.37964E-02 -0.93572E-03 -0.12189E-01
 -0.34621E-02 -0.18171E-02 -0.12189E-01
 -0.29267E-02 -0.25928E-02 -0.12189E-01
 -0.22211E-02 -0.32179E-02 -0.12189E-01
 -0.13865E-02 -0.36559E-02 -0.12189E-01
 -0.47130E-03 -0.38815E-02 -0.12189E-01
  0.47130E-03 -0.38815E-02 -0.12189E-01
  0.13865E-02 -0.36559E-02 -0.12189E-01
  0.22211E-02 -0.32179E-02 -0.12189E-01
  0.29267E-02 -0.25928E-02 -0.12189E-01
  0.34621E-02 -0.18171E-02 -0.12189E-01
  0.37964E-02 -0.93572E-03 -0.12189E-01
  0.10364E-02  0.67958E-03 -0.11209E-01
  0.17430E-02  0.12387E-02 -0.11209E-01
  0.23162E-02  0.59779E-03 -0.11209E-01
  0.16672E-02 -0.32870E-03 -0.11209E-01
  0.30374E-02  0.15318E-03 -0.11209E-01
  0.27832E-02 -0.67051E-03 -0.11209E-01
  0.12838E-02  0.18434E-02 -0.11209E-01
  0.64845E-03  0.14696E-02 -0.11209E-01
  0.12442E-03  0.31311E-03 -0.11209E-01
 -0.13044E-03  0.11882E-02 -0.11209E-01
  0.94102E-03  0.22763E-02 -0.11209E-01
  0.11286E-02  0.28233E-02 -0.11209E-01
  0.17443E-02  0.24255E-02 -0.11209E-01
  0.40523E-03  0.21689E-02 -0.11209E-01
  0.39759E-03  0.29335E-02 -0.11209E-01
 -0.76727E-03 -0.10050E-02 -0.11209E-01
 -0.86735E-03  0.88681E-04 -0.11209E-01
  0.45582E-03 -0.69447E-03 -0.11209E-01
 -0.18335E-02 -0.71028E-03 -0.11209E-01
 -0.18429E-02  0.84232E-04 -0.11209E-01
 -0.27235E-02 -0.77661E-03 -0.11209E-01
 -0.27995E-02  0.43993E-04 -0.11209E-01
 -0.25383E-02 -0.15189E-02 -0.11209E-01
 -0.19339E-02 -0.13218E-02 -0.11209E-01
 -0.99190E-03  0.10048E-02 -0.11209E-01
 -0.14422E-02 -0.17320E-02 -0.11209E-01
 -0.31334E-03  0.20254E-02 -0.11209E-01
 -0.11026E-02  0.18599E-02 -0.11209E-01
 -0.18839E-02  0.17175E-02 -0.11209E-01
 -0.18697E-02  0.91228E-03 -0.11209E-01
 -0.16201E-03 -0.19803E-02 -0.11209E-01
 -0.94807E-03 -0.23492E-02 -0.11209E-01
  0.78063E-03 -0.17073E-02 -0.11209E-01
  0.17206E-02 -0.14923E-02 -0.11209E-01
  0.32089E-02  0.77243E-03 -0.11209E-01
  0.28043E-02  0.12528E-02 -0.11209E-01
  0.23046E-02  0.18670E-02 -0.11209E-01
 -0.40448E-03  0.28910E-02 -0.11209E-01
 -0.12093E-02  0.27151E-02 -0.11209E-01
 -0.19443E-02  0.24615E-02 -0.11209E-01
 -0.25025E-02  0.22358E-02 -0.11209E-01
 -0.26360E-02  0.16503E-02 -0.11209E-01
 -0.27633E-02  0.87807E-03 -0.11209E-01
 -0.21140E-02 -0.21374E-02 -0.11209E-01
 -0.16092E-02 -0.26934E-02 -0.11209E-01
 -0.11953E-02 -0.31291E-02 -0.11209E-01
 -0.59060E-03 -0.30382E-02 -0.11209E-01
  0.20424E-03 -0.28749E-02 -0.11209E-01
  0.10549E-02 -0.26455E-02 -0.11209E-01
  0.18418E-02 -0.23732E-02 -0.11209E-01
  0.24559E-02 -0.21511E-02 -0.11209E-01
  0.26030E-02 -0.15092E-02 -0.11209E-01
  0.37964E-02  0.93572E-03 -0.11209E-01
  0.39100E-02  0.00000E+00 -0.11209E-01
  0.34621E-02  0.18171E-02 -0.11209E-01
  0.29267E-02  0.25928E-02 -0.11209E-01
  0.22211E-02  0.32179E-02 -0.11209E-01
  0.13865E-02  0.36559E-02 -0.11209E-01
  0.47130E-03  0.38815E-02 -0.11209E-01
 -0.47130E-03  0.38815E-02 -0.11209E-01
 -0.13865E-02  0.36559E-02 -0.11209E-01
 -0.22211E-02  0.32179E-02 -0.11209E-01
 -0.29267E-02  0.25928E-02 -0.11209E-01
 -0.34621E-02  0.18171E-02 -0.11209E-01
 -0.37964E-02  0.93572E-03 -0.11209E-01
 -0.39100E-02  0.22152E-17 -0.11209E-01
 -0.37964E-02 -0.93572E-03 -0.11209E-01
 -0.34621E-02 -0.18171E-02 -0.11209E-01
 -0.29267E-02 -0.25928E-02 -0.11209E-01
 -0.22211E-02 -0.32179E-02 -0.11209E-01
 -0.13865E-02 -0.36559E-02 -0.11209E-01
 -0.47130E-03 -0.38815E-02 -0.11209E-01
  0.47130E-03 -0.38815E-02 -0.11209E-01
  0.13865E-02 -0.36559E-02 -0.11209E-01
  0.22211E-02 -0.32179E-02 -0.11209E-01
  0.29267E-02 -0.25928E-02 -0.11209E-01
  0.34621E-02 -0.18171E-02 -0.11209E-01
  0.37964E-02 -0.93572E-03 -0.11209E-01
  0.10363E-02  0.68013E-03 -0.10230E-01
  0.17429E-02  0.12394E-02 -0.10230E-01
  0.23161E-02  0.59831E-03 -0.10230E-01
  0.16670E-02 -0.32794E-03 -0.10230E-01
  0.30374E-02  0.15354E-03 -0.10230E-01
  0.27836E-02 -0.67002E-03 -0.10230E-01
  0.12837E-02  0.18436E-02 -0.10230E-01
  0.64820E-03  0.14706E-02 -0.10230E-01
  0.12416E-03  0.31426E-03 -0.10230E-01
 -0.13063E-03  0.11900E-02 -0.10230E-01
  0.94069E-03  0.22765E-02 -0.10230E-01
  0.11282E-02  0.28229E-02 -0.10230E-01
  0.17439E-02  0.24257E-02 -0.10230E-01
  0.40518E-03  0.21689E-02 -0.10230E-01
  0.39757E-03  0.29332E-02 -0.10230E-01
 -0.76763E-03 -0.10051E-02 -0.10230E-01
 -0.86746E-03  0.89490E-04 -0.10230E-01
  0.45537E-03 -0.69374E-03 -0.10230E-01
 -0.18338E-02 -0.71013E-03 -0.10230E-01
 -0.18428E-02  0.84355E-04 -0.10230E-01
 -0.27234E-02 -0.77644E-03 -0.10230E-01
 -0.27992E-02  0.44266E-04 -0.10230E-01
 -0.25385E-02 -0.15188E-02 -0.10230E-01
 -0.19343E-02 -0.13216E-02 -0.10230E-01
 -0.99176E-03  0.10061E-02 -0.10230E-01
 -0.14425E-02 -0.17320E-02 -0.10230E-01
 -0.31314E-03  0.20257E-02 -0.10230E-01
 -0.11023E-02  0.18598E-02 -0.10230E-01
 -0.18839E-02  0.17175E-02 -0.10230E-01
 -0.18696E-02  0.91252E-03 -0.10230E-01
 -0.16229E-03 -0.19803E-02 -0.10230E-01
 -0.94867E-03 -0.23492E-02 -0.10230E-01
  0.77997E-03 -0.17073E-02 -0.10230E-01
  0.17205E-02 -0.14926E-02 -0.10230E-01
  0.32092E-02  0.77343E-03 -0.10230E-01
  0.28043E-02  0.12533E-02 -0.10230E-01
  0.23044E-02  0.18670E-02 -0.10230E-01
 -0.40434E-03  0.28899E-02 -0.10230E-01
 -0.12093E-02  0.27146E-02 -0.10230E-01
 -0.19443E-02  0.24613E-02 -0.10230E-01
 -0.25025E-02  0.22358E-02 -0.10230E-01
 -0.26359E-02  0.16503E-02 -0.10230E-01
 -0.27630E-02  0.87833E-03 -0.10230E-01
 -0.21141E-02 -0.21374E-02 -0.10230E-01
 -0.16093E-02 -0.26934E-02 -0.10230E-01
 -0.11954E-02 -0.31291E-02 -0.10230E-01
 -0.59095E-03 -0.30382E-02 -0.10230E-01
  0.20384E-03 -0.28750E-02 -0.10230E-01
  0.10546E-02 -0.26458E-02 -0.10230E-01
  0.18419E-02 -0.23734E-02 -0.10230E-01
  0.24560E-02 -0.21516E-02 -0.10230E-01
  0.26031E-02 -0.15091E-02 -0.10230E-01
  0.37964E-02  0.93572E-03 -0.10230E-01
  0.39100E-02  0.00000E+00 -0.10230E-01
  0.34621E-02  0.18171E-02 -0.10230E-01
  0.29267E-02  0.25928E-02 -0.10230E-01
  0.22211E-02  0.32179E-02 -0.10230E-01
  0.13865E-02  0.36559E-02 -0.10230E-01
  0.47130E-03  0.38815E-02 -0.10230E-01
 -0.47130E-03  0.38815E-02 -0.10230E-01
 -0.13865E-02  0.36559E-02 -0.10230E-01
 -0.22211E-02  0.32179E-02 -0.10230E-01
 -0.29267E-02  0.25928E-02 -0.10230E-01
 -0.34621E-02  0.18171E-02 -0.10230E-01
 -0.37964E-02  0.93572E-03 -0.10230E-01
 -0.39100E-02 -0.47884E-18 -0.10230E-01
 -0.37964E-02 -0.93572E-03 -0.10230E-01
 -0.34621E-02 -0.18171E-02 -0.10230E-01
 -0.29267E-02 -0.25928E-02 -0.10230E-01
 -0.22211E-02 -0.32179E-02 -0.10230E-01
 -0.13865E-02 -0.36559E-02 -0.10230E-01
 -0.47130E-03 -0.38815E-02 -0.10230E-01
  0.47130E-03 -0.38815E-02 -0.10230E-01
  0.13865E-02 -0.36559E-02 -0.10230E-01
  0.22211E-02 -0.32179E-02 -0.10230E-01
  0.29267E-02 -0.25928E-02 -0.10230E-01
  0.34621E-02 -0.18171E-02 -0.10230E-01
  0.37964E-02 -0.93572E-03 -0.10230E-01
  0.10362E-02  0.68068E-03 -0.92512E-02
  0.17427E-02  0.12401E-02 -0.92512E-02
  0.23160E-02  0.59884E-03 -0.92512E-02
  0.16668E-02 -0.32719E-03 -0.92512E-02
  0.30373E-02  0.15391E-03 -0.92512E-02
  0.27839E-02 -0.66953E-03 -0.92512E-02
  0.12836E-02  0.18438E-02 -0.92512E-02
  0.64796E-03  0.14716E-02 -0.92512E-02
  0.12390E-03  0.31541E-03 -0.92512E-02
 -0.13082E-03  0.11917E-02 -0.92512E-02
  0.94036E-03  0.22766E-02 -0.92512E-02
  0.11279E-02  0.28225E-02 -0.92512E-02
  0.17435E-02  0.24258E-02 -0.92512E-02
  0.40512E-03  0.21690E-02 -0.92512E-02
  0.39755E-03  0.29330E-02 -0.92512E-02
 -0.76798E-03 -0.10053E-02 -0.92512E-02
 -0.86756E-03  0.90299E-04 -0.92512E-02
  0.45492E-03 -0.69302E-03 -0.92512E-02
 -0.18341E-02 -0.70999E-03 -0.92512E-02
 -0.18427E-02  0.84479E-04 -0.92512E-02
 -0.27234E-02 -0.77627E-03 -0.92512E-02
 -0.27990E-02  0.44540E-04 -0.92512E-02
 -0.25386E-02 -0.15188E-02 -0.92512E-02
 -0.19347E-02 -0.13215E-02 -0.92512E-02
 -0.99161E-03  0.10075E-02 -0.92512E-02
 -0.14429E-02 -0.17319E-02 -0.92512E-02
 -0.31294E-03  0.20260E-02 -0.92512E-02
 -0.11019E-02  0.18597E-02 -0.92512E-02
 -0.18838E-02  0.17175E-02 -0.92512E-02
 -0.18695E-02  0.91276E-03 -0.92512E-02
 -0.16256E-03 -0.19804E-02 -0.92512E-02
 -0.94927E-03 -0.23493E-02 -0.92512E-02
  0.77931E-03 -0.17073E-02 -0.92512E-02
  0.17205E-02 -0.14928E-02 -0.92512E-02
  0.32096E-02  0.77444E-03 -0.92512E-02
  0.28043E-02  0.12537E-02 -0.92512E-02
  0.23043E-02  0.18670E-02 -0.92512E-02
 -0.40420E-03  0.28888E-02 -0.92512E-02
 -0.12093E-02  0.27141E-02 -0.92512E-02
 -0.19443E-02  0.24611E-02 -0.92512E-02
 -0.25024E-02  0.22358E-02 -0.92512E-02
 -0.26358E-02  0.16503E-02 -0.92512E-02
 -0.27627E-02  0.87859E-03 -0.92512E-02
 -0.21143E-02 -0.21374E-02 -0.92512E-02
 -0.16093E-02 -0.26934E-02 -0.92512E-02
 -0.11955E-02 -0.31291E-02 -0.92512E-02
 -0.59130E-03 -0.30382E-02 -0.92512E-02
  0.20343E-03 -0.28750E-02 -0.92512E-02
  0.10543E-02 -0.26460E-02 -0.92512E-02
  0.18419E-02 -0.23736E-02 -0.92512E-02
  0.24561E-02 -0.21521E-02 -0.92512E-02
  0.26032E-02 -0.15090E-02 -0.92512E-02
  0.37964E-02  0.93572E-03 -0.92512E-02
  0.39100E-02  0.00000E+00 -0.92512E-02
  0.34621E-02  0.18171E-02 -0.92512E-02
  0.29267E-02  0.25928E-02 -0.92512E-02
  0.22211E-02  0.32179E-02 -0.92512E-02
  0.13865E-02  0.36559E-02 -0.92512E-02
  0.47130E-03  0.38815E-02 -0.92512E-02
 -0.47130E-03  0.38815E-02 -0.92512E-02
 -0.13865E-02  0.36559E-02 -0.92512E-02
 -0.22211E-02  0.32179E-02 -0.92512E-02
 -0.29267E-02  0.25928E-02 -0.92512E-02
 -0.34621E-02  0.18171E-02 -0.92512E-02
 -0.37964E-02  0.93572E-03 -0.92512E-02
 -0.39100E-02  0.22152E-17 -0.92512E-02
 -0.37964E-02 -0.93572E-03 -0.92512E-02
 -0.34621E-02 -0.18171E-02 -0.92512E-02
 -0.29267E-02 -0.25928E-02 -0.92512E-02
 -0.22211E-02 -0.32179E-02 -0.92512E-02
 -0.13865E-02 -0.36559E-02 -0.92512E-02
 -0.47130E-03 -0.38815E-02 -0.92512E-02
  0.47130E-03 -0.38815E-02 -0.92512E-02
  0.13865E-02 -0.36559E-02 -0.92512E-02
  0.22211E-02 -0.32179E-02 -0.92512E-02
  0.29267E-02 -0.25928E-02 -0.92512E-02
  0.34621E-02 -0.18171E-02 -0.92512E-02
  0.37964E-02 -0.93572E-03 -0.92512E-02
  0.10360E-02  0.68124E-03 -0.82720E-02
  0.17425E-02  0.12407E-02 -0.82720E-02
  0.23158E-02  0.59936E-03 -0.82720E-02
  0.16666E-02 -0.32643E-03 -0.82720E-02
  0.30373E-02  0.15427E-03 -0.82720E-02
  0.27842E-02 -0.66903E-03 -0.82720E-02
  0.12835E-02  0.18440E-02 -0.82720E-02
  0.64771E-03  0.14727E-02 -0.82720E-02
  0.12363E-03  0.31656E-03 -0.82720E-02
 -0.13100E-03  0.11935E-02 -0.82720E-02
  0.94003E-03  0.22767E-02 -0.82720E-02
  0.11276E-02  0.28220E-02 -0.82720E-02
  0.17432E-02  0.24260E-02 -0.82720E-02
  0.40507E-03  0.21690E-02 -0.82720E-02
  0.39754E-03  0.29327E-02 -0.82720E-02
 -0.76834E-03 -0.10054E-02 -0.82720E-02
 -0.86767E-03  0.91108E-04 -0.82720E-02
  0.45447E-03 -0.69229E-03 -0.82720E-02
 -0.18344E-02 -0.70985E-03 -0.82720E-02
 -0.18426E-02  0.84602E-04 -0.82720E-02
 -0.27234E-02 -0.77610E-03 -0.82720E-02
 -0.27987E-02  0.44813E-04 -0.82720E-02
 -0.25388E-02 -0.15187E-02 -0.82720E-02
 -0.19352E-02 -0.13215E-02 -0.82720E-02
 -0.99147E-03  0.10088E-02 -0.82720E-02
 -0.14433E-02 -0.17319E-02 -0.82720E-02
 -0.31274E-03  0.20262E-02 -0.82720E-02
 -0.11016E-02  0.18595E-02 -0.82720E-02
 -0.18838E-02  0.17175E-02 -0.82720E-02
 -0.18694E-02  0.91300E-03 -0.82720E-02
 -0.16284E-03 -0.19804E-02 -0.82720E-02
 -0.94986E-03 -0.23493E-02 -0.82720E-02
  0.77865E-03 -0.17073E-02 -0.82720E-02
  0.17205E-02 -0.14931E-02 -0.82720E-02
  0.32099E-02  0.77544E-03 -0.82720E-02
  0.28042E-02  0.12541E-02 -0.82720E-02
  0.23042E-02  0.18671E-02 -0.82720E-02
 -0.40407E-03  0.28877E-02 -0.82720E-02
 -0.12093E-02  0.27137E-02 -0.82720E-02
 -0.19442E-02  0.24609E-02 -0.82720E-02
 -0.25024E-02  0.22358E-02 -0.82720E-02
 -0.26358E-02  0.16503E-02 -0.82720E-02
 -0.27624E-02  0.87885E-03 -0.82720E-02
 -0.21144E-02 -0.21374E-02 -0.82720E-02
 -0.16094E-02 -0.26934E-02 -0.82720E-02
 -0.11956E-02 -0.31291E-02 -0.82720E-02
 -0.59165E-03 -0.30382E-02 -0.82720E-02
  0.20302E-03 -0.28750E-02 -0.82720E-02
  0.10540E-02 -0.26463E-02 -0.82720E-02
  0.18419E-02 -0.23738E-02 -0.82720E-02
  0.24563E-02 -0.21527E-02 -0.82720E-02
  0.26033E-02 -0.15088E-02 -0.82720E-02
  0.37964E-02  0.93572E-03 -0.82720E-02
  0.39100E-02  0.00000E+00 -0.82720E-02
  0.34621E-02  0.18171E-02 -0.82720E-02
  0.29267E-02  0.25928E-02 -0.82720E-02
  0.22211E-02  0.32179E-02 -0.82720E-02
  0.13865E-02  0.36559E-02 -0.82720E-02
  0.47130E-03  0.38815E-02 -0.82720E-02
 -0.47130E-03  0.38815E-02 -0.82720E-02
 -0.13865E-02  0.36559E-02 -0.82720E-02
 -0.22211E-02  0.32179E-02 -0.82720E-02
 -0.29267E-02  0.25928E-02 -0.82720E-02
 -0.34621E-02  0.18171E-02 -0.82720E-02
 -0.37964E-02  0.93572E-03 -0.82720E-02
 -0.39100E-02 -0.47884E-18 -0.82720E-02
 -0.37964E-02 -0.93572E-03 -0.82720E-02
 -0.34621E-02 -0.18171E-02 -0.82720E-02
 -0.29267E-02 -0.25928E-02 -0.82720E-02
 -0.22211E-02 -0.32179E-02 -0.82720E-02
 -0.13865E-02 -0.36559E-02 -0.82720E-02
 -0.47130E-03 -0.38815E-02 -0.82720E-02
  0.47130E-03 -0.38815E-02 -0.82720E-02
  0.13865E-02 -0.36559E-02 -0.82720E-02
  0.22211E-02 -0.32179E-02 -0.82720E-02
  0.29267E-02 -0.25928E-02 -0.82720E-02
  0.34621E-02 -0.18171E-02 -0.82720E-02
  0.37964E-02 -0.93572E-03 -0.82720E-02
  0.10359E-02  0.68179E-03 -0.72928E-02
  0.17423E-02  0.12414E-02 -0.72928E-02
  0.23157E-02  0.59988E-03 -0.72928E-02
  0.16664E-02 -0.32568E-03 -0.72928E-02
  0.30373E-02  0.15463E-03 -0.72928E-02
  0.27846E-02 -0.66854E-03 -0.72928E-02
  0.12834E-02  0.18442E-02 -0.72928E-02
  0.64747E-03  0.14736E-02 -0.72928E-02
  0.12337E-03  0.31770E-03 -0.72928E-02
 -0.13118E-03  0.11952E-02 -0.72928E-02
  0.93970E-03  0.22768E-02 -0.72928E-02
  0.11272E-02  0.28216E-02 -0.72928E-02
  0.17428E-02  0.24261E-02 -0.72928E-02
  0.40501E-03  0.21690E-02 -0.72928E-02
  0.39752E-03  0.29324E-02 -0.72928E-02
 -0.76869E-03 -0.10056E-02 -0.72928E-02
 -0.86778E-03  0.91918E-04 -0.72928E-02
  0.45402E-03 -0.69156E-03 -0.72928E-02
 -0.18347E-02 -0.70971E-03 -0.72928E-02
 -0.18425E-02  0.84726E-04 -0.72928E-02
 -0.27234E-02 -0.77593E-03 -0.72928E-02
 -0.27984E-02  0.45086E-04 -0.72928E-02
 -0.25389E-02 -0.15187E-02 -0.72928E-02
 -0.19356E-02 -0.13213E-02 -0.72928E-02
 -0.99133E-03  0.10102E-02 -0.72928E-02
 -0.14436E-02 -0.17318E-02 -0.72928E-02
 -0.31254E-03  0.20265E-02 -0.72928E-02
 -0.11013E-02  0.18594E-02 -0.72928E-02
 -0.18837E-02  0.17175E-02 -0.72928E-02
 -0.18692E-02  0.91324E-03 -0.72928E-02
 -0.16311E-03 -0.19804E-02 -0.72928E-02
 -0.95046E-03 -0.23493E-02 -0.72928E-02
  0.77799E-03 -0.17073E-02 -0.72928E-02
  0.17204E-02 -0.14933E-02 -0.72928E-02
  0.32102E-02  0.77645E-03 -0.72928E-02
  0.28042E-02  0.12545E-02 -0.72928E-02
  0.23041E-02  0.18671E-02 -0.72928E-02
 -0.40393E-03  0.28867E-02 -0.72928E-02
 -0.12093E-02  0.27132E-02 -0.72928E-02
 -0.19442E-02  0.24606E-02 -0.72928E-02
 -0.25024E-02  0.22358E-02 -0.72928E-02
 -0.26357E-02  0.16503E-02 -0.72928E-02
 -0.27621E-02  0.87912E-03 -0.72928E-02
 -0.21146E-02 -0.21374E-02 -0.72928E-02
 -0.16094E-02 -0.26935E-02 -0.72928E-02
 -0.11957E-02 -0.31291E-02 -0.72928E-02
 -0.59200E-03 -0.30381E-02 -0.72928E-02
  0.20262E-03 -0.28750E-02 -0.72928E-02
  0.10536E-02 -0.26466E-02 -0.72928E-02
  0.18420E-02 -0.23740E-02 -0.72928E-02
  0.24564E-02 -0.21533E-02 -0.72928E-02
  0.26033E-02 -0.15087E-02 -0.72928E-02
  0.37964E-02  0.93572E-03 -0.72928E-02
  0.39100E-02  0.00000E+00 -0.72928E-02
  0.34621E-02  0.18171E-02 -0.72928E-02
  0.29267E-02  0.25928E-02 -0.72928E-02
  0.22211E-02  0.32179E-02 -0.72928E-02
  0.13865E-02  0.36559E-02 -0.72928E-02
  0.47130E-03  0.38815E-02 -0.72928E-02
 -0.47130E-03  0.38815E-02 -0.72928E-02
 -0.13865E-02  0.36559E-02 -0.72928E-02
 -0.22211E-02  0.32179E-02 -0.72928E-02
 -0.29267E-02  0.25928E-02 -0.72928E-02
 -0.34621E-02  0.18171E-02 -0.72928E-02
 -0.37964E-02  0.93572E-03 -0.72928E-02
 -0.39100E-02 -0.47884E-18 -0.72928E-02
 -0.37964E-02 -0.93572E-03 -0.72928E-02
 -0.34621E-02 -0.18171E-02 -0.72928E-02
 -0.29267E-02 -0.25928E-02 -0.72928E-02
 -0.22211E-02 -0.32179E-02 -0.72928E-02
 -0.13865E-02 -0.36559E-02 -0.72928E-02
 -0.47130E-03 -0.38815E-02 -0.72928E-02
  0.47130E-03 -0.38815E-02 -0.72928E-02
  0.13865E-02 -0.36559E-02 -0.72928E-02
  0.22211E-02 -0.32179E-02 -0.72928E-02
  0.29267E-02 -0.25928E-02 -0.72928E-02
  0.34621E-02 -0.18171E-02 -0.72928E-02
  0.37964E-02 -0.93572E-03 -0.72928E-02
  0.10358E-02  0.68235E-03 -0.63137E-02
  0.17422E-02  0.12421E-02 -0.63137E-02
  0.23156E-02  0.60041E-03 -0.63137E-02
  0.16662E-02 -0.32493E-03 -0.63137E-02
  0.30373E-02  0.15500E-03 -0.63137E-02
  0.27849E-02 -0.66805E-03 -0.63137E-02
  0.12833E-02  0.18444E-02 -0.63137E-02
  0.64722E-03  0.14747E-02 -0.63137E-02
  0.12311E-03  0.31885E-03 -0.63137E-02
 -0.13137E-03  0.11970E-02 -0.63137E-02
  0.93937E-03  0.22770E-02 -0.63137E-02
  0.11269E-02  0.28211E-02 -0.63137E-02
  0.17424E-02  0.24262E-02 -0.63137E-02
  0.40496E-03  0.21691E-02 -0.63137E-02
  0.39750E-03  0.29322E-02 -0.63137E-02
 -0.76904E-03 -0.10057E-02 -0.63137E-02
 -0.86789E-03  0.92727E-04 -0.63137E-02
  0.45358E-03 -0.69084E-03 -0.63137E-02
 -0.18350E-02 -0.70957E-03 -0.63137E-02
 -0.18424E-02  0.84849E-04 -0.63137E-02
 -0.27233E-02 -0.77576E-03 -0.63137E-02
 -0.27981E-02  0.45359E-04 -0.63137E-02
 -0.25391E-02 -0.15186E-02 -0.63137E-02
 -0.19360E-02 -0.13212E-02 -0.63137E-02
 -0.99118E-03  0.10115E-02 -0.63137E-02
 -0.14440E-02 -0.17318E-02 -0.63137E-02
 -0.31234E-03  0.20268E-02 -0.63137E-02
 -0.11009E-02  0.18593E-02 -0.63137E-02
 -0.18836E-02  0.17175E-02 -0.63137E-02
 -0.18691E-02  0.91347E-03 -0.63137E-02
 -0.16339E-03 -0.19804E-02 -0.63137E-02
 -0.95106E-03 -0.23493E-02 -0.63137E-02
  0.77733E-03 -0.17073E-02 -0.63137E-02
  0.17204E-02 -0.14936E-02 -0.63137E-02
  0.32105E-02  0.77745E-03 -0.63137E-02
  0.28042E-02  0.12550E-02 -0.63137E-02
  0.23040E-02  0.18671E-02 -0.63137E-02
 -0.40379E-03  0.28856E-02 -0.63137E-02
 -0.12093E-02  0.27127E-02 -0.63137E-02
 -0.19441E-02  0.24604E-02 -0.63137E-02
 -0.25023E-02  0.22358E-02 -0.63137E-02
 -0.26356E-02  0.16503E-02 -0.63137E-02
 -0.27618E-02  0.87938E-03 -0.63137E-02
 -0.21147E-02 -0.21374E-02 -0.63137E-02
 -0.16094E-02 -0.26935E-02 -0.63137E-02
 -0.11958E-02 -0.31291E-02 -0.63137E-02
 -0.59235E-03 -0.30381E-02 -0.63137E-02
  0.20221E-03 -0.28750E-02 -0.63137E-02
  0.10533E-02 -0.26468E-02 -0.63137E-02
  0.18420E-02 -0.23742E-02 -0.63137E-02
  0.24565E-02 -0.21538E-02 -0.63137E-02
  0.26034E-02 -0.15086E-02 -0.63137E-02
  0.37964E-02  0.93572E-03 -0.63137E-02
  0.39100E-02  0.00000E+00 -0.63137E-02
  0.34621E-02  0.18171E-02 -0.63137E-02
  0.29267E-02  0.25928E-02 -0.63137E-02
  0.22211E-02  0.32179E-02 -0.63137E-02
  0.13865E-02  0.36559E-02 -0.63137E-02
  0.47130E-03  0.38815E-02 -0.63137E-02
 -0.47130E-03  0.38815E-02 -0.63137E-02
 -0.13865E-02  0.36559E-02 -0.63137E-02
 -0.22211E-02  0.32179E-02 -0.63137E-02
 -0.29267E-02  0.25928E-02 -0.63137E-02
 -0.34621E-02  0.18171E-02 -0.63137E-02
 -0.37964E-02  0.93572E-03 -0.63137E-02
 -0.39100E-02 -0.47884E-18 -0.63137E-02
 -0.37964E-02 -0.93572E-03 -0.63137E-02
 -0.34621E-02 -0.18171E-02 -0.63137E-02
 -0.29267E-02 -0.25928E-02 -0.63137E-02
 -0.22211E-02 -0.32179E-02 -0.63137E-02
 -0.13865E-02 -0.36559E-02 -0.63137E-02
 -0.47130E-03 -0.38815E-02 -0.63137E-02
  0.47130E-03 -0.38815E-02 -0.63137E-02
  0.13865E-02 -0.36559E-02 -0.63137E-02
  0.22211E-02 -0.32179E-02 -0.63137E-02
  0.29267E-02 -0.25928E-02 -0.63137E-02
  0.34621E-02 -0.18171E-02 -0.63137E-02
  0.37964E-02 -0.93572E-03 -0.63137E-02
  0.10357E-02  0.68290E-03 -0.53345E-02
  0.17420E-02  0.12427E-02 -0.53345E-02
  0.23155E-02  0.60093E-03 -0.53345E-02
  0.16660E-02 -0.32417E-03 -0.53345E-02
  0.30372E-02  0.15536E-03 -0.53345E-02
  0.27853E-02 -0.66755E-03 -0.53345E-02
  0.12832E-02  0.18445E-02 -0.53345E-02
  0.64698E-03  0.14757E-02 -0.53345E-02
  0.12285E-03  0.32000E-03 -0.53345E-02
 -0.13155E-03  0.11987E-02 -0.53345E-02
  0.93903E-03  0.22771E-02 -0.53345E-02
  0.11266E-02  0.28207E-02 -0.53345E-02
  0.17420E-02  0.24264E-02 -0.53345E-02
  0.40490E-03  0.21691E-02 -0.53345E-02
  0.39749E-03  0.29319E-02 -0.53345E-02
 -0.76940E-03 -0.10058E-02 -0.53345E-02
 -0.86800E-03  0.93536E-04 -0.53345E-02
  0.45313E-03 -0.69011E-03 -0.53345E-02
 -0.18353E-02 -0.70943E-03 -0.53345E-02
 -0.18423E-02  0.84973E-04 -0.53345E-02
 -0.27233E-02 -0.77559E-03 -0.53345E-02
 -0.27979E-02  0.45633E-04 -0.53345E-02
 -0.25393E-02 -0.15186E-02 -0.53345E-02
 -0.19365E-02 -0.13212E-02 -0.53345E-02
 -0.99104E-03  0.10129E-02 -0.53345E-02
 -0.14443E-02 -0.17318E-02 -0.53345E-02
 -0.31214E-03  0.20271E-02 -0.53345E-02
 -0.11006E-02  0.18592E-02 -0.53345E-02
 -0.18836E-02  0.17175E-02 -0.53345E-02
 -0.18690E-02  0.91371E-03 -0.53345E-02
 -0.16366E-03 -0.19805E-02 -0.53345E-02
 -0.95166E-03 -0.23493E-02 -0.53345E-02
  0.77667E-03 -0.17073E-02 -0.53345E-02
  0.17203E-02 -0.14938E-02 -0.53345E-02
  0.32109E-02  0.77846E-03 -0.53345E-02
  0.28042E-02  0.12554E-02 -0.53345E-02
  0.23039E-02  0.18672E-02 -0.53345E-02
 -0.40365E-03  0.28845E-02 -0.53345E-02
 -0.12093E-02  0.27122E-02 -0.53345E-02
 -0.19441E-02  0.24602E-02 -0.53345E-02
 -0.25023E-02  0.22358E-02 -0.53345E-02
 -0.26355E-02  0.16502E-02 -0.53345E-02
 -0.27615E-02  0.87964E-03 -0.53345E-02
 -0.21148E-02 -0.21374E-02 -0.53345E-02
 -0.16095E-02 -0.26935E-02 -0.53345E-02
 -0.11960E-02 -0.31291E-02 -0.53345E-02
 -0.59270E-03 -0.30381E-02 -0.53345E-02
  0.20180E-03 -0.28750E-02 -0.53345E-02
  0.10530E-02 -0.26471E-02 -0.53345E-02
  0.18421E-02 -0.23744E-02 -0.53345E-02
  0.24566E-02 -0.21543E-02 -0.53345E-02
  0.26035E-02 -0.15085E-02 -0.53345E-02
  0.37964E-02  0.93572E-03 -0.53345E-02
  0.39100E-02  0.00000E+00 -0.53345E-02
  0.34621E-02  0.18171E-02 -0.53345E-02
  0.29267E-02  0.25928E-02 -0.53345E-02
  0.22211E-02  0.32179E-02 -0.53345E-02
  0.13865E-02  0.36559E-02 -0.53345E-02
  0.47130E-03  0.38815E-02 -0.53345E-02
 -0.47130E-03  0.38815E-02 -0.53345E-02
 -0.13865E-02  0.36559E-02 -0.53345E-02
 -0.22211E-02  0.32179E-02 -0.53345E-02
 -0.29267E-02  0.25928E-02 -0.53345E-02
 -0.34621E-02  0.18171E-02 -0.53345E-02
 -0.37964E-02  0.93572E-03 -0.53345E-02
 -0.39100E-02 -0.47884E-18 -0.53345E-02
 -0.37964E-02 -0.93572E-03 -0.53345E-02
 -0.34621E-02 -0.18171E-02 -0.53345E-02
 -0.29267E-02 -0.25928E-02 -0.53345E-02
 -0.22211E-02 -0.32179E-02 -0.53345E-02
 -0.13865E-02 -0.36559E-02 -0.53345E-02
 -0.47130E-03 -0.38815E-02 -0.53345E-02
  0.47130E-03 -0.38815E-02 -0.53345E-02
  0.13865E-02 -0.36559E-02 -0.53345E-02
  0.22211E-02 -0.32179E-02 -0.53345E-02
  0.29267E-02 -0.25928E-02 -0.53345E-02
  0.34621E-02 -0.18171E-02 -0.53345E-02
  0.37964E-02 -0.93572E-03 -0.53345E-02
  0.10356E-02  0.68346E-03 -0.43553E-02
  0.17418E-02  0.12434E-02 -0.43553E-02
  0.23153E-02  0.60145E-03 -0.43553E-02
  0.16657E-02 -0.32342E-03 -0.43553E-02
  0.30372E-02  0.15572E-03 -0.43553E-02
  0.27856E-02 -0.66706E-03 -0.43553E-02
  0.12830E-02  0.18447E-02 -0.43553E-02
  0.64673E-03  0.14767E-02 -0.43553E-02
  0.12259E-03  0.32115E-03 -0.43553E-02
 -0.13174E-03  0.12005E-02 -0.43553E-02
  0.93870E-03  0.22772E-02 -0.43553E-02
  0.11262E-02  0.28203E-02 -0.43553E-02
  0.17416E-02  0.24265E-02 -0.43553E-02
  0.40485E-03  0.21691E-02 -0.43553E-02
  0.39747E-03  0.29316E-02 -0.43553E-02
 -0.76975E-03 -0.10060E-02 -0.43553E-02
 -0.86811E-03  0.94345E-04 -0.43553E-02
  0.45268E-03 -0.68939E-03 -0.43553E-02
 -0.18356E-02 -0.70929E-03 -0.43553E-02
 -0.18422E-02  0.85096E-04 -0.43553E-02
 -0.27233E-02 -0.77542E-03 -0.43553E-02
 -0.27976E-02  0.45906E-04 -0.43553E-02
 -0.25394E-02 -0.15185E-02 -0.43553E-02
 -0.19369E-02 -0.13211E-02 -0.43553E-02
 -0.99090E-03  0.10142E-02 -0.43553E-02
 -0.14446E-02 -0.17317E-02 -0.43553E-02
 -0.31194E-03  0.20274E-02 -0.43553E-02
 -0.11002E-02  0.18590E-02 -0.43553E-02
 -0.18835E-02  0.17175E-02 -0.43553E-02
 -0.18689E-02  0.91395E-03 -0.43553E-02
 -0.16394E-03 -0.19805E-02 -0.43553E-02
 -0.95226E-03 -0.23494E-02 -0.43553E-02
  0.77601E-03 -0.17073E-02 -0.43553E-02
  0.17203E-02 -0.14941E-02 -0.43553E-02
  0.32112E-02  0.77946E-03 -0.43553E-02
  0.28042E-02  0.12558E-02 -0.43553E-02
  0.23038E-02  0.18672E-02 -0.43553E-02
 -0.40352E-03  0.28835E-02 -0.43553E-02
 -0.12093E-02  0.27118E-02 -0.43553E-02
 -0.19441E-02  0.24600E-02 -0.43553E-02
 -0.25023E-02  0.22358E-02 -0.43553E-02
 -0.26354E-02  0.16502E-02 -0.43553E-02
 -0.27612E-02  0.87990E-03 -0.43553E-02
 -0.21150E-02 -0.21374E-02 -0.43553E-02
 -0.16095E-02 -0.26935E-02 -0.43553E-02
 -0.11961E-02 -0.31291E-02 -0.43553E-02
 -0.59305E-03 -0.30381E-02 -0.43553E-02
  0.20140E-03 -0.28750E-02 -0.43553E-02
  0.10527E-02 -0.26474E-02 -0.43553E-02
  0.18421E-02 -0.23746E-02 -0.43553E-02
  0.24568E-02 -0.21549E-02 -0.43553E-02
  0.26036E-02 -0.15084E-02 -0.43553E-02
  0.37964E-02  0.93572E-03 -0.43553E-02
  0.39100E-02  0.00000E+00 -0.43553E-02
  0.34621E-02  0.18171E-02 -0.43553E-02
  0.29267E-02  0.25928E-02 -0.43553E-02
  0.22211E-02  0.32179E-02 -0.43553E-02
  0.13865E-02  0.36559E-02 -0.43553E-02
  0.47130E-03  0.38815E-02 -0.43553E-02
 -0.47130E-03  0.38815E-02 -0.43553E-02
 -0.13865E-02  0.36559E-02 -0.43553E-02
 -0.22211E-02  0.32179E-02 -0.43553E-02
 -0.29267E-02  0.25928E-02 -0.43553E-02
 -0.34621E-02  0.18171E-02 -0.43553E-02
 -0.37964E-02  0.93572E-03 -0.43553E-02
 -0.39100E-02  0.22152E-17 -0.43553E-02
 -0.37964E-02 -0.93572E-03 -0.43553E-02
 -0.34621E-02 -0.18171E-02 -0.43553E-02
 -0.29267E-02 -0.25928E-02 -0.43553E-02
 -0.22211E-02 -0.32179E-02 -0.43553E-02
 -0.13865E-02 -0.36559E-02 -0.43553E-02
 -0.47130E-03 -0.38815E-02 -0.43553E-02
  0.47130E-03 -0.38815E-02 -0.43553E-02
  0.13865E-02 -0.36559E-02 -0.43553E-02
  0.22211E-02 -0.32179E-02 -0.43553E-02
  0.29267E-02 -0.25928E-02 -0.43553E-02
  0.34621E-02 -0.18171E-02 -0.43553E-02
  0.37964E-02 -0.93572E-03 -0.43553E-02
  0.10355E-02  0.68401E-03 -0.33762E-02
  0.17416E-02  0.12440E-02 -0.33762E-02
  0.23152E-02  0.60198E-03 -0.33762E-02
  0.16655E-02 -0.32266E-03 -0.33762E-02
  0.30372E-02  0.15609E-03 -0.33762E-02
  0.27860E-02 -0.66657E-03 -0.33762E-02
  0.12829E-02  0.18449E-02 -0.33762E-02
  0.64649E-03  0.14777E-02 -0.33762E-02
  0.12232E-03  0.32230E-03 -0.33762E-02
 -0.13193E-03  0.12022E-02 -0.33762E-02
  0.93837E-03  0.22774E-02 -0.33762E-02
  0.11259E-02  0.28198E-02 -0.33762E-02
  0.17412E-02  0.24267E-02 -0.33762E-02
  0.40480E-03  0.21692E-02 -0.33762E-02
  0.39745E-03  0.29314E-02 -0.33762E-02
 -0.77011E-03 -0.10061E-02 -0.33762E-02
 -0.86822E-03  0.95155E-04 -0.33762E-02
  0.45223E-03 -0.68866E-03 -0.33762E-02
 -0.18359E-02 -0.70915E-03 -0.33762E-02
 -0.18421E-02  0.85220E-04 -0.33762E-02
 -0.27232E-02 -0.77525E-03 -0.33762E-02
 -0.27973E-02  0.46180E-04 -0.33762E-02
 -0.25396E-02 -0.15185E-02 -0.33762E-02
 -0.19373E-02 -0.13210E-02 -0.33762E-02
 -0.99075E-03  0.10156E-02 -0.33762E-02
 -0.14450E-02 -0.17317E-02 -0.33762E-02
 -0.31173E-03  0.20277E-02 -0.33762E-02
 -0.10999E-02  0.18589E-02 -0.33762E-02
 -0.18835E-02  0.17175E-02 -0.33762E-02
 -0.18687E-02  0.91419E-03 -0.33762E-02
 -0.16421E-03 -0.19805E-02 -0.33762E-02
 -0.95285E-03 -0.23494E-02 -0.33762E-02
  0.77535E-03 -0.17073E-02 -0.33762E-02
  0.17202E-02 -0.14943E-02 -0.33762E-02
  0.32115E-02  0.78047E-03 -0.33762E-02
  0.28041E-02  0.12563E-02 -0.33762E-02
  0.23037E-02  0.18672E-02 -0.33762E-02
 -0.40338E-03  0.28824E-02 -0.33762E-02
 -0.12093E-02  0.27113E-02 -0.33762E-02
 -0.19440E-02  0.24597E-02 -0.33762E-02
 -0.25023E-02  0.22358E-02 -0.33762E-02
 -0.26353E-02  0.16502E-02 -0.33762E-02
 -0.27609E-02  0.88016E-03 -0.33762E-02
 -0.21151E-02 -0.21374E-02 -0.33762E-02
 -0.16096E-02 -0.26935E-02 -0.33762E-02
 -0.11962E-02 -0.31291E-02 -0.33762E-02
 -0.59340E-03 -0.30381E-02 -0.33762E-02
  0.20099E-03 -0.28751E-02 -0.33762E-02
  0.10524E-02 -0.26476E-02 -0.33762E-02
  0.18422E-02 -0.23748E-02 -0.33762E-02
  0.24569E-02 -0.21554E-02 -0.33762E-02
  0.26036E-02 -0.15083E-02 -0.33762E-02
  0.37964E-02  0.93572E-03 -0.33762E-02
  0.39100E-02  0.00000E+00 -0.33762E-02
  0.34621E-02  0.18171E-02 -0.33762E-02
  0.29267E-02  0.25928E-02 -0.33762E-02
  0.22211E-02  0.32179E-02 -0.33762E-02
  0.13865E-02  0.36559E-02 -0.33762E-02
  0.47130E-03  0.38815E-02 -0.33762E-02
 -0.47130E-03  0.38815E-02 -0.33762E-02
 -0.13865E-02  0.36559E-02 -0.33762E-02
 -0.22211E-02  0.32179E-02 -0.33762E-02
 -0.29267E-02  0.25928E-02 -0.33762E-02
 -0.34621E-02  0.18171E-02 -0.33762E-02
 -0.37964E-02  0.93572E-03 -0.33762E-02
 -0.39100E-02 -0.47884E-18 -0.33762E-02
 -0.37964E-02 -0.93572E-03 -0.33762E-02
 -0.34621E-02 -0.18171E-02 -0.33762E-02
 -0.29267E-02 -0.25928E-02 -0.33762E-02
 -0.22211E-02 -0.32179E-02 -0.33762E-02
 -0.13865E-02 -0.36559E-02 -0.33762E-02
 -0.47130E-03 -0.38815E-02 -0.33762E-02
  0.47130E-03 -0.38815E-02 -0.33762E-02
  0.13865E-02 -0.36559E-02 -0.33762E-02
  0.22211E-02 -0.32179E-02 -0.33762E-02
  0.29267E-02 -0.25928E-02 -0.33762E-02
  0.34621E-02 -0.18171E-02 -0.33762E-02
  0.37964E-02 -0.93572E-03 -0.33762E-02
  0.10354E-02  0.68457E-03 -0.23970E-02
  0.17414E-02  0.12447E-02 -0.23970E-02
  0.23151E-02  0.60250E-03 -0.23970E-02
  0.16653E-02 -0.32191E-03 -0.23970E-02
  0.30372E-02  0.15645E-03 -0.23970E-02
  0.27863E-02 -0.66607E-03 -0.23970E-02
  0.12829E-02  0.18451E-02 -0.23970E-02
  0.64624E-03  0.14787E-02 -0.23970E-02
  0.12206E-03  0.32345E-03 -0.23970E-02
 -0.13211E-03  0.12040E-02 -0.23970E-02
  0.93804E-03  0.22775E-02 -0.23970E-02
  0.11255E-02  0.28194E-02 -0.23970E-02
  0.17408E-02  0.24268E-02 -0.23970E-02
  0.40474E-03  0.21692E-02 -0.23970E-02
  0.39744E-03  0.29311E-02 -0.23970E-02
 -0.77046E-03 -0.10062E-02 -0.23970E-02
 -0.86832E-03  0.95964E-04 -0.23970E-02
  0.45179E-03 -0.68793E-03 -0.23970E-02
 -0.18362E-02 -0.70901E-03 -0.23970E-02
 -0.18420E-02  0.85343E-04 -0.23970E-02
 -0.27232E-02 -0.77507E-03 -0.23970E-02
 -0.27970E-02  0.46453E-04 -0.23970E-02
 -0.25397E-02 -0.15184E-02 -0.23970E-02
 -0.19377E-02 -0.13209E-02 -0.23970E-02
 -0.99061E-03  0.10169E-02 -0.23970E-02
 -0.14453E-02 -0.17316E-02 -0.23970E-02
 -0.31153E-03  0.20280E-02 -0.23970E-02
 -0.10995E-02  0.18588E-02 -0.23970E-02
 -0.18834E-02  0.17175E-02 -0.23970E-02
 -0.18686E-02  0.91443E-03 -0.23970E-02
 -0.16449E-03 -0.19806E-02 -0.23970E-02
 -0.95345E-03 -0.23494E-02 -0.23970E-02
  0.77469E-03 -0.17073E-02 -0.23970E-02
  0.17202E-02 -0.14945E-02 -0.23970E-02
  0.32119E-02  0.78148E-03 -0.23970E-02
  0.28041E-02  0.12567E-02 -0.23970E-02
  0.23036E-02  0.18673E-02 -0.23970E-02
 -0.40324E-03  0.28813E-02 -0.23970E-02
 -0.12093E-02  0.27108E-02 -0.23970E-02
 -0.19440E-02  0.24595E-02 -0.23970E-02
 -0.25022E-02  0.22358E-02 -0.23970E-02
 -0.26352E-02  0.16502E-02 -0.23970E-02
 -0.27606E-02  0.88043E-03 -0.23970E-02
 -0.21152E-02 -0.21374E-02 -0.23970E-02
 -0.16096E-02 -0.26936E-02 -0.23970E-02
 -0.11963E-02 -0.31291E-02 -0.23970E-02
 -0.59375E-03 -0.30381E-02 -0.23970E-02
  0.20059E-03 -0.28751E-02 -0.23970E-02
  0.10521E-02 -0.26479E-02 -0.23970E-02
  0.18422E-02 -0.23750E-02 -0.23970E-02
  0.24570E-02 -0.21560E-02 -0.23970E-02
  0.26037E-02 -0.15082E-02 -0.23970E-02
  0.37964E-02  0.93572E-03 -0.23970E-02
  0.39100E-02  0.00000E+00 -0.23970E-02
  0.34621E-02  0.18171E-02 -0.23970E-02
  0.29267E-02  0.25928E-02 -0.23970E-02
  0.22211E-02  0.32179E-02 -0.23970E-02
  0.13865E-02  0.36559E-02 -0.23970E-02
  0.47130E-03  0.38815E-02 -0.23970E-02
 -0.47130E-03  0.38815E-02 -0.23970E-02
 -0.13865E-02  0.36559E-02 -0.23970E-02
 -0.22211E-02  0.32179E-02 -0.23970E-02
 -0.29267E-02  0.25928E-02 -0.23970E-02
 -0.34621E-02  0.18171E-02 -0.23970E-02
 -0.37964E-02  0.93572E-03 -0.23970E-02
 -0.39100E-02 -0.47884E-18 -0.23970E-02
 -0.37964E-02 -0.93572E-03 -0.23970E-02
 -0.34621E-02 -0.18171E-02 -0.23970E-02
 -0.29267E-02 -0.25928E-02 -0.23970E-02
 -0.22211E-02 -0.32179E-02 -0.23970E-02
 -0.13865E-02 -0.36559E-02 -0.23970E-02
 -0.47130E-03 -0.38815E-02 -0.23970E-02
  0.47130E-03 -0.38815E-02 -0.23970E-02
  0.13865E-02 -0.36559E-02 -0.23970E-02
  0.22211E-02 -0.32179E-02 -0.23970E-02
  0.29267E-02 -0.25928E-02 -0.23970E-02
  0.34621E-02 -0.18171E-02 -0.23970E-02
  0.37964E-02 -0.93572E-03 -0.23970E-02
  0.10352E-02  0.68512E-03 -0.14179E-02
  0.17413E-02  0.12454E-02 -0.14179E-02
  0.23150E-02  0.60302E-03 -0.14179E-02
  0.16651E-02 -0.32115E-03 -0.14179E-02
  0.30371E-02  0.15681E-03 -0.14179E-02
  0.27866E-02 -0.66558E-03 -0.14179E-02
  0.12827E-02  0.18453E-02 -0.14179E-02
  0.64600E-03  0.14797E-02 -0.14179E-02
  0.12180E-03  0.32459E-03 -0.14179E-02
 -0.13230E-03  0.12058E-02 -0.14179E-02
  0.93771E-03  0.22776E-02 -0.14179E-02
  0.11252E-02  0.28189E-02 -0.14179E-02
  0.17404E-02  0.24270E-02 -0.14179E-02
  0.40469E-03  0.21693E-02 -0.14179E-02
  0.39742E-03  0.29308E-02 -0.14179E-02
 -0.77081E-03 -0.10064E-02 -0.14179E-02
 -0.86843E-03  0.96773E-04 -0.14179E-02
  0.45134E-03 -0.68721E-03 -0.14179E-02
 -0.18365E-02 -0.70887E-03 -0.14179E-02
 -0.18419E-02  0.85467E-04 -0.14179E-02
 -0.27232E-02 -0.77490E-03 -0.14179E-02
 -0.27968E-02  0.46726E-04 -0.14179E-02
 -0.25399E-02 -0.15184E-02 -0.14179E-02
 -0.19382E-02 -0.13208E-02 -0.14179E-02
 -0.99046E-03  0.10183E-02 -0.14179E-02
 -0.14457E-02 -0.17316E-02 -0.14179E-02
 -0.31133E-03  0.20283E-02 -0.14179E-02
 -0.10992E-02  0.18586E-02 -0.14179E-02
 -0.18834E-02  0.17175E-02 -0.14179E-02
 -0.18685E-02  0.91467E-03 -0.14179E-02
 -0.16476E-03 -0.19806E-02 -0.14179E-02
 -0.95405E-03 -0.23494E-02 -0.14179E-02
  0.77402E-03 -0.17073E-02 -0.14179E-02
  0.17202E-02 -0.14948E-02 -0.14179E-02
  0.32122E-02  0.78248E-03 -0.14179E-02
  0.28041E-02  0.12571E-02 -0.14179E-02
  0.23034E-02  0.18673E-02 -0.14179E-02
 -0.40310E-03  0.28802E-02 -0.14179E-02
 -0.12093E-02  0.27103E-02 -0.14179E-02
 -0.19440E-02  0.24593E-02 -0.14179E-02
 -0.25022E-02  0.22358E-02 -0.14179E-02
 -0.26351E-02  0.16502E-02 -0.14179E-02
 -0.27602E-02  0.88069E-03 -0.14179E-02
 -0.21154E-02 -0.21374E-02 -0.14179E-02
 -0.16097E-02 -0.26936E-02 -0.14179E-02
 -0.11964E-02 -0.31291E-02 -0.14179E-02
 -0.59409E-03 -0.30381E-02 -0.14179E-02
  0.20018E-03 -0.28751E-02 -0.14179E-02
  0.10518E-02 -0.26482E-02 -0.14179E-02
  0.18422E-02 -0.23752E-02 -0.14179E-02
  0.24571E-02 -0.21565E-02 -0.14179E-02
  0.26038E-02 -0.15081E-02 -0.14179E-02
  0.37964E-02  0.93572E-03 -0.14179E-02
  0.39100E-02  0.00000E+00 -0.14179E-02
  0.34621E-02  0.18171E-02 -0.14179E-02
  0.29267E-02  0.25928E-02 -0.14179E-02
  0.22211E-02  0.32179E-02 -0.14179E-02
  0.13865E-02  0.36559E-02 -0.14179E-02
  0.47130E-03  0.38815E-02 -0.14179E-02
 -0.47130E-03  0.38815E-02 -0.14179E-02
 -0.13865E-02  0.36559E-02 -0.14179E-02
 -0.22211E-02  0.32179E-02 -0.14179E-02
 -0.29267E-02  0.25928E-02 -0.14179E-02
 -0.34621E-02  0.18171E-02 -0.14179E-02
 -0.37964E-02  0.93572E-03 -0.14179E-02
 -0.39100E-02 -0.47884E-18 -0.14179E-02
 -0.37964E-02 -0.93572E-03 -0.14179E-02
 -0.34621E-02 -0.18171E-02 -0.14179E-02
 -0.29267E-02 -0.25928E-02 -0.14179E-02
 -0.22211E-02 -0.32179E-02 -0.14179E-02
 -0.13865E-02 -0.36559E-02 -0.14179E-02
 -0.47130E-03 -0.38815E-02 -0.14179E-02
  0.47130E-03 -0.38815E-02 -0.14179E-02
  0.13865E-02 -0.36559E-02 -0.14179E-02
  0.22211E-02 -0.32179E-02 -0.14179E-02
  0.29267E-02 -0.25928E-02 -0.14179E-02
  0.34621E-02 -0.18171E-02 -0.14179E-02
  0.37964E-02 -0.93572E-03 -0.14179E-02
  0.10351E-02  0.68567E-03 -0.43866E-03
  0.17411E-02  0.12460E-02 -0.43866E-03
  0.23149E-02  0.60355E-03 -0.43866E-03
  0.16649E-02 -0.32040E-03 -0.43866E-03
  0.30371E-02  0.15718E-03 -0.43866E-03
  0.27870E-02 -0.66509E-03 -0.43866E-03
  0.12826E-02  0.18455E-02 -0.43866E-03
  0.64575E-03  0.14807E-02 -0.43866E-03
  0.12154E-03  0.32574E-03 -0.43866E-03
 -0.13248E-03  0.12075E-02 -0.43866E-03
  0.93738E-03  0.22777E-02 -0.43866E-03
  0.11249E-02  0.28185E-02 -0.43866E-03
  0.17400E-02  0.24271E-02 -0.43866E-03
  0.40463E-03  0.21693E-02 -0.43866E-03
  0.39740E-03  0.29306E-02 -0.43866E-03
 -0.77117E-03 -0.10065E-02 -0.43866E-03
 -0.86854E-03  0.97583E-04 -0.43866E-03
  0.45089E-03 -0.68648E-03 -0.43866E-03
 -0.18368E-02 -0.70873E-03 -0.43866E-03
 -0.18418E-02  0.85591E-04 -0.43866E-03
 -0.27232E-02 -0.77474E-03 -0.43866E-03
 -0.27965E-02  0.47000E-04 -0.43866E-03
 -0.25400E-02 -0.15183E-02 -0.43866E-03
 -0.19386E-02 -0.13207E-02 -0.43866E-03
 -0.99032E-03  0.10197E-02 -0.43866E-03
 -0.14460E-02 -0.17316E-02 -0.43866E-03
 -0.31113E-03  0.20285E-02 -0.43866E-03
 -0.10988E-02  0.18585E-02 -0.43866E-03
 -0.18833E-02  0.17175E-02 -0.43866E-03
 -0.18683E-02  0.91491E-03 -0.43866E-03
 -0.16504E-03 -0.19806E-02 -0.43866E-03
 -0.95465E-03 -0.23495E-02 -0.43866E-03
  0.77336E-03 -0.17073E-02 -0.43866E-03
  0.17201E-02 -0.14950E-02 -0.43866E-03
  0.32125E-02  0.78348E-03 -0.43866E-03
  0.28041E-02  0.12576E-02 -0.43866E-03
  0.23033E-02  0.18674E-02 -0.43866E-03
 -0.40296E-03  0.28792E-02 -0.43866E-03
 -0.12093E-02  0.27099E-02 -0.43866E-03
 -0.19439E-02  0.24591E-02 -0.43866E-03
 -0.25022E-02  0.22358E-02 -0.43866E-03
 -0.26350E-02  0.16502E-02 -0.43866E-03
 -0.27599E-02  0.88095E-03 -0.43866E-03
 -0.21155E-02 -0.21374E-02 -0.43866E-03
 -0.16097E-02 -0.26936E-02 -0.43866E-03
 -0.11965E-02 -0.31290E-02 -0.43866E-03
 -0.59444E-03 -0.30381E-02 -0.43866E-03
  0.19977E-03 -0.28751E-02 -0.43866E-03
  0.10515E-02 -0.26484E-02 -0.43866E-03
  0.18423E-02 -0.23754E-02 -0.43866E-03
  0.24573E-02 -0.21571E-02 -0.43866E-03
  0.26039E-02 -0.15080E-02 -0.43866E-03
  0.37964E-02  0.93572E-03 -0.43866E-03
  0.39100E-02  0.00000E+00 -0.43866E-03
  0.34621E-02  0.18171E-02 -0.43866E-03
  0.29267E-02  0.25928E-02 -0.43866E-03
  0.22211E-02  0.32179E-02 -0.43866E-03
  0.13865E-02  0.36559E-02 -0.43866E-03
  0.47130E-03  0.38815E-02 -0.43866E-03
 -0.47130E-03  0.38815E-02 -0.43866E-03
 -0.13865E-02  0.36559E-02 -0.43866E-03
 -0.22211E-02  0.32179E-02 -0.43866E-03
 -0.29267E-02  0.25928E-02 -0.43866E-03
 -0.34621E-02  0.18171E-02 -0.43866E-03
 -0.37964E-02  0.93572E-03 -0.43866E-03
 -0.39100E-02  0.47884E-18 -0.43866E-03
 -0.37964E-02 -0.93572E-03 -0.43866E-03
 -0.34621E-02 -0.18171E-02 -0.43866E-03
 -0.29267E-02 -0.25928E-02 -0.43866E-03
 -0.22211E-02 -0.32179E-02 -0.43866E-03
 -0.13865E-02 -0.36559E-02 -0.43866E-03
 -0.47130E-03 -0.38815E-02 -0.43866E-03
  0.47130E-03 -0.38815E-02 -0.43866E-03
  0.13865E-02 -0.36559E-02 -0.43866E-03
  0.22211E-02 -0.32179E-02 -0.43866E-03
  0.29267E-02 -0.25928E-02 -0.43866E-03
  0.34621E-02 -0.18171E-02 -0.43866E-03
  0.37964E-02 -0.93572E-03 -0.43866E-03
  
CELLS       3486               17724
       1       0
       1       1
       1       2
       1       3
       1       4
       1       5
       1       6
       1       7
       1       8
       1       9
       1      10
       1      11
       1      12
       1      13
       1      14
       1      15
       1      16
       1      17
       1      18
       1      19
       1      20
       1      21
       1      22
       1      23
       1      24
       1      25
       1      26
       1      27
       1      28
       1      29
       1      30
       1      31
       1      32
       1      33
       1      34
       1      35
       1      36
       1      37
       1      38
       1      39
       1      40
       1      41
       1      42
       1      43
       1      44
       1      45
       1      46
       1      47
       1      48
       1      49
       1      50
       1      51
       1      52
       1      53
       1      54
       1      55
       1      56
       1      57
       1      58
       1      59
       1      60
       1      61
       1      62
       1      63
       1      64
       1      65
       1      66
       1      67
       1      68
       1      69
       1      70
       1      71
       1      72
       1      73
       1      74
       1      75
       1      76
       1      77
       1      78
       1      79
       1      80
       1      81
       1      82
       1      83
       1      84
       1      85
       1      86
       1      87
       1      88
       1      89
       1      90
       1      91
       1      92
       1      93
       1      94
       1      95
       1      96
       1      97
       1      98
       1      99
       1     100
       1     101
       1     102
       1     103
       1     104
       1     105
       1     106
       1     107
       1     108
       1     109
       1     110
       1     111
       1     112
       1     113
       1     114
       1     115
       1     116
       1     117
       1     118
       1     119
       1     120
       1     121
       1     122
       1     123
       1     124
       1     125
       1     126
       1     127
       1     128
       1     129
       1     130
       1     131
       1     132
       1     133
       1     134
       1     135
       1     136
       1     137
       1     138
       1     139
       1     140
       1     141
       1     142
       1     143
       1     144
       1     145
       1     146
       1     147
       1     148
       1     149
       1     150
       1     151
       1     152
       1     153
       1     154
       1     155
       1     156
       1     157
       1     158
       1     159
       1     160
       1     161
       1     162
       1     163
       1     164
       1     165
       1     166
       1     167
       1     168
       1     169
       1     170
       1     171
       1     172
       1     173
       1     174
       1     175
       1     176
       1     177
       1     178
       1     179
       1     180
       1     181
       1     182
       1     183
       1     184
       1     185
       1     186
       1     187
       1     188
       1     189
       1     190
       1     191
       1     192
       1     193
       1     194
       1     195
       1     196
       1     197
       1     198
       1     199
       1     200
       1     201
       1     202
       1     203
       1     204
       1     205
       1     206
       1     207
       1     208
       1     209
       1     210
       1     211
       1     212
       1     213
       1     214
       1     215
       1     216
       1     217
       1     218
       1     219
       1     220
       1     221
       1     222
       1     223
       1     224
       1     225
       1     226
       1     227
       1     228
       1     229
       1     230
       1     231
       1     232
       1     233
       1     234
       1     235
       1     236
       1     237
       1     238
       1     239
       1     240
       1     241
       1     242
       1     243
       1     244
       1     245
       1     246
       1     247
       1     248
       1     249
       1     250
       1     251
       1     252
       1     253
       1     254
       1     255
       1     256
       1     257
       1     258
       1     259
       1     260
       1     261
       1     262
       1     263
       1     264
       1     265
       1     266
       1     267
       1     268
       1     269
       1     270
       1     271
       1     272
       1     273
       1     274
       1     275
       1     276
       1     277
       1     278
       1     279
       1     280
       1     281
       1     282
       1     283
       1     284
       1     285
       1     286
       1     287
       1     288
       1     289
       1     290
       1     291
       1     292
       1     293
       1     294
       1     295
       1     296
       1     297
       1     298
       1     299
       1     300
       1     301
       1     302
       1     303
       1     304
       1     305
       1     306
       1     307
       1     308
       1     309
       1     310
       1     311
       1     312
       1     313
       1     314
       1     315
       1     316
       1     317
       1     318
       1     319
       1     320
       1     321
       1     322
       1     323
       1     324
       1     325
       1     326
       1     327
       1     328
       1     329
       1     330
       1     331
       1     332
       1     333
       1     334
       1     335
       1     336
       1     337
       1     338
       1     339
       1     340
       1     341
       1     342
       1     343
       1     344
       1     345
       1     346
       1     347
       1     348
       1     349
       1     350
       1     351
       1     352
       1     353
       1     354
       1     355
       1     356
       1     357
       1     358
       1     359
       1     360
       1     361
       1     362
       1     363
       1     364
       1     365
       1     366
       1     367
       1     368
       1     369
       1     370
       1     371
       1     372
       1     373
       1     374
       1     375
       1     376
       1     377
       1     378
       1     379
       1     380
       1     381
       1     382
       1     383
       1     384
       1     385
       1     386
       1     387
       1     388
       1     389
       1     390
       1     391
       1     392
       1     393
       1     394
       1     395
       1     396
       1     397
       1     398
       1     399
       1     400
       1     401
       1     402
       1     403
       1     404
       1     405
       1     406
       1     407
       1     408
       1     409
       1     410
       1     411
       1     412
       1     413
       1     414
       1     415
       1     416
       1     417
       1     418
       1     419
       1     420
       1     421
       1     422
       1     423
       1     424
       1     425
       1     426
       1     427
       1     428
       1     429
       1     430
       1     431
       1     432
       1     433
       1     434
       1     435
       1     436
       1     437
       1     438
       1     439
       1     440
       1     441
       1     442
       1     443
       1     444
       1     445
       1     446
       1     447
       1     448
       1     449
       1     450
       1     451
       1     452
       1     453
       1     454
       1     455
       1     456
       1     457
       1     458
       1     459
       1     460
       1     461
       1     462
       1     463
       1     464
       1     465
       1     466
       1     467
       1     468
       1     469
       1     470
       1     471
       1     472
       1     473
       1     474
       1     475
       1     476
       1     477
       1     478
       1     479
       1     480
       1     481
       1     482
       1     483
       1     484
       1     485
       1     486
       1     487
       1     488
       1     489
       1     490
       1     491
       1     492
       1     493
       1     494
       1     495
       1     496
       1     497
       1     498
       1     499
       1     500
       1     501
       1     502
       1     503
       1     504
       1     505
       1     506
       1     507
       1     508
       1     509
       1     510
       1     511
       1     512
       1     513
       1     514
       1     515
       1     516
       1     517
       1     518
       1     519
       1     520
       1     521
       1     522
       1     523
       1     524
       1     525
       1     526
       1     527
       1     528
       1     529
       1     530
       1     531
       1     532
       1     533
       1     534
       1     535
       1     536
       1     537
       1     538
       1     539
       1     540
       1     541
       1     542
       1     543
       1     544
       1     545
       1     546
       1     547
       1     548
       1     549
       1     550
       1     551
       1     552
       1     553
       1     554
       1     555
       1     556
       1     557
       1     558
       1     559
       1     560
       1     561
       1     562
       1     563
       1     564
       1     565
       1     566
       1     567
       1     568
       1     569
       1     570
       1     571
       1     572
       1     573
       1     574
       1     575
       1     576
       1     577
       1     578
       1     579
       1     580
       1     581
       1     582
       1     583
       1     584
       1     585
       1     586
       1     587
       1     588
       1     589
       1     590
       1     591
       1     592
       1     593
       1     594
       1     595
       1     596
       1     597
       1     598
       1     599
       1     600
       1     601
       1     602
       1     603
       1     604
       1     605
       1     606
       1     607
       1     608
       1     609
       1     610
       1     611
       1     612
       1     613
       1     614
       1     615
       1     616
       1     617
       1     618
       1     619
       1     620
       1     621
       1     622
       1     623
       1     624
       1     625
       1     626
       1     627
       1     628
       1     629
       1     630
       1     631
       1     632
       1     633
       1     634
       1     635
       1     636
       1     637
       1     638
       1     639
       1     640
       1     641
       1     642
       1     643
       1     644
       1     645
       1     646
       1     647
       1     648
       1     649
       1     650
       1     651
       1     652
       1     653
       1     654
       1     655
       1     656
       1     657
       1     658
       1     659
       1     660
       1     661
       1     662
       1     663
       1     664
       1     665
       1     666
       1     667
       1     668
       1     669
       1     670
       1     671
       1     672
       1     673
       1     674
       1     675
       1     676
       1     677
       1     678
       1     679
       1     680
       1     681
       1     682
       1     683
       1     684
       1     685
       1     686
       1     687
       1     688
       1     689
       1     690
       1     691
       1     692
       1     693
       1     694
       1     695
       1     696
       1     697
       1     698
       1     699
       1     700
       1     701
       1     702
       1     703
       1     704
       1     705
       1     706
       1     707
       1     708
       1     709
       1     710
       1     711
       1     712
       1     713
       1     714
       1     715
       1     716
       1     717
       1     718
       1     719
       1     720
       1     721
       1     722
       1     723
       1     724
       1     725
       1     726
       1     727
       1     728
       1     729
       1     730
       1     731
       1     732
       1     733
       1     734
       1     735
       1     736
       1     737
       1     738
       1     739
       1     740
       1     741
       1     742
       1     743
       1     744
       1     745
       1     746
       1     747
       1     748
       1     749
       1     750
       1     751
       1     752
       1     753
       1     754
       1     755
       1     756
       1     757
       1     758
       1     759
       1     760
       1     761
       1     762
       1     763
       1     764
       1     765
       1     766
       1     767
       1     768
       1     769
       1     770
       1     771
       1     772
       1     773
       1     774
       1     775
       1     776
       1     777
       1     778
       1     779
       1     780
       1     781
       1     782
       1     783
       1     784
       1     785
       1     786
       1     787
       1     788
       1     789
       1     790
       1     791
       1     792
       1     793
       1     794
       1     795
       1     796
       1     797
       1     798
       1     799
       1     800
       1     801
       1     802
       1     803
       1     804
       1     805
       1     806
       1     807
       1     808
       1     809
       1     810
       1     811
       1     812
       1     813
       1     814
       1     815
       1     816
       1     817
       1     818
       1     819
       1     820
       1     821
       1     822
       1     823
       1     824
       1     825
       1     826
       1     827
       1     828
       1     829
       1     830
       1     831
       1     832
       1     833
       1     834
       1     835
       1     836
       1     837
       1     838
       1     839
       1     840
       1     841
       1     842
       1     843
       1     844
       1     845
       1     846
       1     847
       1     848
       1     849
       1     850
       1     851
       1     852
       1     853
       1     854
       1     855
       1     856
       1     857
       1     858
       1     859
       1     860
       1     861
       1     862
       1     863
       1     864
       1     865
       1     866
       1     867
       1     868
       1     869
       1     870
       1     871
       1     872
       1     873
       1     874
       1     875
       1     876
       1     877
       1     878
       1     879
       1     880
       1     881
       1     882
       1     883
       1     884
       1     885
       1     886
       1     887
       1     888
       1     889
       1     890
       1     891
       1     892
       1     893
       1     894
       1     895
       1     896
       1     897
       1     898
       1     899
       1     900
       1     901
       1     902
       1     903
       1     904
       1     905
       1     906
       1     907
       1     908
       1     909
       1     910
       1     911
       1     912
       1     913
       1     914
       1     915
       1     916
       1     917
       1     918
       1     919
       1     920
       1     921
       1     922
       1     923
       1     924
       1     925
       1     926
       1     927
       1     928
       1     929
       1     930
       1     931
       1     932
       1     933
       1     934
       1     935
       1     936
       1     937
       1     938
       1     939
       1     940
       1     941
       1     942
       1     943
       1     944
       1     945
       1     946
       1     947
       1     948
       1     949
       1     950
       1     951
       1     952
       1     953
       1     954
       1     955
       1     956
       1     957
       1     958
       1     959
       1     960
       1     961
       1     962
       1     963
       1     964
       1     965
       1     966
       1     967
       1     968
       1     969
       1     970
       1     971
       1     972
       1     973
       1     974
       1     975
       1     976
       1     977
       1     978
       1     979
       1     980
       1     981
       1     982
       1     983
       1     984
       1     985
       1     986
       1     987
       1     988
       1     989
       1     990
       1     991
       1     992
       1     993
       1     994
       1     995
       1     996
       1     997
       1     998
       1     999
       1    1000
       1    1001
       1    1002
       1    1003
       1    1004
       1    1005
       1    1006
       1    1007
       1    1008
       1    1009
       1    1010
       1    1011
       1    1012
       1    1013
       1    1014
       1    1015
       1    1016
       1    1017
       1    1018
       1    1019
       1    1020
       1    1021
       1    1022
       1    1023
       1    1024
       1    1025
       1    1026
       1    1027
       1    1028
       1    1029
       1    1030
       1    1031
       1    1032
       1    1033
       1    1034
       1    1035
       1    1036
       1    1037
       1    1038
       1    1039
       1    1040
       1    1041
       1    1042
       1    1043
       1    1044
       1    1045
       1    1046
       1    1047
       1    1048
       1    1049
       1    1050
       1    1051
       1    1052
       1    1053
       1    1054
       1    1055
       1    1056
       1    1057
       1    1058
       1    1059
       1    1060
       1    1061
       1    1062
       1    1063
       1    1064
       1    1065
       1    1066
       1    1067
       1    1068
       1    1069
       1    1070
       1    1071
       1    1072
       1    1073
       1    1074
       1    1075
       1    1076
       1    1077
       1    1078
       1    1079
       1    1080
       1    1081
       1    1082
       1    1083
       1    1084
       1    1085
       1    1086
       1    1087
       1    1088
       1    1089
       1    1090
       1    1091
       1    1092
       1    1093
       1    1094
       1    1095
       1    1096
       1    1097
       1    1098
       1    1099
       1    1100
       1    1101
       1    1102
       1    1103
       1    1104
       1    1105
       1    1106
       1    1107
       1    1108
       1    1109
       1    1110
       1    1111
       1    1112
       1    1113
       1    1114
       1    1115
       1    1116
       1    1117
       1    1118
       1    1119
       1    1120
       1    1121
       1    1122
       1    1123
       1    1124
       1    1125
       1    1126
       1    1127
       1    1128
       1    1129
       1    1130
       1    1131
       1    1132
       1    1133
       1    1134
       1    1135
       1    1136
       1    1137
       1    1138
       1    1139
       1    1140
       1    1141
       1    1142
       1    1143
       1    1144
       1    1145
       1    1146
       1    1147
       1    1148
       1    1149
       1    1150
       1    1151
       1    1152
       1    1153
       1    1154
       1    1155
       1    1156
       1    1157
       1    1158
       1    1159
       1    1160
       1    1161
       1    1162
       1    1163
       1    1164
       1    1165
       1    1166
       1    1167
       1    1168
       1    1169
       1    1170
       1    1171
       1    1172
       1    1173
       1    1174
       1    1175
       1    1176
       1    1177
       1    1178
       1    1179
       1    1180
       1    1181
       1    1182
       1    1183
       1    1184
       1    1185
       1    1186
       1    1187
       1    1188
       1    1189
       1    1190
       1    1191
       1    1192
       1    1193
       1    1194
       1    1195
       1    1196
       1    1197
       1    1198
       1    1199
       1    1200
       1    1201
       1    1202
       1    1203
       1    1204
       1    1205
       1    1206
       1    1207
       1    1208
       1    1209
       1    1210
       1    1211
       1    1212
       1    1213
       1    1214
       1    1215
       1    1216
       1    1217
       1    1218
       1    1219
       1    1220
       1    1221
       1    1222
       1    1223
       1    1224
       1    1225
       1    1226
       1    1227
       1    1228
       1    1229
       1    1230
       1    1231
       1    1232
       1    1233
       1    1234
       1    1235
       1    1236
       1    1237
       1    1238
       1    1239
       1    1240
       1    1241
       1    1242
       1    1243
       1    1244
       1    1245
       1    1246
       1    1247
       1    1248
       1    1249
       1    1250
       1    1251
       1    1252
       1    1253
       1    1254
       1    1255
       1    1256
       1    1257
       1    1258
       1    1259
       1    1260
       1    1261
       1    1262
       1    1263
       1    1264
       1    1265
       1    1266
       1    1267
       1    1268
       1    1269
       1    1270
       1    1271
       1    1272
       1    1273
       1    1274
       1    1275
       1    1276
       1    1277
       1    1278
       1    1279
       1    1280
       1    1281
       1    1282
       1    1283
       1    1284
       1    1285
       1    1286
       1    1287
       1    1288
       1    1289
       1    1290
       1    1291
       1    1292
       1    1293
       1    1294
       1    1295
       1    1296
       1    1297
       1    1298
       1    1299
       1    1300
       1    1301
       1    1302
       1    1303
       1    1304
       1    1305
       1    1306
       1    1307
       1    1308
       1    1309
       1    1310
       1    1311
       1    1312
       1    1313
       1    1314
       1    1315
       1    1316
       1    1317
       1    1318
       1    1319
       1    1320
       1    1321
       1    1322
       1    1323
       1    1324
       1    1325
       1    1326
       1    1327
       1    1328
       1    1329
       1    1330
       1    1331
       1    1332
       1    1333
       1    1334
       1    1335
       1    1336
       1    1337
       1    1338
       1    1339
       1    1340
       1    1341
       1    1342
       1    1343
       1    1344
       1    1345
       1    1346
       1    1347
       1    1348
       1    1349
       1    1350
       1    1351
       1    1352
       1    1353
       1    1354
       1    1355
       1    1356
       1    1357
       1    1358
       1    1359
       1    1360
       1    1361
       1    1362
       1    1363
       1    1364
       1    1365
       1    1366
       1    1367
       1    1368
       1    1369
       1    1370
       1    1371
       1    1372
       1    1373
       1    1374
       1    1375
       1    1376
       1    1377
       1    1378
       1    1379
       1    1380
       1    1381
       1    1382
       1    1383
       1    1384
       1    1385
       1    1386
       1    1387
       1    1388
       1    1389
       1    1390
       1    1391
       1    1392
       1    1393
       1    1394
       1    1395
       1    1396
       1    1397
       1    1398
       1    1399
       1    1400
       1    1401
       1    1402
       1    1403
       1    1404
       1    1405
       1    1406
       1    1407
       1    1408
       1    1409
       1    1410
       1    1411
       1    1412
       1    1413
       1    1414
       1    1415
       1    1416
       1    1417
       1    1418
       1    1419
       1    1420
       1    1421
       1    1422
       1    1423
       1    1424
       1    1425
       1    1426
       1    1427
       1    1428
       1    1429
       1    1430
       1    1431
       1    1432
       1    1433
       1    1434
       1    1435
       1    1436
       1    1437
       1    1438
       1    1439
       1    1440
       1    1441
       1    1442
       1    1443
       1    1444
       1    1445
       1    1446
       1    1447
       1    1448
       1    1449
       1    1450
       1    1451
       1    1452
       1    1453
       1    1454
       1    1455
       1    1456
       1    1457
       1    1458
       1    1459
       1    1460
       1    1461
       1    1462
       1    1463
       1    1464
       1    1465
       1    1466
       1    1467
       1    1468
       1    1469
       1    1470
       1    1471
       1    1472
       1    1473
       1    1474
       1    1475
       1    1476
       1    1477
       1    1478
       1    1479
       1    1480
       1    1481
       1    1482
       1    1483
       1    1484
       1    1485
       1    1486
       1    1487
       1    1488
       1    1489
       1    1490
       1    1491
       1    1492
       1    1493
       1    1494
       1    1495
       1    1496
       1    1497
       1    1498
       1    1499
       1    1500
       1    1501
       1    1502
       1    1503
       1    1504
       1    1505
       1    1506
       1    1507
       1    1508
       1    1509
       1    1510
       1    1511
       1    1512
       1    1513
       1    1514
       1    1515
       1    1516
       1    1517
       1    1518
       1    1519
       1    1520
       1    1521
       1    1522
       1    1523
       1    1524
       1    1525
       1    1526
       1    1527
       1    1528
       1    1529
       1    1530
       1    1531
       1    1532
       1    1533
       1    1534
       1    1535
       1    1536
       1    1537
       1    1538
       1    1539
       1    1540
       1    1541
       1    1542
       1    1543
       1    1544
       1    1545
       1    1546
       1    1547
       1    1548
       1    1549
       1    1550
       1    1551
       1    1552
       1    1553
       1    1554
       1    1555
       1    1556
       1    1557
       1    1558
       1    1559
       1    1560
       1    1561
       1    1562
       1    1563
       1    1564
       1    1565
       1    1566
       1    1567
       1    1568
       1    1569
       1    1570
       1    1571
       1    1572
       1    1573
       1    1574
       1    1575
       1    1576
       1    1577
       1    1578
       1    1579
       1    1580
       1    1581
       1    1582
       1    1583
       1    1584
       1    1585
       1    1586
       1    1587
       1    1588
       1    1589
       1    1590
       1    1591
       1    1592
       1    1593
       1    1594
       1    1595
       1    1596
       1    1597
       1    1598
       1    1599
       1    1600
       1    1601
       1    1602
       1    1603
       1    1604
       1    1605
       1    1606
       1    1607
       1    1608
       1    1609
       1    1610
       1    1611
       1    1612
       1    1613
       1    1614
       1    1615
       1    1616
       1    1617
       1    1618
       1    1619
       1    1620
       1    1621
       1    1622
       1    1623
       1    1624
       1    1625
       1    1626
       1    1627
       1    1628
       1    1629
       1    1630
       1    1631
       1    1632
       1    1633
       1    1634
       1    1635
       1    1636
       1    1637
       1    1638
       1    1639
       1    1640
       1    1641
       1    1642
       1    1643
       1    1644
       1    1645
       1    1646
       1    1647
       1    1648
       1    1649
       1    1650
       1    1651
       1    1652
       1    1653
       1    1654
       1    1655
       1    1656
       1    1657
       1    1658
       1    1659
       1    1660
       1    1661
       1    1662
       1    1663
       1    1664
       1    1665
       1    1666
       1    1667
       1    1668
       1    1669
       1    1670
       1    1671
       1    1672
       1    1673
       1    1674
       1    1675
       1    1676
       1    1677
       1    1678
       1    1679
       1    1680
       1    1681
       1    1682
       1    1683
       1    1684
       1    1685
       1    1686
       1    1687
       1    1688
       1    1689
       1    1690
       1    1691
       1    1692
       1    1693
       1    1694
       1    1695
       1    1696
       1    1697
       1    1698
       1    1699
       1    1700
       1    1701
       1    1702
       1    1703
       1    1704
       1    1705
       1    1706
       1    1707
       1    1708
       1    1709
       1    1710
       1    1711
       1    1712
       1    1713
       1    1714
       1    1715
       1    1716
       1    1717
       1    1718
       1    1719
       1    1720
       1    1721
       1    1722
       1    1723
       1    1724
       1    1725
       1    1726
       1    1727
       1    1728
       1    1729
       1    1730
       1    1731
       1    1732
       1    1733
       1    1734
       1    1735
       1    1736
       1    1737
       1    1738
       1    1739
       1    1740
       1    1741
       1    1742
       1    1743
       1    1744
       1    1745
       1    1746
       1    1747
       1    1748
       1    1749
       1    1750
       1    1751
       1    1752
       1    1753
       1    1754
       1    1755
       1    1756
       1    1757
       1    1758
       1    1759
       1    1760
       1    1761
       1    1762
       1    1763
       1    1764
       1    1765
       1    1766
       1    1767
       1    1768
       1    1769
       1    1770
       1    1771
       1    1772
       1    1773
       1    1774
       1    1775
       1    1776
       1    1777
       1    1778
       1    1779
       1    1780
       1    1781
       1    1782
       1    1783
       1    1784
       1    1785
       1    1786
       1    1787
       1    1788
       1    1789
       1    1790
       1    1791
       1    1792
       1    1793
       1    1794
       1    1795
       1    1796
       1    1797
       1    1798
       1    1799
       1    1800
       1    1801
       1    1802
       1    1803
       1    1804
       1    1805
       1    1806
       1    1807
       1    1808
       1    1809
       1    1810
       1    1811
       1    1812
       1    1813
       1    1814
       1    1815
       1    1816
       1    1817
       1    1818
       1    1819
       1    1820
       1    1821
       1    1822
       1    1823
       1    1824
       1    1825
       1    1826
       1    1827
       1    1828
       1    1829
       1    1830
       1    1831
       1    1832
       1    1833
       1    1834
       1    1835
       1    1836
       1    1837
       1    1838
       1    1839
       1    1840
       1    1841
       1    1842
       1    1843
       1    1844
       1    1845
       1    1846
       1    1847
       1    1848
       1    1849
       1    1850
       1    1851
       1    1852
       1    1853
       1    1854
       1    1855
       1    1856
       1    1857
       1    1858
       1    1859
       1    1860
       1    1861
       1    1862
       1    1863
       1    1864
       1    1865
       1    1866
       1    1867
       1    1868
       1    1869
       1    1870
       1    1871
       1    1872
       1    1873
       1    1874
       1    1875
       1    1876
       1    1877
       1    1878
       1    1879
       1    1880
       1    1881
       1    1882
       1    1883
       1    1884
       1    1885
       1    1886
       1    1887
       1    1888
       1    1889
       1    1890
       1    1891
       1    1892
       1    1893
       1    1894
       1    1895
       1    1896
       1    1897
       1    1898
       1    1899
       1    1900
       1    1901
       1    1902
       1    1903
       1    1904
       1    1905
       1    1906
       1    1907
       1    1908
       1    1909
       1    1910
       1    1911
       1    1912
       1    1913
       1    1914
       1    1915
       1    1916
       1    1917
       1    1918
       1    1919
       1    1920
       1    1921
       1    1922
       1    1923
       1    1924
       1    1925
       1    1926
       1    1927
       1    1928
       1    1929
       1    1930
       1    1931
       1    1932
       1    1933
       1    1934
       1    1935
       1    1936
       1    1937
       1    1938
       1    1939
       1    1940
       1    1941
       1    1942
       1    1943
       1    1944
       1    1945
       1    1946
       1    1947
       1    1948
       1    1949
       8       0       1       2       3       4       5       6       7
       8       2       8       9       3       6      10      11       7
       8      12       1       0      13      14       5       4      15
       8       0      16      17      13       4      18      19      15
       8      20      21      22      12      23      24      25      14
       8      26      27      21      20      28      29      24      23
       8      13      26      20      12      15      28      23      14
       8      30      31      16      32      33      34      18      35
       8      36      37      31      30      38      39      34      33
       8      40      41      37      36      42      43      39      38
       8      44      40      36      45      46      42      38      47
       8      48      17      16      31      49      19      18      34
       8      30      50      45      36      33      51      47      38
       8       0       3      32      16       4       7      35      18
       8      52      26      13      17      53      28      15      19
       8      54      52      17      48      55      53      19      49
       8      56      54      48      57      58      55      49      59
       8      37      57      48      31      39      59      49      34
       8      60      61      50      30      62      63      51      33
       8      64      60      30      32      65      62      33      35
       8      66      64      32       3      67      65      35       7
       8      68       8       2      69      70      10       6      71
       8      72      69       2       1      73      71       6       5
       8      22      72       1      12      25      73       5      14
       8      74      27      26      52      75      29      28      53
       8      76      74      52      54      77      75      53      55
       8      78      76      54      56      79      77      55      58
       8      80      78      56      81      82      79      58      83
       8      84      81      56      57      85      83      58      59
       8      41      84      57      37      43      85      59      39
       8      86      44      45      50      87      46      47      51
       8      88      86      50      61      89      87      51      63
       8      90      88      61      91      92      89      63      93
       8      94      91      61      60      95      93      63      62
       8      96      94      60      64      97      95      62      65
       8      98      96      64      66      99      97      65      67
       8     100      98      66     101     102      99      67     103
       8       9     101      66       3      11     103      67       7
       8     104     105       8      68     106     107      10      70
       8     108     104      68      69     109     106      70      71
       8     110     108      69      72     111     109      71      73
       8     112     110      72      22     113     111      73      25
       8     114     112      22      21     115     113      25      24
       8     116     114      21      27     117     115      24      29
       8     118     116      27      74     119     117      29      75
       8     120     118      74      76     121     119      75      77
       8     122     120      76      78     123     121      77      79
       8     124     122      78      80     125     123      79      82
       8     126     124      80      81     127     125      82      83
       8     128     126      81      84     129     127      83      85
       8     130     128      84      41     131     129      85      43
       8     132     130      41      40     133     131      43      42
       8     134     132      40      44     135     133      42      46
       8     136     134      44      86     137     135      46      87
       8     138     136      86      88     139     137      87      89
       8     140     138      88      90     141     139      89      92
       8     142     140      90      91     143     141      92      93
       8     144     142      91      94     145     143      93      95
       8     146     144      94      96     147     145      95      97
       8     148     146      96      98     149     147      97      99
       8     150     148      98     100     151     149      99     102
       8     152     150     100     101     153     151     102     103
       8     154     152     101       9     155     153     103      11
       8     105     154       9       8     107     155      11      10
       8     156     157     158     159       0       1       2       3
       8     158     160     161     159       2       8       9       3
       8     162     157     156     163      12       1       0      13
       8     156     164     165     163       0      16      17      13
       8     166     167     168     162      20      21      22      12
       8     169     170     167     166      26      27      21      20
       8     163     169     166     162      13      26      20      12
       8     171     172     164     173      30      31      16      32
       8     174     175     172     171      36      37      31      30
       8     176     177     175     174      40      41      37      36
       8     178     176     174     179      44      40      36      45
       8     180     165     164     172      48      17      16      31
       8     171     181     179     174      30      50      45      36
       8     156     159     173     164       0       3      32      16
       8     182     169     163     165      52      26      13      17
       8     183     182     165     180      54      52      17      48
       8     184     183     180     185      56      54      48      57
       8     175     185     180     172      37      57      48      31
       8     186     187     181     171      60      61      50      30
       8     188     186     171     173      64      60      30      32
       8     189     188     173     159      66      64      32       3
       8     190     160     158     191      68       8       2      69
       8     192     191     158     157      72      69       2       1
       8     168     192     157     162      22      72       1      12
       8     193     170     169     182      74      27      26      52
       8     194     193     182     183      76      74      52      54
       8     195     194     183     184      78      76      54      56
       8     196     195     184     197      80      78      56      81
       8     198     197     184     185      84      81      56      57
       8     177     198     185     175      41      84      57      37
       8     199     178     179     181      86      44      45      50
       8     200     199     181     187      88      86      50      61
       8     201     200     187     202      90      88      61      91
       8     203     202     187     186      94      91      61      60
       8     204     203     186     188      96      94      60      64
       8     205     204     188     189      98      96      64      66
       8     206     205     189     207     100      98      66     101
       8     161     207     189     159       9     101      66       3
       8     208     209     160     190     104     105       8      68
       8     210     208     190     191     108     104      68      69
       8     211     210     191     192     110     108      69      72
       8     212     211     192     168     112     110      72      22
       8     213     212     168     167     114     112      22      21
       8     214     213     167     170     116     114      21      27
       8     215     214     170     193     118     116      27      74
       8     216     215     193     194     120     118      74      76
       8     217     216     194     195     122     120      76      78
       8     218     217     195     196     124     122      78      80
       8     219     218     196     197     126     124      80      81
       8     220     219     197     198     128     126      81      84
       8     221     220     198     177     130     128      84      41
       8     222     221     177     176     132     130      41      40
       8     223     222     176     178     134     132      40      44
       8     224     223     178     199     136     134      44      86
       8     225     224     199     200     138     136      86      88
       8     226     225     200     201     140     138      88      90
       8     227     226     201     202     142     140      90      91
       8     228     227     202     203     144     142      91      94
       8     229     228     203     204     146     144      94      96
       8     230     229     204     205     148     146      96      98
       8     231     230     205     206     150     148      98     100
       8     232     231     206     207     152     150     100     101
       8     233     232     207     161     154     152     101       9
       8     209     233     161     160     105     154       9       8
       8     234     235     236     237     156     157     158     159
       8     236     238     239     237     158     160     161     159
       8     240     235     234     241     162     157     156     163
       8     234     242     243     241     156     164     165     163
       8     244     245     246     240     166     167     168     162
       8     247     248     245     244     169     170     167     166
       8     241     247     244     240     163     169     166     162
       8     249     250     242     251     171     172     164     173
       8     252     253     250     249     174     175     172     171
       8     254     255     253     252     176     177     175     174
       8     256     254     252     257     178     176     174     179
       8     258     243     242     250     180     165     164     172
       8     249     259     257     252     171     181     179     174
       8     234     237     251     242     156     159     173     164
       8     260     247     241     243     182     169     163     165
       8     261     260     243     258     183     182     165     180
       8     262     261     258     263     184     183     180     185
       8     253     263     258     250     175     185     180     172
       8     264     265     259     249     186     187     181     171
       8     266     264     249     251     188     186     171     173
       8     267     266     251     237     189     188     173     159
       8     268     238     236     269     190     160     158     191
       8     270     269     236     235     192     191     158     157
       8     246     270     235     240     168     192     157     162
       8     271     248     247     260     193     170     169     182
       8     272     271     260     261     194     193     182     183
       8     273     272     261     262     195     194     183     184
       8     274     273     262     275     196     195     184     197
       8     276     275     262     263     198     197     184     185
       8     255     276     263     253     177     198     185     175
       8     277     256     257     259     199     178     179     181
       8     278     277     259     265     200     199     181     187
       8     279     278     265     280     201     200     187     202
       8     281     280     265     264     203     202     187     186
       8     282     281     264     266     204     203     186     188
       8     283     282     266     267     205     204     188     189
       8     284     283     267     285     206     205     189     207
       8     239     285     267     237     161     207     189     159
       8     286     287     238     268     208     209     160     190
       8     288     286     268     269     210     208     190     191
       8     289     288     269     270     211     210     191     192
       8     290     289     270     246     212     211     192     168
       8     291     290     246     245     213     212     168     167
       8     292     291     245     248     214     213     167     170
       8     293     292     248     271     215     214     170     193
       8     294     293     271     272     216     215     193     194
       8     295     294     272     273     217     216     194     195
       8     296     295     273     274     218     217     195     196
       8     297     296     274     275     219     218     196     197
       8     298     297     275     276     220     219     197     198
       8     299     298     276     255     221     220     198     177
       8     300     299     255     254     222     221     177     176
       8     301     300     254     256     223     222     176     178
       8     302     301     256     277     224     223     178     199
       8     303     302     277     278     225     224     199     200
       8     304     303     278     279     226     225     200     201
       8     305     304     279     280     227     226     201     202
       8     306     305     280     281     228     227     202     203
       8     307     306     281     282     229     228     203     204
       8     308     307     282     283     230     229     204     205
       8     309     308     283     284     231     230     205     206
       8     310     309     284     285     232     231     206     207
       8     311     310     285     239     233     232     207     161
       8     287     311     239     238     209     233     161     160
       8     312     313     314     315     234     235     236     237
       8     314     316     317     315     236     238     239     237
       8     318     313     312     319     240     235     234     241
       8     312     320     321     319     234     242     243     241
       8     322     323     324     318     244     245     246     240
       8     325     326     323     322     247     248     245     244
       8     319     325     322     318     241     247     244     240
       8     327     328     320     329     249     250     242     251
       8     330     331     328     327     252     253     250     249
       8     332     333     331     330     254     255     253     252
       8     334     332     330     335     256     254     252     257
       8     336     321     320     328     258     243     242     250
       8     327     337     335     330     249     259     257     252
       8     312     315     329     320     234     237     251     242
       8     338     325     319     321     260     247     241     243
       8     339     338     321     336     261     260     243     258
       8     340     339     336     341     262     261     258     263
       8     331     341     336     328     253     263     258     250
       8     342     343     337     327     264     265     259     249
       8     344     342     327     329     266     264     249     251
       8     345     344     329     315     267     266     251     237
       8     346     316     314     347     268     238     236     269
       8     348     347     314     313     270     269     236     235
       8     324     348     313     318     246     270     235     240
       8     349     326     325     338     271     248     247     260
       8     350     349     338     339     272     271     260     261
       8     351     350     339     340     273     272     261     262
       8     352     351     340     353     274     273     262     275
       8     354     353     340     341     276     275     262     263
       8     333     354     341     331     255     276     263     253
       8     355     334     335     337     277     256     257     259
       8     356     355     337     343     278     277     259     265
       8     357     356     343     358     279     278     265     280
       8     359     358     343     342     281     280     265     264
       8     360     359     342     344     282     281     264     266
       8     361     360     344     345     283     282     266     267
       8     362     361     345     363     284     283     267     285
       8     317     363     345     315     239     285     267     237
       8     364     365     316     346     286     287     238     268
       8     366     364     346     347     288     286     268     269
       8     367     366     347     348     289     288     269     270
       8     368     367     348     324     290     289     270     246
       8     369     368     324     323     291     290     246     245
       8     370     369     323     326     292     291     245     248
       8     371     370     326     349     293     292     248     271
       8     372     371     349     350     294     293     271     272
       8     373     372     350     351     295     294     272     273
       8     374     373     351     352     296     295     273     274
       8     375     374     352     353     297     296     274     275
       8     376     375     353     354     298     297     275     276
       8     377     376     354     333     299     298     276     255
       8     378     377     333     332     300     299     255     254
       8     379     378     332     334     301     300     254     256
       8     380     379     334     355     302     301     256     277
       8     381     380     355     356     303     302     277     278
       8     382     381     356     357     304     303     278     279
       8     383     382     357     358     305     304     279     280
       8     384     383     358     359     306     305     280     281
       8     385     384     359     360     307     306     281     282
       8     386     385     360     361     308     307     282     283
       8     387     386     361     362     309     308     283     284
       8     388     387     362     363     310     309     284     285
       8     389     388     363     317     311     310     285     239
       8     365     389     317     316     287     311     239     238
       8     390     391     392     393     312     313     314     315
       8     392     394     395     393     314     316     317     315
       8     396     391     390     397     318     313     312     319
       8     390     398     399     397     312     320     321     319
       8     400     401     402     396     322     323     324     318
       8     403     404     401     400     325     326     323     322
       8     397     403     400     396     319     325     322     318
       8     405     406     398     407     327     328     320     329
       8     408     409     406     405     330     331     328     327
       8     410     411     409     408     332     333     331     330
       8     412     410     408     413     334     332     330     335
       8     414     399     398     406     336     321     320     328
       8     405     415     413     408     327     337     335     330
       8     390     393     407     398     312     315     329     320
       8     416     403     397     399     338     325     319     321
       8     417     416     399     414     339     338     321     336
       8     418     417     414     419     340     339     336     341
       8     409     419     414     406     331     341     336     328
       8     420     421     415     405     342     343     337     327
       8     422     420     405     407     344     342     327     329
       8     423     422     407     393     345     344     329     315
       8     424     394     392     425     346     316     314     347
       8     426     425     392     391     348     347     314     313
       8     402     426     391     396     324     348     313     318
       8     427     404     403     416     349     326     325     338
       8     428     427     416     417     350     349     338     339
       8     429     428     417     418     351     350     339     340
       8     430     429     418     431     352     351     340     353
       8     432     431     418     419     354     353     340     341
       8     411     432     419     409     333     354     341     331
       8     433     412     413     415     355     334     335     337
       8     434     433     415     421     356     355     337     343
       8     435     434     421     436     357     356     343     358
       8     437     436     421     420     359     358     343     342
       8     438     437     420     422     360     359     342     344
       8     439     438     422     423     361     360     344     345
       8     440     439     423     441     362     361     345     363
       8     395     441     423     393     317     363     345     315
       8     442     443     394     424     364     365     316     346
       8     444     442     424     425     366     364     346     347
       8     445     444     425     426     367     366     347     348
       8     446     445     426     402     368     367     348     324
       8     447     446     402     401     369     368     324     323
       8     448     447     401     404     370     369     323     326
       8     449     448     404     427     371     370     326     349
       8     450     449     427     428     372     371     349     350
       8     451     450     428     429     373     372     350     351
       8     452     451     429     430     374     373     351     352
       8     453     452     430     431     375     374     352     353
       8     454     453     431     432     376     375     353     354
       8     455     454     432     411     377     376     354     333
       8     456     455     411     410     378     377     333     332
       8     457     456     410     412     379     378     332     334
       8     458     457     412     433     380     379     334     355
       8     459     458     433     434     381     380     355     356
       8     460     459     434     435     382     381     356     357
       8     461     460     435     436     383     382     357     358
       8     462     461     436     437     384     383     358     359
       8     463     462     437     438     385     384     359     360
       8     464     463     438     439     386     385     360     361
       8     465     464     439     440     387     386     361     362
       8     466     465     440     441     388     387     362     363
       8     467     466     441     395     389     388     363     317
       8     443     467     395     394     365     389     317     316
       8     468     469     470     471     390     391     392     393
       8     470     472     473     471     392     394     395     393
       8     474     469     468     475     396     391     390     397
       8     468     476     477     475     390     398     399     397
       8     478     479     480     474     400     401     402     396
       8     481     482     479     478     403     404     401     400
       8     475     481     478     474     397     403     400     396
       8     483     484     476     485     405     406     398     407
       8     486     487     484     483     408     409     406     405
       8     488     489     487     486     410     411     409     408
       8     490     488     486     491     412     410     408     413
       8     492     477     476     484     414     399     398     406
       8     483     493     491     486     405     415     413     408
       8     468     471     485     476     390     393     407     398
       8     494     481     475     477     416     403     397     399
       8     495     494     477     492     417     416     399     414
       8     496     495     492     497     418     417     414     419
       8     487     497     492     484     409     419     414     406
       8     498     499     493     483     420     421     415     405
       8     500     498     483     485     422     420     405     407
       8     501     500     485     471     423     422     407     393
       8     502     472     470     503     424     394     392     425
       8     504     503     470     469     426     425     392     391
       8     480     504     469     474     402     426     391     396
       8     505     482     481     494     427     404     403     416
       8     506     505     494     495     428     427     416     417
       8     507     506     495     496     429     428     417     418
       8     508     507     496     509     430     429     418     431
       8     510     509     496     497     432     431     418     419
       8     489     510     497     487     411     432     419     409
       8     511     490     491     493     433     412     413     415
       8     512     511     493     499     434     433     415     421
       8     513     512     499     514     435     434     421     436
       8     515     514     499     498     437     436     421     420
       8     516     515     498     500     438     437     420     422
       8     517     516     500     501     439     438     422     423
       8     518     517     501     519     440     439     423     441
       8     473     519     501     471     395     441     423     393
       8     520     521     472     502     442     443     394     424
       8     522     520     502     503     444     442     424     425
       8     523     522     503     504     445     444     425     426
       8     524     523     504     480     446     445     426     402
       8     525     524     480     479     447     446     402     401
       8     526     525     479     482     448     447     401     404
       8     527     526     482     505     449     448     404     427
       8     528     527     505     506     450     449     427     428
       8     529     528     506     507     451     450     428     429
       8     530     529     507     508     452     451     429     430
       8     531     530     508     509     453     452     430     431
       8     532     531     509     510     454     453     431     432
       8     533     532     510     489     455     454     432     411
       8     534     533     489     488     456     455     411     410
       8     535     534     488     490     457     456     410     412
       8     536     535     490     511     458     457     412     433
       8     537     536     511     512     459     458     433     434
       8     538     537     512     513     460     459     434     435
       8     539     538     513     514     461     460     435     436
       8     540     539     514     515     462     461     436     437
       8     541     540     515     516     463     462     437     438
       8     542     541     516     517     464     463     438     439
       8     543     542     517     518     465     464     439     440
       8     544     543     518     519     466     465     440     441
       8     545     544     519     473     467     466     441     395
       8     521     545     473     472     443     467     395     394
       8     546     547     548     549     468     469     470     471
       8     548     550     551     549     470     472     473     471
       8     552     547     546     553     474     469     468     475
       8     546     554     555     553     468     476     477     475
       8     556     557     558     552     478     479     480     474
       8     559     560     557     556     481     482     479     478
       8     553     559     556     552     475     481     478     474
       8     561     562     554     563     483     484     476     485
       8     564     565     562     561     486     487     484     483
       8     566     567     565     564     488     489     487     486
       8     568     566     564     569     490     488     486     491
       8     570     555     554     562     492     477     476     484
       8     561     571     569     564     483     493     491     486
       8     546     549     563     554     468     471     485     476
       8     572     559     553     555     494     481     475     477
       8     573     572     555     570     495     494     477     492
       8     574     573     570     575     496     495     492     497
       8     565     575     570     562     487     497     492     484
       8     576     577     571     561     498     499     493     483
       8     578     576     561     563     500     498     483     485
       8     579     578     563     549     501     500     485     471
       8     580     550     548     581     502     472     470     503
       8     582     581     548     547     504     503     470     469
       8     558     582     547     552     480     504     469     474
       8     583     560     559     572     505     482     481     494
       8     584     583     572     573     506     505     494     495
       8     585     584     573     574     507     506     495     496
       8     586     585     574     587     508     507     496     509
       8     588     587     574     575     510     509     496     497
       8     567     588     575     565     489     510     497     487
       8     589     568     569     571     511     490     491     493
       8     590     589     571     577     512     511     493     499
       8     591     590     577     592     513     512     499     514
       8     593     592     577     576     515     514     499     498
       8     594     593     576     578     516     515     498     500
       8     595     594     578     579     517     516     500     501
       8     596     595     579     597     518     517     501     519
       8     551     597     579     549     473     519     501     471
       8     598     599     550     580     520     521     472     502
       8     600     598     580     581     522     520     502     503
       8     601     600     581     582     523     522     503     504
       8     602     601     582     558     524     523     504     480
       8     603     602     558     557     525     524     480     479
       8     604     603     557     560     526     525     479     482
       8     605     604     560     583     527     526     482     505
       8     606     605     583     584     528     527     505     506
       8     607     606     584     585     529     528     506     507
       8     608     607     585     586     530     529     507     508
       8     609     608     586     587     531     530     508     509
       8     610     609     587     588     532     531     509     510
       8     611     610     588     567     533     532     510     489
       8     612     611     567     566     534     533     489     488
       8     613     612     566     568     535     534     488     490
       8     614     613     568     589     536     535     490     511
       8     615     614     589     590     537     536     511     512
       8     616     615     590     591     538     537     512     513
       8     617     616     591     592     539     538     513     514
       8     618     617     592     593     540     539     514     515
       8     619     618     593     594     541     540     515     516
       8     620     619     594     595     542     541     516     517
       8     621     620     595     596     543     542     517     518
       8     622     621     596     597     544     543     518     519
       8     623     622     597     551     545     544     519     473
       8     599     623     551     550     521     545     473     472
       8     624     625     626     627     546     547     548     549
       8     626     628     629     627     548     550     551     549
       8     630     625     624     631     552     547     546     553
       8     624     632     633     631     546     554     555     553
       8     634     635     636     630     556     557     558     552
       8     637     638     635     634     559     560     557     556
       8     631     637     634     630     553     559     556     552
       8     639     640     632     641     561     562     554     563
       8     642     643     640     639     564     565     562     561
       8     644     645     643     642     566     567     565     564
       8     646     644     642     647     568     566     564     569
       8     648     633     632     640     570     555     554     562
       8     639     649     647     642     561     571     569     564
       8     624     627     641     632     546     549     563     554
       8     650     637     631     633     572     559     553     555
       8     651     650     633     648     573     572     555     570
       8     652     651     648     653     574     573     570     575
       8     643     653     648     640     565     575     570     562
       8     654     655     649     639     576     577     571     561
       8     656     654     639     641     578     576     561     563
       8     657     656     641     627     579     578     563     549
       8     658     628     626     659     580     550     548     581
       8     660     659     626     625     582     581     548     547
       8     636     660     625     630     558     582     547     552
       8     661     638     637     650     583     560     559     572
       8     662     661     650     651     584     583     572     573
       8     663     662     651     652     585     584     573     574
       8     664     663     652     665     586     585     574     587
       8     666     665     652     653     588     587     574     575
       8     645     666     653     643     567     588     575     565
       8     667     646     647     649     589     568     569     571
       8     668     667     649     655     590     589     571     577
       8     669     668     655     670     591     590     577     592
       8     671     670     655     654     593     592     577     576
       8     672     671     654     656     594     593     576     578
       8     673     672     656     657     595     594     578     579
       8     674     673     657     675     596     595     579     597
       8     629     675     657     627     551     597     579     549
       8     676     677     628     658     598     599     550     580
       8     678     676     658     659     600     598     580     581
       8     679     678     659     660     601     600     581     582
       8     680     679     660     636     602     601     582     558
       8     681     680     636     635     603     602     558     557
       8     682     681     635     638     604     603     557     560
       8     683     682     638     661     605     604     560     583
       8     684     683     661     662     606     605     583     584
       8     685     684     662     663     607     606     584     585
       8     686     685     663     664     608     607     585     586
       8     687     686     664     665     609     608     586     587
       8     688     687     665     666     610     609     587     588
       8     689     688     666     645     611     610     588     567
       8     690     689     645     644     612     611     567     566
       8     691     690     644     646     613     612     566     568
       8     692     691     646     667     614     613     568     589
       8     693     692     667     668     615     614     589     590
       8     694     693     668     669     616     615     590     591
       8     695     694     669     670     617     616     591     592
       8     696     695     670     671     618     617     592     593
       8     697     696     671     672     619     618     593     594
       8     698     697     672     673     620     619     594     595
       8     699     698     673     674     621     620     595     596
       8     700     699     674     675     622     621     596     597
       8     701     700     675     629     623     622     597     551
       8     677     701     629     628     599     623     551     550
       8     702     703     704     705     624     625     626     627
       8     704     706     707     705     626     628     629     627
       8     708     703     702     709     630     625     624     631
       8     702     710     711     709     624     632     633     631
       8     712     713     714     708     634     635     636     630
       8     715     716     713     712     637     638     635     634
       8     709     715     712     708     631     637     634     630
       8     717     718     710     719     639     640     632     641
       8     720     721     718     717     642     643     640     639
       8     722     723     721     720     644     645     643     642
       8     724     722     720     725     646     644     642     647
       8     726     711     710     718     648     633     632     640
       8     717     727     725     720     639     649     647     642
       8     702     705     719     710     624     627     641     632
       8     728     715     709     711     650     637     631     633
       8     729     728     711     726     651     650     633     648
       8     730     729     726     731     652     651     648     653
       8     721     731     726     718     643     653     648     640
       8     732     733     727     717     654     655     649     639
       8     734     732     717     719     656     654     639     641
       8     735     734     719     705     657     656     641     627
       8     736     706     704     737     658     628     626     659
       8     738     737     704     703     660     659     626     625
       8     714     738     703     708     636     660     625     630
       8     739     716     715     728     661     638     637     650
       8     740     739     728     729     662     661     650     651
       8     741     740     729     730     663     662     651     652
       8     742     741     730     743     664     663     652     665
       8     744     743     730     731     666     665     652     653
       8     723     744     731     721     645     666     653     643
       8     745     724     725     727     667     646     647     649
       8     746     745     727     733     668     667     649     655
       8     747     746     733     748     669     668     655     670
       8     749     748     733     732     671     670     655     654
       8     750     749     732     734     672     671     654     656
       8     751     750     734     735     673     672     656     657
       8     752     751     735     753     674     673     657     675
       8     707     753     735     705     629     675     657     627
       8     754     755     706     736     676     677     628     658
       8     756     754     736     737     678     676     658     659
       8     757     756     737     738     679     678     659     660
       8     758     757     738     714     680     679     660     636
       8     759     758     714     713     681     680     636     635
       8     760     759     713     716     682     681     635     638
       8     761     760     716     739     683     682     638     661
       8     762     761     739     740     684     683     661     662
       8     763     762     740     741     685     684     662     663
       8     764     763     741     742     686     685     663     664
       8     765     764     742     743     687     686     664     665
       8     766     765     743     744     688     687     665     666
       8     767     766     744     723     689     688     666     645
       8     768     767     723     722     690     689     645     644
       8     769     768     722     724     691     690     644     646
       8     770     769     724     745     692     691     646     667
       8     771     770     745     746     693     692     667     668
       8     772     771     746     747     694     693     668     669
       8     773     772     747     748     695     694     669     670
       8     774     773     748     749     696     695     670     671
       8     775     774     749     750     697     696     671     672
       8     776     775     750     751     698     697     672     673
       8     777     776     751     752     699     698     673     674
       8     778     777     752     753     700     699     674     675
       8     779     778     753     707     701     700     675     629
       8     755     779     707     706     677     701     629     628
       8     780     781     782     783     702     703     704     705
       8     782     784     785     783     704     706     707     705
       8     786     781     780     787     708     703     702     709
       8     780     788     789     787     702     710     711     709
       8     790     791     792     786     712     713     714     708
       8     793     794     791     790     715     716     713     712
       8     787     793     790     786     709     715     712     708
       8     795     796     788     797     717     718     710     719
       8     798     799     796     795     720     721     718     717
       8     800     801     799     798     722     723     721     720
       8     802     800     798     803     724     722     720     725
       8     804     789     788     796     726     711     710     718
       8     795     805     803     798     717     727     725     720
       8     780     783     797     788     702     705     719     710
       8     806     793     787     789     728     715     709     711
       8     807     806     789     804     729     728     711     726
       8     808     807     804     809     730     729     726     731
       8     799     809     804     796     721     731     726     718
       8     810     811     805     795     732     733     727     717
       8     812     810     795     797     734     732     717     719
       8     813     812     797     783     735     734     719     705
       8     814     784     782     815     736     706     704     737
       8     816     815     782     781     738     737     704     703
       8     792     816     781     786     714     738     703     708
       8     817     794     793     806     739     716     715     728
       8     818     817     806     807     740     739     728     729
       8     819     818     807     808     741     740     729     730
       8     820     819     808     821     742     741     730     743
       8     822     821     808     809     744     743     730     731
       8     801     822     809     799     723     744     731     721
       8     823     802     803     805     745     724     725     727
       8     824     823     805     811     746     745     727     733
       8     825     824     811     826     747     746     733     748
       8     827     826     811     810     749     748     733     732
       8     828     827     810     812     750     749     732     734
       8     829     828     812     813     751     750     734     735
       8     830     829     813     831     752     751     735     753
       8     785     831     813     783     707     753     735     705
       8     832     833     784     814     754     755     706     736
       8     834     832     814     815     756     754     736     737
       8     835     834     815     816     757     756     737     738
       8     836     835     816     792     758     757     738     714
       8     837     836     792     791     759     758     714     713
       8     838     837     791     794     760     759     713     716
       8     839     838     794     817     761     760     716     739
       8     840     839     817     818     762     761     739     740
       8     841     840     818     819     763     762     740     741
       8     842     841     819     820     764     763     741     742
       8     843     842     820     821     765     764     742     743
       8     844     843     821     822     766     765     743     744
       8     845     844     822     801     767     766     744     723
       8     846     845     801     800     768     767     723     722
       8     847     846     800     802     769     768     722     724
       8     848     847     802     823     770     769     724     745
       8     849     848     823     824     771     770     745     746
       8     850     849     824     825     772     771     746     747
       8     851     850     825     826     773     772     747     748
       8     852     851     826     827     774     773     748     749
       8     853     852     827     828     775     774     749     750
       8     854     853     828     829     776     775     750     751
       8     855     854     829     830     777     776     751     752
       8     856     855     830     831     778     777     752     753
       8     857     856     831     785     779     778     753     707
       8     833     857     785     784     755     779     707     706
       8     858     859     860     861     780     781     782     783
       8     860     862     863     861     782     784     785     783
       8     864     859     858     865     786     781     780     787
       8     858     866     867     865     780     788     789     787
       8     868     869     870     864     790     791     792     786
       8     871     872     869     868     793     794     791     790
       8     865     871     868     864     787     793     790     786
       8     873     874     866     875     795     796     788     797
       8     876     877     874     873     798     799     796     795
       8     878     879     877     876     800     801     799     798
       8     880     878     876     881     802     800     798     803
       8     882     867     866     874     804     789     788     796
       8     873     883     881     876     795     805     803     798
       8     858     861     875     866     780     783     797     788
       8     884     871     865     867     806     793     787     789
       8     885     884     867     882     807     806     789     804
       8     886     885     882     887     808     807     804     809
       8     877     887     882     874     799     809     804     796
       8     888     889     883     873     810     811     805     795
       8     890     888     873     875     812     810     795     797
       8     891     890     875     861     813     812     797     783
       8     892     862     860     893     814     784     782     815
       8     894     893     860     859     816     815     782     781
       8     870     894     859     864     792     816     781     786
       8     895     872     871     884     817     794     793     806
       8     896     895     884     885     818     817     806     807
       8     897     896     885     886     819     818     807     808
       8     898     897     886     899     820     819     808     821
       8     900     899     886     887     822     821     808     809
       8     879     900     887     877     801     822     809     799
       8     901     880     881     883     823     802     803     805
       8     902     901     883     889     824     823     805     811
       8     903     902     889     904     825     824     811     826
       8     905     904     889     888     827     826     811     810
       8     906     905     888     890     828     827     810     812
       8     907     906     890     891     829     828     812     813
       8     908     907     891     909     830     829     813     831
       8     863     909     891     861     785     831     813     783
       8     910     911     862     892     832     833     784     814
       8     912     910     892     893     834     832     814     815
       8     913     912     893     894     835     834     815     816
       8     914     913     894     870     836     835     816     792
       8     915     914     870     869     837     836     792     791
       8     916     915     869     872     838     837     791     794
       8     917     916     872     895     839     838     794     817
       8     918     917     895     896     840     839     817     818
       8     919     918     896     897     841     840     818     819
       8     920     919     897     898     842     841     819     820
       8     921     920     898     899     843     842     820     821
       8     922     921     899     900     844     843     821     822
       8     923     922     900     879     845     844     822     801
       8     924     923     879     878     846     845     801     800
       8     925     924     878     880     847     846     800     802
       8     926     925     880     901     848     847     802     823
       8     927     926     901     902     849     848     823     824
       8     928     927     902     903     850     849     824     825
       8     929     928     903     904     851     850     825     826
       8     930     929     904     905     852     851     826     827
       8     931     930     905     906     853     852     827     828
       8     932     931     906     907     854     853     828     829
       8     933     932     907     908     855     854     829     830
       8     934     933     908     909     856     855     830     831
       8     935     934     909     863     857     856     831     785
       8     911     935     863     862     833     857     785     784
       8     936     937     938     939     858     859     860     861
       8     938     940     941     939     860     862     863     861
       8     942     937     936     943     864     859     858     865
       8     936     944     945     943     858     866     867     865
       8     946     947     948     942     868     869     870     864
       8     949     950     947     946     871     872     869     868
       8     943     949     946     942     865     871     868     864
       8     951     952     944     953     873     874     866     875
       8     954     955     952     951     876     877     874     873
       8     956     957     955     954     878     879     877     876
       8     958     956     954     959     880     878     876     881
       8     960     945     944     952     882     867     866     874
       8     951     961     959     954     873     883     881     876
       8     936     939     953     944     858     861     875     866
       8     962     949     943     945     884     871     865     867
       8     963     962     945     960     885     884     867     882
       8     964     963     960     965     886     885     882     887
       8     955     965     960     952     877     887     882     874
       8     966     967     961     951     888     889     883     873
       8     968     966     951     953     890     888     873     875
       8     969     968     953     939     891     890     875     861
       8     970     940     938     971     892     862     860     893
       8     972     971     938     937     894     893     860     859
       8     948     972     937     942     870     894     859     864
       8     973     950     949     962     895     872     871     884
       8     974     973     962     963     896     895     884     885
       8     975     974     963     964     897     896     885     886
       8     976     975     964     977     898     897     886     899
       8     978     977     964     965     900     899     886     887
       8     957     978     965     955     879     900     887     877
       8     979     958     959     961     901     880     881     883
       8     980     979     961     967     902     901     883     889
       8     981     980     967     982     903     902     889     904
       8     983     982     967     966     905     904     889     888
       8     984     983     966     968     906     905     888     890
       8     985     984     968     969     907     906     890     891
       8     986     985     969     987     908     907     891     909
       8     941     987     969     939     863     909     891     861
       8     988     989     940     970     910     911     862     892
       8     990     988     970     971     912     910     892     893
       8     991     990     971     972     913     912     893     894
       8     992     991     972     948     914     913     894     870
       8     993     992     948     947     915     914     870     869
       8     994     993     947     950     916     915     869     872
       8     995     994     950     973     917     916     872     895
       8     996     995     973     974     918     917     895     896
       8     997     996     974     975     919     918     896     897
       8     998     997     975     976     920     919     897     898
       8     999     998     976     977     921     920     898     899
       8    1000     999     977     978     922     921     899     900
       8    1001    1000     978     957     923     922     900     879
       8    1002    1001     957     956     924     923     879     878
       8    1003    1002     956     958     925     924     878     880
       8    1004    1003     958     979     926     925     880     901
       8    1005    1004     979     980     927     926     901     902
       8    1006    1005     980     981     928     927     902     903
       8    1007    1006     981     982     929     928     903     904
       8    1008    1007     982     983     930     929     904     905
       8    1009    1008     983     984     931     930     905     906
       8    1010    1009     984     985     932     931     906     907
       8    1011    1010     985     986     933     932     907     908
       8    1012    1011     986     987     934     933     908     909
       8    1013    1012     987     941     935     934     909     863
       8     989    1013     941     940     911     935     863     862
       8    1014    1015    1016    1017     936     937     938     939
       8    1016    1018    1019    1017     938     940     941     939
       8    1020    1015    1014    1021     942     937     936     943
       8    1014    1022    1023    1021     936     944     945     943
       8    1024    1025    1026    1020     946     947     948     942
       8    1027    1028    1025    1024     949     950     947     946
       8    1021    1027    1024    1020     943     949     946     942
       8    1029    1030    1022    1031     951     952     944     953
       8    1032    1033    1030    1029     954     955     952     951
       8    1034    1035    1033    1032     956     957     955     954
       8    1036    1034    1032    1037     958     956     954     959
       8    1038    1023    1022    1030     960     945     944     952
       8    1029    1039    1037    1032     951     961     959     954
       8    1014    1017    1031    1022     936     939     953     944
       8    1040    1027    1021    1023     962     949     943     945
       8    1041    1040    1023    1038     963     962     945     960
       8    1042    1041    1038    1043     964     963     960     965
       8    1033    1043    1038    1030     955     965     960     952
       8    1044    1045    1039    1029     966     967     961     951
       8    1046    1044    1029    1031     968     966     951     953
       8    1047    1046    1031    1017     969     968     953     939
       8    1048    1018    1016    1049     970     940     938     971
       8    1050    1049    1016    1015     972     971     938     937
       8    1026    1050    1015    1020     948     972     937     942
       8    1051    1028    1027    1040     973     950     949     962
       8    1052    1051    1040    1041     974     973     962     963
       8    1053    1052    1041    1042     975     974     963     964
       8    1054    1053    1042    1055     976     975     964     977
       8    1056    1055    1042    1043     978     977     964     965
       8    1035    1056    1043    1033     957     978     965     955
       8    1057    1036    1037    1039     979     958     959     961
       8    1058    1057    1039    1045     980     979     961     967
       8    1059    1058    1045    1060     981     980     967     982
       8    1061    1060    1045    1044     983     982     967     966
       8    1062    1061    1044    1046     984     983     966     968
       8    1063    1062    1046    1047     985     984     968     969
       8    1064    1063    1047    1065     986     985     969     987
       8    1019    1065    1047    1017     941     987     969     939
       8    1066    1067    1018    1048     988     989     940     970
       8    1068    1066    1048    1049     990     988     970     971
       8    1069    1068    1049    1050     991     990     971     972
       8    1070    1069    1050    1026     992     991     972     948
       8    1071    1070    1026    1025     993     992     948     947
       8    1072    1071    1025    1028     994     993     947     950
       8    1073    1072    1028    1051     995     994     950     973
       8    1074    1073    1051    1052     996     995     973     974
       8    1075    1074    1052    1053     997     996     974     975
       8    1076    1075    1053    1054     998     997     975     976
       8    1077    1076    1054    1055     999     998     976     977
       8    1078    1077    1055    1056    1000     999     977     978
       8    1079    1078    1056    1035    1001    1000     978     957
       8    1080    1079    1035    1034    1002    1001     957     956
       8    1081    1080    1034    1036    1003    1002     956     958
       8    1082    1081    1036    1057    1004    1003     958     979
       8    1083    1082    1057    1058    1005    1004     979     980
       8    1084    1083    1058    1059    1006    1005     980     981
       8    1085    1084    1059    1060    1007    1006     981     982
       8    1086    1085    1060    1061    1008    1007     982     983
       8    1087    1086    1061    1062    1009    1008     983     984
       8    1088    1087    1062    1063    1010    1009     984     985
       8    1089    1088    1063    1064    1011    1010     985     986
       8    1090    1089    1064    1065    1012    1011     986     987
       8    1091    1090    1065    1019    1013    1012     987     941
       8    1067    1091    1019    1018     989    1013     941     940
       8    1092    1093    1094    1095    1014    1015    1016    1017
       8    1094    1096    1097    1095    1016    1018    1019    1017
       8    1098    1093    1092    1099    1020    1015    1014    1021
       8    1092    1100    1101    1099    1014    1022    1023    1021
       8    1102    1103    1104    1098    1024    1025    1026    1020
       8    1105    1106    1103    1102    1027    1028    1025    1024
       8    1099    1105    1102    1098    1021    1027    1024    1020
       8    1107    1108    1100    1109    1029    1030    1022    1031
       8    1110    1111    1108    1107    1032    1033    1030    1029
       8    1112    1113    1111    1110    1034    1035    1033    1032
       8    1114    1112    1110    1115    1036    1034    1032    1037
       8    1116    1101    1100    1108    1038    1023    1022    1030
       8    1107    1117    1115    1110    1029    1039    1037    1032
       8    1092    1095    1109    1100    1014    1017    1031    1022
       8    1118    1105    1099    1101    1040    1027    1021    1023
       8    1119    1118    1101    1116    1041    1040    1023    1038
       8    1120    1119    1116    1121    1042    1041    1038    1043
       8    1111    1121    1116    1108    1033    1043    1038    1030
       8    1122    1123    1117    1107    1044    1045    1039    1029
       8    1124    1122    1107    1109    1046    1044    1029    1031
       8    1125    1124    1109    1095    1047    1046    1031    1017
       8    1126    1096    1094    1127    1048    1018    1016    1049
       8    1128    1127    1094    1093    1050    1049    1016    1015
       8    1104    1128    1093    1098    1026    1050    1015    1020
       8    1129    1106    1105    1118    1051    1028    1027    1040
       8    1130    1129    1118    1119    1052    1051    1040    1041
       8    1131    1130    1119    1120    1053    1052    1041    1042
       8    1132    1131    1120    1133    1054    1053    1042    1055
       8    1134    1133    1120    1121    1056    1055    1042    1043
       8    1113    1134    1121    1111    1035    1056    1043    1033
       8    1135    1114    1115    1117    1057    1036    1037    1039
       8    1136    1135    1117    1123    1058    1057    1039    1045
       8    1137    1136    1123    1138    1059    1058    1045    1060
       8    1139    1138    1123    1122    1061    1060    1045    1044
       8    1140    1139    1122    1124    1062    1061    1044    1046
       8    1141    1140    1124    1125    1063    1062    1046    1047
       8    1142    1141    1125    1143    1064    1063    1047    1065
       8    1097    1143    1125    1095    1019    1065    1047    1017
       8    1144    1145    1096    1126    1066    1067    1018    1048
       8    1146    1144    1126    1127    1068    1066    1048    1049
       8    1147    1146    1127    1128    1069    1068    1049    1050
       8    1148    1147    1128    1104    1070    1069    1050    1026
       8    1149    1148    1104    1103    1071    1070    1026    1025
       8    1150    1149    1103    1106    1072    1071    1025    1028
       8    1151    1150    1106    1129    1073    1072    1028    1051
       8    1152    1151    1129    1130    1074    1073    1051    1052
       8    1153    1152    1130    1131    1075    1074    1052    1053
       8    1154    1153    1131    1132    1076    1075    1053    1054
       8    1155    1154    1132    1133    1077    1076    1054    1055
       8    1156    1155    1133    1134    1078    1077    1055    1056
       8    1157    1156    1134    1113    1079    1078    1056    1035
       8    1158    1157    1113    1112    1080    1079    1035    1034
       8    1159    1158    1112    1114    1081    1080    1034    1036
       8    1160    1159    1114    1135    1082    1081    1036    1057
       8    1161    1160    1135    1136    1083    1082    1057    1058
       8    1162    1161    1136    1137    1084    1083    1058    1059
       8    1163    1162    1137    1138    1085    1084    1059    1060
       8    1164    1163    1138    1139    1086    1085    1060    1061
       8    1165    1164    1139    1140    1087    1086    1061    1062
       8    1166    1165    1140    1141    1088    1087    1062    1063
       8    1167    1166    1141    1142    1089    1088    1063    1064
       8    1168    1167    1142    1143    1090    1089    1064    1065
       8    1169    1168    1143    1097    1091    1090    1065    1019
       8    1145    1169    1097    1096    1067    1091    1019    1018
       8    1170    1171    1172    1173    1092    1093    1094    1095
       8    1172    1174    1175    1173    1094    1096    1097    1095
       8    1176    1171    1170    1177    1098    1093    1092    1099
       8    1170    1178    1179    1177    1092    1100    1101    1099
       8    1180    1181    1182    1176    1102    1103    1104    1098
       8    1183    1184    1181    1180    1105    1106    1103    1102
       8    1177    1183    1180    1176    1099    1105    1102    1098
       8    1185    1186    1178    1187    1107    1108    1100    1109
       8    1188    1189    1186    1185    1110    1111    1108    1107
       8    1190    1191    1189    1188    1112    1113    1111    1110
       8    1192    1190    1188    1193    1114    1112    1110    1115
       8    1194    1179    1178    1186    1116    1101    1100    1108
       8    1185    1195    1193    1188    1107    1117    1115    1110
       8    1170    1173    1187    1178    1092    1095    1109    1100
       8    1196    1183    1177    1179    1118    1105    1099    1101
       8    1197    1196    1179    1194    1119    1118    1101    1116
       8    1198    1197    1194    1199    1120    1119    1116    1121
       8    1189    1199    1194    1186    1111    1121    1116    1108
       8    1200    1201    1195    1185    1122    1123    1117    1107
       8    1202    1200    1185    1187    1124    1122    1107    1109
       8    1203    1202    1187    1173    1125    1124    1109    1095
       8    1204    1174    1172    1205    1126    1096    1094    1127
       8    1206    1205    1172    1171    1128    1127    1094    1093
       8    1182    1206    1171    1176    1104    1128    1093    1098
       8    1207    1184    1183    1196    1129    1106    1105    1118
       8    1208    1207    1196    1197    1130    1129    1118    1119
       8    1209    1208    1197    1198    1131    1130    1119    1120
       8    1210    1209    1198    1211    1132    1131    1120    1133
       8    1212    1211    1198    1199    1134    1133    1120    1121
       8    1191    1212    1199    1189    1113    1134    1121    1111
       8    1213    1192    1193    1195    1135    1114    1115    1117
       8    1214    1213    1195    1201    1136    1135    1117    1123
       8    1215    1214    1201    1216    1137    1136    1123    1138
       8    1217    1216    1201    1200    1139    1138    1123    1122
       8    1218    1217    1200    1202    1140    1139    1122    1124
       8    1219    1218    1202    1203    1141    1140    1124    1125
       8    1220    1219    1203    1221    1142    1141    1125    1143
       8    1175    1221    1203    1173    1097    1143    1125    1095
       8    1222    1223    1174    1204    1144    1145    1096    1126
       8    1224    1222    1204    1205    1146    1144    1126    1127
       8    1225    1224    1205    1206    1147    1146    1127    1128
       8    1226    1225    1206    1182    1148    1147    1128    1104
       8    1227    1226    1182    1181    1149    1148    1104    1103
       8    1228    1227    1181    1184    1150    1149    1103    1106
       8    1229    1228    1184    1207    1151    1150    1106    1129
       8    1230    1229    1207    1208    1152    1151    1129    1130
       8    1231    1230    1208    1209    1153    1152    1130    1131
       8    1232    1231    1209    1210    1154    1153    1131    1132
       8    1233    1232    1210    1211    1155    1154    1132    1133
       8    1234    1233    1211    1212    1156    1155    1133    1134
       8    1235    1234    1212    1191    1157    1156    1134    1113
       8    1236    1235    1191    1190    1158    1157    1113    1112
       8    1237    1236    1190    1192    1159    1158    1112    1114
       8    1238    1237    1192    1213    1160    1159    1114    1135
       8    1239    1238    1213    1214    1161    1160    1135    1136
       8    1240    1239    1214    1215    1162    1161    1136    1137
       8    1241    1240    1215    1216    1163    1162    1137    1138
       8    1242    1241    1216    1217    1164    1163    1138    1139
       8    1243    1242    1217    1218    1165    1164    1139    1140
       8    1244    1243    1218    1219    1166    1165    1140    1141
       8    1245    1244    1219    1220    1167    1166    1141    1142
       8    1246    1245    1220    1221    1168    1167    1142    1143
       8    1247    1246    1221    1175    1169    1168    1143    1097
       8    1223    1247    1175    1174    1145    1169    1097    1096
       8    1248    1249    1250    1251    1170    1171    1172    1173
       8    1250    1252    1253    1251    1172    1174    1175    1173
       8    1254    1249    1248    1255    1176    1171    1170    1177
       8    1248    1256    1257    1255    1170    1178    1179    1177
       8    1258    1259    1260    1254    1180    1181    1182    1176
       8    1261    1262    1259    1258    1183    1184    1181    1180
       8    1255    1261    1258    1254    1177    1183    1180    1176
       8    1263    1264    1256    1265    1185    1186    1178    1187
       8    1266    1267    1264    1263    1188    1189    1186    1185
       8    1268    1269    1267    1266    1190    1191    1189    1188
       8    1270    1268    1266    1271    1192    1190    1188    1193
       8    1272    1257    1256    1264    1194    1179    1178    1186
       8    1263    1273    1271    1266    1185    1195    1193    1188
       8    1248    1251    1265    1256    1170    1173    1187    1178
       8    1274    1261    1255    1257    1196    1183    1177    1179
       8    1275    1274    1257    1272    1197    1196    1179    1194
       8    1276    1275    1272    1277    1198    1197    1194    1199
       8    1267    1277    1272    1264    1189    1199    1194    1186
       8    1278    1279    1273    1263    1200    1201    1195    1185
       8    1280    1278    1263    1265    1202    1200    1185    1187
       8    1281    1280    1265    1251    1203    1202    1187    1173
       8    1282    1252    1250    1283    1204    1174    1172    1205
       8    1284    1283    1250    1249    1206    1205    1172    1171
       8    1260    1284    1249    1254    1182    1206    1171    1176
       8    1285    1262    1261    1274    1207    1184    1183    1196
       8    1286    1285    1274    1275    1208    1207    1196    1197
       8    1287    1286    1275    1276    1209    1208    1197    1198
       8    1288    1287    1276    1289    1210    1209    1198    1211
       8    1290    1289    1276    1277    1212    1211    1198    1199
       8    1269    1290    1277    1267    1191    1212    1199    1189
       8    1291    1270    1271    1273    1213    1192    1193    1195
       8    1292    1291    1273    1279    1214    1213    1195    1201
       8    1293    1292    1279    1294    1215    1214    1201    1216
       8    1295    1294    1279    1278    1217    1216    1201    1200
       8    1296    1295    1278    1280    1218    1217    1200    1202
       8    1297    1296    1280    1281    1219    1218    1202    1203
       8    1298    1297    1281    1299    1220    1219    1203    1221
       8    1253    1299    1281    1251    1175    1221    1203    1173
       8    1300    1301    1252    1282    1222    1223    1174    1204
       8    1302    1300    1282    1283    1224    1222    1204    1205
       8    1303    1302    1283    1284    1225    1224    1205    1206
       8    1304    1303    1284    1260    1226    1225    1206    1182
       8    1305    1304    1260    1259    1227    1226    1182    1181
       8    1306    1305    1259    1262    1228    1227    1181    1184
       8    1307    1306    1262    1285    1229    1228    1184    1207
       8    1308    1307    1285    1286    1230    1229    1207    1208
       8    1309    1308    1286    1287    1231    1230    1208    1209
       8    1310    1309    1287    1288    1232    1231    1209    1210
       8    1311    1310    1288    1289    1233    1232    1210    1211
       8    1312    1311    1289    1290    1234    1233    1211    1212
       8    1313    1312    1290    1269    1235    1234    1212    1191
       8    1314    1313    1269    1268    1236    1235    1191    1190
       8    1315    1314    1268    1270    1237    1236    1190    1192
       8    1316    1315    1270    1291    1238    1237    1192    1213
       8    1317    1316    1291    1292    1239    1238    1213    1214
       8    1318    1317    1292    1293    1240    1239    1214    1215
       8    1319    1318    1293    1294    1241    1240    1215    1216
       8    1320    1319    1294    1295    1242    1241    1216    1217
       8    1321    1320    1295    1296    1243    1242    1217    1218
       8    1322    1321    1296    1297    1244    1243    1218    1219
       8    1323    1322    1297    1298    1245    1244    1219    1220
       8    1324    1323    1298    1299    1246    1245    1220    1221
       8    1325    1324    1299    1253    1247    1246    1221    1175
       8    1301    1325    1253    1252    1223    1247    1175    1174
       8    1326    1327    1328    1329    1248    1249    1250    1251
       8    1328    1330    1331    1329    1250    1252    1253    1251
       8    1332    1327    1326    1333    1254    1249    1248    1255
       8    1326    1334    1335    1333    1248    1256    1257    1255
       8    1336    1337    1338    1332    1258    1259    1260    1254
       8    1339    1340    1337    1336    1261    1262    1259    1258
       8    1333    1339    1336    1332    1255    1261    1258    1254
       8    1341    1342    1334    1343    1263    1264    1256    1265
       8    1344    1345    1342    1341    1266    1267    1264    1263
       8    1346    1347    1345    1344    1268    1269    1267    1266
       8    1348    1346    1344    1349    1270    1268    1266    1271
       8    1350    1335    1334    1342    1272    1257    1256    1264
       8    1341    1351    1349    1344    1263    1273    1271    1266
       8    1326    1329    1343    1334    1248    1251    1265    1256
       8    1352    1339    1333    1335    1274    1261    1255    1257
       8    1353    1352    1335    1350    1275    1274    1257    1272
       8    1354    1353    1350    1355    1276    1275    1272    1277
       8    1345    1355    1350    1342    1267    1277    1272    1264
       8    1356    1357    1351    1341    1278    1279    1273    1263
       8    1358    1356    1341    1343    1280    1278    1263    1265
       8    1359    1358    1343    1329    1281    1280    1265    1251
       8    1360    1330    1328    1361    1282    1252    1250    1283
       8    1362    1361    1328    1327    1284    1283    1250    1249
       8    1338    1362    1327    1332    1260    1284    1249    1254
       8    1363    1340    1339    1352    1285    1262    1261    1274
       8    1364    1363    1352    1353    1286    1285    1274    1275
       8    1365    1364    1353    1354    1287    1286    1275    1276
       8    1366    1365    1354    1367    1288    1287    1276    1289
       8    1368    1367    1354    1355    1290    1289    1276    1277
       8    1347    1368    1355    1345    1269    1290    1277    1267
       8    1369    1348    1349    1351    1291    1270    1271    1273
       8    1370    1369    1351    1357    1292    1291    1273    1279
       8    1371    1370    1357    1372    1293    1292    1279    1294
       8    1373    1372    1357    1356    1295    1294    1279    1278
       8    1374    1373    1356    1358    1296    1295    1278    1280
       8    1375    1374    1358    1359    1297    1296    1280    1281
       8    1376    1375    1359    1377    1298    1297    1281    1299
       8    1331    1377    1359    1329    1253    1299    1281    1251
       8    1378    1379    1330    1360    1300    1301    1252    1282
       8    1380    1378    1360    1361    1302    1300    1282    1283
       8    1381    1380    1361    1362    1303    1302    1283    1284
       8    1382    1381    1362    1338    1304    1303    1284    1260
       8    1383    1382    1338    1337    1305    1304    1260    1259
       8    1384    1383    1337    1340    1306    1305    1259    1262
       8    1385    1384    1340    1363    1307    1306    1262    1285
       8    1386    1385    1363    1364    1308    1307    1285    1286
       8    1387    1386    1364    1365    1309    1308    1286    1287
       8    1388    1387    1365    1366    1310    1309    1287    1288
       8    1389    1388    1366    1367    1311    1310    1288    1289
       8    1390    1389    1367    1368    1312    1311    1289    1290
       8    1391    1390    1368    1347    1313    1312    1290    1269
       8    1392    1391    1347    1346    1314    1313    1269    1268
       8    1393    1392    1346    1348    1315    1314    1268    1270
       8    1394    1393    1348    1369    1316    1315    1270    1291
       8    1395    1394    1369    1370    1317    1316    1291    1292
       8    1396    1395    1370    1371    1318    1317    1292    1293
       8    1397    1396    1371    1372    1319    1318    1293    1294
       8    1398    1397    1372    1373    1320    1319    1294    1295
       8    1399    1398    1373    1374    1321    1320    1295    1296
       8    1400    1399    1374    1375    1322    1321    1296    1297
       8    1401    1400    1375    1376    1323    1322    1297    1298
       8    1402    1401    1376    1377    1324    1323    1298    1299
       8    1403    1402    1377    1331    1325    1324    1299    1253
       8    1379    1403    1331    1330    1301    1325    1253    1252
       8    1404    1405    1406    1407    1326    1327    1328    1329
       8    1406    1408    1409    1407    1328    1330    1331    1329
       8    1410    1405    1404    1411    1332    1327    1326    1333
       8    1404    1412    1413    1411    1326    1334    1335    1333
       8    1414    1415    1416    1410    1336    1337    1338    1332
       8    1417    1418    1415    1414    1339    1340    1337    1336
       8    1411    1417    1414    1410    1333    1339    1336    1332
       8    1419    1420    1412    1421    1341    1342    1334    1343
       8    1422    1423    1420    1419    1344    1345    1342    1341
       8    1424    1425    1423    1422    1346    1347    1345    1344
       8    1426    1424    1422    1427    1348    1346    1344    1349
       8    1428    1413    1412    1420    1350    1335    1334    1342
       8    1419    1429    1427    1422    1341    1351    1349    1344
       8    1404    1407    1421    1412    1326    1329    1343    1334
       8    1430    1417    1411    1413    1352    1339    1333    1335
       8    1431    1430    1413    1428    1353    1352    1335    1350
       8    1432    1431    1428    1433    1354    1353    1350    1355
       8    1423    1433    1428    1420    1345    1355    1350    1342
       8    1434    1435    1429    1419    1356    1357    1351    1341
       8    1436    1434    1419    1421    1358    1356    1341    1343
       8    1437    1436    1421    1407    1359    1358    1343    1329
       8    1438    1408    1406    1439    1360    1330    1328    1361
       8    1440    1439    1406    1405    1362    1361    1328    1327
       8    1416    1440    1405    1410    1338    1362    1327    1332
       8    1441    1418    1417    1430    1363    1340    1339    1352
       8    1442    1441    1430    1431    1364    1363    1352    1353
       8    1443    1442    1431    1432    1365    1364    1353    1354
       8    1444    1443    1432    1445    1366    1365    1354    1367
       8    1446    1445    1432    1433    1368    1367    1354    1355
       8    1425    1446    1433    1423    1347    1368    1355    1345
       8    1447    1426    1427    1429    1369    1348    1349    1351
       8    1448    1447    1429    1435    1370    1369    1351    1357
       8    1449    1448    1435    1450    1371    1370    1357    1372
       8    1451    1450    1435    1434    1373    1372    1357    1356
       8    1452    1451    1434    1436    1374    1373    1356    1358
       8    1453    1452    1436    1437    1375    1374    1358    1359
       8    1454    1453    1437    1455    1376    1375    1359    1377
       8    1409    1455    1437    1407    1331    1377    1359    1329
       8    1456    1457    1408    1438    1378    1379    1330    1360
       8    1458    1456    1438    1439    1380    1378    1360    1361
       8    1459    1458    1439    1440    1381    1380    1361    1362
       8    1460    1459    1440    1416    1382    1381    1362    1338
       8    1461    1460    1416    1415    1383    1382    1338    1337
       8    1462    1461    1415    1418    1384    1383    1337    1340
       8    1463    1462    1418    1441    1385    1384    1340    1363
       8    1464    1463    1441    1442    1386    1385    1363    1364
       8    1465    1464    1442    1443    1387    1386    1364    1365
       8    1466    1465    1443    1444    1388    1387    1365    1366
       8    1467    1466    1444    1445    1389    1388    1366    1367
       8    1468    1467    1445    1446    1390    1389    1367    1368
       8    1469    1468    1446    1425    1391    1390    1368    1347
       8    1470    1469    1425    1424    1392    1391    1347    1346
       8    1471    1470    1424    1426    1393    1392    1346    1348
       8    1472    1471    1426    1447    1394    1393    1348    1369
       8    1473    1472    1447    1448    1395    1394    1369    1370
       8    1474    1473    1448    1449    1396    1395    1370    1371
       8    1475    1474    1449    1450    1397    1396    1371    1372
       8    1476    1475    1450    1451    1398    1397    1372    1373
       8    1477    1476    1451    1452    1399    1398    1373    1374
       8    1478    1477    1452    1453    1400    1399    1374    1375
       8    1479    1478    1453    1454    1401    1400    1375    1376
       8    1480    1479    1454    1455    1402    1401    1376    1377
       8    1481    1480    1455    1409    1403    1402    1377    1331
       8    1457    1481    1409    1408    1379    1403    1331    1330
       8    1482    1483    1484    1485    1404    1405    1406    1407
       8    1484    1486    1487    1485    1406    1408    1409    1407
       8    1488    1483    1482    1489    1410    1405    1404    1411
       8    1482    1490    1491    1489    1404    1412    1413    1411
       8    1492    1493    1494    1488    1414    1415    1416    1410
       8    1495    1496    1493    1492    1417    1418    1415    1414
       8    1489    1495    1492    1488    1411    1417    1414    1410
       8    1497    1498    1490    1499    1419    1420    1412    1421
       8    1500    1501    1498    1497    1422    1423    1420    1419
       8    1502    1503    1501    1500    1424    1425    1423    1422
       8    1504    1502    1500    1505    1426    1424    1422    1427
       8    1506    1491    1490    1498    1428    1413    1412    1420
       8    1497    1507    1505    1500    1419    1429    1427    1422
       8    1482    1485    1499    1490    1404    1407    1421    1412
       8    1508    1495    1489    1491    1430    1417    1411    1413
       8    1509    1508    1491    1506    1431    1430    1413    1428
       8    1510    1509    1506    1511    1432    1431    1428    1433
       8    1501    1511    1506    1498    1423    1433    1428    1420
       8    1512    1513    1507    1497    1434    1435    1429    1419
       8    1514    1512    1497    1499    1436    1434    1419    1421
       8    1515    1514    1499    1485    1437    1436    1421    1407
       8    1516    1486    1484    1517    1438    1408    1406    1439
       8    1518    1517    1484    1483    1440    1439    1406    1405
       8    1494    1518    1483    1488    1416    1440    1405    1410
       8    1519    1496    1495    1508    1441    1418    1417    1430
       8    1520    1519    1508    1509    1442    1441    1430    1431
       8    1521    1520    1509    1510    1443    1442    1431    1432
       8    1522    1521    1510    1523    1444    1443    1432    1445
       8    1524    1523    1510    1511    1446    1445    1432    1433
       8    1503    1524    1511    1501    1425    1446    1433    1423
       8    1525    1504    1505    1507    1447    1426    1427    1429
       8    1526    1525    1507    1513    1448    1447    1429    1435
       8    1527    1526    1513    1528    1449    1448    1435    1450
       8    1529    1528    1513    1512    1451    1450    1435    1434
       8    1530    1529    1512    1514    1452    1451    1434    1436
       8    1531    1530    1514    1515    1453    1452    1436    1437
       8    1532    1531    1515    1533    1454    1453    1437    1455
       8    1487    1533    1515    1485    1409    1455    1437    1407
       8    1534    1535    1486    1516    1456    1457    1408    1438
       8    1536    1534    1516    1517    1458    1456    1438    1439
       8    1537    1536    1517    1518    1459    1458    1439    1440
       8    1538    1537    1518    1494    1460    1459    1440    1416
       8    1539    1538    1494    1493    1461    1460    1416    1415
       8    1540    1539    1493    1496    1462    1461    1415    1418
       8    1541    1540    1496    1519    1463    1462    1418    1441
       8    1542    1541    1519    1520    1464    1463    1441    1442
       8    1543    1542    1520    1521    1465    1464    1442    1443
       8    1544    1543    1521    1522    1466    1465    1443    1444
       8    1545    1544    1522    1523    1467    1466    1444    1445
       8    1546    1545    1523    1524    1468    1467    1445    1446
       8    1547    1546    1524    1503    1469    1468    1446    1425
       8    1548    1547    1503    1502    1470    1469    1425    1424
       8    1549    1548    1502    1504    1471    1470    1424    1426
       8    1550    1549    1504    1525    1472    1471    1426    1447
       8    1551    1550    1525    1526    1473    1472    1447    1448
       8    1552    1551    1526    1527    1474    1473    1448    1449
       8    1553    1552    1527    1528    1475    1474    1449    1450
       8    1554    1553    1528    1529    1476    1475    1450    1451
       8    1555    1554    1529    1530    1477    1476    1451    1452
       8    1556    1555    1530    1531    1478    1477    1452    1453
       8    1557    1556    1531    1532    1479    1478    1453    1454
       8    1558    1557    1532    1533    1480    1479    1454    1455
       8    1559    1558    1533    1487    1481    1480    1455    1409
       8    1535    1559    1487    1486    1457    1481    1409    1408
       8    1560    1561    1562    1563    1482    1483    1484    1485
       8    1562    1564    1565    1563    1484    1486    1487    1485
       8    1566    1561    1560    1567    1488    1483    1482    1489
       8    1560    1568    1569    1567    1482    1490    1491    1489
       8    1570    1571    1572    1566    1492    1493    1494    1488
       8    1573    1574    1571    1570    1495    1496    1493    1492
       8    1567    1573    1570    1566    1489    1495    1492    1488
       8    1575    1576    1568    1577    1497    1498    1490    1499
       8    1578    1579    1576    1575    1500    1501    1498    1497
       8    1580    1581    1579    1578    1502    1503    1501    1500
       8    1582    1580    1578    1583    1504    1502    1500    1505
       8    1584    1569    1568    1576    1506    1491    1490    1498
       8    1575    1585    1583    1578    1497    1507    1505    1500
       8    1560    1563    1577    1568    1482    1485    1499    1490
       8    1586    1573    1567    1569    1508    1495    1489    1491
       8    1587    1586    1569    1584    1509    1508    1491    1506
       8    1588    1587    1584    1589    1510    1509    1506    1511
       8    1579    1589    1584    1576    1501    1511    1506    1498
       8    1590    1591    1585    1575    1512    1513    1507    1497
       8    1592    1590    1575    1577    1514    1512    1497    1499
       8    1593    1592    1577    1563    1515    1514    1499    1485
       8    1594    1564    1562    1595    1516    1486    1484    1517
       8    1596    1595    1562    1561    1518    1517    1484    1483
       8    1572    1596    1561    1566    1494    1518    1483    1488
       8    1597    1574    1573    1586    1519    1496    1495    1508
       8    1598    1597    1586    1587    1520    1519    1508    1509
       8    1599    1598    1587    1588    1521    1520    1509    1510
       8    1600    1599    1588    1601    1522    1521    1510    1523
       8    1602    1601    1588    1589    1524    1523    1510    1511
       8    1581    1602    1589    1579    1503    1524    1511    1501
       8    1603    1582    1583    1585    1525    1504    1505    1507
       8    1604    1603    1585    1591    1526    1525    1507    1513
       8    1605    1604    1591    1606    1527    1526    1513    1528
       8    1607    1606    1591    1590    1529    1528    1513    1512
       8    1608    1607    1590    1592    1530    1529    1512    1514
       8    1609    1608    1592    1593    1531    1530    1514    1515
       8    1610    1609    1593    1611    1532    1531    1515    1533
       8    1565    1611    1593    1563    1487    1533    1515    1485
       8    1612    1613    1564    1594    1534    1535    1486    1516
       8    1614    1612    1594    1595    1536    1534    1516    1517
       8    1615    1614    1595    1596    1537    1536    1517    1518
       8    1616    1615    1596    1572    1538    1537    1518    1494
       8    1617    1616    1572    1571    1539    1538    1494    1493
       8    1618    1617    1571    1574    1540    1539    1493    1496
       8    1619    1618    1574    1597    1541    1540    1496    1519
       8    1620    1619    1597    1598    1542    1541    1519    1520
       8    1621    1620    1598    1599    1543    1542    1520    1521
       8    1622    1621    1599    1600    1544    1543    1521    1522
       8    1623    1622    1600    1601    1545    1544    1522    1523
       8    1624    1623    1601    1602    1546    1545    1523    1524
       8    1625    1624    1602    1581    1547    1546    1524    1503
       8    1626    1625    1581    1580    1548    1547    1503    1502
       8    1627    1626    1580    1582    1549    1548    1502    1504
       8    1628    1627    1582    1603    1550    1549    1504    1525
       8    1629    1628    1603    1604    1551    1550    1525    1526
       8    1630    1629    1604    1605    1552    1551    1526    1527
       8    1631    1630    1605    1606    1553    1552    1527    1528
       8    1632    1631    1606    1607    1554    1553    1528    1529
       8    1633    1632    1607    1608    1555    1554    1529    1530
       8    1634    1633    1608    1609    1556    1555    1530    1531
       8    1635    1634    1609    1610    1557    1556    1531    1532
       8    1636    1635    1610    1611    1558    1557    1532    1533
       8    1637    1636    1611    1565    1559    1558    1533    1487
       8    1613    1637    1565    1564    1535    1559    1487    1486
       8    1638    1639    1640    1641    1560    1561    1562    1563
       8    1640    1642    1643    1641    1562    1564    1565    1563
       8    1644    1639    1638    1645    1566    1561    1560    1567
       8    1638    1646    1647    1645    1560    1568    1569    1567
       8    1648    1649    1650    1644    1570    1571    1572    1566
       8    1651    1652    1649    1648    1573    1574    1571    1570
       8    1645    1651    1648    1644    1567    1573    1570    1566
       8    1653    1654    1646    1655    1575    1576    1568    1577
       8    1656    1657    1654    1653    1578    1579    1576    1575
       8    1658    1659    1657    1656    1580    1581    1579    1578
       8    1660    1658    1656    1661    1582    1580    1578    1583
       8    1662    1647    1646    1654    1584    1569    1568    1576
       8    1653    1663    1661    1656    1575    1585    1583    1578
       8    1638    1641    1655    1646    1560    1563    1577    1568
       8    1664    1651    1645    1647    1586    1573    1567    1569
       8    1665    1664    1647    1662    1587    1586    1569    1584
       8    1666    1665    1662    1667    1588    1587    1584    1589
       8    1657    1667    1662    1654    1579    1589    1584    1576
       8    1668    1669    1663    1653    1590    1591    1585    1575
       8    1670    1668    1653    1655    1592    1590    1575    1577
       8    1671    1670    1655    1641    1593    1592    1577    1563
       8    1672    1642    1640    1673    1594    1564    1562    1595
       8    1674    1673    1640    1639    1596    1595    1562    1561
       8    1650    1674    1639    1644    1572    1596    1561    1566
       8    1675    1652    1651    1664    1597    1574    1573    1586
       8    1676    1675    1664    1665    1598    1597    1586    1587
       8    1677    1676    1665    1666    1599    1598    1587    1588
       8    1678    1677    1666    1679    1600    1599    1588    1601
       8    1680    1679    1666    1667    1602    1601    1588    1589
       8    1659    1680    1667    1657    1581    1602    1589    1579
       8    1681    1660    1661    1663    1603    1582    1583    1585
       8    1682    1681    1663    1669    1604    1603    1585    1591
       8    1683    1682    1669    1684    1605    1604    1591    1606
       8    1685    1684    1669    1668    1607    1606    1591    1590
       8    1686    1685    1668    1670    1608    1607    1590    1592
       8    1687    1686    1670    1671    1609    1608    1592    1593
       8    1688    1687    1671    1689    1610    1609    1593    1611
       8    1643    1689    1671    1641    1565    1611    1593    1563
       8    1690    1691    1642    1672    1612    1613    1564    1594
       8    1692    1690    1672    1673    1614    1612    1594    1595
       8    1693    1692    1673    1674    1615    1614    1595    1596
       8    1694    1693    1674    1650    1616    1615    1596    1572
       8    1695    1694    1650    1649    1617    1616    1572    1571
       8    1696    1695    1649    1652    1618    1617    1571    1574
       8    1697    1696    1652    1675    1619    1618    1574    1597
       8    1698    1697    1675    1676    1620    1619    1597    1598
       8    1699    1698    1676    1677    1621    1620    1598    1599
       8    1700    1699    1677    1678    1622    1621    1599    1600
       8    1701    1700    1678    1679    1623    1622    1600    1601
       8    1702    1701    1679    1680    1624    1623    1601    1602
       8    1703    1702    1680    1659    1625    1624    1602    1581
       8    1704    1703    1659    1658    1626    1625    1581    1580
       8    1705    1704    1658    1660    1627    1626    1580    1582
       8    1706    1705    1660    1681    1628    1627    1582    1603
       8    1707    1706    1681    1682    1629    1628    1603    1604
       8    1708    1707    1682    1683    1630    1629    1604    1605
       8    1709    1708    1683    1684    1631    1630    1605    1606
       8    1710    1709    1684    1685    1632    1631    1606    1607
       8    1711    1710    1685    1686    1633    1632    1607    1608
       8    1712    1711    1686    1687    1634    1633    1608    1609
       8    1713    1712    1687    1688    1635    1634    1609    1610
       8    1714    1713    1688    1689    1636    1635    1610    1611
       8    1715    1714    1689    1643    1637    1636    1611    1565
       8    1691    1715    1643    1642    1613    1637    1565    1564
       8    1716    1717    1718    1719    1638    1639    1640    1641
       8    1718    1720    1721    1719    1640    1642    1643    1641
       8    1722    1717    1716    1723    1644    1639    1638    1645
       8    1716    1724    1725    1723    1638    1646    1647    1645
       8    1726    1727    1728    1722    1648    1649    1650    1644
       8    1729    1730    1727    1726    1651    1652    1649    1648
       8    1723    1729    1726    1722    1645    1651    1648    1644
       8    1731    1732    1724    1733    1653    1654    1646    1655
       8    1734    1735    1732    1731    1656    1657    1654    1653
       8    1736    1737    1735    1734    1658    1659    1657    1656
       8    1738    1736    1734    1739    1660    1658    1656    1661
       8    1740    1725    1724    1732    1662    1647    1646    1654
       8    1731    1741    1739    1734    1653    1663    1661    1656
       8    1716    1719    1733    1724    1638    1641    1655    1646
       8    1742    1729    1723    1725    1664    1651    1645    1647
       8    1743    1742    1725    1740    1665    1664    1647    1662
       8    1744    1743    1740    1745    1666    1665    1662    1667
       8    1735    1745    1740    1732    1657    1667    1662    1654
       8    1746    1747    1741    1731    1668    1669    1663    1653
       8    1748    1746    1731    1733    1670    1668    1653    1655
       8    1749    1748    1733    1719    1671    1670    1655    1641
       8    1750    1720    1718    1751    1672    1642    1640    1673
       8    1752    1751    1718    1717    1674    1673    1640    1639
       8    1728    1752    1717    1722    1650    1674    1639    1644
       8    1753    1730    1729    1742    1675    1652    1651    1664
       8    1754    1753    1742    1743    1676    1675    1664    1665
       8    1755    1754    1743    1744    1677    1676    1665    1666
       8    1756    1755    1744    1757    1678    1677    1666    1679
       8    1758    1757    1744    1745    1680    1679    1666    1667
       8    1737    1758    1745    1735    1659    1680    1667    1657
       8    1759    1738    1739    1741    1681    1660    1661    1663
       8    1760    1759    1741    1747    1682    1681    1663    1669
       8    1761    1760    1747    1762    1683    1682    1669    1684
       8    1763    1762    1747    1746    1685    1684    1669    1668
       8    1764    1763    1746    1748    1686    1685    1668    1670
       8    1765    1764    1748    1749    1687    1686    1670    1671
       8    1766    1765    1749    1767    1688    1687    1671    1689
       8    1721    1767    1749    1719    1643    1689    1671    1641
       8    1768    1769    1720    1750    1690    1691    1642    1672
       8    1770    1768    1750    1751    1692    1690    1672    1673
       8    1771    1770    1751    1752    1693    1692    1673    1674
       8    1772    1771    1752    1728    1694    1693    1674    1650
       8    1773    1772    1728    1727    1695    1694    1650    1649
       8    1774    1773    1727    1730    1696    1695    1649    1652
       8    1775    1774    1730    1753    1697    1696    1652    1675
       8    1776    1775    1753    1754    1698    1697    1675    1676
       8    1777    1776    1754    1755    1699    1698    1676    1677
       8    1778    1777    1755    1756    1700    1699    1677    1678
       8    1779    1778    1756    1757    1701    1700    1678    1679
       8    1780    1779    1757    1758    1702    1701    1679    1680
       8    1781    1780    1758    1737    1703    1702    1680    1659
       8    1782    1781    1737    1736    1704    1703    1659    1658
       8    1783    1782    1736    1738    1705    1704    1658    1660
       8    1784    1783    1738    1759    1706    1705    1660    1681
       8    1785    1784    1759    1760    1707    1706    1681    1682
       8    1786    1785    1760    1761    1708    1707    1682    1683
       8    1787    1786    1761    1762    1709    1708    1683    1684
       8    1788    1787    1762    1763    1710    1709    1684    1685
       8    1789    1788    1763    1764    1711    1710    1685    1686
       8    1790    1789    1764    1765    1712    1711    1686    1687
       8    1791    1790    1765    1766    1713    1712    1687    1688
       8    1792    1791    1766    1767    1714    1713    1688    1689
       8    1793    1792    1767    1721    1715    1714    1689    1643
       8    1769    1793    1721    1720    1691    1715    1643    1642
       8    1794    1795    1796    1797    1716    1717    1718    1719
       8    1796    1798    1799    1797    1718    1720    1721    1719
       8    1800    1795    1794    1801    1722    1717    1716    1723
       8    1794    1802    1803    1801    1716    1724    1725    1723
       8    1804    1805    1806    1800    1726    1727    1728    1722
       8    1807    1808    1805    1804    1729    1730    1727    1726
       8    1801    1807    1804    1800    1723    1729    1726    1722
       8    1809    1810    1802    1811    1731    1732    1724    1733
       8    1812    1813    1810    1809    1734    1735    1732    1731
       8    1814    1815    1813    1812    1736    1737    1735    1734
       8    1816    1814    1812    1817    1738    1736    1734    1739
       8    1818    1803    1802    1810    1740    1725    1724    1732
       8    1809    1819    1817    1812    1731    1741    1739    1734
       8    1794    1797    1811    1802    1716    1719    1733    1724
       8    1820    1807    1801    1803    1742    1729    1723    1725
       8    1821    1820    1803    1818    1743    1742    1725    1740
       8    1822    1821    1818    1823    1744    1743    1740    1745
       8    1813    1823    1818    1810    1735    1745    1740    1732
       8    1824    1825    1819    1809    1746    1747    1741    1731
       8    1826    1824    1809    1811    1748    1746    1731    1733
       8    1827    1826    1811    1797    1749    1748    1733    1719
       8    1828    1798    1796    1829    1750    1720    1718    1751
       8    1830    1829    1796    1795    1752    1751    1718    1717
       8    1806    1830    1795    1800    1728    1752    1717    1722
       8    1831    1808    1807    1820    1753    1730    1729    1742
       8    1832    1831    1820    1821    1754    1753    1742    1743
       8    1833    1832    1821    1822    1755    1754    1743    1744
       8    1834    1833    1822    1835    1756    1755    1744    1757
       8    1836    1835    1822    1823    1758    1757    1744    1745
       8    1815    1836    1823    1813    1737    1758    1745    1735
       8    1837    1816    1817    1819    1759    1738    1739    1741
       8    1838    1837    1819    1825    1760    1759    1741    1747
       8    1839    1838    1825    1840    1761    1760    1747    1762
       8    1841    1840    1825    1824    1763    1762    1747    1746
       8    1842    1841    1824    1826    1764    1763    1746    1748
       8    1843    1842    1826    1827    1765    1764    1748    1749
       8    1844    1843    1827    1845    1766    1765    1749    1767
       8    1799    1845    1827    1797    1721    1767    1749    1719
       8    1846    1847    1798    1828    1768    1769    1720    1750
       8    1848    1846    1828    1829    1770    1768    1750    1751
       8    1849    1848    1829    1830    1771    1770    1751    1752
       8    1850    1849    1830    1806    1772    1771    1752    1728
       8    1851    1850    1806    1805    1773    1772    1728    1727
       8    1852    1851    1805    1808    1774    1773    1727    1730
       8    1853    1852    1808    1831    1775    1774    1730    1753
       8    1854    1853    1831    1832    1776    1775    1753    1754
       8    1855    1854    1832    1833    1777    1776    1754    1755
       8    1856    1855    1833    1834    1778    1777    1755    1756
       8    1857    1856    1834    1835    1779    1778    1756    1757
       8    1858    1857    1835    1836    1780    1779    1757    1758
       8    1859    1858    1836    1815    1781    1780    1758    1737
       8    1860    1859    1815    1814    1782    1781    1737    1736
       8    1861    1860    1814    1816    1783    1782    1736    1738
       8    1862    1861    1816    1837    1784    1783    1738    1759
       8    1863    1862    1837    1838    1785    1784    1759    1760
       8    1864    1863    1838    1839    1786    1785    1760    1761
       8    1865    1864    1839    1840    1787    1786    1761    1762
       8    1866    1865    1840    1841    1788    1787    1762    1763
       8    1867    1866    1841    1842    1789    1788    1763    1764
       8    1868    1867    1842    1843    1790    1789    1764    1765
       8    1869    1868    1843    1844    1791    1790    1765    1766
       8    1870    1869    1844    1845    1792    1791    1766    1767
       8    1871    1870    1845    1799    1793    1792    1767    1721
       8    1847    1871    1799    1798    1769    1793    1721    1720
       8    1872    1873    1874    1875    1794    1795    1796    1797
       8    1874    1876    1877    1875    1796    1798    1799    1797
       8    1878    1873    1872    1879    1800    1795    1794    1801
       8    1872    1880    1881    1879    1794    1802    1803    1801
       8    1882    1883    1884    1878    1804    1805    1806    1800
       8    1885    1886    1883    1882    1807    1808    1805    1804
       8    1879    1885    1882    1878    1801    1807    1804    1800
       8    1887    1888    1880    1889    1809    1810    1802    1811
       8    1890    1891    1888    1887    1812    1813    1810    1809
       8    1892    1893    1891    1890    1814    1815    1813    1812
       8    1894    1892    1890    1895    1816    1814    1812    1817
       8    1896    1881    1880    1888    1818    1803    1802    1810
       8    1887    1897    1895    1890    1809    1819    1817    1812
       8    1872    1875    1889    1880    1794    1797    1811    1802
       8    1898    1885    1879    1881    1820    1807    1801    1803
       8    1899    1898    1881    1896    1821    1820    1803    1818
       8    1900    1899    1896    1901    1822    1821    1818    1823
       8    1891    1901    1896    1888    1813    1823    1818    1810
       8    1902    1903    1897    1887    1824    1825    1819    1809
       8    1904    1902    1887    1889    1826    1824    1809    1811
       8    1905    1904    1889    1875    1827    1826    1811    1797
       8    1906    1876    1874    1907    1828    1798    1796    1829
       8    1908    1907    1874    1873    1830    1829    1796    1795
       8    1884    1908    1873    1878    1806    1830    1795    1800
       8    1909    1886    1885    1898    1831    1808    1807    1820
       8    1910    1909    1898    1899    1832    1831    1820    1821
       8    1911    1910    1899    1900    1833    1832    1821    1822
       8    1912    1911    1900    1913    1834    1833    1822    1835
       8    1914    1913    1900    1901    1836    1835    1822    1823
       8    1893    1914    1901    1891    1815    1836    1823    1813
       8    1915    1894    1895    1897    1837    1816    1817    1819
       8    1916    1915    1897    1903    1838    1837    1819    1825
       8    1917    1916    1903    1918    1839    1838    1825    1840
       8    1919    1918    1903    1902    1841    1840    1825    1824
       8    1920    1919    1902    1904    1842    1841    1824    1826
       8    1921    1920    1904    1905    1843    1842    1826    1827
       8    1922    1921    1905    1923    1844    1843    1827    1845
       8    1877    1923    1905    1875    1799    1845    1827    1797
       8    1924    1925    1876    1906    1846    1847    1798    1828
       8    1926    1924    1906    1907    1848    1846    1828    1829
       8    1927    1926    1907    1908    1849    1848    1829    1830
       8    1928    1927    1908    1884    1850    1849    1830    1806
       8    1929    1928    1884    1883    1851    1850    1806    1805
       8    1930    1929    1883    1886    1852    1851    1805    1808
       8    1931    1930    1886    1909    1853    1852    1808    1831
       8    1932    1931    1909    1910    1854    1853    1831    1832
       8    1933    1932    1910    1911    1855    1854    1832    1833
       8    1934    1933    1911    1912    1856    1855    1833    1834
       8    1935    1934    1912    1913    1857    1856    1834    1835
       8    1936    1935    1913    1914    1858    1857    1835    1836
       8    1937    1936    1914    1893    1859    1858    1836    1815
       8    1938    1937    1893    1892    1860    1859    1815    1814
       8    1939    1938    1892    1894    1861    1860    1814    1816
       8    1940    1939    1894    1915    1862    1861    1816    1837
       8    1941    1940    1915    1916    1863    1862    1837    1838
       8    1942    1941    1916    1917    1864    1863    1838    1839
       8    1943    1942    1917    1918    1865    1864    1839    1840
       8    1944    1943    1918    1919    1866    1865    1840    1841
       8    1945    1944    1919    1920    1867    1866    1841    1842
       8    1946    1945    1920    1921    1868    1867    1842    1843
       8    1947    1946    1921    1922    1869    1868    1843    1844
       8    1948    1947    1922    1923    1870    1869    1844    1845
       8    1949    1948    1923    1877    1871    1870    1845    1799
       8    1925    1949    1877    1876    1847    1871    1799    1798
  
CELL_TYPES    3486
       1
       1
       1
       1
       1
       1
       1
       1
       1
       1
       1
       1
       1
       1
       1
       1
       1
       1
       1
       1
       1
       1
       1
       1
       1
       1
       1
       1
       1
       1
       1
       1
       1
       1
       1
       1
       1
       1
       1
       1
       1
       1
       1
       1
       1
       1
       1
       1
       1
       1
       1
       1
       1
       1
       1
       1
       1
       1
       1
       1
       1
       1
       1
       1
       1
       1
       1
       1
       1
       1
       1
       1
       1
       1
       1
       1
       1
       1
       1
       1
       1
       1
       1
       1
       1
       1
       1
       1
       1
       1
       1
       1
       1
       1
       1
       1
       1
       1
       1
       1
       1
       1
       1
       1
       1
       1
       1
       1
       1
       1
       1
       1
       1
       1
       1
       1
       1
       1
       1
       1
       1
       1
       1
       1
       1
       1
       1
       1
       1
       1
       1
       1
       1
       1
       1
       1
       1
       1
       1
       1
       1
       1
       1
       1
       1
       1
       1
       1
       1
       1
       1
       1
       1
       1
       1
       1
       1
       1
       1
       1
       1
       1
       1
       1
       1
       1
       1
       1
       1
       1
       1
       1
       1
       1
       1
       1
       1
       1
       1
       1
       1
       1
       1
       1
       1
       1
       1
       1
       1
       1
       1
       1
       1
       1
       1
       1
       1
       1
       1
       1
       1
       1
       1
       1
       1
       1
       1
       1
       1
       1
       1
       1
       1
       1
       1
       1
       1
       1
       1
       1
       1
       1
       1
       1
       1
       1
       1
       1
       1
       1
       1
       1
       1
       1
       1
       1
       1
       1
       1
       1
       1
       1
       1
       1
       1
       1
       1
       1
       1
       1
       1
       1
       1
       1
       1
       1
       1
       1
       1
       1
       1
       1
       1
       1
       1
       1
       1
       1
       1
       1
       1
       1
       1
       1
       1
       1
       1
       1
       1
       1
       1
       1
       1
       1
       1
       1
       1
       1
       1
       1
       1
       1
       1
       1
       1
       1
       1
       1
       1
       1
       1
       1
       1
       1
       1
       1
       1
       1
       1
       1
       1
       1
       1
       1
       1
       1
       1
       1
       1
       1
       1
       1
       1
       1
       1
       1
       1
       1
       1
       1
       1
       1
       1
       1
       1
       1
       1
       1
       1
       1
       1
       1
       1
       1
       1
       1
       1
       1
       1
       1
       1
       1
       1
       1
       1
       1
       1
       1
       1
       1
       1
       1
       1
       1
       1
       1
       1
       1
       1
       1
       1
       1
       1
       1
       1
       1
       1
       1
       1
       1
       1
       1
       1
       1
       1
       1
       1
       1
       1
       1
       1
       1
       1
       1
       1
       1
       1
       1
       1
       1
       1
       1
       1
       1
       1
       1
       1
       1
       1
       1
       1
       1
       1
       1
       1
       1
       1
       1
       1
       1
       1
       1
       1
       1
       1
       1
       1
       1
       1
       1
       1
       1
       1
       1
       1
       1
       1
       1
       1
       1
       1
       1
       1
       1
       1
       1
       1
       1
       1
       1
       1
       1
       1
       1
       1
       1
       1
       1
       1
       1
       1
       1
       1
       1
       1
       1
       1
       1
       1
       1
       1
       1
       1
       1
       1
       1
       1
       1
       1
       1
       1
       1
       1
       1
       1
       1
       1
       1
       1
       1
       1
       1
       1
       1
       1
       1
       1
       1
       1
       1
       1
       1
       1
       1
       1
       1
       1
       1
       1
       1
       1
       1
       1
       1
       1
       1
       1
       1
       1
       1
       1
       1
       1
       1
       1
       1
       1
       1
       1
       1
       1
       1
       1
       1
       1
       1
       1
       1
       1
       1
       1
       1
       1
       1
       1
       1
       1
       1
       1
       1
       1
       1
       1
       1
       1
       1
       1
       1
       1
       1
       1
       1
       1
       1
       1
       1
       1
       1
       1
       1
       1
       1
       1
       1
       1
       1
       1
       1
       1
       1
       1
       1
       1
       1
       1
       1
       1
       1
       1
       1
       1
       1
       1
       1
       1
       1
       1
       1
       1
       1
       1
       1
       1
       1
       1
       1
       1
       1
       1
       1
       1
       1
       1
       1
       1
       1
       1
       1
       1
       1
       1
       1
       1
       1
       1
       1
       1
       1
       1
       1
       1
       1
       1
       1
       1
       1
       1
       1
       1
       1
       1
       1
       1
       1
       1
       1
       1
       1
       1
       1
       1
       1
       1
       1
       1
       1
       1
       1
       1
       1
       1
       1
       1
       1
       1
       1
       1
       1
       1
       1
       1
       1
       1
       1
       1
       1
       1
       1
       1
       1
       1
       1
       1
       1
       1
       1
       1
       1
       1
       1
       1
       1
       1
       1
       1
       1
       1
       1
       1
       1
       1
       1
       1
       1
       1
       1
       1
       1
       1
       1
       1
       1
       1
       1
       1
       1
       1
       1
       1
       1
       1
       1
       1
       1
       1
       1
       1
       1
       1
       1
       1
       1
       1
       1
       1
       1
       1
       1
       1
       1
       1
       1
       1
       1
       1
       1
       1
       1
       1
       1
       1
       1
       1
       1
       1
       1
       1
       1
       1
       1
       1
       1
       1
       1
       1
       1
       1
       1
       1
       1
       1
       1
       1
       1
       1
       1
       1
       1
       1
       1
       1
       1
       1
       1
       1
       1
       1
       1
       1
       1
       1
       1
       1
       1
       1
       1
       1
       1
       1
       1
       1
       1
       1
       1
       1
       1
       1
       1
       1
       1
       1
       1
       1
       1
       1
       1
       1
       1
       1
       1
       1
       1
       1
       1
       1
       1
       1
       1
       1
       1
       1
       1
       1
       1
       1
       1
       1
       1
       1
       1
       1
       1
       1
       1
       1
       1
       1
       1
       1
       1
       1
       1
       1
       1
       1
       1
       1
       1
       1
       1
       1
       1
       1
       1
       1
       1
       1
       1
       1
       1
       1
       1
       1
       1
       1
       1
       1
       1
       1
       1
       1
       1
       1
       1
       1
       1
       1
       1
       1
       1
       1
       1
       1
       1
       1
       1
       1
       1
       1
       1
       1
       1
       1
       1
       1
       1
       1
       1
       1
       1
       1
       1
       1
       1
       1
       1
       1
       1
       1
       1
       1
       1
       1
       1
       1
       1
       1
       1
       1
       1
       1
       1
       1
       1
       1
       1
       1
       1
       1
       1
       1
       1
       1
       1
       1
       1
       1
       1
       1
       1
       1
       1
       1
       1
       1
       1
       1
       1
       1
       1
       1
       1
       1
       1
       1
       1
       1
       1
       1
       1
       1
       1
       1
       1
       1
       1
       1
       1
       1
       1
       1
       1
       1
       1
       1
       1
       1
       1
       1
       1
       1
       1
       1
       1
       1
       1
       1
       1
       1
       1
       1
       1
       1
       1
       1
       1
       1
       1
       1
       1
       1
       1
       1
       1
       1
       1
       1
       1
       1
       1
       1
       1
       1
       1
       1
       1
       1
       1
       1
       1
       1
       1
       1
       1
       1
       1
       1
       1
       1
       1
       1
       1
       1
       1
       1
       1
       1
       1
       1
       1
       1
       1
       1
       1
       1
       1
       1
       1
       1
       1
       1
       1
       1
       1
       1
       1
       1
       1
       1
       1
       1
       1
       1
       1
       1
       1
       1
       1
       1
       1
       1
       1
       1
       1
       1
       1
       1
       1
       1
       1
       1
       1
       1
       1
       1
       1
       1
       1
       1
       1
       1
       1
       1
       1
       1
       1
       1
       1
       1
       1
       1
       1
       1
       1
       1
       1
       1
       1
       1
       1
       1
       1
       1
       1
       1
       1
       1
       1
       1
       1
       1
       1
       1
       1
       1
       1
       1
       1
       1
       1
       1
       1
       1
       1
       1
       1
       1
       1
       1
       1
       1
       1
       1
       1
       1
       1
       1
       1
       1
       1
       1
       1
       1
       1
       1
       1
       1
       1
       1
       1
       1
       1
       1
       1
       1
       1
       1
       1
       1
       1
       1
       1
       1
       1
       1
       1
       1
       1
       1
       1
       1
       1
       1
       1
       1
       1
       1
       1
       1
       1
       1
       1
       1
       1
       1
       1
       1
       1
       1
       1
       1
       1
       1
       1
       1
       1
       1
       1
       1
       1
       1
       1
       1
       1
       1
       1
       1
       1
       1
       1
       1
       1
       1
       1
       1
       1
       1
       1
       1
       1
       1
       1
       1
       1
       1
       1
       1
       1
       1
       1
       1
       1
       1
       1
       1
       1
       1
       1
       1
       1
       1
       1
       1
       1
       1
       1
       1
       1
       1
       1
       1
       1
       1
       1
       1
       1
       1
       1
       1
       1
       1
       1
       1
       1
       1
       1
       1
       1
       1
       1
       1
       1
       1
       1
       1
       1
       1
       1
       1
       1
       1
       1
       1
       1
       1
       1
       1
       1
       1
       1
       1
       1
       1
       1
       1
       1
       1
       1
       1
       1
       1
       1
       1
       1
       1
       1
       1
       1
       1
       1
       1
       1
       1
       1
       1
       1
       1
       1
       1
       1
       1
       1
       1
       1
       1
       1
       1
       1
       1
       1
       1
       1
       1
       1
       1
       1
       1
       1
       1
       1
       1
       1
       1
       1
       1
       1
       1
       1
       1
       1
       1
       1
       1
       1
       1
       1
       1
       1
       1
       1
       1
       1
       1
       1
       1
       1
       1
       1
       1
       1
       1
       1
       1
       1
       1
       1
       1
       1
       1
       1
       1
       1
       1
       1
       1
       1
       1
       1
       1
       1
       1
       1
       1
       1
       1
       1
       1
       1
       1
       1
       1
       1
       1
       1
       1
       1
       1
       1
       1
       1
       1
       1
       1
       1
       1
       1
       1
       1
       1
       1
       1
       1
       1
       1
       1
       1
       1
       1
       1
       1
       1
       1
       1
       1
       1
       1
       1
       1
       1
       1
       1
       1
       1
       1
       1
       1
       1
       1
       1
       1
       1
       1
       1
       1
       1
       1
       1
       1
       1
       1
       1
       1
       1
       1
       1
       1
       1
       1
       1
       1
       1
       1
       1
       1
       1
       1
       1
       1
       1
       1
       1
       1
       1
       1
       1
       1
       1
       1
       1
       1
       1
       1
       1
       1
       1
       1
       1
       1
       1
       1
       1
       1
       1
       1
       1
       1
       1
       1
       1
       1
       1
       1
       1
       1
       1
       1
       1
       1
       1
       1
       1
       1
       1
       1
       1
       1
       1
       1
       1
       1
       1
       1
       1
       1
       1
       1
       1
       1
       1
       1
       1
       1
       1
       1
       1
       1
       1
       1
       1
       1
       1
       1
       1
       1
       1
       1
       1
       1
       1
       1
       1
       1
       1
       1
       1
       1
       1
       1
       1
       1
       1
       1
       1
       1
       1
       1
       1
       1
       1
       1
       1
       1
       1
       1
       1
       1
       1
       1
       1
       1
       1
       1
       1
       1
       1
       1
       1
       1
       1
       1
       1
       1
       1
       1
       1
       1
       1
       1
       1
       1
       1
       1
       1
       1
       1
       1
       1
       1
       1
       1
       1
       1
       1
       1
       1
       1
       1
       1
       1
       1
       1
       1
       1
       1
       1
       1
       1
       1
       1
       1
       1
       1
       1
       1
       1
       1
       1
       1
       1
       1
       1
       1
       1
       1
       1
       1
       1
       1
       1
       1
       1
       1
       1
       1
       1
       1
       1
       1
       1
       1
       1
       1
       1
       1
       1
       1
       1
       1
       1
       1
       1
       1
       1
       1
       1
       1
       1
       1
       1
       1
       1
       1
       1
       1
       1
       1
       1
       1
       1
       1
       1
       1
       1
       1
       1
       1
       1
       1
       1
       1
       1
       1
       1
       1
       1
       1
       1
       1
       1
       1
       1
       1
       1
       1
       1
       1
       1
       1
       1
       1
       1
       1
       1
       1
       1
       1
       1
       1
       1
       1
       1
       1
       1
       1
       1
       1
       1
       1
       1
       1
       1
       1
       1
       1
       1
       1
       1
       1
       1
       1
       1
       1
       1
       1
       1
       1
       1
       1
       1
       1
       1
       1
       1
       1
       1
       1
       1
       1
       1
       1
       1
       1
       1
       1
       1
       1
       1
       1
       1
       1
       1
       1
       1
       1
       1
       1
       1
       1
       1
       1
       1
       1
       1
       1
       1
       1
       1
       1
       1
       1
       1
       1
       1
       1
       1
       1
       1
       1
       1
       1
       1
       1
       1
       1
       1
       1
       1
       1
       1
       1
       1
       1
       1
       1
       1
       1
       1
       1
       1
       1
       1
       1
       1
       1
       1
       1
       1
       1
       1
       1
       1
       1
       1
       1
       1
       1
       1
       1
       1
       1
       1
       1
       1
       1
       1
       1
       1
       1
       1
       1
       1
       1
       1
       1
       1
       1
       1
       1
       1
       1
       1
       1
       1
       1
       1
       1
       1
       1
       1
       1
       1
       1
       1
       1
       1
       1
       1
       1
       1
       1
       1
       1
       1
       1
       1
       1
       1
       1
       1
       1
       1
       1
       1
       1
       1
       1
       1
       1
       1
       1
       1
       1
       1
       1
       1
       1
       1
       1
       1
       1
      12
      12
      12
      12
      12
      12
      12
      12
      12
      12
      12
      12
      12
      12
      12
      12
      12
      12
      12
      12
      12
      12
      12
      12
      12
      12
      12
      12
      12
      12
      12
      12
      12
      12
      12
      12
      12
      12
      12
      12
      12
      12
      12
      12
      12
      12
      12
      12
      12
      12
      12
      12
      12
      12
      12
      12
      12
      12
      12
      12
      12
      12
      12
      12
      12
      12
      12
      12
      12
      12
      12
      12
      12
      12
      12
      12
      12
      12
      12
      12
      12
      12
      12
      12
      12
      12
      12
      12
      12
      12
      12
      12
      12
      12
      12
      12
      12
      12
      12
      12
      12
      12
      12
      12
      12
      12
      12
      12
      12
      12
      12
      12
      12
      12
      12
      12
      12
      12
      12
      12
      12
      12
      12
      12
      12
      12
      12
      12
      12
      12
      12
      12
      12
      12
      12
      12
      12
      12
      12
      12
      12
      12
      12
      12
      12
      12
      12
      12
      12
      12
      12
      12
      12
      12
      12
      12
      12
      12
      12
      12
      12
      12
      12
      12
      12
      12
      12
      12
      12
      12
      12
      12
      12
      12
      12
      12
      12
      12
      12
      12
      12
      12
      12
      12
      12
      12
      12
      12
      12
      12
      12
      12
      12
      12
      12
      12
      12
      12
      12
      12
      12
      12
      12
      12
      12
      12
      12
      12
      12
      12
      12
      12
      12
      12
      12
      12
      12
      12
      12
      12
      12
      12
      12
      12
      12
      12
      12
      12
      12
      12
      12
      12
      12
      12
      12
      12
      12
      12
      12
      12
      12
      12
      12
      12
      12
      12
      12
      12
      12
      12
      12
      12
      12
      12
      12
      12
      12
      12
      12
      12
      12
      12
      12
      12
      12
      12
      12
      12
      12
      12
      12
      12
      12
      12
      12
      12
      12
      12
      12
      12
      12
      12
      12
      12
      12
      12
      12
      12
      12
      12
      12
      12
      12
      12
      12
      12
      12
      12
      12
      12
      12
      12
      12
      12
      12
      12
      12
      12
      12
      12
      12
      12
      12
      12
      12
      12
      12
      12
      12
      12
      12
      12
      12
      12
      12
      12
      12
      12
      12
      12
      12
      12
      12
      12
      12
      12
      12
      12
      12
      12
      12
      12
      12
      12
      12
      12
      12
      12
      12
      12
      12
      12
      12
      12
      12
      12
      12
      12
      12
      12
      12
      12
      12
      12
      12
      12
      12
      12
      12
      12
      12
      12
      12
      12
      12
      12
      12
      12
      12
      12
      12
      12
      12
      12
      12
      12
      12
      12
      12
      12
      12
      12
      12
      12
      12
      12
      12
      12
      12
      12
      12
      12
      12
      12
      12
      12
      12
      12
      12
      12
      12
      12
      12
      12
      12
      12
      12
      12
      12
      12
      12
      12
      12
      12
      12
      12
      12
      12
      12
      12
      12
      12
      12
      12
      12
      12
      12
      12
      12
      12
      12
      12
      12
      12
      12
      12
      12
      12
      12
      12
      12
      12
      12
      12
      12
      12
      12
      12
      12
      12
      12
      12
      12
      12
      12
      12
      12
      12
      12
      12
      12
      12
      12
      12
      12
      12
      12
      12
      12
      12
      12
      12
      12
      12
      12
      12
      12
      12
      12
      12
      12
      12
      12
      12
      12
      12
      12
      12
      12
      12
      12
      12
      12
      12
      12
      12
      12
      12
      12
      12
      12
      12
      12
      12
      12
      12
      12
      12
      12
      12
      12
      12
      12
      12
      12
      12
      12
      12
      12
      12
      12
      12
      12
      12
      12
      12
      12
      12
      12
      12
      12
      12
      12
      12
      12
      12
      12
      12
      12
      12
      12
      12
      12
      12
      12
      12
      12
      12
      12
      12
      12
      12
      12
      12
      12
      12
      12
      12
      12
      12
      12
      12
      12
      12
      12
      12
      12
      12
      12
      12
      12
      12
      12
      12
      12
      12
      12
      12
      12
      12
      12
      12
      12
      12
      12
      12
      12
      12
      12
      12
      12
      12
      12
      12
      12
      12
      12
      12
      12
      12
      12
      12
      12
      12
      12
      12
      12
      12
      12
      12
      12
      12
      12
      12
      12
      12
      12
      12
      12
      12
      12
      12
      12
      12
      12
      12
      12
      12
      12
      12
      12
      12
      12
      12
      12
      12
      12
      12
      12
      12
      12
      12
      12
      12
      12
      12
      12
      12
      12
      12
      12
      12
      12
      12
      12
      12
      12
      12
      12
      12
      12
      12
      12
      12
      12
      12
      12
      12
      12
      12
      12
      12
      12
      12
      12
      12
      12
      12
      12
      12
      12
      12
      12
      12
      12
      12
      12
      12
      12
      12
      12
      12
      12
      12
      12
      12
      12
      12
      12
      12
      12
      12
      12
      12
      12
      12
      12
      12
      12
      12
      12
      12
      12
      12
      12
      12
      12
      12
      12
      12
      12
      12
      12
      12
      12
      12
      12
      12
      12
      12
      12
      12
      12
      12
      12
      12
      12
      12
      12
      12
      12
      12
      12
      12
      12
      12
      12
      12
      12
      12
      12
      12
      12
      12
      12
      12
      12
      12
      12
      12
      12
      12
      12
      12
      12
      12
      12
      12
      12
      12
      12
      12
      12
      12
      12
      12
      12
      12
      12
      12
      12
      12
      12
      12
      12
      12
      12
      12
      12
      12
      12
      12
      12
      12
      12
      12
      12
      12
      12
      12
      12
      12
      12
      12
      12
      12
      12
      12
      12
      12
      12
      12
      12
      12
      12
      12
      12
      12
      12
      12
      12
      12
      12
      12
      12
      12
      12
      12
      12
      12
      12
      12
      12
      12
      12
      12
      12
      12
      12
      12
      12
      12
      12
      12
      12
      12
      12
      12
      12
      12
      12
      12
      12
      12
      12
      12
      12
      12
      12
      12
      12
      12
      12
      12
      12
      12
      12
      12
      12
      12
      12
      12
      12
      12
      12
      12
      12
      12
      12
      12
      12
      12
      12
      12
      12
      12
      12
      12
      12
      12
      12
      12
      12
      12
      12
      12
      12
      12
      12
      12
      12
      12
      12
      12
      12
      12
      12
      12
      12
      12
      12
      12
      12
      12
      12
      12
      12
      12
      12
      12
      12
      12
      12
      12
      12
      12
      12
      12
      12
      12
      12
      12
      12
      12
      12
      12
      12
      12
      12
      12
      12
      12
      12
      12
      12
      12
      12
      12
      12
      12
      12
      12
      12
      12
      12
      12
      12
      12
      12
      12
      12
      12
      12
      12
      12
      12
      12
      12
      12
      12
      12
      12
      12
      12
      12
      12
      12
      12
      12
      12
      12
      12
      12
      12
      12
      12
      12
      12
      12
      12
      12
      12
      12
      12
      12
      12
      12
      12
      12
      12
      12
      12
      12
      12
      12
      12
      12
      12
      12
      12
      12
      12
      12
      12
      12
      12
      12
      12
      12
      12
      12
      12
      12
      12
      12
      12
      12
      12
      12
      12
      12
      12
      12
      12
      12
      12
      12
      12
      12
      12
      12
      12
      12
      12
      12
      12
      12
      12
      12
      12
      12
      12
      12
      12
      12
      12
      12
      12
      12
      12
      12
      12
      12
      12
      12
      12
      12
      12
      12
      12
      12
      12
      12
      12
      12
      12
      12
      12
      12
      12
      12
      12
      12
      12
      12
      12
      12
      12
      12
      12
      12
      12
      12
      12
      12
      12
      12
      12
      12
      12
      12
      12
      12
      12
      12
      12
      12
      12
      12
      12
      12
      12
      12
      12
      12
      12
      12
      12
      12
      12
      12
      12
      12
      12
      12
      12
      12
      12
      12
      12
      12
      12
      12
      12
      12
      12
      12
      12
      12
      12
      12
      12
      12
      12
      12
      12
      12
      12
      12
      12
      12
      12
      12
      12
      12
      12
      12
      12
      12
      12
      12
      12
      12
      12
      12
      12
      12
      12
      12
      12
      12
      12
      12
      12
      12
      12
      12
      12
      12
      12
      12
      12
      12
      12
      12
      12
      12
      12
      12
      12
      12
      12
      12
      12
      12
      12
      12
      12
      12
      12
      12
      12
      12
      12
      12
      12
      12
      12
      12
      12
      12
      12
      12
      12
      12
      12
      12
      12
      12
      12
      12
      12
      12
      12
      12
      12
      12
      12
      12
      12
      12
      12
      12
      12
      12
      12
      12
      12
      12
      12
      12
      12
      12
      12
      12
      12
      12
      12
      12
      12
      12
      12
      12
      12
      12
      12
      12
      12
      12
      12
      12
      12
      12
      12
      12
      12
      12
      12
      12
      12
      12
      12
      12
      12
      12
      12
      12
      12
      12
      12
      12
      12
      12
      12
      12
      12
      12
      12
      12
      12
      12
      12
      12
      12
      12
      12
      12
      12
      12
      12
      12
      12
      12
      12
      12
      12
      12
      12
      12
      12
      12
      12
      12
      12
      12
      12
      12
      12
      12
      12
      12
      12
      12
      12
      12
      12
      12
      12
      12
      12
      12
      12
      12
      12
      12
      12
      12
      12
      12
      12
      12
      12
      12
      12
      12
      12
      12
      12
      12
      12
      12
      12
      12
      12
      12
      12
      12
      12
      12
      12
      12
      12
      12
      12
      12
      12
      12
      12
      12
      12
      12
      12
      12
      12
      12
      12
      12
      12
      12
      12
      12
      12
      12
      12
      12
      12
      12
      12
      12
      12
      12
      12
      12
      12
      12
      12
      12
      12
      12
      12
      12
      12
      12
      12
      12
      12
      12
      12
      12
      12
      12
      12
      12
      12
      12
      12
      12
      12
      12
      12
      12
      12
      12
      12
      12
      12
      12
      12
      12
      12
      12
      12
      12
      12
      12
      12
      12
      12
      12
      12
      12
      12
      12
      12
      12
      12
      12
      12
      12
      12
      12
      12
      12
      12
      12
      12
      12
      12
      12
      12
      12
      12
      12
      12
      12
      12
      12
      12
      12
      12
      12
      12
      12
      12
      12
      12
      12
      12
      12
      12
      12
      12
      12
      12
      12
      12
      12
      12
      12
      12
      12
      12
      12
      12
      12
      12
      12
      12
      12
      12
      12
      12
      12
      12
      12
      12
      12
      12
      12
      12
      12
      12
      12
      12
      12
      12
      12
      12
      12
      12
      12
      12
      12
      12
      12
      12
  
  
POINT_DATA       1950
  
SCALARS                  material_type  double 1
LOOKUP_TABLE default
                   2
                   2
                   2
                   2
                   2
                   2
                   2
                   2
                   2
                   2
                   2
                   2
                   2
                   2
                   2
                   2
                   2
                   2
                   2
                   2
                   2
                   2
                   2
                   2
                   2
                   2
                   2
                   2
                   2
                   2
                   2
                   2
                   2
                   2
                   2
                   2
                   2
                   2
                   2
                   2
                   2
                   2
                   2
                   2
                   2
                   2
                   2
                   2
                   2
                   2
                   2
                   2
                   2
                   2
                   2
                   2
                   2
                   2
                   2
                   2
                   2
                   2
                   2
                   2
                   2
                   2
                   2
                   2
                   2
                   2
                   2
                   2
                   2
                   2
                   2
                   2
                   2
                   2
                   2
                   2
                   2
                   2
                   2
                   2
                   2
                   2
                   2
                   2
                   2
                   2
                   2
                   2
                   2
                   2
                   2
                   2
                   2
                   2
                   2
                   2
                   2
                   2
                   2
                   2
                   2
                   2
                   2
                   2
                   2
                   2
                   2
                   2
                   2
                   2
                   2
                   2
                   2
                   2
                   2
                   2
                   2
                   2
                   2
                   2
                   2
                   2
                   2
                   2
                   2
                   2
                   2
                   2
                   2
                   2
                   2
                   2
                   2
                   2
                   2
                   2
                   2
                   2
                   2
                   2
                   2
                   2
                   2
                   2
                   2
                   2
                   2
                   2
                   2
                   2
                   2
                   2
                   2
                   2
                   2
                   2
                   2
                   2
                   2
                   2
                   2
                   2
                   2
                   2
                   2
                   2
                   2
                   2
                   2
                   2
                   2
                   2
                   2
                   2
                   2
                   2
                   2
                   2
                   2
                   2
                   2
                   2
                   2
                   2
                   2
                   2
                   2
                   2
                   2
                   2
                   2
                   2
                   2
                   2
                   2
                   2
                   2
                   2
                   2
                   2
                   2
                   2
                   2
                   2
                   2
                   2
                   2
                   2
                   2
                   2
                   2
                   2
                   2
                   2
                   2
                   2
                   2
                   2
                   2
                   2
                   2
                   2
                   2
                   2
                   2
                   2
                   2
                   2
                   2
                   2
                   2
                   2
                   2
                   2
                   2
                   2
                   2
                   2
                   2
                   2
                   2
                   2
                   2
                   2
                   2
                   2
                   2
                   2
                   2
                   2
                   2
                   2
                   2
                   2
                   2
                   2
                   2
                   2
                   2
                   2
                   2
                   2
                   2
                   2
                   2
                   2
                   2
                   2
                   2
                   2
                   2
                   2
                   2
                   2
                   2
                   2
                   2
                   2
                   2
                   2
                   2
                   2
                   2
                   2
                   2
                   2
                   2
                   2
                   2
                   2
                   2
                   2
                   2
                   2
                   2
                   2
                   2
                   2
                   2
                   2
                   2
                   2
                   2
                   2
                   2
                   2
                   2
                   2
                   2
                   2
                   2
                   2
                   2
                   2
                   2
                   2
                   2
                   2
                   2
                   2
                   2
                   2
                   2
                   2
                   2
                   2
                   2
                   2
                   2
                   2
                   2
                   2
                   2
                   2
                   2
                   2
                   2
                   2
                   2
                   2
                   2
                   2
                   2
                   2
                   2
                   2
                   2
                   2
                   2
                   2
                   2
                   2
                   2
                   2
                   2
                   2
                   2
                   2
                   2
                   2
                   2
                   2
                   2
                   2
                   2
                   2
                   2
                   2
                   2
                   2
                   2
                   2
                   2
                   2
                   2
                   2
                   2
                   2
                   2
                   2
                   2
                   2
                   2
                   2
                   2
                   2
                   2
                   2
                   2
                   2
                   2
                   2
                   2
                   2
                   2
                   2
                   2
                   2
                   2
                   2
                   2
                   2
                   2
                   2
                   2
                   2
                   2
                   2
                   2
                   2
                   2
                   2
                   2
                   2
                   2
                   2
                   2
                   2
                   2
                   2
                   2
                   2
                   2
                   2
                   2
                   2
                   2
                   2
                   2
                   2
                   2
                   2
                   2
                   2
                   2
                   2
                   2
                   2
                   2
                   2
                   2
                   2
                   2
                   2
                   2
                   2
                   2
                   2
                   2
                   2
                   2
                   2
                   2
                   2
                   2
                   2
                   2
                   2
                   2
                   2
                   2
                   2
                   2
                   2
                   2
                   2
                   2
                   2
                   2
                   2
                   2
                   2
                   2
                   2
                   2
                   2
                   2
                   2
                   2
                   2
                   2
                   2
                   2
                   2
                   2
                   2
                   2
                   2
                   2
                   2
                   2
                   2
                   2
                   2
                   2
                   2
                   2
                   2
                   2
                   2
                   2
                   2
                   2
                   2
                   2
                   2
                   2
                   2
                   2
                   2
                   2
                   2
                   2
                   2
                   2
                   2
                   2
                   2
                   2
                   2
                   2
                   2
                   2
                   2
                   2
                   2
                   2
                   2
                   2
                   2
                   2
                   2
                   2
                   2
                   2
                   2
                   2
                   2
                   2
                   2
                   2
                   2
                   2
                   2
                   2
                   2
                   2
                   2
                   2
                   2
                   2
                   2
                   2
                   2
                   2
                   2
                   2
                   2
                   2
                   2
                   2
                   2
                   2
                   2
                   2
                   2
                   2
                   2
                   2
                   2
                   2
                   2
                   2
                   2
                   2
                   2
                   2
                   2
                   2
                   2
                   2
                   2
                   2
                   2
                   2
                   2
                   2
                   2
                   2
                   2
                   2
                   2
                   2
                   2
                   2
                   2
                   2
                   2
                   2
                   2
                   2
                   2
                   2
                   2
                   2
                   2
                   2
                   2
                   2
                   2
                   2
                   2
                   2
                   2
                   2
                   2
                   2
                   2
                   2
                   2
                   2
                   2
                   2
                   2
                   2
                   2
                   2
                   2
                   2
                   2
                   2
                   2
                   2
                   2
                   2
                   2
                   2
                   2
                   2
                   2
                   2
                   2
                   2
                   2
                   2
                   2
                   2
                   2
                   2
                   2
                   2
                   2
                   2
                   2
                   2
                   2
                   2
                   2
                   2
                   2
                   2
                   2
                   2
                   2
                   2
                   2
                   2
                   2
                   2
                   2
                   2
                   2
                   2
                   2
                   2
                   2
                   2
                   2
                   2
                   2
                   2
                   2
                   2
                   2
                   2
                   2
                   2
                   2
                   2
                   2
                   2
                   2
                   2
                   2
                   2
                   2
                   2
                   2
                   2
                   2
                   2
                   2
                   2
                   2
                   2
                   2
                   2
                   2
                   2
                   2
                   2
                   2
                   2
                   2
                   2
                   2
                   2
                   2
                   2
                   2
                   2
                   2
                   2
                   2
                   2
                   2
                   2
                   2
                   2
                   2
                   2
                   2
                   2
                   2
                   2
                   2
                   2
                   2
                   2
                   2
                   2
                   2
                   2
                   2
                   2
                   2
                   2
                   2
                   2
                   2
                   2
                   2
                   2
                   2
                   2
                   2
                   2
                   2
                   2
                   2
                   2
                   2
                   2
                   2
                   2
                   2
                   2
                   2
                   2
                   2
                   2
                   2
                   2
                   2
                   2
                   2
                   2
                   2
                   2
                   2
                   2
                   2
                   2
                   2
                   2
                   2
                   2
                   2
                   2
                   2
                   2
                   2
                   2
                   2
                   2
                   2
                   2
                   2
                   2
                   2
                   2
                   2
                   2
                   2
                   2
                   2
                   2
                   2
                   2
                   2
                   2
                   2
                   2
                   2
                   2
                   2
                   2
                   2
                   2
                   2
                   2
                   2
                   2
                   2
                   2
                   2
                   2
                   2
                   2
                   2
                   2
                   2
                   2
                   2
                   2
                   2
                   2
                   2
                   2
                   2
                   2
                   2
                   2
                   2
                   2
                   2
                   2
                   2
                   2
                   2
                   2
                   2
                   2
                   2
                   2
                   2
                   2
                   2
                   2
                   2
                   2
                   2
                   2
                   2
                   2
                   2
                   2
                   2
                   2
                   2
                   2
                   2
                   2
                   2
                   2
                   2
                   2
                   2
                   2
                   2
                   2
                   2
                   2
                   2
                   2
                   2
                   2
                   2
                   2
                   2
                   2
                   2
                   2
                   2
                   2
                   2
                   2
                   2
                   2
                   2
                   2
                   2
                   2
                   2
                   2
                   2
                   2
                   2
                   2
                   2
                   2
                   2
                   2
                   2
                   2
                   2
                   2
                   2
                   2
                   2
                   2
                   2
                   2
                   2
                   2
                   2
                   2
                   2
                   2
                   2
                   2
                   2
                   2
                   2
                   2
                   2
                   2
                   2
                   2
                   2
                   2
                   2
                   2
                   2
                   2
                   2
                   2
                   2
                   2
                   2
                   2
                   2
                   2
                   2
                   2
                   2
                   2
                   2
                   2
                   2
                   2
                   2
                   2
                   2
                   2
                   2
                   2
                   2
                   2
                   2
                   2
                   2
                   2
                   2
                   2
                   2
                   2
                   2
                   2
                   2
                   2
                   2
                   2
                   2
                   2
                   2
                   2
                   2
                   2
                   2
                   2
                   2
                   2
                   2
                   2
                   2
                   2
                   2
                   2
                   2
                   2
                   2
                   2
                   2
                   2
                   2
                   2
                   2
                   2
                   2
                   2
                   2
                   2
                   2
                   2
                   2
                   2
                   2
                   2
                   2
                   2
                   2
                   2
                   2
                   2
                   2
                   2
                   2
                   2
                   2
                   2
                   2
                   2
                   2
                   2
                   2
                   2
                   2
                   2
                   2
                   2
                   2
                   2
                   2
                   2
                   2
                   2
                   2
                   2
                   2
                   2
                   2
                   2
                   2
                   2
                   2
                   2
                   2
                   2
                   2
                   2
                   2
                   2
                   2
                   2
                   2
                   2
                   2
                   2
                   2
                   2
                   2
                   2
                   2
                   2
                   2
                   2
                   2
                   2
                   2
                   2
                   2
                   2
                   2
                   2
                   2
                   2
                   2
                   2
                   2
                   2
                   2
                   2
                   2
                   2
                   2
                   2
                   2
                   2
                   2
                   2
                   2
                   2
                   2
                   2
                   2
                   2
                   2
                   2
                   2
                   2
                   2
                   2
                   2
                   2
                   2
                   2
                   2
                   2
                   2
                   2
                   2
                   2
                   2
                   2
                   2
                   2
                   2
                   2
                   2
                   2
                   2
                   2
                   2
                   2
                   2
                   2
                   2
                   2
                   2
                   2
                   2
                   2
                   2
                   2
                   2
                   2
                   2
                   2
                   2
                   2
                   2
                   2
                   2
                   2
                   2
                   2
                   2
                   2
                   2
                   2
                   2
                   2
                   2
                   2
                   2
                   2
                   2
                   2
                   2
                   2
                   2
                   2
                   2
                   2
                   2
                   2
                   2
                   2
                   2
                   2
                   2
                   2
                   2
                   2
                   2
                   2
                   2
                   2
                   2
                   2
                   2
                   2
                   2
                   2
                   2
                   2
                   2
                   2
                   2
                   2
                   2
                   2
                   2
                   2
                   2
                   2
                   2
                   2
                   2
                   2
                   2
                   2
                   2
                   2
                   2
                   2
                   2
                   2
                   2
                   2
                   2
                   2
                   2
                   2
                   2
                   2
                   2
                   2
                   2
                   2
                   2
                   2
                   2
                   2
                   2
                   2
                   2
                   2
                   2
                   2
                   2
                   2
                   2
                   2
                   2
                   2
                   2
                   2
                   2
                   2
                   2
                   2
                   2
                   2
                   2
                   2
                   2
                   2
                   2
                   2
                   2
                   2
                   2
                   2
                   2
                   2
                   2
                   2
                   2
                   2
                   2
                   2
                   2
                   2
                   2
                   2
                   2
                   2
                   2
                   2
                   2
                   2
                   2
                   2
                   2
                   2
                   2
                   2
                   2
                   2
                   2
                   2
                   2
                   2
                   2
                   2
                   2
                   2
                   2
                   2
                   2
                   2
                   2
                   2
                   2
                   2
                   2
                   2
                   2
                   2
                   2
                   2
                   2
                   2
                   2
                   2
                   2
                   2
                   2
                   2
                   2
                   2
                   2
                   2
                   2
                   2
                   2
                   2
                   2
                   2
                   2
                   2
                   2
                   2
                   2
                   2
                   2
                   2
                   2
                   2
                   2
                   2
                   2
                   2
                   2
                   2
                   2
                   2
                   2
                   2
                   2
                   2
                   2
                   2
                   2
                   2
                   2
                   2
                   2
                   2
                   2
                   2
                   2
                   2
                   2
                   2
                   2
                   2
                   2
                   2
                   2
                   2
                   2
                   2
                   2
                   2
                   2
                   2
                   2
                   2
                   2
                   2
                   2
                   2
                   2
                   2
                   2
                   2
                   2
                   2
                   2
                   2
                   2
                   2
                   2
                   2
                   2
                   2
                   2
                   2
                   2
                   2
                   2
                   2
                   2
                   2
                   2
                   2
                   2
                   2
                   2
                   2
                   2
                   2
                   2
                   2
                   2
                   2
                   2
                   2
                   2
                   2
                   2
                   2
                   2
                   2
                   2
                   2
                   2
                   2
                   2
                   2
                   2
                   2
                   2
                   2
                   2
                   2
                   2
                   2
                   2
                   2
                   2
                   2
                   2
                   2
                   2
                   2
                   2
                   2
                   2
                   2
                   2
                   2
                   2
                   2
                   2
                   2
                   2
                   2
                   2
                   2
                   2
                   2
                   2
                   2
                   2
                   2
                   2
                   2
                   2
                   2
                   2
                   2
                   2
                   2
                   2
                   2
                   2
                   2
                   2
                   2
                   2
                   2
                   2
                   2
                   2
                   2
                   2
                   2
                   2
                   2
                   2
                   2
                   2
                   2
                   2
                   2
                   2
                   2
                   2
                   2
                   2
                   2
                   2
                   2
                   2
                   2
                   2
                   2
                   2
                   2
                   2
                   2
                   2
                   2
                   2
                   2
                   2
                   2
                   2
                   2
                   2
                   2
                   2
                   2
                   2
                   2
                   2
                   2
                   2
                   2
                   2
                   2
                   2
                   2
                   2
                   2
                   2
                   2
                   2
                   2
                   2
                   2
                   2
                   2
                   2
                   2
                   2
                   2
                   2
                   2
                   2
                   2
                   2
                   2
                   2
                   2
                   2
                   2
                   2
                   2
                   2
                   2
                   2
                   2
                   2
                   2
                   2
                   2
                   2
                   2
                   2
                   2
                   2
                   2
                   2
                   2
                   2
                   2
                   2
                   2
                   2
                   2
                   2
                   2
                   2
                   2
                   2
                   2
                   2
                   2
                   2
                   2
                   2
                   2
                   2
                   2
                   2
                   2
                   2
                   2
                   2
                   2
                   2
                   2
                   2
                   2
                   2
                   2
                   2
                   2
                   2
                   2
                   2
                   2
                   2
                   2
                   2
                   2
                   2
                   2
                   2
                   2
                   2
                   2
                   2
                   2
                   2
                   2
                   2
                   2
                   2
                   2
                   2
                   2
                   2
                   2
                   2
                   2
                   2
                   2
                   2
                   2
                   2
                   2
                   2
                   2
                   2
                   2
                   2
                   2
                   2
                   2
                   2
                   2
                   2
                   2
                   2
                   2
                   2
                   2
                   2
                   2
                   2
                   2
                   2
                   2
                   2
                   2
                   2
                   2
                   2
                   2
                   2
                   2
                   2
                   2
                   2
                   2
                   2
                   2
                   2
                   2
                   2
                   2
                   2
                   2
                   2
                   2
                   2
                   2
                   2
                   2
                   2
                   2
                   2
                   2
                   2
                   2
                   2
                   2
                   2
                   2
                   2
                   2
                   2
                   2
                   2
                   2
                   2
                   2
                   2
                   2
                   2
                   2
                   2
                   2
                   2
                   2
                   2
                   2
                   2
                   2
                   2
                   2
                   2
                   2
                   2
                   2
                   2
                   2
                   2
                   2
                   2
                   2
                   2
                   2
                   2
                   2
                   2
                   2
                   2
                   2
                   2
                   2
                   2
                   2
                   2
                   2
                   2
                   2
                   2
                   2
                   2
                   2
                   2
                   2
                   2
                   2
                   2
                   2
                   2
                   2
                   2
                   2
                   2
                   2
                   2
                   2
                   2
                   2
                   2
                   2
                   2
                   2
                   2
                   2
                   2
                   2
                   2
                   2
                   2
                   2
                   2
                   2
                   2
                   2
                   2
                   2
                   2
                   2
                   2
                   2
                   2
                   2
                   2
                   2
                   2
                   2
                   2
                   2
                   2
                   2
                   2
                   2
                   2
                   2
                   2
                   2
                   2
                   2
                   2
                   2
                   2
                   2
                   2
                   2
                   2
                   2
                   2
                   2
                   2
                   2
                   2
                   2
                   2
                   2
                   2
                   2
                   2
                   2
                   2
                   2
                   2
                   2
                   2
                   2
                   2
                   2
                   2
                   2
                   2
                   2
                   2
                   2
                   2
                   2
                   2
                   2
                   2
                   2
                   2
                   2
                   2
                   2
                   2
                   2
                   2
                   2
                   2
                   2
                   2
                   2
                   2
                   2
                   2
                   2
                   2
                   2
                   2
                   2
                   2
                   2
                   2
                   2
                   2
                   2
                   2
                   2
                   2
                   2
                   2
                   2
                   2
                   2
                   2
                   2
                   2
                   2
                   2
                   2
                   2
                   2
                   2
                   2
                   2
                   2
                   2
                   2
                   2
                   2
                   2
                   2
                   2
                   2
                   2
                   2
                   2
                   2
                   2
                   2
                   2
                   2
                   2
                   2
                   2
                   2
                   2
                   2
                   2
                   2
                   2
                   2
                   2
                   2
                   2
                   2
                   2
                   2
                   2
                   2
                   2
                   2
                   2
                   2
                   2
                   2
                   2
                   2
                   2
                   2
                   2
                   2
                   2
  
SCALARS                        node_id  double 1
LOOKUP_TABLE default
                   1
                   2
                   3
                   4
                   5
                   6
                   7
                   8
                   9
                  10
                  11
                  12
                  13
                  14
                  15
                  16
                  17
                  18
                  19
                  20
                  21
                  22
                  23
                  24
                  25
                  26
                  27
                  28
                  29
                  30
                  31
                  32
                  33
                  34
                  35
                  36
                  37
                  38
                  39
                  40
                  41
                  42
                  43
                  44
                  45
                  46
                  47
                  48
                  49
                  50
                  51
                  52
                  53
                  54
                  55
                  56
                  57
                  58
                  59
                  60
                  61
                  62
                  63
                  64
                  65
                  66
                  67
                  68
                  69
                  70
                  71
                  72
                  73
                  74
                  75
                  76
                  77
                  78
                  79
                  80
                  81
                  82
                  83
                  84
                  85
                  86
                  87
                  88
                  89
                  90
                  91
                  92
                  93
                  94
                  95
                  96
                  97
                  98
                  99
                 100
                 101
                 102
                 103
                 104
                 105
                 106
                 107
                 108
                 109
                 110
                 111
                 112
                 113
                 114
                 115
                 116
                 117
                 118
                 119
                 120
                 121
                 122
                 123
                 124
                 125
                 126
                 127
                 128
                 129
                 130
                 131
                 132
                 133
                 134
                 135
                 136
                 137
                 138
                 139
                 140
                 141
                 142
                 143
                 144
                 145
                 146
                 147
                 148
                 149
                 150
                 151
                 152
                 153
                 154
                 155
                 156
                 157
                 158
                 159
                 160
                 161
                 162
                 163
                 164
                 165
                 166
                 167
                 168
                 169
                 170
                 171
                 172
                 173
                 174
                 175
                 176
                 177
                 178
                 179
                 180
                 181
                 182
                 183
                 184
                 185
                 186
                 187
                 188
                 189
                 190
                 191
                 192
                 193
                 194
                 195
                 196
                 197
                 198
                 199
                 200
                 201
                 202
                 203
                 204
                 205
                 206
                 207
                 208
                 209
                 210
                 211
                 212
                 213
                 214
                 215
                 216
                 217
                 218
                 219
                 220
                 221
                 222
                 223
                 224
                 225
                 226
                 227
                 228
                 229
                 230
                 231
                 232
                 233
                 234
                 235
                 236
                 237
                 238
                 239
                 240
                 241
                 242
                 243
                 244
                 245
                 246
                 247
                 248
                 249
                 250
                 251
                 252
                 253
                 254
                 255
                 256
                 257
                 258
                 259
                 260
                 261
                 262
                 263
                 264
                 265
                 266
                 267
                 268
                 269
                 270
                 271
                 272
                 273
                 274
                 275
                 276
                 277
                 278
                 279
                 280
                 281
                 282
                 283
                 284
                 285
                 286
                 287
                 288
                 289
                 290
                 291
                 292
                 293
                 294
                 295
                 296
                 297
                 298
                 299
                 300
                 301
                 302
                 303
                 304
                 305
                 306
                 307
                 308
                 309
                 310
                 311
                 312
                 313
                 314
                 315
                 316
                 317
                 318
                 319
                 320
                 321
                 322
                 323
                 324
                 325
                 326
                 327
                 328
                 329
                 330
                 331
                 332
                 333
                 334
                 335
                 336
                 337
                 338
                 339
                 340
                 341
                 342
                 343
                 344
                 345
                 346
                 347
                 348
                 349
                 350
                 351
                 352
                 353
                 354
                 355
                 356
                 357
                 358
                 359
                 360
                 361
                 362
                 363
                 364
                 365
                 366
                 367
                 368
                 369
                 370
                 371
                 372
                 373
                 374
                 375
                 376
                 377
                 378
                 379
                 380
                 381
                 382
                 383
                 384
                 385
                 386
                 387
                 388
                 389
                 390
                 391
                 392
                 393
                 394
                 395
                 396
                 397
                 398
                 399
                 400
                 401
                 402
                 403
                 404
                 405
                 406
                 407
                 408
                 409
                 410
                 411
                 412
                 413
                 414
                 415
                 416
                 417
                 418
                 419
                 420
                 421
                 422
                 423
                 424
                 425
                 426
                 427
                 428
                 429
                 430
                 431
                 432
                 433
                 434
                 435
                 436
                 437
                 438
                 439
                 440
                 441
                 442
                 443
                 444
                 445
                 446
                 447
                 448
                 449
                 450
                 451
                 452
                 453
                 454
                 455
                 456
                 457
                 458
                 459
                 460
                 461
                 462
                 463
                 464
                 465
                 466
                 467
                 468
                 469
                 470
                 471
                 472
                 473
                 474
                 475
                 476
                 477
                 478
                 479
                 480
                 481
                 482
                 483
                 484
                 485
                 486
                 487
                 488
                 489
                 490
                 491
                 492
                 493
                 494
                 495
                 496
                 497
                 498
                 499
                 500
                 501
                 502
                 503
                 504
                 505
                 506
                 507
                 508
                 509
                 510
                 511
                 512
                 513
                 514
                 515
                 516
                 517
                 518
                 519
                 520
                 521
                 522
                 523
                 524
                 525
                 526
                 527
                 528
                 529
                 530
                 531
                 532
                 533
                 534
                 535
                 536
                 537
                 538
                 539
                 540
                 541
                 542
                 543
                 544
                 545
                 546
                 547
                 548
                 549
                 550
                 551
                 552
                 553
                 554
                 555
                 556
                 557
                 558
                 559
                 560
                 561
                 562
                 563
                 564
                 565
                 566
                 567
                 568
                 569
                 570
                 571
                 572
                 573
                 574
                 575
                 576
                 577
                 578
                 579
                 580
                 581
                 582
                 583
                 584
                 585
                 586
                 587
                 588
                 589
                 590
                 591
                 592
                 593
                 594
                 595
                 596
                 597
                 598
                 599
                 600
                 601
                 602
                 603
                 604
                 605
                 606
                 607
                 608
                 609
                 610
                 611
                 612
                 613
                 614
                 615
                 616
                 617
                 618
                 619
                 620
                 621
                 622
                 623
                 624
                 625
                 626
                 627
                 628
                 629
                 630
                 631
                 632
                 633
                 634
                 635
                 636
                 637
                 638
                 639
                 640
                 641
                 642
                 643
                 644
                 645
                 646
                 647
                 648
                 649
                 650
                 651
                 652
                 653
                 654
                 655
                 656
                 657
                 658
                 659
                 660
                 661
                 662
                 663
                 664
                 665
                 666
                 667
                 668
                 669
                 670
                 671
                 672
                 673
                 674
                 675
                 676
                 677
                 678
                 679
                 680
                 681
                 682
                 683
                 684
                 685
                 686
                 687
                 688
                 689
                 690
                 691
                 692
                 693
                 694
                 695
                 696
                 697
                 698
                 699
                 700
                 701
                 702
                 703
                 704
                 705
                 706
                 707
                 708
                 709
                 710
                 711
                 712
                 713
                 714
                 715
                 716
                 717
                 718
                 719
                 720
                 721
                 722
                 723
                 724
                 725
                 726
                 727
                 728
                 729
                 730
                 731
                 732
                 733
                 734
                 735
                 736
                 737
                 738
                 739
                 740
                 741
                 742
                 743
                 744
                 745
                 746
                 747
                 748
                 749
                 750
                 751
                 752
                 753
                 754
                 755
                 756
                 757
                 758
                 759
                 760
                 761
                 762
                 763
                 764
                 765
                 766
                 767
                 768
                 769
                 770
                 771
                 772
                 773
                 774
                 775
                 776
                 777
                 778
                 779
                 780
                 781
                 782
                 783
                 784
                 785
                 786
                 787
                 788
                 789
                 790
                 791
                 792
                 793
                 794
                 795
                 796
                 797
                 798
                 799
                 800
                 801
                 802
                 803
                 804
                 805
                 806
                 807
                 808
                 809
                 810
                 811
                 812
                 813
                 814
                 815
                 816
                 817
                 818
                 819
                 820
                 821
                 822
                 823
                 824
                 825
                 826
                 827
                 828
                 829
                 830
                 831
                 832
                 833
                 834
                 835
                 836
                 837
                 838
                 839
                 840
                 841
                 842
                 843
                 844
                 845
                 846
                 847
                 848
                 849
                 850
                 851
                 852
                 853
                 854
                 855
                 856
                 857
                 858
                 859
                 860
                 861
                 862
                 863
                 864
                 865
                 866
                 867
                 868
                 869
                 870
                 871
                 872
                 873
                 874
                 875
                 876
                 877
                 878
                 879
                 880
                 881
                 882
                 883
                 884
                 885
                 886
                 887
                 888
                 889
                 890
                 891
                 892
                 893
                 894
                 895
                 896
                 897
                 898
                 899
                 900
                 901
                 902
                 903
                 904
                 905
                 906
                 907
                 908
                 909
                 910
                 911
                 912
                 913
                 914
                 915
                 916
                 917
                 918
                 919
                 920
                 921
                 922
                 923
                 924
                 925
                 926
                 927
                 928
                 929
                 930
                 931
                 932
                 933
                 934
                 935
                 936
                 937
                 938
                 939
                 940
                 941
                 942
                 943
                 944
                 945
                 946
                 947
                 948
                 949
                 950
                 951
                 952
                 953
                 954
                 955
                 956
                 957
                 958
                 959
                 960
                 961
                 962
                 963
                 964
                 965
                 966
                 967
                 968
                 969
                 970
                 971
                 972
                 973
                 974
                 975
                 976
                 977
                 978
                 979
                 980
                 981
                 982
                 983
                 984
                 985
                 986
                 987
                 988
                 989
                 990
                 991
                 992
                 993
                 994
                 995
                 996
                 997
                 998
                 999
                1000
                1001
                1002
                1003
                1004
                1005
                1006
                1007
                1008
                1009
                1010
                1011
                1012
                1013
                1014
                1015
                1016
                1017
                1018
                1019
                1020
                1021
                1022
                1023
                1024
                1025
                1026
                1027
                1028
                1029
                1030
                1031
                1032
                1033
                1034
                1035
                1036
                1037
                1038
                1039
                1040
                1041
                1042
                1043
                1044
                1045
                1046
                1047
                1048
                1049
                1050
                1051
                1052
                1053
                1054
                1055
                1056
                1057
                1058
                1059
                1060
                1061
                1062
                1063
                1064
                1065
                1066
                1067
                1068
                1069
                1070
                1071
                1072
                1073
                1074
                1075
                1076
                1077
                1078
                1079
                1080
                1081
                1082
                1083
                1084
                1085
                1086
                1087
                1088
                1089
                1090
                1091
                1092
                1093
                1094
                1095
                1096
                1097
                1098
                1099
                1100
                1101
                1102
                1103
                1104
                1105
                1106
                1107
                1108
                1109
                1110
                1111
                1112
                1113
                1114
                1115
                1116
                1117
                1118
                1119
                1120
                1121
                1122
                1123
                1124
                1125
                1126
                1127
                1128
                1129
                1130
                1131
                1132
                1133
                1134
                1135
                1136
                1137
                1138
                1139
                1140
                1141
                1142
                1143
                1144
                1145
                1146
                1147
                1148
                1149
                1150
                1151
                1152
                1153
                1154
                1155
                1156
                1157
                1158
                1159
                1160
                1161
                1162
                1163
                1164
                1165
                1166
                1167
                1168
                1169
                1170
                1171
                1172
                1173
                1174
                1175
                1176
                1177
                1178
                1179
                1180
                1181
                1182
                1183
                1184
                1185
                1186
                1187
                1188
                1189
                1190
                1191
                1192
                1193
                1194
                1195
                1196
                1197
                1198
                1199
                1200
                1201
                1202
                1203
                1204
                1205
                1206
                1207
                1208
                1209
                1210
                1211
                1212
                1213
                1214
                1215
                1216
                1217
                1218
                1219
                1220
                1221
                1222
                1223
                1224
                1225
                1226
                1227
                1228
                1229
                1230
                1231
                1232
                1233
                1234
                1235
                1236
                1237
                1238
                1239
                1240
                1241
                1242
                1243
                1244
                1245
                1246
                1247
                1248
                1249
                1250
                1251
                1252
                1253
                1254
                1255
                1256
                1257
                1258
                1259
                1260
                1261
                1262
                1263
                1264
                1265
                1266
                1267
                1268
                1269
                1270
                1271
                1272
                1273
                1274
                1275
                1276
                1277
                1278
                1279
                1280
                1281
                1282
                1283
                1284
                1285
                1286
                1287
                1288
                1289
                1290
                1291
                1292
                1293
                1294
                1295
                1296
                1297
                1298
                1299
                1300
                1301
                1302
                1303
                1304
                1305
                1306
                1307
                1308
                1309
                1310
                1311
                1312
                1313
                1314
                1315
                1316
                1317
                1318
                1319
                1320
                1321
                1322
                1323
                1324
                1325
                1326
                1327
                1328
                1329
                1330
                1331
                1332
                1333
                1334
                1335
                1336
                1337
                1338
                1339
                1340
                1341
                1342
                1343
                1344
                1345
                1346
                1347
                1348
                1349
                1350
                1351
                1352
                1353
                1354
                1355
                1356
                1357
                1358
                1359
                1360
                1361
                1362
                1363
                1364
                1365
                1366
                1367
                1368
                1369
                1370
                1371
                1372
                1373
                1374
                1375
                1376
                1377
                1378
                1379
                1380
                1381
                1382
                1383
                1384
                1385
                1386
                1387
                1388
                1389
                1390
                1391
                1392
                1393
                1394
                1395
                1396
                1397
                1398
                1399
                1400
                1401
                1402
                1403
                1404
                1405
                1406
                1407
                1408
                1409
                1410
                1411
                1412
                1413
                1414
                1415
                1416
                1417
                1418
                1419
                1420
                1421
                1422
                1423
                1424
                1425
                1426
                1427
                1428
                1429
                1430
                1431
                1432
                1433
                1434
                1435
                1436
                1437
                1438
                1439
                1440
                1441
                1442
                1443
                1444
                1445
                1446
                1447
                1448
                1449
                1450
                1451
                1452
                1453
                1454
                1455
                1456
                1457
                1458
                1459
                1460
                1461
                1462
                1463
                1464
                1465
                1466
                1467
                1468
                1469
                1470
                1471
                1472
                1473
                1474
                1475
                1476
                1477
                1478
                1479
                1480
                1481
                1482
                1483
                1484
                1485
                1486
                1487
                1488
                1489
                1490
                1491
                1492
                1493
                1494
                1495
                1496
                1497
                1498
                1499
                1500
                1501
                1502
                1503
                1504
                1505
                1506
                1507
                1508
                1509
                1510
                1511
                1512
                1513
                1514
                1515
                1516
                1517
                1518
                1519
                1520
                1521
                1522
                1523
                1524
                1525
                1526
                1527
                1528
                1529
                1530
                1531
                1532
                1533
                1534
                1535
                1536
                1537
                1538
                1539
                1540
                1541
                1542
                1543
                1544
                1545
                1546
                1547
                1548
                1549
                1550
                1551
                1552
                1553
                1554
                1555
                1556
                1557
                1558
                1559
                1560
                1561
                1562
                1563
                1564
                1565
                1566
                1567
                1568
                1569
                1570
                1571
                1572
                1573
                1574
                1575
                1576
                1577
                1578
                1579
                1580
                1581
                1582
                1583
                1584
                1585
                1586
                1587
                1588
                1589
                1590
                1591
                1592
                1593
                1594
                1595
                1596
                1597
                1598
                1599
                1600
                1601
                1602
                1603
                1604
                1605
                1606
                1607
                1608
                1609
                1610
                1611
                1612
                1613
                1614
                1615
                1616
                1617
                1618
                1619
                1620
                1621
                1622
                1623
                1624
                1625
                1626
                1627
                1628
                1629
                1630
                1631
                1632
                1633
                1634
                1635
                1636
                1637
                1638
                1639
                1640
                1641
                1642
                1643
                1644
                1645
                1646
                1647
                1648
                1649
                1650
                1651
                1652
                1653
                1654
                1655
                1656
                1657
                1658
                1659
                1660
                1661
                1662
                1663
                1664
                1665
                1666
                1667
                1668
                1669
                1670
                1671
                1672
                1673
                1674
                1675
                1676
                1677
                1678
                1679
                1680
                1681
                1682
                1683
                1684
                1685
                1686
                1687
                1688
                1689
                1690
                1691
                1692
                1693
                1694
                1695
                1696
                1697
                1698
                1699
                1700
                1701
                1702
                1703
                1704
                1705
                1706
                1707
                1708
                1709
                1710
                1711
                1712
                1713
                1714
                1715
                1716
                1717
                1718
                1719
                1720
                1721
                1722
                1723
                1724
                1725
                1726
                1727
                1728
                1729
                1730
                1731
                1732
                1733
                1734
                1735
                1736
                1737
                1738
                1739
                1740
                1741
                1742
                1743
                1744
                1745
                1746
                1747
                1748
                1749
                1750
                1751
                1752
                1753
                1754
                1755
                1756
                1757
                1758
                1759
                1760
                1761
                1762
                1763
                1764
                1765
                1766
                1767
                1768
                1769
                1770
                1771
                1772
                1773
                1774
                1775
                1776
                1777
                1778
                1779
                1780
                1781
                1782
                1783
                1784
                1785
                1786
                1787
                1788
                1789
                1790
                1791
                1792
                1793
                1794
                1795
                1796
                1797
                1798
                1799
                1800
                1801
                1802
                1803
                1804
                1805
                1806
                1807
                1808
                1809
                1810
                1811
                1812
                1813
                1814
                1815
                1816
                1817
                1818
                1819
                1820
                1821
                1822
                1823
                1824
                1825
                1826
                1827
                1828
                1829
                1830
                1831
                1832
                1833
                1834
                1835
                1836
                1837
                1838
                1839
                1840
                1841
                1842
                1843
                1844
                1845
                1846
                1847
                1848
                1849
                1850
                1851
                1852
                1853
                1854
                1855
                1856
                1857
                1858
                1859
                1860
                1861
                1862
                1863
                1864
                1865
                1866
                1867
                1868
                1869
                1870
                1871
                1872
                1873
                1874
                1875
                1876
                1877
                1878
                1879
                1880
                1881
                1882
                1883
                1884
                1885
                1886
                1887
                1888
                1889
                1890
                1891
                1892
                1893
                1894
                1895
                1896
                1897
                1898
                1899
                1900
                1901
                1902
                1903
                1904
                1905
                1906
                1907
                1908
                1909
                1910
                1911
                1912
                1913
                1914
                1915
                1916
                1917
                1918
                1919
                1920
                1921
                1922
                1923
                1924
                1925
                1926
                1927
                1928
                1929
                1930
                1931
                1932
                1933
                1934
                1935
                1936
                1937
                1938
                1939
                1940
                1941
                1942
                1943
                1944
                1945
                1946
                1947
                1948
                1949
                1950
  
SCALARS                         bodyid  double 1
LOOKUP_TABLE default
                   1
                   1
                   1
                   1
                   1
                   1
                   1
                   1
                   1
                   1
                   1
                   1
                   1
                   1
                   1
                   1
                   1
                   1
                   1
                   1
                   1
                   1
                   1
                   1
                   1
                   1
                   1
                   1
                   1
                   1
                   1
                   1
                   1
                   1
                   1
                   1
                   1
                   1
                   1
                   1
                   1
                   1
                   1
                   1
                   1
                   1
                   1
                   1
                   1
                   1
                   1
                   1
                   1
                   1
                   1
                   1
                   1
                   1
                   1
                   1
                   1
                   1
                   1
                   1
                   1
                   1
                   1
                   1
                   1
                   1
                   1
                   1
                   1
                   1
                   1
                   1
                   1
                   1
                   1
                   1
                   1
                   1
                   1
                   1
                   1
                   1
                   1
                   1
                   1
                   1
                   1
                   1
                   1
                   1
                   1
                   1
                   1
                   1
                   1
                   1
                   1
                   1
                   1
                   1
                   1
                   1
                   1
                   1
                   1
                   1
                   1
                   1
                   1
                   1
                   1
                   1
                   1
                   1
                   1
                   1
                   1
                   1
                   1
                   1
                   1
                   1
                   1
                   1
                   1
                   1
                   1
                   1
                   1
                   1
                   1
                   1
                   1
                   1
                   1
                   1
                   1
                   1
                   1
                   1
                   1
                   1
                   1
                   1
                   1
                   1
                   1
                   1
                   1
                   1
                   1
                   1
                   1
                   1
                   1
                   1
                   1
                   1
                   1
                   1
                   1
                   1
                   1
                   1
                   1
                   1
                   1
                   1
                   1
                   1
                   1
                   1
                   1
                   1
                   1
                   1
                   1
                   1
                   1
                   1
                   1
                   1
                   1
                   1
                   1
                   1
                   1
                   1
                   1
                   1
                   1
                   1
                   1
                   1
                   1
                   1
                   1
                   1
                   1
                   1
                   1
                   1
                   1
                   1
                   1
                   1
                   1
                   1
                   1
                   1
                   1
                   1
                   1
                   1
                   1
                   1
                   1
                   1
                   1
                   1
                   1
                   1
                   1
                   1
                   1
                   1
                   1
                   1
                   1
                   1
                   1
                   1
                   1
                   1
                   1
                   1
                   1
                   1
                   1
                   1
                   1
                   1
                   1
                   1
                   1
                   1
                   1
                   1
                   1
                   1
                   1
                   1
                   1
                   1
                   1
                   1
                   1
                   1
                   1
                   1
                   1
                   1
                   1
                   1
                   1
                   1
                   1
                   1
                   1
                   1
                   1
                   1
                   1
                   1
                   1
                   1
                   1
                   1
                   1
                   1
                   1
                   1
                   1
                   1
                   1
                   1
                   1
                   1
                   1
                   1
                   1
                   1
                   1
                   1
                   1
                   1
                   1
                   1
                   1
                   1
                   1
                   1
                   1
                   1
                   1
                   1
                   1
                   1
                   1
                   1
                   1
                   1
                   1
                   1
                   1
                   1
                   1
                   1
                   1
                   1
                   1
                   1
                   1
                   1
                   1
                   1
                   1
                   1
                   1
                   1
                   1
                   1
                   1
                   1
                   1
                   1
                   1
                   1
                   1
                   1
                   1
                   1
                   1
                   1
                   1
                   1
                   1
                   1
                   1
                   1
                   1
                   1
                   1
                   1
                   1
                   1
                   1
                   1
                   1
                   1
                   1
                   1
                   1
                   1
                   1
                   1
                   1
                   1
                   1
                   1
                   1
                   1
                   1
                   1
                   1
                   1
                   1
                   1
                   1
                   1
                   1
                   1
                   1
                   1
                   1
                   1
                   1
                   1
                   1
                   1
                   1
                   1
                   1
                   1
                   1
                   1
                   1
                   1
                   1
                   1
                   1
                   1
                   1
                   1
                   1
                   1
                   1
                   1
                   1
                   1
                   1
                   1
                   1
                   1
                   1
                   1
                   1
                   1
                   1
                   1
                   1
                   1
                   1
                   1
                   1
                   1
                   1
                   1
                   1
                   1
                   1
                   1
                   1
                   1
                   1
                   1
                   1
                   1
                   1
                   1
                   1
                   1
                   1
                   1
                   1
                   1
                   1
                   1
                   1
                   1
                   1
                   1
                   1
                   1
                   1
                   1
                   1
                   1
                   1
                   1
                   1
                   1
                   1
                   1
                   1
                   1
                   1
                   1
                   1
                   1
                   1
                   1
                   1
                   1
                   1
                   1
                   1
                   1
                   1
                   1
                   1
                   1
                   1
                   1
                   1
                   1
                   1
                   1
                   1
                   1
                   1
                   1
                   1
                   1
                   1
                   1
                   1
                   1
                   1
                   1
                   1
                   1
                   1
                   1
                   1
                   1
                   1
                   1
                   1
                   1
                   1
                   1
                   1
                   1
                   1
                   1
                   1
                   1
                   1
                   1
                   1
                   1
                   1
                   1
                   1
                   1
                   1
                   1
                   1
                   1
                   1
                   1
                   1
                   1
                   1
                   1
                   1
                   1
                   1
                   1
                   1
                   1
                   1
                   1
                   1
                   1
                   1
                   1
                   1
                   1
                   1
                   1
                   1
                   1
                   1
                   1
                   1
                   1
                   1
                   1
                   1
                   1
                   1
                   1
                   1
                   1
                   1
                   1
                   1
                   1
                   1
                   1
                   1
                   1
                   1
                   1
                   1
                   1
                   1
                   1
                   1
                   1
                   1
                   1
                   1
                   1
                   1
                   1
                   1
                   1
                   1
                   1
                   1
                   1
                   1
                   1
                   1
                   1
                   1
                   1
                   1
                   1
                   1
                   1
                   1
                   1
                   1
                   1
                   1
                   1
                   1
                   1
                   1
                   1
                   1
                   1
                   1
                   1
                   1
                   1
                   1
                   1
                   1
                   1
                   1
                   1
                   1
                   1
                   1
                   1
                   1
                   1
                   1
                   1
                   1
                   1
                   1
                   1
                   1
                   1
                   1
                   1
                   1
                   1
                   1
                   1
                   1
                   1
                   1
                   1
                   1
                   1
                   1
                   1
                   1
                   1
                   1
                   1
                   1
                   1
                   1
                   1
                   1
                   1
                   1
                   1
                   1
                   1
                   1
                   1
                   1
                   1
                   1
                   1
                   1
                   1
                   1
                   1
                   1
                   1
                   1
                   1
                   1
                   1
                   1
                   1
                   1
                   1
                   1
                   1
                   1
                   1
                   1
                   1
                   1
                   1
                   1
                   1
                   1
                   1
                   1
                   1
                   1
                   1
                   1
                   1
                   1
                   1
                   1
                   1
                   1
                   1
                   1
                   1
                   1
                   1
                   1
                   1
                   1
                   1
                   1
                   1
                   1
                   1
                   1
                   1
                   1
                   1
                   1
                   1
                   1
                   1
                   1
                   1
                   1
                   1
                   1
                   1
                   1
                   1
                   1
                   1
                   1
                   1
                   1
                   1
                   1
                   1
                   1
                   1
                   1
                   1
                   1
                   1
                   1
                   1
                   1
                   1
                   1
                   1
                   1
                   1
                   1
                   1
                   1
                   1
                   1
                   1
                   1
                   1
                   1
                   1
                   1
                   1
                   1
                   1
                   1
                   1
                   1
                   1
                   1
                   1
                   1
                   1
                   1
                   1
                   1
                   1
                   1
                   1
                   1
                   1
                   1
                   1
                   1
                   1
                   1
                   1
                   1
                   1
                   1
                   1
                   1
                   1
                   1
                   1
                   1
                   1
                   1
                   1
                   1
                   1
                   1
                   1
                   1
                   1
                   1
                   1
                   1
                   1
                   1
                   1
                   1
                   1
                   1
                   1
                   1
                   1
                   1
                   1
                   1
                   1
                   1
                   1
                   1
                   1
                   1
                   1
                   1
                   1
                   1
                   1
                   1
                   1
                   1
                   1
                   1
                   1
                   1
                   1
                   1
                   1
                   1
                   1
                   1
                   1
                   1
                   1
                   1
                   1
                   1
                   1
                   1
                   1
                   1
                   1
                   1
                   1
                   1
                   1
                   1
                   1
                   1
                   1
                   1
                   1
                   1
                   1
                   1
                   1
                   1
                   1
                   1
                   1
                   1
                   1
                   1
                   1
                   1
                   1
                   1
                   1
                   1
                   1
                   1
                   1
                   1
                   1
                   1
                   1
                   1
                   1
                   1
                   1
                   1
                   1
                   1
                   1
                   1
                   1
                   1
                   1
                   1
                   1
                   1
                   1
                   1
                   1
                   1
                   1
                   1
                   1
                   1
                   1
                   1
                   1
                   1
                   1
                   1
                   1
                   1
                   1
                   1
                   1
                   1
                   1
                   1
                   1
                   1
                   1
                   1
                   1
                   1
                   1
                   1
                   1
                   1
                   1
                   1
                   1
                   1
                   1
                   1
                   1
                   1
                   1
                   1
                   1
                   1
                   1
                   1
                   1
                   1
                   1
                   1
                   1
                   1
                   1
                   1
                   1
                   1
                   1
                   1
                   1
                   1
                   1
                   1
                   1
                   1
                   1
                   1
                   1
                   1
                   1
                   1
                   1
                   1
                   1
                   1
                   1
                   1
                   1
                   1
                   1
                   1
                   1
                   1
                   1
                   1
                   1
                   1
                   1
                   1
                   1
                   1
                   1
                   1
                   1
                   1
                   1
                   1
                   1
                   1
                   1
                   1
                   1
                   1
                   1
                   1
                   1
                   1
                   1
                   1
                   1
                   1
                   1
                   1
                   1
                   1
                   1
                   1
                   1
                   1
                   1
                   1
                   1
                   1
                   1
                   1
                   1
                   1
                   1
                   1
                   1
                   1
                   1
                   1
                   1
                   1
                   1
                   1
                   1
                   1
                   1
                   1
                   1
                   1
                   1
                   1
                   1
                   1
                   1
                   1
                   1
                   1
                   1
                   1
                   1
                   1
                   1
                   1
                   1
                   1
                   1
                   1
                   1
                   1
                   1
                   1
                   1
                   1
                   1
                   1
                   1
                   1
                   1
                   1
                   1
                   1
                   1
                   1
                   1
                   1
                   1
                   1
                   1
                   1
                   1
                   1
                   1
                   1
                   1
                   1
                   1
                   1
                   1
                   1
                   1
                   1
                   1
                   1
                   1
                   1
                   1
                   1
                   1
                   1
                   1
                   1
                   1
                   1
                   1
                   1
                   1
                   1
                   1
                   1
                   1
                   1
                   1
                   1
                   1
                   1
                   1
                   1
                   1
                   1
                   1
                   1
                   1
                   1
                   1
                   1
                   1
                   1
                   1
                   1
                   1
                   1
                   1
                   1
                   1
                   1
                   1
                   1
                   1
                   1
                   1
                   1
                   1
                   1
                   1
                   1
                   1
                   1
                   1
                   1
                   1
                   1
                   1
                   1
                   1
                   1
                   1
                   1
                   1
                   1
                   1
                   1
                   1
                   1
                   1
                   1
                   1
                   1
                   1
                   1
                   1
                   1
                   1
                   1
                   1
                   1
                   1
                   1
                   1
                   1
                   1
                   1
                   1
                   1
                   1
                   1
                   1
                   1
                   1
                   1
                   1
                   1
                   1
                   1
                   1
                   1
                   1
                   1
                   1
                   1
                   1
                   1
                   1
                   1
                   1
                   1
                   1
                   1
                   1
                   1
                   1
                   1
                   1
                   1
                   1
                   1
                   1
                   1
                   1
                   1
                   1
                   1
                   1
                   1
                   1
                   1
                   1
                   1
                   1
                   1
                   1
                   1
                   1
                   1
                   1
                   1
                   1
                   1
                   1
                   1
                   1
                   1
                   1
                   1
                   1
                   1
                   1
                   1
                   1
                   1
                   1
                   1
                   1
                   1
                   1
                   1
                   1
                   1
                   1
                   1
                   1
                   1
                   1
                   1
                   1
                   1
                   1
                   1
                   1
                   1
                   1
                   1
                   1
                   1
                   1
                   1
                   1
                   1
                   1
                   1
                   1
                   1
                   1
                   1
                   1
                   1
                   1
                   1
                   1
                   1
                   1
                   1
                   1
                   1
                   1
                   1
                   1
                   1
                   1
                   1
                   1
                   1
                   1
                   1
                   1
                   1
                   1
                   1
                   1
                   1
                   1
                   1
                   1
                   1
                   1
                   1
                   1
                   1
                   1
                   1
                   1
                   1
                   1
                   1
                   1
                   1
                   1
                   1
                   1
                   1
                   1
                   1
                   1
                   1
                   1
                   1
                   1
                   1
                   1
                   1
                   1
                   1
                   1
                   1
                   1
                   1
                   1
                   1
                   1
                   1
                   1
                   1
                   1
                   1
                   1
                   1
                   1
                   1
                   1
                   1
                   1
                   1
                   1
                   1
                   1
                   1
                   1
                   1
                   1
                   1
                   1
                   1
                   1
                   1
                   1
                   1
                   1
                   1
                   1
                   1
                   1
                   1
                   1
                   1
                   1
                   1
                   1
                   1
                   1
                   1
                   1
                   1
                   1
                   1
                   1
                   1
                   1
                   1
                   1
                   1
                   1
                   1
                   1
                   1
                   1
                   1
                   1
                   1
                   1
                   1
                   1
                   1
                   1
                   1
                   1
                   1
                   1
                   1
                   1
                   1
                   1
                   1
                   1
                   1
                   1
                   1
                   1
                   1
                   1
                   1
                   1
                   1
                   1
                   1
                   1
                   1
                   1
                   1
                   1
                   1
                   1
                   1
                   1
                   1
                   1
                   1
                   1
                   1
                   1
                   1
                   1
                   1
                   1
                   1
                   1
                   1
                   1
                   1
                   1
                   1
                   1
                   1
                   1
                   1
                   1
                   1
                   1
                   1
                   1
                   1
                   1
                   1
                   1
                   1
                   1
                   1
                   1
                   1
                   1
                   1
                   1
                   1
                   1
                   1
                   1
                   1
                   1
                   1
                   1
                   1
                   1
                   1
                   1
                   1
                   1
                   1
                   1
                   1
                   1
                   1
                   1
                   1
                   1
                   1
                   1
                   1
                   1
                   1
                   1
                   1
                   1
                   1
                   1
                   1
                   1
                   1
                   1
                   1
                   1
                   1
                   1
                   1
                   1
                   1
                   1
                   1
                   1
                   1
                   1
                   1
                   1
                   1
                   1
                   1
                   1
                   1
                   1
                   1
                   1
                   1
                   1
                   1
                   1
                   1
                   1
                   1
                   1
                   1
                   1
                   1
                   1
                   1
                   1
                   1
                   1
                   1
                   1
                   1
                   1
                   1
                   1
                   1
                   1
                   1
                   1
                   1
                   1
                   1
                   1
                   1
                   1
                   1
                   1
                   1
                   1
                   1
                   1
                   1
                   1
                   1
                   1
                   1
                   1
                   1
                   1
                   1
                   1
                   1
                   1
                   1
                   1
                   1
                   1
                   1
                   1
                   1
                   1
                   1
                   1
                   1
                   1
                   1
                   1
                   1
                   1
                   1
                   1
                   1
                   1
                   1
                   1
                   1
                   1
                   1
                   1
                   1
                   1
                   1
                   1
                   1
                   1
                   1
                   1
                   1
                   1
                   1
                   1
                   1
                   1
                   1
                   1
                   1
                   1
                   1
                   1
                   1
                   1
                   1
                   1
                   1
                   1
                   1
                   1
                   1
                   1
                   1
                   1
                   1
                   1
                   1
                   1
                   1
                   1
                   1
                   1
                   1
                   1
                   1
                   1
                   1
                   1
                   1
                   1
                   1
                   1
                   1
                   1
                   1
                   1
                   1
                   1
                   1
                   1
                   1
                   1
                   1
                   1
                   1
                   1
                   1
                   1
                   1
                   1
                   1
                   1
                   1
                   1
                   1
                   1
                   1
                   1
                   1
                   1
                   1
                   1
                   1
                   1
                   1
                   1
                   1
                   1
                   1
                   1
                   1
                   1
                   1
                   1
                   1
                   1
                   1
                   1
                   1
                   1
                   1
                   1
                   1
                   1
                   1
                   1
                   1
                   1
                   1
                   1
                   1
                   1
                   1
                   1
                   1
                   1
                   1
                   1
                   1
                   1
                   1
                   1
                   1
                   1
                   1
                   1
                   1
                   1
                   1
                   1
                   1
                   1
                   1
                   1
                   1
                   1
                   1
                   1
                   1
                   1
                   1
                   1
                   1
                   1
                   1
                   1
                   1
                   1
                   1
                   1
                   1
                   1
                   1
                   1
                   1
                   1
                   1
                   1
                   1
                   1
                   1
                   1
                   1
                   1
                   1
                   1
                   1
                   1
                   1
                   1
                   1
                   1
                   1
                   1
                   1
                   1
                   1
                   1
                   1
                   1
                   1
                   1
                   1
                   1
                   1
                   1
                   1
                   1
                   1
                   1
                   1
                   1
                   1
                   1
                   1
                   1
                   1
                   1
                   1
                   1
                   1
                   1
                   1
                   1
                   1
                   1
                   1
                   1
                   1
                   1
                   1
                   1
                   1
                   1
                   1
                   1
                   1
                   1
                   1
                   1
                   1
                   1
                   1
                   1
                   1
                   1
                   1
                   1
                   1
                   1
                   1
                   1
                   1
                   1
                   1
                   1
                   1
                   1
                   1
                   1
                   1
                   1
                   1
                   1
                   1
                   1
                   1
                   1
                   1
                   1
                   1
                   1
                   1
                   1
                   1
                   1
                   1
                   1
                   1
                   1
                   1
                   1
                   1
                   1
                   1
                   1
                   1
                   1
                   1
                   1
                   1
                   1
                   1
                   1
                   1
                   1
                   1
                   1
                   1
                   1
                   1
                   1
                   1
                   1
                   1
                   1
                   1
                   1
                   1
                   1
                   1
                   1
                   1
                   1
                   1
                   1
                   1
                   1
                   1
                   1
                   1
                   1
                   1
                   1
                   1
                   1
                   1
                   1
                   1
                   1
                   1
                   1
                   1
                   1
                   1
                   1
  
SCALARS                  material_type  double 1
LOOKUP_TABLE default
                   2
                   2
                   2
                   2
                   2
                   2
                   2
                   2
                   2
                   2
                   2
                   2
                   2
                   2
                   2
                   2
                   2
                   2
                   2
                   2
                   2
                   2
                   2
                   2
                   2
                   2
                   2
                   2
                   2
                   2
                   2
                   2
                   2
                   2
                   2
                   2
                   2
                   2
                   2
                   2
                   2
                   2
                   2
                   2
                   2
                   2
                   2
                   2
                   2
                   2
                   2
                   2
                   2
                   2
                   2
                   2
                   2
                   2
                   2
                   2
                   2
                   2
                   2
                   2
                   2
                   2
                   2
                   2
                   2
                   2
                   2
                   2
                   2
                   2
                   2
                   2
                   2
                   2
                   2
                   2
                   2
                   2
                   2
                   2
                   2
                   2
                   2
                   2
                   2
                   2
                   2
                   2
                   2
                   2
                   2
                   2
                   2
                   2
                   2
                   2
                   2
                   2
                   2
                   2
                   2
                   2
                   2
                   2
                   2
                   2
                   2
                   2
                   2
                   2
                   2
                   2
                   2
                   2
                   2
                   2
                   2
                   2
                   2
                   2
                   2
                   2
                   2
                   2
                   2
                   2
                   2
                   2
                   2
                   2
                   2
                   2
                   2
                   2
                   2
                   2
                   2
                   2
                   2
                   2
                   2
                   2
                   2
                   2
                   2
                   2
                   2
                   2
                   2
                   2
                   2
                   2
                   2
                   2
                   2
                   2
                   2
                   2
                   2
                   2
                   2
                   2
                   2
                   2
                   2
                   2
                   2
                   2
                   2
                   2
                   2
                   2
                   2
                   2
                   2
                   2
                   2
                   2
                   2
                   2
                   2
                   2
                   2
                   2
                   2
                   2
                   2
                   2
                   2
                   2
                   2
                   2
                   2
                   2
                   2
                   2
                   2
                   2
                   2
                   2
                   2
                   2
                   2
                   2
                   2
                   2
                   2
                   2
                   2
                   2
                   2
                   2
                   2
                   2
                   2
                   2
                   2
                   2
                   2
                   2
                   2
                   2
                   2
                   2
                   2
                   2
                   2
                   2
                   2
                   2
                   2
                   2
                   2
                   2
                   2
                   2
                   2
                   2
                   2
                   2
                   2
                   2
                   2
                   2
                   2
                   2
                   2
                   2
                   2
                   2
                   2
                   2
                   2
                   2
                   2
                   2
                   2
                   2
                   2
                   2
                   2
                   2
                   2
                   2
                   2
                   2
                   2
                   2
                   2
                   2
                   2
                   2
                   2
                   2
                   2
                   2
                   2
                   2
                   2
                   2
                   2
                   2
                   2
                   2
                   2
                   2
                   2
                   2
                   2
                   2
                   2
                   2
                   2
                   2
                   2
                   2
                   2
                   2
                   2
                   2
                   2
                   2
                   2
                   2
                   2
                   2
                   2
                   2
                   2
                   2
                   2
                   2
                   2
                   2
                   2
                   2
                   2
                   2
                   2
                   2
                   2
                   2
                   2
                   2
                   2
                   2
                   2
                   2
                   2
                   2
                   2
                   2
                   2
                   2
                   2
                   2
                   2
                   2
                   2
                   2
                   2
                   2
                   2
                   2
                   2
                   2
                   2
                   2
                   2
                   2
                   2
                   2
                   2
                   2
                   2
                   2
                   2
                   2
                   2
                   2
                   2
                   2
                   2
                   2
                   2
                   2
                   2
                   2
                   2
                   2
                   2
                   2
                   2
                   2
                   2
                   2
                   2
                   2
                   2
                   2
                   2
                   2
                   2
                   2
                   2
                   2
                   2
                   2
                   2
                   2
                   2
                   2
                   2
                   2
                   2
                   2
                   2
                   2
                   2
                   2
                   2
                   2
                   2
                   2
                   2
                   2
                   2
                   2
                   2
                   2
                   2
                   2
                   2
                   2
                   2
                   2
                   2
                   2
                   2
                   2
                   2
                   2
                   2
                   2
                   2
                   2
                   2
                   2
                   2
                   2
                   2
                   2
                   2
                   2
                   2
                   2
                   2
                   2
                   2
                   2
                   2
                   2
                   2
                   2
                   2
                   2
                   2
                   2
                   2
                   2
                   2
                   2
                   2
                   2
                   2
                   2
                   2
                   2
                   2
                   2
                   2
                   2
                   2
                   2
                   2
                   2
                   2
                   2
                   2
                   2
                   2
                   2
                   2
                   2
                   2
                   2
                   2
                   2
                   2
                   2
                   2
                   2
                   2
                   2
                   2
                   2
                   2
                   2
                   2
                   2
                   2
                   2
                   2
                   2
                   2
                   2
                   2
                   2
                   2
                   2
                   2
                   2
                   2
                   2
                   2
                   2
                   2
                   2
                   2
                   2
                   2
                   2
                   2
                   2
                   2
                   2
                   2
                   2
                   2
                   2
                   2
                   2
                   2
                   2
                   2
                   2
                   2
                   2
                   2
                   2
                   2
                   2
                   2
                   2
                   2
                   2
                   2
                   2
                   2
                   2
                   2
                   2
                   2
                   2
                   2
                   2
                   2
                   2
                   2
                   2
                   2
                   2
                   2
                   2
                   2
                   2
                   2
                   2
                   2
                   2
                   2
                   2
                   2
                   2
                   2
                   2
                   2
                   2
                   2
                   2
                   2
                   2
                   2
                   2
                   2
                   2
                   2
                   2
                   2
                   2
                   2
                   2
                   2
                   2
                   2
                   2
                   2
                   2
                   2
                   2
                   2
                   2
                   2
                   2
                   2
                   2
                   2
                   2
                   2
                   2
                   2
                   2
                   2
                   2
                   2
                   2
                   2
                   2
                   2
                   2
                   2
                   2
                   2
                   2
                   2
                   2
                   2
                   2
                   2
                   2
                   2
                   2
                   2
                   2
                   2
                   2
                   2
                   2
                   2
                   2
                   2
                   2
                   2
                   2
                   2
                   2
                   2
                   2
                   2
                   2
                   2
                   2
                   2
                   2
                   2
                   2
                   2
                   2
                   2
                   2
                   2
                   2
                   2
                   2
                   2
                   2
                   2
                   2
                   2
                   2
                   2
                   2
                   2
                   2
                   2
                   2
                   2
                   2
                   2
                   2
                   2
                   2
                   2
                   2
                   2
                   2
                   2
                   2
                   2
                   2
                   2
                   2
                   2
                   2
                   2
                   2
                   2
                   2
                   2
                   2
                   2
                   2
                   2
                   2
                   2
                   2
                   2
                   2
                   2
                   2
                   2
                   2
                   2
                   2
                   2
                   2
                   2
                   2
                   2
                   2
                   2
                   2
                   2
                   2
                   2
                   2
                   2
                   2
                   2
                   2
                   2
                   2
                   2
                   2
                   2
                   2
                   2
                   2
                   2
                   2
                   2
                   2
                   2
                   2
                   2
                   2
                   2
                   2
                   2
                   2
                   2
                   2
                   2
                   2
                   2
                   2
                   2
                   2
                   2
                   2
                   2
                   2
                   2
                   2
                   2
                   2
                   2
                   2
                   2
                   2
                   2
                   2
                   2
                   2
                   2
                   2
                   2
                   2
                   2
                   2
                   2
                   2
                   2
                   2
                   2
                   2
                   2
                   2
                   2
                   2
                   2
                   2
                   2
                   2
                   2
                   2
                   2
                   2
                   2
                   2
                   2
                   2
                   2
                   2
                   2
                   2
                   2
                   2
                   2
                   2
                   2
                   2
                   2
                   2
                   2
                   2
                   2
                   2
                   2
                   2
                   2
                   2
                   2
                   2
                   2
                   2
                   2
                   2
                   2
                   2
                   2
                   2
                   2
                   2
                   2
                   2
                   2
                   2
                   2
                   2
                   2
                   2
                   2
                   2
                   2
                   2
                   2
                   2
                   2
                   2
                   2
                   2
                   2
                   2
                   2
                   2
                   2
                   2
                   2
                   2
                   2
                   2
                   2
                   2
                   2
                   2
                   2
                   2
                   2
                   2
                   2
                   2
                   2
                   2
                   2
                   2
                   2
                   2
                   2
                   2
                   2
                   2
                   2
                   2
                   2
                   2
                   2
                   2
                   2
                   2
                   2
                   2
                   2
                   2
                   2
                   2
                   2
                   2
                   2
                   2
                   2
                   2
                   2
                   2
                   2
                   2
                   2
                   2
                   2
                   2
                   2
                   2
                   2
                   2
                   2
                   2
                   2
                   2
                   2
                   2
                   2
                   2
                   2
                   2
                   2
                   2
                   2
                   2
                   2
                   2
                   2
                   2
                   2
                   2
                   2
                   2
                   2
                   2
                   2
                   2
                   2
                   2
                   2
                   2
                   2
                   2
                   2
                   2
                   2
                   2
                   2
                   2
                   2
                   2
                   2
                   2
                   2
                   2
                   2
                   2
                   2
                   2
                   2
                   2
                   2
                   2
                   2
                   2
                   2
                   2
                   2
                   2
                   2
                   2
                   2
                   2
                   2
                   2
                   2
                   2
                   2
                   2
                   2
                   2
                   2
                   2
                   2
                   2
                   2
                   2
                   2
                   2
                   2
                   2
                   2
                   2
                   2
                   2
                   2
                   2
                   2
                   2
                   2
                   2
                   2
                   2
                   2
                   2
                   2
                   2
                   2
                   2
                   2
                   2
                   2
                   2
                   2
                   2
                   2
                   2
                   2
                   2
                   2
                   2
                   2
                   2
                   2
                   2
                   2
                   2
                   2
                   2
                   2
                   2
                   2
                   2
                   2
                   2
                   2
                   2
                   2
                   2
                   2
                   2
                   2
                   2
                   2
                   2
                   2
                   2
                   2
                   2
                   2
                   2
                   2
                   2
                   2
                   2
                   2
                   2
                   2
                   2
                   2
                   2
                   2
                   2
                   2
                   2
                   2
                   2
                   2
                   2
                   2
                   2
                   2
                   2
                   2
                   2
                   2
                   2
                   2
                   2
                   2
                   2
                   2
                   2
                   2
                   2
                   2
                   2
                   2
                   2
                   2
                   2
                   2
                   2
                   2
                   2
                   2
                   2
                   2
                   2
                   2
                   2
                   2
                   2
                   2
                   2
                   2
                   2
                   2
                   2
                   2
                   2
                   2
                   2
                   2
                   2
                   2
                   2
                   2
                   2
                   2
                   2
                   2
                   2
                   2
                   2
                   2
                   2
                   2
                   2
                   2
                   2
                   2
                   2
                   2
                   2
                   2
                   2
                   2
                   2
                   2
                   2
                   2
                   2
                   2
                   2
                   2
                   2
                   2
                   2
                   2
                   2
                   2
                   2
                   2
                   2
                   2
                   2
                   2
                   2
                   2
                   2
                   2
                   2
                   2
                   2
                   2
                   2
                   2
                   2
                   2
                   2
                   2
                   2
                   2
                   2
                   2
                   2
                   2
                   2
                   2
                   2
                   2
                   2
                   2
                   2
                   2
                   2
                   2
                   2
                   2
                   2
                   2
                   2
                   2
                   2
                   2
                   2
                   2
                   2
                   2
                   2
                   2
                   2
                   2
                   2
                   2
                   2
                   2
                   2
                   2
                   2
                   2
                   2
                   2
                   2
                   2
                   2
                   2
                   2
                   2
                   2
                   2
                   2
                   2
                   2
                   2
                   2
                   2
                   2
                   2
                   2
                   2
                   2
                   2
                   2
                   2
                   2
                   2
                   2
                   2
                   2
                   2
                   2
                   2
                   2
                   2
                   2
                   2
                   2
                   2
                   2
                   2
                   2
                   2
                   2
                   2
                   2
                   2
                   2
                   2
                   2
                   2
                   2
                   2
                   2
                   2
                   2
                   2
                   2
                   2
                   2
                   2
                   2
                   2
                   2
                   2
                   2
                   2
                   2
                   2
                   2
                   2
                   2
                   2
                   2
                   2
                   2
                   2
                   2
                   2
                   2
                   2
                   2
                   2
                   2
                   2
                   2
                   2
                   2
                   2
                   2
                   2
                   2
                   2
                   2
                   2
                   2
                   2
                   2
                   2
                   2
                   2
                   2
                   2
                   2
                   2
                   2
                   2
                   2
                   2
                   2
                   2
                   2
                   2
                   2
                   2
                   2
                   2
                   2
                   2
                   2
                   2
                   2
                   2
                   2
                   2
                   2
                   2
                   2
                   2
                   2
                   2
                   2
                   2
                   2
                   2
                   2
                   2
                   2
                   2
                   2
                   2
                   2
                   2
                   2
                   2
                   2
                   2
                   2
                   2
                   2
                   2
                   2
                   2
                   2
                   2
                   2
                   2
                   2
                   2
                   2
                   2
                   2
                   2
                   2
                   2
                   2
                   2
                   2
                   2
                   2
                   2
                   2
                   2
                   2
                   2
                   2
                   2
                   2
                   2
                   2
                   2
                   2
                   2
                   2
                   2
                   2
                   2
                   2
                   2
                   2
                   2
                   2
                   2
                   2
                   2
                   2
                   2
                   2
                   2
                   2
                   2
                   2
                   2
                   2
                   2
                   2
                   2
                   2
                   2
                   2
                   2
                   2
                   2
                   2
                   2
                   2
                   2
                   2
                   2
                   2
                   2
                   2
                   2
                   2
                   2
                   2
                   2
                   2
                   2
                   2
                   2
                   2
                   2
                   2
                   2
                   2
                   2
                   2
                   2
                   2
                   2
                   2
                   2
                   2
                   2
                   2
                   2
                   2
                   2
                   2
                   2
                   2
                   2
                   2
                   2
                   2
                   2
                   2
                   2
                   2
                   2
                   2
                   2
                   2
                   2
                   2
                   2
                   2
                   2
                   2
                   2
                   2
                   2
                   2
                   2
                   2
                   2
                   2
                   2
                   2
                   2
                   2
                   2
                   2
                   2
                   2
                   2
                   2
                   2
                   2
                   2
                   2
                   2
                   2
                   2
                   2
                   2
                   2
                   2
                   2
                   2
                   2
                   2
                   2
                   2
                   2
                   2
                   2
                   2
                   2
                   2
                   2
                   2
                   2
                   2
                   2
                   2
                   2
                   2
                   2
                   2
                   2
                   2
                   2
                   2
                   2
                   2
                   2
                   2
                   2
                   2
                   2
                   2
                   2
                   2
                   2
                   2
                   2
                   2
                   2
                   2
                   2
                   2
                   2
                   2
                   2
                   2
                   2
                   2
                   2
                   2
                   2
                   2
                   2
                   2
                   2
                   2
                   2
                   2
                   2
                   2
                   2
                   2
                   2
                   2
                   2
                   2
                   2
                   2
                   2
                   2
                   2
                   2
                   2
                   2
                   2
                   2
                   2
                   2
                   2
                   2
                   2
                   2
                   2
                   2
                   2
                   2
                   2
                   2
                   2
                   2
                   2
                   2
                   2
                   2
                   2
                   2
                   2
                   2
                   2
                   2
                   2
                   2
                   2
                   2
                   2
                   2
                   2
                   2
                   2
                   2
                   2
                   2
                   2
                   2
                   2
                   2
                   2
                   2
                   2
                   2
                   2
                   2
                   2
                   2
                   2
                   2
                   2
                   2
                   2
                   2
                   2
                   2
                   2
                   2
                   2
                   2
                   2
                   2
                   2
                   2
                   2
                   2
                   2
                   2
                   2
                   2
                   2
                   2
                   2
                   2
                   2
                   2
                   2
                   2
                   2
                   2
                   2
                   2
                   2
                   2
                   2
                   2
                   2
                   2
                   2
                   2
                   2
                   2
                   2
                   2
                   2
                   2
                   2
                   2
                   2
                   2
                   2
                   2
                   2
                   2
                   2
                   2
                   2
                   2
                   2
                   2
                   2
                   2
                   2
                   2
                   2
                   2
                   2
                   2
                   2
                   2
                   2
                   2
                   2
                   2
                   2
                   2
                   2
                   2
                   2
                   2
                   2
                   2
                   2
                   2
                   2
                   2
                   2
                   2
                   2
                   2
                   2
                   2
                   2
                   2
                   2
                   2
                   2
                   2
                   2
                   2
                   2
                   2
                   2
                   2
                   2
                   2
                   2
                   2
                   2
                   2
                   2
                   2
                   2
                   2
                   2
                   2
                   2
                   2
                   2
                   2
                   2
                   2
                   2
                   2
                   2
                   2
                   2
                   2
                   2
                   2
                   2
                   2
                   2
                   2
                   2
                   2
                   2
                   2
                   2
                   2
                   2
                   2
                   2
                   2
                   2
                   2
                   2
                   2
                   2
                   2
                   2
                   2
                   2
                   2
                   2
                   2
                   2
                   2
                   2
                   2
                   2
                   2
                   2
                   2
                   2
                   2
                   2
                   2
                   2
                   2
                   2
                   2
                   2
                   2
                   2
                   2
                   2
                   2
                   2
                   2
                   2
                   2
                   2
                   2
                   2
                   2
                   2
                   2
                   2
                   2
                   2
                   2
                   2
                   2
                   2
                   2
                   2
                   2
                   2
                   2
                   2
                   2
                   2
                   2
                   2
                   2
                   2
                   2
                   2
                   2
                   2
                   2
                   2
                   2
                   2
                   2
                   2
                   2
                   2
                   2
                   2
                   2
                   2
                   2
                   2
                   2
                   2
                   2
                   2
                   2
                   2
                   2
                   2
                   2
                   2
                   2
                   2
                   2
                   2
                   2
                   2
                   2
                   2
                   2
                   2
                   2
                   2
                   2
                   2
                   2
                   2
                   2
                   2
                   2
                   2
                   2
                   2
                   2
                   2
                   2
                   2
                   2
                   2
                   2
                   2
                   2
                   2
                   2
                   2
                   2
                   2
                   2
                   2
                   2
                   2
                   2
                   2
                   2
                   2
                   2
                   2
                   2
                   2
                   2
                   2
                   2
                   2
                   2
                   2
                   2
                   2
                   2
                   2
                   2
                   2
                   2
                   2
                   2
                   2
                   2
                   2
                   2
                   2
                   2
                   2
                   2
                   2
                   2
                   2
                   2
                   2
                   2
                   2
                   2
                   2
  
SCALARS                       fixity_x  double 1
LOOKUP_TABLE default
                   0
                   0
                   0
                   0
                   0
                   0
                   0
                   0
                   0
                   0
                   0
                   0
                   0
                   0
                   0
                   0
                   0
                   0
                   0
                   0
                   0
                   0
                   0
                   0
                   0
                   0
                   0
                   0
                   0
                   0
                   0
                   0
                   0
                   0
                   0
                   0
                   0
                   0
                   0
                   0
                   0
                   0
                   0
                   0
                   0
                   0
                   0
                   0
                   0
                   0
                   0
                   0
                   0
                   0
                   0
                   0
                   0
                   0
                   0
                   0
                   0
                   0
                   0
                   0
                   0
                   0
                   0
                   0
                   0
                   0
                   0
                   0
                   0
                   0
                   0
                   0
                   0
                   0
                   0
                   0
                   0
                   0
                   0
                   0
                   0
                   0
                   0
                   0
                   0
                   0
                   0
                   0
                   0
                   0
                   0
                   0
                   0
                   0
                   0
                   0
                   0
                   0
                   0
                   0
                   0
                   0
                   0
                   0
                   0
                   0
                   0
                   0
                   0
                   0
                   0
                   0
                   0
                   0
                   0
                   0
                   0
                   0
                   0
                   0
                   0
                   0
                   0
                   0
                   0
                   0
                   0
                   0
                   0
                   0
                   0
                   0
                   0
                   0
                   0
                   0
                   0
                   0
                   0
                   0
                   0
                   0
                   0
                   0
                   0
                   0
                   0
                   0
                   0
                   0
                   0
                   0
                   0
                   0
                   0
                   0
                   0
                   0
                   0
                   0
                   0
                   0
                   0
                   0
                   0
                   0
                   0
                   0
                   0
                   0
                   0
                   0
                   0
                   0
                   0
                   0
                   0
                   0
                   0
                   0
                   0
                   0
                   0
                   0
                   0
                   0
                   0
                   0
                   0
                   0
                   0
                   0
                   0
                   0
                   0
                   0
                   0
                   0
                   0
                   0
                   0
                   0
                   0
                   0
                   0
                   0
                   0
                   0
                   0
                   0
                   0
                   0
                   0
                   0
                   0
                   0
                   0
                   0
                   0
                   0
                   0
                   0
                   0
                   0
                   0
                   0
                   0
                   0
                   0
                   0
                   0
                   0
                   0
                   0
                   0
                   0
                   0
                   0
                   0
                   0
                   0
                   0
                   0
                   0
                   0
                   0
                   0
                   0
                   0
                   0
                   0
                   0
                   0
                   0
                   0
                   0
                   0
                   0
                   0
                   0
                   0
                   0
                   0
                   0
                   0
                   0
                   0
                   0
                   0
                   0
                   0
                   0
                   0
                   0
                   0
                   0
                   0
                   0
                   0
                   0
                   0
                   0
                   0
                   0
                   0
                   0
                   0
                   0
                   0
                   0
                   0
                   0
                   0
                   0
                   0
                   0
                   0
                   0
                   0
                   0
                   0
                   0
                   0
                   0
                   0
                   0
                   0
                   0
                   0
                   0
                   0
                   0
                   0
                   0
                   0
                   0
                   0
                   0
                   0
                   0
                   0
                   0
                   0
                   0
                   0
                   0
                   0
                   0
                   0
                   0
                   0
                   0
                   0
                   0
                   0
                   0
                   0
                   0
                   0
                   0
                   0
                   0
                   0
                   0
                   0
                   0
                   0
                   0
                   0
                   0
                   0
                   0
                   0
                   0
                   0
                   0
                   0
                   0
                   0
                   0
                   0
                   0
                   0
                   0
                   0
                   0
                   0
                   0
                   0
                   0
                   0
                   0
                   0
                   0
                   0
                   0
                   0
                   0
                   0
                   0
                   0
                   0
                   0
                   0
                   0
                   0
                   0
                   0
                   0
                   0
                   0
                   0
                   0
                   0
                   0
                   0
                   0
                   0
                   0
                   0
                   0
                   0
                   0
                   0
                   0
                   0
                   0
                   0
                   0
                   0
                   0
                   0
                   0
                   0
                   0
                   0
                   0
                   0
                   0
                   0
                   0
                   0
                   0
                   0
                   0
                   0
                   0
                   0
                   0
                   0
                   0
                   0
                   0
                   0
                   0
                   0
                   0
                   0
                   0
                   0
                   0
                   0
                   0
                   0
                   0
                   0
                   0
                   0
                   0
                   0
                   0
                   0
                   0
                   0
                   0
                   0
                   0
                   0
                   0
                   0
                   0
                   0
                   0
                   0
                   0
                   0
                   0
                   0
                   0
                   0
                   0
                   0
                   0
                   0
                   0
                   0
                   0
                   0
                   0
                   0
                   0
                   0
                   0
                   0
                   0
                   0
                   0
                   0
                   0
                   0
                   0
                   0
                   0
                   0
                   0
                   0
                   0
                   0
                   0
                   0
                   0
                   0
                   0
                   0
                   0
                   0
                   0
                   0
                   0
                   0
                   0
                   0
                   0
                   0
                   0
                   0
                   0
                   0
                   0
                   0
                   0
                   0
                   0
                   0
                   0
                   0
                   0
                   0
                   0
                   0
                   0
                   0
                   0
                   0
                   0
                   0
                   0
                   0
                   0
                   0
                   0
                   0
                   0
                   0
                   0
                   0
                   0
                   0
                   0
                   0
                   0
                   0
                   0
                   0
                   0
                   0
                   0
                   0
                   0
                   0
                   0
                   0
                   0
                   0
                   0
                   0
                   0
                   0
                   0
                   0
                   0
                   0
                   0
                   0
                   0
                   0
                   0
                   0
                   0
                   0
                   0
                   0
                   0
                   0
                   0
                   0
                   0
                   0
                   0
                   0
                   0
                   0
                   0
                   0
                   0
                   0
                   0
                   0
                   0
                   0
                   0
                   0
                   0
                   0
                   0
                   0
                   0
                   0
                   0
                   0
                   0
                   0
                   0
                   0
                   0
                   0
                   0
                   0
                   0
                   0
                   0
                   0
                   0
                   0
                   0
                   0
                   0
                   0
                   0
                   0
                   0
                   0
                   0
                   0
                   0
                   0
                   0
                   0
                   0
                   0
                   0
                   0
                   0
                   0
                   0
                   0
                   0
                   0
                   0
                   0
                   0
                   0
                   0
                   0
                   0
                   0
                   0
                   0
                   0
                   0
                   0
                   0
                   0
                   0
                   0
                   0
                   0
                   0
                   0
                   0
                   0
                   0
                   0
                   0
                   0
                   0
                   0
                   0
                   0
                   0
                   0
                   0
                   0
                   0
                   0
                   0
                   0
                   0
                   0
                   0
                   0
                   0
                   0
                   0
                   0
                   0
                   0
                   0
                   0
                   0
                   0
                   0
                   0
                   0
                   0
                   0
                   0
                   0
                   0
                   0
                   0
                   0
                   0
                   0
                   0
                   0
                   0
                   0
                   0
                   0
                   0
                   0
                   0
                   0
                   0
                   0
                   0
                   0
                   0
                   0
                   0
                   0
                   0
                   0
                   0
                   0
                   0
                   0
                   0
                   0
                   0
                   0
                   0
                   0
                   0
                   0
                   0
                   0
                   0
                   0
                   0
                   0
                   0
                   0
                   0
                   0
                   0
                   0
                   0
                   0
                   0
                   0
                   0
                   0
                   0
                   0
                   0
                   0
                   0
                   0
                   0
                   0
                   0
                   0
                   0
                   0
                   0
                   0
                   0
                   0
                   0
                   0
                   0
                   0
                   0
                   0
                   0
                   0
                   0
                   0
                   0
                   0
                   0
                   0
                   0
                   0
                   0
                   0
                   0
                   0
                   0
                   0
                   0
                   0
                   0
                   0
                   0
                   0
                   0
                   0
                   0
                   0
                   0
                   0
                   0
                   0
                   0
                   0
                   0
                   0
                   0
                   0
                   0
                   0
                   0
                   0
                   0
                   0
                   0
                   0
                   0
                   0
                   0
                   0
                   0
                   0
                   0
                   0
                   0
                   0
                   0
                   0
                   0
                   0
                   0
                   0
                   0
                   0
                   0
                   0
                   0
                   0
                   0
                   0
                   0
                   0
                   0
                   0
                   0
                   0
                   0
                   0
                   0
                   0
                   0
                   0
                   0
                   0
                   0
                   0
                   0
                   0
                   0
                   0
                   0
                   0
                   0
                   0
                   0
                   0
                   0
                   0
                   0
                   0
                   0
                   0
                   0
                   0
                   0
                   0
                   0
                   0
                   0
                   0
                   0
                   0
                   0
                   0
                   0
                   0
                   0
                   0
                   0
                   0
                   0
                   0
                   0
                   0
                   0
                   0
                   0
                   0
                   0
                   0
                   0
                   0
                   0
                   0
                   0
                   0
                   0
                   0
                   0
                   0
                   0
                   0
                   0
                   0
                   0
                   0
                   0
                   0
                   0
                   0
                   0
                   0
                   0
                   0
                   0
                   0
                   0
                   0
                   0
                   0
                   0
                   0
                   0
                   0
                   0
                   0
                   0
                   0
                   0
                   0
                   0
                   0
                   0
                   0
                   0
                   0
                   0
                   0
                   0
                   0
                   0
                   0
                   0
                   0
                   0
                   0
                   0
                   0
                   0
                   0
                   0
                   0
                   0
                   0
                   0
                   0
                   0
                   0
                   0
                   0
                   0
                   0
                   0
                   0
                   0
                   0
                   0
                   0
                   0
                   0
                   0
                   0
                   0
                   0
                   0
                   0
                   0
                   0
                   0
                   0
                   0
                   0
                   0
                   0
                   0
                   0
                   0
                   0
                   0
                   0
                   0
                   0
                   0
                   0
                   0
                   0
                   0
                   0
                   0
                   0
                   0
                   0
                   0
                   0
                   0
                   0
                   0
                   0
                   0
                   0
                   0
                   0
                   0
                   0
                   0
                   0
                   0
                   0
                   0
                   0
                   0
                   0
                   0
                   0
                   0
                   0
                   0
                   0
                   0
                   0
                   0
                   0
                   0
                   0
                   0
                   0
                   0
                   0
                   0
                   0
                   0
                   0
                   0
                   0
                   0
                   0
                   0
                   0
                   0
                   0
                   0
                   0
                   0
                   0
                   0
                   0
                   0
                   0
                   0
                   0
                   0
                   0
                   0
                   0
                   0
                   0
                   0
                   0
                   0
                   0
                   0
                   0
                   0
                   0
                   0
                   0
                   0
                   0
                   0
                   0
                   0
                   0
                   0
                   0
                   0
                   0
                   0
                   0
                   0
                   0
                   0
                   0
                   0
                   0
                   0
                   0
                   0
                   0
                   0
                   0
                   0
                   0
                   0
                   0
                   0
                   0
                   0
                   0
                   0
                   0
                   0
                   0
                   0
                   0
                   0
                   0
                   0
                   0
                   0
                   0
                   0
                   0
                   0
                   0
                   0
                   0
                   0
                   0
                   0
                   0
                   0
                   0
                   0
                   0
                   0
                   0
                   0
                   0
                   0
                   0
                   0
                   0
                   0
                   0
                   0
                   0
                   0
                   0
                   0
                   0
                   0
                   0
                   0
                   0
                   0
                   0
                   0
                   0
                   0
                   0
                   0
                   0
                   0
                   0
                   0
                   0
                   0
                   0
                   0
                   0
                   0
                   0
                   0
                   0
                   0
                   0
                   0
                   0
                   0
                   0
                   0
                   0
                   0
                   0
                   0
                   0
                   0
                   0
                   0
                   0
                   0
                   0
                   0
                   0
                   0
                   0
                   0
                   0
                   0
                   0
                   0
                   0
                   0
                   0
                   0
                   0
                   0
                   0
                   0
                   0
                   0
                   0
                   0
                   0
                   0
                   0
                   0
                   0
                   0
                   0
                   0
                   0
                   0
                   0
                   0
                   0
                   0
                   0
                   0
                   0
                   0
                   0
                   0
                   0
                   0
                   0
                   0
                   0
                   0
                   0
                   0
                   0
                   0
                   0
                   0
                   0
                   0
                   0
                   0
                   0
                   0
                   0
                   0
                   0
                   0
                   0
                   0
                   0
                   0
                   0
                   0
                   0
                   0
                   0
                   0
                   0
                   0
                   0
                   0
                   0
                   0
                   0
                   0
                   0
                   0
                   0
                   0
                   0
                   0
                   0
                   0
                   0
                   0
                   0
                   0
                   0
                   0
                   0
                   0
                   0
                   0
                   0
                   0
                   0
                   0
                   0
                   0
                   0
                   0
                   0
                   0
                   0
                   0
                   0
                   0
                   0
                   0
                   0
                   0
                   0
                   0
                   0
                   0
                   0
                   0
                   0
                   0
                   0
                   0
                   0
                   0
                   0
                   0
                   0
                   0
                   0
                   0
                   0
                   0
                   0
                   0
                   0
                   0
                   0
                   0
                   0
                   0
                   0
                   0
                   0
                   0
                   0
                   0
                   0
                   0
                   0
                   0
                   0
                   0
                   0
                   0
                   0
                   0
                   0
                   0
                   0
                   0
                   0
                   0
                   0
                   0
                   0
                   0
                   0
                   0
                   0
                   0
                   0
                   0
                   0
                   0
                   0
                   0
                   0
                   0
                   0
                   0
                   0
                   0
                   0
                   0
                   0
                   0
                   0
                   0
                   0
                   0
                   0
                   0
                   0
                   0
                   0
                   0
                   0
                   0
                   0
                   0
                   0
                   0
                   0
                   0
                   0
                   0
                   0
                   0
                   0
                   0
                   0
                   0
                   0
                   0
                   0
                   0
                   0
                   0
                   0
                   0
                   0
                   0
                   0
                   0
                   0
                   0
                   0
                   0
                   0
                   0
                   0
                   0
                   0
                   0
                   0
                   0
                   0
                   0
                   0
                   0
                   0
                   0
                   0
                   0
                   0
                   0
                   0
                   0
                   0
                   0
                   0
                   0
                   0
                   0
                   0
                   0
                   0
                   0
                   0
                   0
                   0
                   0
                   0
                   0
                   0
                   0
                   0
                   0
                   0
                   0
                   0
                   0
                   0
                   0
                   0
                   0
                   0
                   0
                   0
                   0
                   0
                   0
                   0
                   0
                   0
                   0
                   0
                   0
                   0
                   0
                   0
                   0
                   0
                   0
                   0
                   0
                   0
                   0
                   0
                   0
                   0
                   0
                   0
                   0
                   0
                   0
                   0
                   0
                   0
                   0
                   0
                   0
                   0
                   0
                   0
                   0
                   0
                   0
                   0
                   0
                   0
                   0
                   0
                   0
                   0
                   0
                   0
                   0
                   0
                   0
                   0
                   0
                   0
                   0
                   0
                   0
                   0
                   0
                   0
                   0
                   0
                   0
                   0
                   0
                   0
                   0
                   0
                   0
                   0
                   0
                   0
                   0
                   0
                   0
                   0
                   0
                   0
                   0
                   0
                   0
                   0
                   0
                   0
                   0
                   0
                   0
                   0
                   0
                   0
                   0
                   0
                   0
                   0
                   0
                   0
                   0
                   0
                   0
                   0
                   0
                   0
                   0
                   0
                   0
                   0
                   0
                   0
                   0
                   0
                   0
                   0
                   0
                   0
                   0
                   0
                   0
                   0
                   0
                   0
                   0
                   0
                   0
                   0
                   0
                   0
                   0
                   0
                   0
                   0
                   0
                   0
                   0
                   0
                   0
                   0
                   0
                   0
                   0
                   0
                   0
                   0
                   0
                   0
                   0
                   0
                   0
                   0
                   0
                   0
                   0
                   0
                   0
                   0
                   0
                   0
                   0
                   0
                   0
                   0
                   0
                   0
                   0
                   0
                   0
                   0
                   0
                   0
                   0
                   0
                   0
                   0
                   0
                   0
                   0
                   0
                   0
                   0
                   0
                   0
                   0
                   0
                   0
                   0
                   0
                   0
                   0
                   0
                   0
                   0
                   0
                   0
                   0
                   0
                   0
                   0
                   0
                   0
                   0
                   0
                   0
                   0
                   0
                   0
                   0
                   0
                   0
                   0
                   0
                   0
                   0
                   0
                   0
                   0
                   0
                   0
                   0
                   0
                   0
                   0
                   0
                   0
                   0
                   0
                   0
                   0
                   0
                   0
                   0
                   0
                   0
                   0
                   0
                   0
                   0
                   0
                   0
                   0
                   0
                   0
                   0
                   0
                   0
                   0
                   0
                   0
                   0
                   0
                   0
                   0
                   0
                   0
                   0
                   0
                   0
                   0
                   0
                   0
                   0
                   0
                   0
                   0
                   0
                   0
                   0
                   0
                   0
                   0
                   0
                   0
                   0
                   0
                   0
                   0
                   0
                   0
                   0
                   0
                   0
                   0
                   0
                   0
                   0
                   0
                   0
                   0
                   0
                   0
                   0
                   0
                   0
                   0
                   0
                   0
                   0
                   0
                   0
                   0
                   0
                   0
                   0
                   0
                   0
                   0
                   0
                   0
                   0
                   0
                   0
                   0
                   0
                   0
                   0
                   0
                   0
                   0
                   0
                   0
                   0
                   0
                   0
                   0
                   0
                   0
                   0
                   0
                   0
                   0
                   0
                   0
                   0
                   0
                   0
                   0
                   0
                   0
                   0
                   0
                   0
                   0
                   0
                   0
                   0
                   0
                   0
                   0
                   0
                   0
                   0
                   0
                   0
                   0
                   0
                   0
                   0
                   0
                   0
                   0
                   0
                   0
                   0
                   0
                   0
                   0
                   0
                   0
                   0
                   0
                   0
                   0
                   0
                   0
                   0
                   0
                   0
                   0
                   0
                   0
                   0
                   0
                   0
                   0
                   0
                   0
                   0
                   0
                   0
                   0
                   0
                   0
                   0
                   0
                   0
                   0
                   0
                   0
                   0
                   0
                   0
                   0
                   0
                   0
                   0
                   0
                   0
                   0
                   0
                   0
                   0
                   0
                   0
                   0
                   0
                   0
                   0
                   0
                   0
                   0
                   0
                   0
                   0
                   0
                   0
                   0
                   0
                   0
                   0
                   0
                   0
                   0
                   0
                   0
                   0
                   0
                   0
                   0
                   0
                   0
                   0
                   0
                   0
                   0
                   0
                   0
                   0
                   0
  
SCALARS                       fixity_y  double 1
LOOKUP_TABLE default
                   0
                   0
                   0
                   0
                   0
                   0
                   0
                   0
                   0
                   0
                   0
                   0
                   0
                   0
                   0
                   0
                   0
                   0
                   0
                   0
                   0
                   0
                   0
                   0
                   0
                   0
                   0
                   0
                   0
                   0
                   0
                   0
                   0
                   0
                   0
                   0
                   0
                   0
                   0
                   0
                   0
                   0
                   0
                   0
                   0
                   0
                   0
                   0
                   0
                   0
                   0
                   0
                   0
                   0
                   0
                   0
                   0
                   0
                   0
                   0
                   0
                   0
                   0
                   0
                   0
                   0
                   0
                   0
                   0
                   0
                   0
                   0
                   0
                   0
                   0
                   0
                   0
                   0
                   0
                   0
                   0
                   0
                   0
                   0
                   0
                   0
                   0
                   0
                   0
                   0
                   0
                   0
                   0
                   0
                   0
                   0
                   0
                   0
                   0
                   0
                   0
                   0
                   0
                   0
                   0
                   0
                   0
                   0
                   0
                   0
                   0
                   0
                   0
                   0
                   0
                   0
                   0
                   0
                   0
                   0
                   0
                   0
                   0
                   0
                   0
                   0
                   0
                   0
                   0
                   0
                   0
                   0
                   0
                   0
                   0
                   0
                   0
                   0
                   0
                   0
                   0
                   0
                   0
                   0
                   0
                   0
                   0
                   0
                   0
                   0
                   0
                   0
                   0
                   0
                   0
                   0
                   0
                   0
                   0
                   0
                   0
                   0
                   0
                   0
                   0
                   0
                   0
                   0
                   0
                   0
                   0
                   0
                   0
                   0
                   0
                   0
                   0
                   0
                   0
                   0
                   0
                   0
                   0
                   0
                   0
                   0
                   0
                   0
                   0
                   0
                   0
                   0
                   0
                   0
                   0
                   0
                   0
                   0
                   0
                   0
                   0
                   0
                   0
                   0
                   0
                   0
                   0
                   0
                   0
                   0
                   0
                   0
                   0
                   0
                   0
                   0
                   0
                   0
                   0
                   0
                   0
                   0
                   0
                   0
                   0
                   0
                   0
                   0
                   0
                   0
                   0
                   0
                   0
                   0
                   0
                   0
                   0
                   0
                   0
                   0
                   0
                   0
                   0
                   0
                   0
                   0
                   0
                   0
                   0
                   0
                   0
                   0
                   0
                   0
                   0
                   0
                   0
                   0
                   0
                   0
                   0
                   0
                   0
                   0
                   0
                   0
                   0
                   0
                   0
                   0
                   0
                   0
                   0
                   0
                   0
                   0
                   0
                   0
                   0
                   0
                   0
                   0
                   0
                   0
                   0
                   0
                   0
                   0
                   0
                   0
                   0
                   0
                   0
                   0
                   0
                   0
                   0
                   0
                   0
                   0
                   0
                   0
                   0
                   0
                   0
                   0
                   0
                   0
                   0
                   0
                   0
                   0
                   0
                   0
                   0
                   0
                   0
                   0
                   0
                   0
                   0
                   0
                   0
                   0
                   0
                   0
                   0
                   0
                   0
                   0
                   0
                   0
                   0
                   0
                   0
                   0
                   0
                   0
                   0
                   0
                   0
                   0
                   0
                   0
                   0
                   0
                   0
                   0
                   0
                   0
                   0
                   0
                   0
                   0
                   0
                   0
                   0
                   0
                   0
                   0
                   0
                   0
                   0
                   0
                   0
                   0
                   0
                   0
                   0
                   0
                   0
                   0
                   0
                   0
                   0
                   0
                   0
                   0
                   0
                   0
                   0
                   0
                   0
                   0
                   0
                   0
                   0
                   0
                   0
                   0
                   0
                   0
                   0
                   0
                   0
                   0
                   0
                   0
                   0
                   0
                   0
                   0
                   0
                   0
                   0
                   0
                   0
                   0
                   0
                   0
                   0
                   0
                   0
                   0
                   0
                   0
                   0
                   0
                   0
                   0
                   0
                   0
                   0
                   0
                   0
                   0
                   0
                   0
                   0
                   0
                   0
                   0
                   0
                   0
                   0
                   0
                   0
                   0
                   0
                   0
                   0
                   0
                   0
                   0
                   0
                   0
                   0
                   0
                   0
                   0
                   0
                   0
                   0
                   0
                   0
                   0
                   0
                   0
                   0
                   0
                   0
                   0
                   0
                   0
                   0
                   0
                   0
                   0
                   0
                   0
                   0
                   0
                   0
                   0
                   0
                   0
                   0
                   0
                   0
                   0
                   0
                   0
                   0
                   0
                   0
                   0
                   0
                   0
                   0
                   0
                   0
                   0
                   0
                   0
                   0
                   0
                   0
                   0
                   0
                   0
                   0
                   0
                   0
                   0
                   0
                   0
                   0
                   0
                   0
                   0
                   0
                   0
                   0
                   0
                   0
                   0
                   0
                   0
                   0
                   0
                   0
                   0
                   0
                   0
                   0
                   0
                   0
                   0
                   0
                   0
                   0
                   0
                   0
                   0
                   0
                   0
                   0
                   0
                   0
                   0
                   0
                   0
                   0
                   0
                   0
                   0
                   0
                   0
                   0
                   0
                   0
                   0
                   0
                   0
                   0
                   0
                   0
                   0
                   0
                   0
                   0
                   0
                   0
                   0
                   0
                   0
                   0
                   0
                   0
                   0
                   0
                   0
                   0
                   0
                   0
                   0
                   0
                   0
                   0
                   0
                   0
                   0
                   0
                   0
                   0
                   0
                   0
                   0
                   0
                   0
                   0
                   0
                   0
                   0
                   0
                   0
                   0
                   0
                   0
                   0
                   0
                   0
                   0
                   0
                   0
                   0
                   0
                   0
                   0
                   0
                   0
                   0
                   0
                   0
                   0
                   0
                   0
                   0
                   0
                   0
                   0
                   0
                   0
                   0
                   0
                   0
                   0
                   0
                   0
                   0
                   0
                   0
                   0
                   0
                   0
                   0
                   0
                   0
                   0
                   0
                   0
                   0
                   0
                   0
                   0
                   0
                   0
                   0
                   0
                   0
                   0
                   0
                   0
                   0
                   0
                   0
                   0
                   0
                   0
                   0
                   0
                   0
                   0
                   0
                   0
                   0
                   0
                   0
                   0
                   0
                   0
                   0
                   0
                   0
                   0
                   0
                   0
                   0
                   0
                   0
                   0
                   0
                   0
                   0
                   0
                   0
                   0
                   0
                   0
                   0
                   0
                   0
                   0
                   0
                   0
                   0
                   0
                   0
                   0
                   0
                   0
                   0
                   0
                   0
                   0
                   0
                   0
                   0
                   0
                   0
                   0
                   0
                   0
                   0
                   0
                   0
                   0
                   0
                   0
                   0
                   0
                   0
                   0
                   0
                   0
                   0
                   0
                   0
                   0
                   0
                   0
                   0
                   0
                   0
                   0
                   0
                   0
                   0
                   0
                   0
                   0
                   0
                   0
                   0
                   0
                   0
                   0
                   0
                   0
                   0
                   0
                   0
                   0
                   0
                   0
                   0
                   0
                   0
                   0
                   0
                   0
                   0
                   0
                   0
                   0
                   0
                   0
                   0
                   0
                   0
                   0
                   0
                   0
                   0
                   0
                   0
                   0
                   0
                   0
                   0
                   0
                   0
                   0
                   0
                   0
                   0
                   0
                   0
                   0
                   0
                   0
                   0
                   0
                   0
                   0
                   0
                   0
                   0
                   0
                   0
                   0
                   0
                   0
                   0
                   0
                   0
                   0
                   0
                   0
                   0
                   0
                   0
                   0
                   0
                   0
                   0
                   0
                   0
                   0
                   0
                   0
                   0
                   0
                   0
                   0
                   0
                   0
                   0
                   0
                   0
                   0
                   0
                   0
                   0
                   0
                   0
                   0
                   0
                   0
                   0
                   0
                   0
                   0
                   0
                   0
                   0
                   0
                   0
                   0
                   0
                   0
                   0
                   0
                   0
                   0
                   0
                   0
                   0
                   0
                   0
                   0
                   0
                   0
                   0
                   0
                   0
                   0
                   0
                   0
                   0
                   0
                   0
                   0
                   0
                   0
                   0
                   0
                   0
                   0
                   0
                   0
                   0
                   0
                   0
                   0
                   0
                   0
                   0
                   0
                   0
                   0
                   0
                   0
                   0
                   0
                   0
                   0
                   0
                   0
                   0
                   0
                   0
                   0
                   0
                   0
                   0
                   0
                   0
                   0
                   0
                   0
                   0
                   0
                   0
                   0
                   0
                   0
                   0
                   0
                   0
                   0
                   0
                   0
                   0
                   0
                   0
                   0
                   0
                   0
                   0
                   0
                   0
                   0
                   0
                   0
                   0
                   0
                   0
                   0
                   0
                   0
                   0
                   0
                   0
                   0
                   0
                   0
                   0
                   0
                   0
                   0
                   0
                   0
                   0
                   0
                   0
                   0
                   0
                   0
                   0
                   0
                   0
                   0
                   0
                   0
                   0
                   0
                   0
                   0
                   0
                   0
                   0
                   0
                   0
                   0
                   0
                   0
                   0
                   0
                   0
                   0
                   0
                   0
                   0
                   0
                   0
                   0
                   0
                   0
                   0
                   0
                   0
                   0
                   0
                   0
                   0
                   0
                   0
                   0
                   0
                   0
                   0
                   0
                   0
                   0
                   0
                   0
                   0
                   0
                   0
                   0
                   0
                   0
                   0
                   0
                   0
                   0
                   0
                   0
                   0
                   0
                   0
                   0
                   0
                   0
                   0
                   0
                   0
                   0
                   0
                   0
                   0
                   0
                   0
                   0
                   0
                   0
                   0
                   0
                   0
                   0
                   0
                   0
                   0
                   0
                   0
                   0
                   0
                   0
                   0
                   0
                   0
                   0
                   0
                   0
                   0
                   0
                   0
                   0
                   0
                   0
                   0
                   0
                   0
                   0
                   0
                   0
                   0
                   0
                   0
                   0
                   0
                   0
                   0
                   0
                   0
                   0
                   0
                   0
                   0
                   0
                   0
                   0
                   0
                   0
                   0
                   0
                   0
                   0
                   0
                   0
                   0
                   0
                   0
                   0
                   0
                   0
                   0
                   0
                   0
                   0
                   0
                   0
                   0
                   0
                   0
                   0
                   0
                   0
                   0
                   0
                   0
                   0
                   0
                   0
                   0
                   0
                   0
                   0
                   0
                   0
                   0
                   0
                   0
                   0
                   0
                   0
                   0
                   0
                   0
                   0
                   0
                   0
                   0
                   0
                   0
                   0
                   0
                   0
                   0
                   0
                   0
                   0
                   0
                   0
                   0
                   0
                   0
                   0
                   0
                   0
                   0
                   0
                   0
                   0
                   0
                   0
                   0
                   0
                   0
                   0
                   0
                   0
                   0
                   0
                   0
                   0
                   0
                   0
                   0
                   0
                   0
                   0
                   0
                   0
                   0
                   0
                   0
                   0
                   0
                   0
                   0
                   0
                   0
                   0
                   0
                   0
                   0
                   0
                   0
                   0
                   0
                   0
                   0
                   0
                   0
                   0
                   0
                   0
                   0
                   0
                   0
                   0
                   0
                   0
                   0
                   0
                   0
                   0
                   0
                   0
                   0
                   0
                   0
                   0
                   0
                   0
                   0
                   0
                   0
                   0
                   0
                   0
                   0
                   0
                   0
                   0
                   0
                   0
                   0
                   0
                   0
                   0
                   0
                   0
                   0
                   0
                   0
                   0
                   0
                   0
                   0
                   0
                   0
                   0
                   0
                   0
                   0
                   0
                   0
                   0
                   0
                   0
                   0
                   0
                   0
                   0
                   0
                   0
                   0
                   0
                   0
                   0
                   0
                   0
                   0
                   0
                   0
                   0
                   0
                   0
                   0
                   0
                   0
                   0
                   0
                   0
                   0
                   0
                   0
                   0
                   0
                   0
                   0
                   0
                   0
                   0
                   0
                   0
                   0
                   0
                   0
                   0
                   0
                   0
                   0
                   0
                   0
                   0
                   0
                   0
                   0
                   0
                   0
                   0
                   0
                   0
                   0
                   0
                   0
                   0
                   0
                   0
                   0
                   0
                   0
                   0
                   0
                   0
                   0
                   0
                   0
                   0
                   0
                   0
                   0
                   0
                   0
                   0
                   0
                   0
                   0
                   0
                   0
                   0
                   0
                   0
                   0
                   0
                   0
                   0
                   0
                   0
                   0
                   0
                   0
                   0
                   0
                   0
                   0
                   0
                   0
                   0
                   0
                   0
                   0
                   0
                   0
                   0
                   0
                   0
                   0
                   0
                   0
                   0
                   0
                   0
                   0
                   0
                   0
                   0
                   0
                   0
                   0
                   0
                   0
                   0
                   0
                   0
                   0
                   0
                   0
                   0
                   0
                   0
                   0
                   0
                   0
                   0
                   0
                   0
                   0
                   0
                   0
                   0
                   0
                   0
                   0
                   0
                   0
                   0
                   0
                   0
                   0
                   0
                   0
                   0
                   0
                   0
                   0
                   0
                   0
                   0
                   0
                   0
                   0
                   0
                   0
                   0
                   0
                   0
                   0
                   0
                   0
                   0
                   0
                   0
                   0
                   0
                   0
                   0
                   0
                   0
                   0
                   0
                   0
                   0
                   0
                   0
                   0
                   0
                   0
                   0
                   0
                   0
                   0
                   0
                   0
                   0
                   0
                   0
                   0
                   0
                   0
                   0
                   0
                   0
                   0
                   0
                   0
                   0
                   0
                   0
                   0
                   0
                   0
                   0
                   0
                   0
                   0
                   0
                   0
                   0
                   0
                   0
                   0
                   0
                   0
                   0
                   0
                   0
                   0
                   0
                   0
                   0
                   0
                   0
                   0
                   0
                   0
                   0
                   0
                   0
                   0
                   0
                   0
                   0
                   0
                   0
                   0
                   0
                   0
                   0
                   0
                   0
                   0
                   0
                   0
                   0
                   0
                   0
                   0
                   0
                   0
                   0
                   0
                   0
                   0
                   0
                   0
                   0
                   0
                   0
                   0
                   0
                   0
                   0
                   0
                   0
                   0
                   0
                   0
                   0
                   0
                   0
                   0
                   0
                   0
                   0
                   0
                   0
                   0
                   0
                   0
                   0
                   0
                   0
                   0
                   0
                   0
                   0
                   0
                   0
                   0
                   0
                   0
                   0
                   0
                   0
                   0
                   0
                   0
                   0
                   0
                   0
                   0
                   0
                   0
                   0
                   0
                   0
                   0
                   0
                   0
                   0
                   0
                   0
                   0
                   0
                   0
                   0
                   0
                   0
                   0
                   0
                   0
                   0
                   0
                   0
                   0
                   0
                   0
                   0
                   0
                   0
                   0
                   0
                   0
                   0
                   0
                   0
                   0
                   0
                   0
                   0
                   0
                   0
                   0
                   0
                   0
                   0
                   0
                   0
                   0
                   0
                   0
                   0
                   0
                   0
                   0
                   0
                   0
                   0
                   0
                   0
                   0
                   0
                   0
                   0
                   0
                   0
                   0
                   0
                   0
                   0
                   0
                   0
                   0
                   0
                   0
                   0
                   0
                   0
                   0
                   0
                   0
                   0
                   0
                   0
                   0
                   0
                   0
                   0
                   0
                   0
                   0
                   0
                   0
                   0
                   0
                   0
                   0
                   0
                   0
                   0
                   0
                   0
                   0
                   0
                   0
                   0
                   0
                   0
                   0
                   0
                   0
                   0
                   0
                   0
                   0
                   0
                   0
                   0
                   0
                   0
                   0
                   0
                   0
                   0
                   0
                   0
                   0
                   0
                   0
                   0
                   0
                   0
                   0
                   0
                   0
                   0
                   0
                   0
                   0
                   0
                   0
                   0
                   0
                   0
                   0
                   0
                   0
                   0
                   0
                   0
                   0
                   0
                   0
                   0
                   0
                   0
                   0
                   0
                   0
                   0
                   0
                   0
                   0
                   0
                   0
                   0
                   0
                   0
                   0
                   0
                   0
                   0
                   0
                   0
                   0
                   0
                   0
                   0
                   0
                   0
                   0
                   0
                   0
                   0
                   0
                   0
                   0
                   0
                   0
                   0
                   0
                   0
                   0
                   0
                   0
                   0
                   0
                   0
                   0
                   0
                   0
                   0
                   0
                   0
                   0
                   0
                   0
                   0
                   0
                   0
                   0
                   0
                   0
                   0
                   0
                   0
                   0
                   0
                   0
                   0
                   0
                   0
                   0
                   0
                   0
                   0
                   0
                   0
                   0
                   0
                   0
                   0
                   0
                   0
                   0
                   0
                   0
                   0
                   0
                   0
                   0
                   0
                   0
                   0
                   0
                   0
                   0
                   0
                   0
                   0
                   0
                   0
                   0
                   0
                   0
                   0
                   0
                   0
                   0
                   0
                   0
                   0
                   0
                   0
                   0
                   0
                   0
                   0
                   0
                   0
                   0
                   0
                   0
                   0
                   0
                   0
                   0
                   0
                   0
                   0
                   0
                   0
                   0
                   0
                   0
                   0
                   0
                   0
                   0
                   0
                   0
                   0
                   0
                   0
                   0
                   0
                   0
                   0
                   0
                   0
                   0
                   0
                   0
                   0
                   0
                   0
                   0
                   0
                   0
                   0
                   0
                   0
                   0
                   0
                   0
                   0
                   0
                   0
                   0
                   0
                   0
                   0
                   0
                   0
                   0
                   0
                   0
                   0
                   0
                   0
                   0
                   0
                   0
                   0
                   0
                   0
                   0
                   0
                   0
                   0
                   0
                   0
                   0
                   0
                   0
                   0
                   0
                   0
                   0
                   0
                   0
                   0
                   0
                   0
                   0
                   0
                   0
                   0
                   0
                   0
                   0
                   0
                   0
                   0
                   0
                   0
                   0
                   0
                   0
                   0
                   0
                   0
                   0
                   0
                   0
                   0
                   0
                   0
                   0
                   0
                   0
                   0
                   0
                   0
                   0
  
SCALARS                       fixity_z  double 1
LOOKUP_TABLE default
                   0
                   0
                   0
                   0
                   1
                   1
                   1
                   1
                   0
                   0
                   1
                   1
                   0
                   0
                   1
                   1
                   0
                   0
                   1
                   1
                   0
                   0
                   0
                   1
                   1
                   1
                   0
                   0
                   1
                   1
                   0
                   0
                   0
                   1
                   1
                   1
                   0
                   0
                   1
                   1
                   0
                   0
                   1
                   1
                   0
                   0
                   1
                   1
                   0
                   1
                   0
                   1
                   0
                   1
                   0
                   1
                   0
                   0
                   1
                   1
                   0
                   0
                   1
                   1
                   0
                   1
                   0
                   1
                   0
                   0
                   1
                   1
                   0
                   1
                   0
                   1
                   0
                   1
                   0
                   1
                   0
                   0
                   1
                   1
                   0
                   1
                   0
                   1
                   0
                   1
                   0
                   0
                   1
                   1
                   0
                   1
                   0
                   1
                   0
                   1
                   0
                   0
                   1
                   1
                   0
                   0
                   1
                   1
                   0
                   1
                   0
                   1
                   0
                   1
                   0
                   1
                   0
                   1
                   0
                   1
                   0
                   1
                   0
                   1
                   0
                   1
                   0
                   1
                   0
                   1
                   0
                   1
                   0
                   1
                   0
                   1
                   0
                   1
                   0
                   1
                   0
                   1
                   0
                   1
                   0
                   1
                   0
                   1
                   0
                   1
                   0
                   1
                   0
                   1
                   0
                   1
                   0
                   0
                   0
                   0
                   0
                   0
                   0
                   0
                   0
                   0
                   0
                   0
                   0
                   0
                   0
                   0
                   0
                   0
                   0
                   0
                   0
                   0
                   0
                   0
                   0
                   0
                   0
                   0
                   0
                   0
                   0
                   0
                   0
                   0
                   0
                   0
                   0
                   0
                   0
                   0
                   0
                   0
                   0
                   0
                   0
                   0
                   0
                   0
                   0
                   0
                   0
                   0
                   0
                   0
                   0
                   0
                   0
                   0
                   0
                   0
                   0
                   0
                   0
                   0
                   0
                   0
                   0
                   0
                   0
                   0
                   0
                   0
                   0
                   0
                   0
                   0
                   0
                   0
                   0
                   0
                   0
                   0
                   0
                   0
                   0
                   0
                   0
                   0
                   0
                   0
                   0
                   0
                   0
                   0
                   0
                   0
                   0
                   0
                   0
                   0
                   0
                   0
                   0
                   0
                   0
                   0
                   0
                   0
                   0
                   0
                   0
                   0
                   0
                   0
                   0
                   0
                   0
                   0
                   0
                   0
                   0
                   0
                   0
                   0
                   0
                   0
                   0
                   0
                   0
                   0
                   0
                   0
                   0
                   0
                   0
                   0
                   0
                   0
                   0
                   0
                   0
                   0
                   0
                   0
                   0
                   0
                   0
                   0
                   0
                   0
                   0
                   0
                   0
                   0
                   0
                   0
                   0
                   0
                   0
                   0
                   0
                   0
                   0
                   0
                   0
                   0
                   0
                   0
                   0
                   0
                   0
                   0
                   0
                   0
                   0
                   0
                   0
                   0
                   0
                   0
                   0
                   0
                   0
                   0
                   0
                   0
                   0
                   0
                   0
                   0
                   0
                   0
                   0
                   0
                   0
                   0
                   0
                   0
                   0
                   0
                   0
                   0
                   0
                   0
                   0
                   0
                   0
                   0
                   0
                   0
                   0
                   0
                   0
                   0
                   0
                   0
                   0
                   0
                   0
                   0
                   0
                   0
                   0
                   0
                   0
                   0
                   0
                   0
                   0
                   0
                   0
                   0
                   0
                   0
                   0
                   0
                   0
                   0
                   0
                   0
                   0
                   0
                   0
                   0
                   0
                   0
                   0
                   0
                   0
                   0
                   0
                   0
                   0
                   0
                   0
                   0
                   0
                   0
                   0
                   0
                   0
                   0
                   0
                   0
                   0
                   0
                   0
                   0
                   0
                   0
                   0
                   0
                   0
                   0
                   0
                   0
                   0
                   0
                   0
                   0
                   0
                   0
                   0
                   0
                   0
                   0
                   0
                   0
                   0
                   0
                   0
                   0
                   0
                   0
                   0
                   0
                   0
                   0
                   0
                   0
                   0
                   0
                   0
                   0
                   0
                   0
                   0
                   0
                   0
                   0
                   0
                   0
                   0
                   0
                   0
                   0
                   0
                   0
                   0
                   0
                   0
                   0
                   0
                   0
                   0
                   0
                   0
                   0
                   0
                   0
                   0
                   0
                   0
                   0
                   0
                   0
                   0
                   0
                   0
                   0
                   0
                   0
                   0
                   0
                   0
                   0
                   0
                   0
                   0
                   0
                   0
                   0
                   0
                   0
                   0
                   0
                   0
                   0
                   0
                   0
                   0
                   0
                   0
                   0
                   0
                   0
                   0
                   0
                   0
                   0
                   0
                   0
                   0
                   0
                   0
                   0
                   0
                   0
                   0
                   0
                   0
                   0
                   0
                   0
                   0
                   0
                   0
                   0
                   0
                   0
                   0
                   0
                   0
                   0
                   0
                   0
                   0
                   0
                   0
                   0
                   0
                   0
                   0
                   0
                   0
                   0
                   0
                   0
                   0
                   0
                   0
                   0
                   0
                   0
                   0
                   0
                   0
                   0
                   0
                   0
                   0
                   0
                   0
                   0
                   0
                   0
                   0
                   0
                   0
                   0
                   0
                   0
                   0
                   0
                   0
                   0
                   0
                   0
                   0
                   0
                   0
                   0
                   0
                   0
                   0
                   0
                   0
                   0
                   0
                   0
                   0
                   0
                   0
                   0
                   0
                   0
                   0
                   0
                   0
                   0
                   0
                   0
                   0
                   0
                   0
                   0
                   0
                   0
                   0
                   0
                   0
                   0
                   0
                   0
                   0
                   0
                   0
                   0
                   0
                   0
                   0
                   0
                   0
                   0
                   0
                   0
                   0
                   0
                   0
                   0
                   0
                   0
                   0
                   0
                   0
                   0
                   0
                   0
                   0
                   0
                   0
                   0
                   0
                   0
                   0
                   0
                   0
                   0
                   0
                   0
                   0
                   0
                   0
                   0
                   0
                   0
                   0
                   0
                   0
                   0
                   0
                   0
                   0
                   0
                   0
                   0
                   0
                   0
                   0
                   0
                   0
                   0
                   0
                   0
                   0
                   0
                   0
                   0
                   0
                   0
                   0
                   0
                   0
                   0
                   0
                   0
                   0
                   0
                   0
                   0
                   0
                   0
                   0
                   0
                   0
                   0
                   0
                   0
                   0
                   0
                   0
                   0
                   0
                   0
                   0
                   0
                   0
                   0
                   0
                   0
                   0
                   0
                   0
                   0
                   0
                   0
                   0
                   0
                   0
                   0
                   0
                   0
                   0
                   0
                   0
                   0
                   0
                   0
                   0
                   0
                   0
                   0
                   0
                   0
                   0
                   0
                   0
                   0
                   0
                   0
                   0
                   0
                   0
                   0
                   0
                   0
                   0
                   0
                   0
                   0
                   0
                   0
                   0
                   0
                   0
                   0
                   0
                   0
                   0
                   0
                   0
                   0
                   0
                   0
                   0
                   0
                   0
                   0
                   0
                   0
                   0
                   0
                   0
                   0
                   0
                   0
                   0
                   0
                   0
                   0
                   0
                   0
                   0
                   0
                   0
                   0
                   0
                   0
                   0
                   0
                   0
                   0
                   0
                   0
                   0
                   0
                   0
                   0
                   0
                   0
                   0
                   0
                   0
                   0
                   0
                   0
                   0
                   0
                   0
                   0
                   0
                   0
                   0
                   0
                   0
                   0
                   0
                   0
                   0
                   0
                   0
                   0
                   0
                   0
                   0
                   0
                   0
                   0
                   0
                   0
                   0
                   0
                   0
                   0
                   0
                   0
                   0
                   0
                   0
                   0
                   0
                   0
                   0
                   0
                   0
                   0
                   0
                   0
                   0
                   0
                   0
                   0
                   0
                   0
                   0
                   0
                   0
                   0
                   0
                   0
                   0
                   0
                   0
                   0
                   0
                   0
                   0
                   0
                   0
                   0
                   0
                   0
                   0
                   0
                   0
                   0
                   0
                   0
                   0
                   0
                   0
                   0
                   0
                   0
                   0
                   0
                   0
                   0
                   0
                   0
                   0
                   0
                   0
                   0
                   0
                   0
                   0
                   0
                   0
                   0
                   0
                   0
                   0
                   0
                   0
                   0
                   0
                   0
                   0
                   0
                   0
                   0
                   0
                   0
                   0
                   0
                   0
                   0
                   0
                   0
                   0
                   0
                   0
                   0
                   0
                   0
                   0
                   0
                   0
                   0
                   0
                   0
                   0
                   0
                   0
                   0
                   0
                   0
                   0
                   0
                   0
                   0
                   0
                   0
                   0
                   0
                   0
                   0
                   0
                   0
                   0
                   0
                   0
                   0
                   0
                   0
                   0
                   0
                   0
                   0
                   0
                   0
                   0
                   0
                   0
                   0
                   0
                   0
                   0
                   0
                   0
                   0
                   0
                   0
                   0
                   0
                   0
                   0
                   0
                   0
                   0
                   0
                   0
                   0
                   0
                   0
                   0
                   0
                   0
                   0
                   0
                   0
                   0
                   0
                   0
                   0
                   0
                   0
                   0
                   0
                   0
                   0
                   0
                   0
                   0
                   0
                   0
                   0
                   0
                   0
                   0
                   0
                   0
                   0
                   0
                   0
                   0
                   0
                   0
                   0
                   0
                   0
                   0
                   0
                   0
                   0
                   0
                   0
                   0
                   0
                   0
                   0
                   0
                   0
                   0
                   0
                   0
                   0
                   0
                   0
                   0
                   0
                   0
                   0
                   0
                   0
                   0
                   0
                   0
                   0
                   0
                   0
                   0
                   0
                   0
                   0
                   0
                   0
                   0
                   0
                   0
                   0
                   0
                   0
                   0
                   0
                   0
                   0
                   0
                   0
                   0
                   0
                   0
                   0
                   0
                   0
                   0
                   0
                   0
                   0
                   0
                   0
                   0
                   0
                   0
                   0
                   0
                   0
                   0
                   0
                   0
                   0
                   0
                   0
                   0
                   0
                   0
                   0
                   0
                   0
                   0
                   0
                   0
                   0
                   0
                   0
                   0
                   0
                   0
                   0
                   0
                   0
                   0
                   0
                   0
                   0
                   0
                   0
                   0
                   0
                   0
                   0
                   0
                   0
                   0
                   0
                   0
                   0
                   0
                   0
                   0
                   0
                   0
                   0
                   0
                   0
                   0
                   0
                   0
                   0
                   0
                   0
                   0
                   0
                   0
                   0
                   0
                   0
                   0
                   0
                   0
                   0
                   0
                   0
                   0
                   0
                   0
                   0
                   0
                   0
                   0
                   0
                   0
                   0
                   0
                   0
                   0
                   0
                   0
                   0
                   0
                   0
                   0
                   0
                   0
                   0
                   0
                   0
                   0
                   0
                   0
                   0
                   0
                   0
                   0
                   0
                   0
                   0
                   0
                   0
                   0
                   0
                   0
                   0
                   0
                   0
                   0
                   0
                   0
                   0
                   0
                   0
                   0
                   0
                   0
                   0
                   0
                   0
                   0
                   0
                   0
                   0
                   0
                   0
                   0
                   0
                   0
                   0
                   0
                   0
                   0
                   0
                   0
                   0
                   0
                   0
                   0
                   0
                   0
                   0
                   0
                   0
                   0
                   0
                   0
                   0
                   0
                   0
                   0
                   0
                   0
                   0
                   0
                   0
                   0
                   0
                   0
                   0
                   0
                   0
                   0
                   0
                   0
                   0
                   0
                   0
                   0
                   0
                   0
                   0
                   0
                   0
                   0
                   0
                   0
                   0
                   0
                   0
                   0
                   0
                   0
                   0
                   0
                   0
                   0
                   0
                   0
                   0
                   0
                   0
                   0
                   0
                   0
                   0
                   0
                   0
                   0
                   0
                   0
                   0
                   0
                   0
                   0
                   0
                   0
                   0
                   0
                   0
                   0
                   0
                   0
                   0
                   0
                   0
                   0
                   0
                   0
                   0
                   0
                   0
                   0
                   0
                   0
                   0
                   0
                   0
                   0
                   0
                   0
                   0
                   0
                   0
                   0
                   0
                   0
                   0
                   0
                   0
                   0
                   0
                   0
                   0
                   0
                   0
                   0
                   0
                   0
                   0
                   0
                   0
                   0
                   0
                   0
                   0
                   0
                   0
                   0
                   0
                   0
                   0
                   0
                   0
                   0
                   0
                   0
                   0
                   0
                   0
                   0
                   0
                   0
                   0
                   0
                   0
                   0
                   0
                   0
                   0
                   0
                   0
                   0
                   0
                   0
                   0
                   0
                   0
                   0
                   0
                   0
                   0
                   0
                   0
                   0
                   0
                   0
                   0
                   0
                   0
                   0
                   0
                   0
                   0
                   0
                   0
                   0
                   0
                   0
                   0
                   0
                   0
                   0
                   0
                   0
                   0
                   0
                   0
                   0
                   0
                   0
                   0
                   0
                   0
                   0
                   0
                   0
                   0
                   0
                   0
                   0
                   0
                   0
                   0
                   0
                   0
                   0
                   0
                   0
                   0
                   0
                   0
                   0
                   0
                   0
                   0
                   0
                   0
                   0
                   0
                   0
                   0
                   0
                   0
                   0
                   0
                   0
                   0
                   0
                   0
                   0
                   0
                   0
                   0
                   0
                   0
                   0
                   0
                   0
                   0
                   0
                   0
                   0
                   0
                   0
                   0
                   0
                   0
                   0
                   0
                   0
                   0
                   0
                   0
                   0
                   0
                   0
                   0
                   0
                   0
                   0
                   0
                   0
                   0
                   0
                   0
                   0
                   0
                   0
                   0
                   0
                   0
                   0
                   0
                   0
                   0
                   0
                   0
                   0
                   0
                   0
                   0
                   0
                   0
                   0
                   0
                   0
                   0
                   0
                   0
                   0
                   0
                   0
                   0
                   0
                   0
                   0
                   0
                   0
                   0
                   0
                   0
                   0
                   0
                   0
                   0
                   0
                   0
                   0
                   0
                   0
                   0
                   0
                   0
                   0
                   0
                   0
                   0
                   0
                   0
                   0
                   0
                   0
                   0
                   0
                   0
                   0
                   0
                   0
                   0
                   0
                   0
                   0
                   0
                   0
                   0
                   0
                   0
                   0
                   0
                   0
                   0
                   0
                   0
                   0
                   0
                   0
                   0
                   0
                   0
                   0
                   0
                   0
                   0
                   0
                   0
                   0
                   0
                   0
                   0
                   0
                   0
                   0
                   0
                   0
                   0
                   0
                   0
                   0
                   0
                   0
                   0
                   0
                   0
                   0
                   0
                   0
                   0
                   0
                   0
                   0
                   0
                   0
                   0
                   0
                   0
                   0
                   0
                   0
                   0
                   0
                   0
                   0
                   0
                   0
                   0
                   0
                   0
                   0
                   0
                   0
                   0
                   0
                   0
                   0
                   0
                   0
                   0
                   0
                   0
                   0
                   0
                   0
                   0
                   0
                   0
                   0
                   0
                   0
                   0
                   0
                   0
                   0
                   0
                   0
                   0
                   0
                   0
                   0
                   0
                   0
                   0
                   0
                   0
                   0
                   0
                   0
                   0
                   0
                   0
                   0
                   0
                   0
                   0
                   0
                   0
                   0
                   0
                   0
                   0
                   0
                   0
                   0
                   0
                   0
                   0
                   0
                   0
                   0
                   0
                   0
                   0
                   0
                   0
                   0
                   0
                   0
                   0
                   0
                   0
                   0
                   0
                   0
                   0
                   0
                   0
                   0
                   0
                   0
                   0
                   0
                   0
                   0
                   0
                   0
                   0
                   0
                   0
                   0
                   0
                   0
                   0
                   0
                   0
                   0
                   0
                   0
                   0
                   0
                   0
                   0
                   0
                   0
                   0
                   0
                   0
                   0
                   0
                   0
                   0
                   0
                   0
                   0
                   0
                   0
                   0
                   0
                   0
                   0
                   0
                   0
                   0
                   0
                   0
                   0
                   0
                   0
                   0
                   0
                   0
                   0
                   0
                   0
                   0
                   0
                   0
                   0
                   0
                   0
                   0
                   0
                   0
                   0
                   0
                   0
                   0
                   0
                   0
                   0
                   0
                   0
                   0
                   0
                   0
                   0
                   0
                   0
                   0
                   0
                   0
                   0
                   0
                   0
                   0
                   0
                   0
                   0
                   0
                   0
                   0
                   0
                   0
                   0
                   0
                   0
                   0
                   0
                   0
                   0
                   0
                   0
                   0
                   0
                   0
                   0
                   0
                   0
                   0
                   0
                   0
                   0
                   0
                   0
                   0
                   0
                   0
                   0
                   0
                   0
                   0
                   0
                   0
                   0
                   0
                   0
                   0
                   0
                   0
                   0
                   0
                   0
                   0
                   0
                   0
                   0
                   0
                   0
                   0
                   0
                   0
                   0
                   0
                   0
                   0
                   0
                   0
                   0
                   0
                   0
                   0
                   0
                   0
                   0
                   0
                   0
                   0
                   0
                   0
                   0
                   0
                   0
                   0
                   0
                   0
                   0
                   0
                   0
                   0
                   0
                   0
                   0
                   0
                   0
                   0
                   0
                   0
                   0
                   0
                   0
                   0
                   0
                   0
                   0
                   0
                   0
                   0
                   0
                   0
                   0
                   0
                   0
                   0
                   0
                   0
                   0
                   0
                   0
                   0
                   0
                   0
                   0
                   0
                   0
                   0
                   0
                   0
                   0
                   0
                   0
                   0
                   0
                   0
                   0
                   0
                   0
                   0
                   0
                   0
                   0
                   0
                   0
                   0
                   0
                   0
                   0
                   0
                   0
                   0
                   0
                   0
                   0
                   0
                   0
                   0
                   0
                   0
  
SCALARS                         Ispace  double 1
LOOKUP_TABLE default
                  12
                  12
                  12
                  12
                  12
                  12
                  12
                  12
                  12
                  12
                  12
                  12
                  12
                  11
                  12
                  11
                  11
                  11
                  11
                  11
                  11
                  12
                  12
                  11
                  12
                  12
                  11
                  11
                  11
                  11
                  11
                  11
                  11
                  11
                  11
                  11
                  11
                  11
                  11
                  11
                  11
                  11
                  11
                  11
                  11
                  11
                  11
                  11
                  11
                  11
                  11
                  11
                  11
                  11
                  11
                  11
                  11
                  11
                  11
                  11
                  11
                  11
                  11
                  11
                  11
                  11
                  12
                  12
                  12
                  12
                  12
                  12
                  12
                  12
                  11
                  11
                  11
                  11
                  11
                  11
                  11
                  11
                  11
                  11
                  11
                  11
                  11
                  11
                  11
                  11
                  11
                  11
                  11
                  11
                  11
                  11
                  12
                  12
                  12
                  12
                  12
                  12
                  12
                  12
                  12
                  12
                  12
                  12
                  12
                  12
                  12
                  12
                  12
                  12
                  12
                  12
                  11
                  11
                  11
                  11
                  11
                  11
                  11
                  11
                  11
                  11
                  11
                  11
                  11
                  11
                  11
                  11
                  11
                  11
                  11
                  11
                  11
                  11
                  11
                  11
                  11
                  11
                  11
                  11
                  11
                  11
                  12
                  12
                  12
                  12
                  12
                  12
                  12
                  12
                  12
                  12
                  12
                  12
                  12
                  12
                  12
                  12
                  12
                  11
                  11
                  11
                  11
                  12
                  12
                  11
                  11
                  11
                  11
                  11
                  11
                  11
                  11
                  11
                  11
                  11
                  11
                  11
                  11
                  11
                  11
                  11
                  11
                  11
                  11
                  12
                  12
                  12
                  12
                  11
                  11
                  11
                  11
                  11
                  11
                  11
                  11
                  11
                  11
                  11
                  12
                  12
                  12
                  12
                  12
                  12
                  12
                  12
                  12
                  12
                  11
                  11
                  11
                  11
                  11
                  11
                  11
                  11
                  11
                  11
                  11
                  11
                  11
                  11
                  11
                  12
                  12
                  12
                  12
                  12
                  12
                  12
                  12
                  12
                  12
                  12
                  12
                  11
                  11
                  11
                  11
                  12
                  12
                  11
                  11
                  11
                  11
                  11
                  11
                  11
                  11
                  11
                  11
                  11
                  11
                  11
                  11
                  11
                  11
                  11
                  11
                  11
                  11
                  12
                  12
                  12
                  12
                  11
                  11
                  11
                  11
                  11
                  11
                  11
                  11
                  11
                  11
                  11
                  12
                  12
                  12
                  12
                  12
                  12
                  12
                  12
                  12
                  12
                  11
                  11
                  11
                  11
                  11
                  11
                  11
                  11
                  11
                  11
                  11
                  11
                  11
                  11
                  11
                  12
                  12
                  12
                  12
                  12
                  12
                  12
                  12
                  12
                  12
                  12
                  12
                  11
                  11
                  11
                  11
                  12
                  12
                  11
                  11
                  11
                  11
                  11
                  11
                  11
                  11
                  11
                  11
                  11
                  11
                  11
                  11
                  11
                  11
                  11
                  11
                  11
                  11
                  12
                  12
                  12
                  12
                  11
                  11
                  11
                  11
                  11
                  11
                  11
                  11
                  11
                  11
                  11
                  12
                  12
                  12
                  12
                  12
                  12
                  12
                  12
                  12
                  12
                  11
                  11
                  11
                  11
                  11
                  11
                  11
                  11
                  11
                  11
                  11
                  11
                  11
                  11
                  11
                  12
                  12
                  12
                  12
                  12
                  12
                  12
                  12
                  12
                  12
                  12
                  12
                  11
                  11
                  11
                  11
                  12
                  12
                  11
                  11
                  11
                  11
                  11
                  11
                  11
                  11
                  11
                  11
                  11
                  11
                  11
                  11
                  11
                  11
                  11
                  11
                  11
                  11
                  12
                  12
                  12
                  12
                  11
                  11
                  11
                  11
                  11
                  11
                  11
                  11
                  11
                  11
                  11
                  12
                  12
                  12
                  12
                  12
                  12
                  12
                  12
                  12
                  12
                  11
                  11
                  11
                  11
                  11
                  11
                  11
                  11
                  11
                  11
                  11
                  11
                  11
                  11
                  11
                  12
                  12
                  12
                  12
                  12
                  12
                  12
                  12
                  12
                  12
                  12
                  12
                  11
                  11
                  11
                  11
                  12
                  12
                  11
                  11
                  11
                  11
                  11
                  11
                  11
                  11
                  11
                  11
                  11
                  11
                  11
                  11
                  11
                  11
                  11
                  11
                  11
                  11
                  12
                  12
                  12
                  12
                  11
                  11
                  11
                  11
                  11
                  11
                  11
                  11
                  11
                  11
                  11
                  12
                  12
                  12
                  12
                  12
                  12
                  12
                  12
                  12
                  12
                  11
                  11
                  11
                  11
                  11
                  11
                  11
                  11
                  11
                  11
                  11
                  11
                  11
                  11
                  11
                  12
                  12
                  12
                  12
                  12
                  12
                  12
                  12
                  12
                  12
                  12
                  12
                  11
                  11
                  11
                  11
                  12
                  12
                  11
                  11
                  11
                  11
                  11
                  11
                  11
                  11
                  11
                  11
                  11
                  11
                  11
                  11
                  11
                  11
                  11
                  11
                  11
                  11
                  12
                  12
                  12
                  12
                  11
                  11
                  11
                  11
                  11
                  11
                  11
                  11
                  11
                  11
                  11
                  12
                  12
                  12
                  12
                  12
                  12
                  12
                  12
                  12
                  12
                  11
                  11
                  11
                  11
                  11
                  11
                  11
                  11
                  11
                  11
                  11
                  11
                  11
                  11
                  11
                  12
                  12
                  12
                  12
                  12
                  12
                  12
                  12
                  12
                  12
                  12
                  12
                  11
                  11
                  11
                  11
                  12
                  12
                  11
                  11
                  11
                  11
                  11
                  11
                  11
                  11
                  11
                  11
                  11
                  11
                  11
                  11
                  11
                  11
                  11
                  11
                  11
                  11
                  12
                  12
                  12
                  12
                  11
                  11
                  11
                  11
                  11
                  11
                  11
                  11
                  11
                  11
                  11
                  12
                  12
                  12
                  12
                  12
                  12
                  12
                  12
                  12
                  12
                  11
                  11
                  11
                  11
                  11
                  11
                  11
                  11
                  11
                  11
                  11
                  11
                  11
                  11
                  11
                  12
                  12
                  12
                  12
                  12
                  12
                  12
                  12
                  12
                  12
                  12
                  12
                  11
                  11
                  11
                  11
                  12
                  12
                  11
                  11
                  11
                  11
                  11
                  11
                  11
                  11
                  11
                  11
                  11
                  11
                  11
                  11
                  11
                  11
                  11
                  11
                  11
                  11
                  12
                  12
                  12
                  12
                  11
                  11
                  11
                  11
                  11
                  11
                  11
                  11
                  11
                  11
                  11
                  12
                  12
                  12
                  12
                  12
                  12
                  12
                  12
                  12
                  12
                  11
                  11
                  11
                  11
                  11
                  11
                  11
                  11
                  11
                  11
                  11
                  11
                  11
                  11
                  11
                  12
                  12
                  12
                  12
                  12
                  12
                  12
                  12
                  12
                  12
                  12
                  12
                  11
                  11
                  11
                  11
                  12
                  12
                  11
                  11
                  11
                  11
                  11
                  11
                  11
                  11
                  11
                  11
                  11
                  11
                  11
                  11
                  11
                  11
                  11
                  11
                  11
                  11
                  12
                  12
                  12
                  12
                  11
                  11
                  11
                  11
                  11
                  11
                  11
                  11
                  11
                  11
                  11
                  12
                  12
                  12
                  12
                  12
                  12
                  12
                  12
                  12
                  12
                  11
                  11
                  11
                  11
                  11
                  11
                  11
                  11
                  11
                  11
                  11
                  11
                  11
                  11
                  11
                  12
                  12
                  12
                  12
                  12
                  12
                  12
                  12
                  12
                  12
                  12
                  12
                  11
                  11
                  11
                  11
                  12
                  12
                  11
                  11
                  11
                  11
                  11
                  11
                  11
                  11
                  11
                  11
                  11
                  11
                  11
                  11
                  11
                  11
                  11
                  11
                  11
                  11
                  12
                  12
                  12
                  12
                  11
                  11
                  11
                  11
                  11
                  11
                  11
                  11
                  11
                  11
                  11
                  12
                  12
                  12
                  12
                  12
                  12
                  12
                  12
                  12
                  12
                  11
                  11
                  11
                  11
                  11
                  11
                  11
                  11
                  11
                  11
                  11
                  11
                  11
                  11
                  11
                  12
                  12
                  12
                  12
                  12
                  12
                  12
                  12
                  12
                  12
                  12
                  12
                  11
                  11
                  11
                  11
                  12
                  12
                  11
                  11
                  11
                  11
                  11
                  11
                  11
                  11
                  11
                  11
                  11
                  11
                  11
                  11
                  11
                  11
                  11
                  11
                  11
                  11
                  12
                  12
                  12
                  12
                  11
                  11
                  11
                  11
                  11
                  11
                  11
                  11
                  11
                  11
                  11
                  12
                  12
                  12
                  12
                  12
                  12
                  12
                  12
                  12
                  12
                  11
                  11
                  11
                  11
                  11
                  11
                  11
                  11
                  11
                  11
                  11
                  11
                  11
                  11
                  11
                  12
                  12
                  12
                  12
                  12
                  12
                  12
                  12
                  12
                  12
                  12
                  12
                  11
                  11
                  11
                  11
                  12
                  12
                  11
                  11
                  11
                  11
                  11
                  11
                  11
                  11
                  11
                  11
                  11
                  11
                  11
                  11
                  11
                  11
                  11
                  11
                  11
                  11
                  12
                  12
                  12
                  12
                  11
                  11
                  11
                  11
                  11
                  11
                  11
                  11
                  11
                  11
                  11
                  12
                  12
                  12
                  12
                  12
                  12
                  12
                  12
                  12
                  12
                  11
                  11
                  11
                  11
                  11
                  11
                  11
                  11
                  11
                  11
                  11
                  11
                  11
                  11
                  11
                  12
                  12
                  12
                  12
                  12
                  12
                  12
                  12
                  12
                  12
                  12
                  12
                  11
                  11
                  11
                  11
                  12
                  12
                  11
                  11
                  11
                  11
                  11
                  11
                  11
                  11
                  11
                  11
                  11
                  11
                  11
                  11
                  11
                  11
                  11
                  11
                  11
                  11
                  12
                  12
                  12
                  12
                  11
                  11
                  11
                  11
                  11
                  11
                  11
                  11
                  11
                  11
                  11
                  12
                  12
                  12
                  12
                  12
                  12
                  12
                  12
                  12
                  12
                  11
                  11
                  11
                  11
                  11
                  11
                  11
                  11
                  11
                  11
                  11
                  11
                  11
                  11
                  11
                  12
                  12
                  12
                  12
                  12
                  12
                  12
                  12
                  12
                  12
                  12
                  12
                  11
                  11
                  11
                  11
                  12
                  12
                  11
                  11
                  11
                  11
                  11
                  11
                  11
                  11
                  11
                  11
                  11
                  11
                  11
                  11
                  11
                  11
                  11
                  11
                  11
                  11
                  12
                  12
                  12
                  12
                  11
                  11
                  11
                  11
                  11
                  11
                  11
                  11
                  11
                  11
                  11
                  12
                  12
                  12
                  12
                  12
                  12
                  12
                  12
                  12
                  12
                  11
                  11
                  11
                  11
                  11
                  11
                  11
                  11
                  11
                  11
                  11
                  11
                  11
                  11
                  11
                  12
                  12
                  12
                  12
                  12
                  12
                  12
                  12
                  12
                  12
                  12
                  12
                  11
                  11
                  11
                  11
                  12
                  12
                  11
                  11
                  11
                  11
                  11
                  11
                  11
                  11
                  11
                  11
                  11
                  11
                  11
                  11
                  11
                  11
                  11
                  11
                  11
                  11
                  12
                  12
                  12
                  12
                  11
                  11
                  11
                  11
                  11
                  11
                  11
                  11
                  11
                  11
                  11
                  12
                  12
                  12
                  12
                  12
                  12
                  12
                  12
                  12
                  12
                  11
                  11
                  11
                  11
                  11
                  11
                  11
                  11
                  11
                  11
                  11
                  11
                  11
                  11
                  11
                  12
                  12
                  12
                  12
                  12
                  12
                  12
                  12
                  12
                  12
                  12
                  12
                  11
                  11
                  11
                  11
                  12
                  12
                  11
                  11
                  11
                  11
                  11
                  11
                  11
                  11
                  11
                  11
                  11
                  11
                  11
                  11
                  11
                  11
                  11
                  11
                  11
                  11
                  12
                  12
                  12
                  12
                  11
                  11
                  11
                  11
                  11
                  11
                  11
                  11
                  11
                  11
                  11
                  12
                  12
                  12
                  12
                  12
                  12
                  12
                  12
                  12
                  12
                  11
                  11
                  11
                  11
                  11
                  11
                  11
                  11
                  11
                  11
                  11
                  11
                  11
                  11
                  11
                  12
                  12
                  12
                  12
                  12
                  12
                  12
                  12
                  12
                  12
                  12
                  12
                  11
                  11
                  11
                  11
                  12
                  12
                  11
                  11
                  11
                  11
                  11
                  11
                  11
                  11
                  11
                  11
                  11
                  11
                  11
                  11
                  11
                  11
                  11
                  11
                  11
                  11
                  12
                  12
                  12
                  12
                  11
                  11
                  11
                  11
                  11
                  11
                  11
                  11
                  11
                  11
                  11
                  12
                  12
                  12
                  12
                  12
                  12
                  12
                  12
                  12
                  12
                  11
                  11
                  11
                  11
                  11
                  11
                  11
                  11
                  11
                  11
                  11
                  11
                  11
                  11
                  11
                  12
                  12
                  12
                  12
                  12
                  12
                  12
                  12
                  12
                  12
                  12
                  12
                  11
                  11
                  11
                  11
                  12
                  12
                  11
                  11
                  11
                  11
                  11
                  11
                  11
                  11
                  11
                  11
                  11
                  11
                  11
                  11
                  11
                  11
                  11
                  11
                  11
                  11
                  12
                  12
                  12
                  12
                  11
                  11
                  11
                  11
                  11
                  11
                  11
                  11
                  11
                  11
                  11
                  12
                  12
                  12
                  12
                  12
                  12
                  12
                  12
                  12
                  12
                  11
                  11
                  11
                  11
                  11
                  11
                  11
                  11
                  11
                  11
                  11
                  11
                  11
                  11
                  11
                  12
                  12
                  12
                  12
                  12
                  12
                  12
                  12
                  12
                  12
                  12
                  12
                  11
                  11
                  11
                  11
                  12
                  12
                  11
                  11
                  11
                  11
                  11
                  11
                  11
                  11
                  11
                  11
                  11
                  11
                  11
                  11
                  11
                  11
                  11
                  11
                  11
                  11
                  12
                  12
                  12
                  12
                  11
                  11
                  11
                  11
                  11
                  11
                  11
                  11
                  11
                  11
                  11
                  12
                  12
                  12
                  12
                  12
                  12
                  12
                  12
                  12
                  12
                  11
                  11
                  11
                  11
                  11
                  11
                  11
                  11
                  11
                  11
                  11
                  11
                  11
                  11
                  11
                  12
                  12
                  12
                  12
                  12
                  12
                  12
                  12
                  12
                  12
                  12
                  12
                  11
                  11
                  11
                  11
                  12
                  12
                  11
                  11
                  11
                  11
                  11
                  11
                  11
                  11
                  11
                  11
                  11
                  11
                  11
                  11
                  11
                  11
                  11
                  11
                  11
                  11
                  12
                  12
                  12
                  12
                  11
                  11
                  11
                  11
                  11
                  11
                  11
                  11
                  11
                  11
                  11
                  12
                  12
                  12
                  12
                  12
                  12
                  12
                  12
                  12
                  12
                  11
                  11
                  11
                  11
                  11
                  11
                  11
                  11
                  11
                  11
                  11
                  11
                  11
                  11
                  11
                  12
                  12
                  12
                  12
                  12
                  12
                  12
                  12
                  12
                  12
                  12
                  12
                  11
                  11
                  11
                  11
                  12
                  12
                  11
                  11
                  11
                  11
                  11
                  11
                  11
                  11
                  11
                  11
                  11
                  11
                  11
                  11
                  11
                  11
                  11
                  11
                  11
                  11
                  12
                  12
                  12
                  12
                  11
                  11
                  11
                  11
                  11
                  11
                  11
                  11
                  11
                  11
                  11
                  12
                  12
                  12
                  12
                  12
                  12
                  12
                  12
                  12
                  12
                  11
                  11
                  11
                  11
                  11
                  11
                  11
                  11
                  11
                  11
                  11
                  11
                  11
                  11
                  11
                  12
                  12
                  12
                  12
                  12
                  12
                  12
                  12
                  12
                  12
                  12
                  12
                  11
                  11
                  11
                  11
                  12
                  12
                  11
                  11
                  11
                  11
                  11
                  11
                  11
                  11
                  11
                  11
                  11
                  11
                  11
                  11
                  11
                  11
                  11
                  11
                  11
                  11
                  12
                  12
                  12
                  12
                  11
                  11
                  11
                  11
                  11
                  11
                  11
                  11
                  11
                  11
                  11
                  12
                  12
                  12
                  12
                  12
                  12
                  12
                  12
                  12
                  12
                  11
                  11
                  11
                  11
                  11
                  11
                  11
                  11
                  11
                  11
                  11
                  11
                  11
                  11
                  11
                  12
                  12
                  12
                  12
                  12
                  12
                  12
                  12
                  12
                  12
                  12
                  12
                  11
                  11
                  11
                  11
                  12
                  12
                  11
                  11
                  11
                  11
                  11
                  11
                  11
                  11
                  11
                  11
                  11
                  11
                  11
                  11
                  11
                  11
                  11
                  11
                  11
                  11
                  12
                  12
                  12
                  12
                  11
                  11
                  11
                  11
                  11
                  11
                  11
                  11
                  11
                  11
                  11
                  12
                  12
                  12
                  12
                  12
                  12
                  12
                  12
                  12
                  12
                  11
                  11
                  11
                  11
                  11
                  11
                  11
                  11
                  11
                  11
                  11
                  11
                  11
                  11
                  11
                  12
                  12
                  12
                  12
                  12
  
SCALARS                         Jspace  double 1
LOOKUP_TABLE default
                  11
                  12
                  11
                  11
                  11
                  12
                  11
                  11
                  11
                  11
                  11
                  11
                  12
                  12
                  12
                  12
                  11
                  12
                  11
                  12
                  12
                  12
                  12
                  12
                  12
                  12
                  12
                  12
                  12
                  12
                  11
                  11
                  11
                  11
                  11
                  11
                  11
                  11
                  11
                  11
                  11
                  11
                  11
                  11
                  11
                  11
                  11
                  11
                  11
                  11
                  11
                  11
                  12
                  12
                  12
                  12
                  12
                  11
                  12
                  11
                  11
                  11
                  11
                  11
                  11
                  11
                  11
                  11
                  11
                  12
                  11
                  12
                  12
                  12
                  12
                  12
                  12
                  12
                  12
                  12
                  12
                  12
                  12
                  12
                  11
                  11
                  11
                  11
                  11
                  11
                  11
                  11
                  11
                  11
                  11
                  11
                  11
                  11
                  11
                  11
                  11
                  11
                  11
                  11
                  11
                  11
                  11
                  11
                  12
                  12
                  12
                  12
                  12
                  12
                  12
                  12
                  12
                  12
                  12
                  12
                  12
                  12
                  12
                  12
                  12
                  12
                  12
                  12
                  11
                  11
                  11
                  11
                  11
                  11
                  11
                  11
                  11
                  11
                  11
                  11
                  11
                  11
                  11
                  11
                  11
                  11
                  11
                  11
                  11
                  11
                  11
                  11
                  11
                  11
                  11
                  11
                  11
                  12
                  11
                  11
                  11
                  11
                  12
                  12
                  11
                  12
                  12
                  12
                  12
                  12
                  12
                  11
                  11
                  11
                  11
                  11
                  11
                  11
                  11
                  11
                  11
                  11
                  12
                  12
                  12
                  11
                  11
                  11
                  11
                  11
                  11
                  12
                  12
                  12
                  12
                  12
                  12
                  12
                  11
                  11
                  11
                  11
                  11
                  11
                  11
                  11
                  11
                  11
                  11
                  11
                  12
                  12
                  12
                  12
                  12
                  12
                  12
                  12
                  12
                  12
                  11
                  11
                  11
                  11
                  11
                  11
                  11
                  11
                  11
                  11
                  11
                  11
                  11
                  11
                  11
                  12
                  11
                  11
                  11
                  11
                  12
                  12
                  11
                  12
                  12
                  12
                  12
                  12
                  12
                  11
                  11
                  11
                  11
                  11
                  11
                  11
                  11
                  11
                  11
                  11
                  12
                  12
                  12
                  11
                  11
                  11
                  11
                  11
                  11
                  12
                  12
                  12
                  12
                  12
                  12
                  12
                  11
                  11
                  11
                  11
                  11
                  11
                  11
                  11
                  11
                  11
                  11
                  11
                  12
                  12
                  12
                  12
                  12
                  12
                  12
                  12
                  12
                  12
                  11
                  11
                  11
                  11
                  11
                  11
                  11
                  11
                  11
                  11
                  11
                  11
                  11
                  11
                  11
                  12
                  11
                  11
                  11
                  11
                  12
                  12
                  11
                  12
                  12
                  12
                  12
                  12
                  12
                  11
                  11
                  11
                  11
                  11
                  11
                  11
                  11
                  11
                  11
                  11
                  12
                  12
                  12
                  11
                  11
                  11
                  11
                  11
                  11
                  12
                  12
                  12
                  12
                  12
                  12
                  12
                  11
                  11
                  11
                  11
                  11
                  11
                  11
                  11
                  11
                  11
                  11
                  11
                  12
                  12
                  12
                  12
                  12
                  12
                  12
                  12
                  12
                  12
                  11
                  11
                  11
                  11
                  11
                  11
                  11
                  11
                  11
                  11
                  11
                  11
                  11
                  11
                  11
                  12
                  11
                  11
                  11
                  11
                  12
                  12
                  11
                  12
                  12
                  12
                  12
                  12
                  12
                  11
                  11
                  11
                  11
                  11
                  11
                  11
                  11
                  11
                  11
                  11
                  12
                  12
                  12
                  11
                  11
                  11
                  11
                  11
                  11
                  12
                  12
                  12
                  12
                  12
                  12
                  12
                  11
                  11
                  11
                  11
                  11
                  11
                  11
                  11
                  11
                  11
                  11
                  11
                  12
                  12
                  12
                  12
                  12
                  12
                  12
                  12
                  12
                  12
                  11
                  11
                  11
                  11
                  11
                  11
                  11
                  11
                  11
                  11
                  11
                  11
                  11
                  11
                  11
                  12
                  11
                  11
                  11
                  11
                  12
                  12
                  11
                  12
                  12
                  12
                  12
                  12
                  12
                  11
                  11
                  11
                  11
                  11
                  11
                  11
                  11
                  11
                  11
                  11
                  12
                  12
                  12
                  11
                  11
                  11
                  11
                  11
                  11
                  12
                  12
                  12
                  12
                  12
                  12
                  12
                  11
                  11
                  11
                  11
                  11
                  11
                  11
                  11
                  11
                  11
                  11
                  11
                  12
                  12
                  12
                  12
                  12
                  12
                  12
                  12
                  12
                  12
                  11
                  11
                  11
                  11
                  11
                  11
                  11
                  11
                  11
                  11
                  11
                  11
                  11
                  11
                  11
                  12
                  11
                  11
                  11
                  11
                  12
                  12
                  11
                  12
                  12
                  12
                  12
                  12
                  12
                  11
                  11
                  11
                  11
                  11
                  11
                  11
                  11
                  11
                  11
                  11
                  12
                  12
                  12
                  11
                  11
                  11
                  11
                  11
                  11
                  12
                  12
                  12
                  12
                  12
                  12
                  12
                  11
                  11
                  11
                  11
                  11
                  11
                  11
                  11
                  11
                  11
                  11
                  11
                  12
                  12
                  12
                  12
                  12
                  12
                  12
                  12
                  12
                  12
                  11
                  11
                  11
                  11
                  11
                  11
                  11
                  11
                  11
                  11
                  11
                  11
                  11
                  11
                  11
                  12
                  11
                  11
                  11
                  11
                  12
                  12
                  11
                  12
                  12
                  12
                  12
                  12
                  12
                  11
                  11
                  11
                  11
                  11
                  11
                  11
                  11
                  11
                  11
                  11
                  12
                  12
                  12
                  11
                  11
                  11
                  11
                  11
                  11
                  12
                  12
                  12
                  12
                  12
                  12
                  12
                  11
                  11
                  11
                  11
                  11
                  11
                  11
                  11
                  11
                  11
                  11
                  11
                  12
                  12
                  12
                  12
                  12
                  12
                  12
                  12
                  12
                  12
                  11
                  11
                  11
                  11
                  11
                  11
                  11
                  11
                  11
                  11
                  11
                  11
                  11
                  11
                  11
                  12
                  11
                  11
                  11
                  11
                  12
                  12
                  11
                  12
                  12
                  12
                  12
                  12
                  12
                  11
                  11
                  11
                  11
                  11
                  11
                  11
                  11
                  11
                  11
                  11
                  12
                  12
                  12
                  11
                  11
                  11
                  11
                  11
                  11
                  12
                  12
                  12
                  12
                  12
                  12
                  12
                  11
                  11
                  11
                  11
                  11
                  11
                  11
                  11
                  11
                  11
                  11
                  11
                  12
                  12
                  12
                  12
                  12
                  12
                  12
                  12
                  12
                  12
                  11
                  11
                  11
                  11
                  11
                  11
                  11
                  11
                  11
                  11
                  11
                  11
                  11
                  11
                  11
                  12
                  11
                  11
                  11
                  11
                  12
                  12
                  11
                  12
                  12
                  12
                  12
                  12
                  12
                  11
                  11
                  11
                  11
                  11
                  11
                  11
                  11
                  11
                  11
                  11
                  12
                  12
                  12
                  11
                  11
                  11
                  11
                  11
                  11
                  12
                  12
                  12
                  12
                  12
                  12
                  12
                  11
                  11
                  11
                  11
                  11
                  11
                  11
                  11
                  11
                  11
                  11
                  11
                  12
                  12
                  12
                  12
                  12
                  12
                  12
                  12
                  12
                  12
                  11
                  11
                  11
                  11
                  11
                  11
                  11
                  11
                  11
                  11
                  11
                  11
                  11
                  11
                  11
                  12
                  11
                  11
                  11
                  11
                  12
                  12
                  11
                  12
                  12
                  12
                  12
                  12
                  12
                  11
                  11
                  11
                  11
                  11
                  11
                  11
                  11
                  11
                  11
                  11
                  12
                  12
                  12
                  11
                  11
                  11
                  11
                  11
                  11
                  12
                  12
                  12
                  12
                  12
                  12
                  12
                  11
                  11
                  11
                  11
                  11
                  11
                  11
                  11
                  11
                  11
                  11
                  11
                  12
                  12
                  12
                  12
                  12
                  12
                  12
                  12
                  12
                  12
                  11
                  11
                  11
                  11
                  11
                  11
                  11
                  11
                  11
                  11
                  11
                  11
                  11
                  11
                  11
                  12
                  11
                  11
                  11
                  11
                  12
                  12
                  11
                  12
                  12
                  12
                  12
                  12
                  12
                  11
                  11
                  11
                  11
                  11
                  11
                  11
                  11
                  11
                  11
                  11
                  12
                  12
                  12
                  11
                  11
                  11
                  11
                  11
                  11
                  12
                  12
                  12
                  12
                  12
                  12
                  12
                  11
                  11
                  11
                  11
                  11
                  11
                  11
                  11
                  11
                  11
                  11
                  11
                  12
                  12
                  12
                  12
                  12
                  12
                  12
                  12
                  12
                  12
                  11
                  11
                  11
                  11
                  11
                  11
                  11
                  11
                  11
                  11
                  11
                  11
                  11
                  11
                  11
                  12
                  11
                  11
                  11
                  11
                  12
                  12
                  11
                  12
                  12
                  12
                  12
                  12
                  12
                  11
                  11
                  11
                  11
                  11
                  11
                  11
                  11
                  11
                  11
                  11
                  12
                  12
                  12
                  11
                  11
                  11
                  11
                  11
                  11
                  12
                  12
                  12
                  12
                  12
                  12
                  12
                  11
                  11
                  11
                  11
                  11
                  11
                  11
                  11
                  11
                  11
                  11
                  11
                  12
                  12
                  12
                  12
                  12
                  12
                  12
                  12
                  12
                  12
                  11
                  11
                  11
                  11
                  11
                  11
                  11
                  11
                  11
                  11
                  11
                  11
                  11
                  11
                  11
                  12
                  11
                  11
                  11
                  11
                  12
                  12
                  11
                  12
                  12
                  12
                  12
                  12
                  12
                  11
                  11
                  11
                  11
                  11
                  11
                  11
                  11
                  11
                  11
                  11
                  12
                  12
                  12
                  11
                  11
                  11
                  11
                  11
                  11
                  12
                  12
                  12
                  12
                  12
                  12
                  12
                  11
                  11
                  11
                  11
                  11
                  11
                  11
                  11
                  11
                  11
                  11
                  11
                  12
                  12
                  12
                  12
                  12
                  12
                  12
                  12
                  12
                  12
                  11
                  11
                  11
                  11
                  11
                  11
                  11
                  11
                  11
                  11
                  11
                  11
                  11
                  11
                  11
                  12
                  11
                  11
                  11
                  11
                  12
                  12
                  11
                  12
                  12
                  12
                  12
                  12
                  12
                  11
                  11
                  11
                  11
                  11
                  11
                  11
                  11
                  11
                  11
                  11
                  12
                  12
                  12
                  11
                  11
                  11
                  11
                  11
                  11
                  12
                  12
                  12
                  12
                  12
                  12
                  12
                  11
                  11
                  11
                  11
                  11
                  11
                  11
                  11
                  11
                  11
                  11
                  11
                  12
                  12
                  12
                  12
                  12
                  12
                  12
                  12
                  12
                  12
                  11
                  11
                  11
                  11
                  11
                  11
                  11
                  11
                  11
                  11
                  11
                  11
                  11
                  11
                  11
                  12
                  11
                  11
                  11
                  11
                  12
                  12
                  11
                  12
                  12
                  12
                  12
                  12
                  12
                  11
                  11
                  11
                  11
                  11
                  11
                  11
                  11
                  11
                  11
                  11
                  12
                  12
                  12
                  11
                  11
                  11
                  11
                  11
                  11
                  12
                  12
                  12
                  12
                  12
                  12
                  12
                  11
                  11
                  11
                  11
                  11
                  11
                  11
                  11
                  11
                  11
                  11
                  11
                  12
                  12
                  12
                  12
                  12
                  12
                  12
                  12
                  12
                  12
                  11
                  11
                  11
                  11
                  11
                  11
                  11
                  11
                  11
                  11
                  11
                  11
                  11
                  11
                  11
                  12
                  11
                  11
                  11
                  11
                  12
                  12
                  11
                  12
                  12
                  12
                  12
                  12
                  12
                  11
                  11
                  11
                  11
                  11
                  11
                  11
                  11
                  11
                  11
                  11
                  12
                  12
                  12
                  11
                  11
                  11
                  11
                  11
                  11
                  12
                  12
                  12
                  12
                  12
                  12
                  12
                  11
                  11
                  11
                  11
                  11
                  11
                  11
                  11
                  11
                  11
                  11
                  11
                  12
                  12
                  12
                  12
                  12
                  12
                  12
                  12
                  12
                  12
                  11
                  11
                  11
                  11
                  11
                  11
                  11
                  11
                  11
                  11
                  11
                  11
                  11
                  11
                  11
                  12
                  11
                  11
                  11
                  11
                  12
                  12
                  11
                  12
                  12
                  12
                  12
                  12
                  12
                  11
                  11
                  11
                  11
                  11
                  11
                  11
                  11
                  11
                  11
                  11
                  12
                  12
                  12
                  11
                  11
                  11
                  11
                  11
                  11
                  12
                  12
                  12
                  12
                  12
                  12
                  12
                  11
                  11
                  11
                  11
                  11
                  11
                  11
                  11
                  11
                  11
                  11
                  11
                  12
                  12
                  12
                  12
                  12
                  12
                  12
                  12
                  12
                  12
                  11
                  11
                  11
                  11
                  11
                  11
                  11
                  11
                  11
                  11
                  11
                  11
                  11
                  11
                  11
                  12
                  11
                  11
                  11
                  11
                  12
                  12
                  11
                  12
                  12
                  12
                  12
                  12
                  12
                  11
                  11
                  11
                  11
                  11
                  11
                  11
                  11
                  11
                  11
                  11
                  12
                  12
                  12
                  11
                  11
                  11
                  11
                  11
                  11
                  12
                  12
                  12
                  12
                  12
                  12
                  12
                  11
                  11
                  11
                  11
                  11
                  11
                  11
                  11
                  11
                  11
                  11
                  11
                  12
                  12
                  12
                  12
                  12
                  12
                  12
                  12
                  12
                  12
                  11
                  11
                  11
                  11
                  11
                  11
                  11
                  11
                  11
                  11
                  11
                  11
                  11
                  11
                  11
                  12
                  11
                  11
                  11
                  11
                  12
                  12
                  11
                  12
                  12
                  12
                  12
                  12
                  12
                  11
                  11
                  11
                  11
                  11
                  11
                  11
                  11
                  11
                  11
                  11
                  12
                  12
                  12
                  11
                  11
                  11
                  11
                  11
                  11
                  12
                  12
                  12
                  12
                  12
                  12
                  12
                  11
                  11
                  11
                  11
                  11
                  11
                  11
                  11
                  11
                  11
                  11
                  11
                  12
                  12
                  12
                  12
                  12
                  12
                  12
                  12
                  12
                  12
                  11
                  11
                  11
                  11
                  11
                  11
                  11
                  11
                  11
                  11
                  11
                  11
                  11
                  11
                  11
                  12
                  11
                  11
                  11
                  11
                  12
                  12
                  11
                  12
                  12
                  12
                  12
                  12
                  12
                  11
                  11
                  11
                  11
                  11
                  11
                  11
                  11
                  11
                  11
                  11
                  12
                  12
                  12
                  11
                  11
                  11
                  11
                  11
                  11
                  12
                  12
                  12
                  12
                  12
                  12
                  12
                  11
                  11
                  11
                  11
                  11
                  11
                  11
                  11
                  11
                  11
                  11
                  11
                  12
                  12
                  12
                  12
                  12
                  12
                  12
                  12
                  12
                  12
                  11
                  11
                  11
                  11
                  11
                  11
                  11
                  11
                  11
                  11
                  11
                  11
                  11
                  11
                  11
                  12
                  11
                  11
                  11
                  11
                  12
                  12
                  11
                  12
                  12
                  12
                  12
                  12
                  12
                  11
                  11
                  11
                  11
                  11
                  11
                  11
                  11
                  11
                  11
                  11
                  12
                  12
                  12
                  11
                  11
                  11
                  11
                  11
                  11
                  12
                  12
                  12
                  12
                  12
                  12
                  12
                  11
                  11
                  11
                  11
                  11
                  11
                  11
                  11
                  11
                  11
                  11
                  11
                  12
                  12
                  12
                  12
                  12
                  12
                  12
                  12
                  12
                  12
                  11
                  11
                  11
                  11
                  11
                  11
                  11
                  11
                  11
                  11
                  11
                  11
                  11
                  11
                  11
                  12
                  11
                  11
                  11
                  11
                  12
                  12
                  11
                  12
                  12
                  12
                  12
                  12
                  12
                  11
                  11
                  11
                  11
                  11
                  11
                  11
                  11
                  11
                  11
                  11
                  12
                  12
                  12
                  11
                  11
                  11
                  11
                  11
                  11
                  12
                  12
                  12
                  12
                  12
                  12
                  12
                  11
                  11
                  11
                  11
                  11
                  11
                  11
                  11
                  11
                  11
                  11
                  11
                  12
                  12
                  12
                  12
                  12
                  12
                  12
                  12
                  12
                  12
                  11
                  11
                  11
                  11
                  11
                  11
                  11
                  11
                  11
                  11
                  11
                  11
                  11
                  11
                  11
                  12
                  11
                  11
                  11
                  11
                  12
                  12
                  11
                  12
                  12
                  12
                  12
                  12
                  12
                  11
                  11
                  11
                  11
                  11
                  11
                  11
                  11
                  11
                  11
                  11
                  12
                  12
                  12
                  11
                  11
                  11
                  11
                  11
                  11
                  12
                  12
                  12
                  12
                  12
                  12
                  12
                  11
                  11
                  11
                  11
                  11
                  11
                  11
                  11
                  11
                  11
                  11
                  11
                  12
                  12
                  12
                  12
                  12
                  12
                  12
                  12
                  12
                  12
                  11
                  11
                  11
                  11
                  11
                  11
                  11
                  11
                  11
                  11
                  11
                  11
                  11
                  11
  
SCALARS                         Kspace  double 1
LOOKUP_TABLE default
                  11
                  11
                  11
                  11
                  11
                  11
                  11
                  11
                  11
                  11
                  11
                  11
                  11
                  11
                  11
                  11
                  11
                  11
                  11
                  11
                  11
                  11
                  11
                  11
                  11
                  11
                  11
                  11
                  11
                  11
                  11
                  11
                  11
                  11
                  11
                  11
                  11
                  11
                  11
                  11
                  11
                  11
                  11
                  11
                  11
                  11
                  11
                  11
                  11
                  11
                  11
                  11
                  11
                  11
                  11
                  11
                  11
                  11
                  11
                  11
                  11
                  11
                  11
                  11
                  11
                  11
                  11
                  11
                  11
                  11
                  11
                  11
                  11
                  11
                  11
                  11
                  11
                  11
                  11
                  11
                  11
                  11
                  11
                  11
                  11
                  11
                  11
                  11
                  11
                  11
                  11
                  11
                  11
                  11
                  11
                  11
                  11
                  11
                  11
                  11
                  11
                  11
                  11
                  11
                  11
                  11
                  11
                  11
                  11
                  11
                  11
                  11
                  11
                  11
                  11
                  11
                  11
                  11
                  11
                  11
                  11
                  11
                  11
                  11
                  11
                  11
                  11
                  11
                  11
                  11
                  11
                  11
                  11
                  11
                  11
                  11
                  11
                  11
                  11
                  11
                  11
                  11
                  11
                  11
                  11
                  11
                  11
                  11
                  11
                  11
                  11
                  11
                  11
                  11
                  11
                  11
                  11
                  11
                  11
                  11
                  11
                  11
                  11
                  11
                  11
                  11
                  11
                  11
                  11
                  11
                  11
                  11
                  11
                  11
                  11
                  11
                  11
                  11
                  11
                  11
                  11
                  11
                  11
                  11
                  11
                  11
                  11
                  11
                  11
                  11
                  11
                  11
                  11
                  11
                  11
                  11
                  11
                  11
                  11
                  11
                  11
                  11
                  11
                  11
                  11
                  11
                  11
                  11
                  11
                  11
                  11
                  11
                  11
                  11
                  11
                  11
                  11
                  11
                  11
                  11
                  11
                  11
                  11
                  11
                  11
                  11
                  11
                  11
                  11
                  11
                  11
                  11
                  11
                  11
                  11
                  11
                  11
                  11
                  11
                  11
                  11
                  11
                  11
                  11
                  11
                  11
                  11
                  11
                  11
                  11
                  11
                  11
                  11
                  11
                  11
                  11
                  11
                  11
                  11
                  11
                  11
                  11
                  11
                  11
                  11
                  11
                  11
                  11
                  11
                  11
                  11
                  11
                  11
                  11
                  11
                  11
                  11
                  11
                  11
                  11
                  11
                  11
                  11
                  11
                  11
                  11
                  11
                  11
                  11
                  11
                  11
                  11
                  11
                  11
                  11
                  11
                  11
                  11
                  11
                  11
                  11
                  11
                  11
                  11
                  11
                  11
                  11
                  11
                  11
                  11
                  11
                  11
                  12
                  12
                  12
                  12
                  12
                  12
                  12
                  12
                  12
                  12
                  12
                  12
                  12
                  12
                  12
                  12
                  12
                  12
                  12
                  12
                  12
                  12
                  12
                  12
                  12
                  12
                  12
                  12
                  12
                  12
                  12
                  12
                  12
                  12
                  12
                  12
                  12
                  12
                  12
                  12
                  12
                  12
                  12
                  12
                  12
                  12
                  12
                  12
                  12
                  12
                  12
                  12
                  12
                  12
                  12
                  12
                  12
                  12
                  12
                  12
                  12
                  12
                  12
                  12
                  12
                  12
                  12
                  12
                  12
                  12
                  12
                  12
                  12
                  12
                  12
                  12
                  12
                  12
                  12
                  12
                  12
                  12
                  12
                  12
                  12
                  12
                  12
                  12
                  12
                  12
                  12
                  12
                  12
                  12
                  12
                  12
                  12
                  12
                  12
                  12
                  12
                  12
                  12
                  12
                  12
                  12
                  12
                  12
                  12
                  12
                  12
                  12
                  12
                  12
                  12
                  12
                  12
                  12
                  12
                  12
                  12
                  12
                  12
                  12
                  12
                  12
                  12
                  12
                  12
                  12
                  12
                  12
                  12
                  12
                  12
                  12
                  12
                  12
                  12
                  12
                  12
                  12
                  12
                  12
                  12
                  12
                  12
                  12
                  12
                  12
                  12
                  12
                  12
                  12
                  12
                  12
                  12
                  12
                  12
                  12
                  12
                  12
                  12
                  12
                  12
                  12
                  12
                  12
                  12
                  12
                  12
                  12
                  12
                  12
                  12
                  12
                  12
                  12
                  12
                  12
                  12
                  12
                  12
                  12
                  12
                  12
                  12
                  12
                  12
                  12
                  12
                  12
                  12
                  12
                  12
                  12
                  12
                  12
                  12
                  12
                  12
                  12
                  12
                  12
                  12
                  12
                  12
                  12
                  12
                  12
                  12
                  12
                  12
                  12
                  12
                  12
                  12
                  12
                  12
                  12
                  12
                  12
                  12
                  12
                  12
                  12
                  12
                  12
                  12
                  12
                  12
                  12
                  12
                  12
                  13
                  13
                  13
                  13
                  13
                  13
                  13
                  13
                  13
                  13
                  13
                  13
                  13
                  13
                  13
                  13
                  13
                  13
                  13
                  13
                  13
                  13
                  13
                  13
                  13
                  13
                  13
                  13
                  13
                  13
                  13
                  13
                  13
                  13
                  13
                  13
                  13
                  13
                  13
                  13
                  13
                  13
                  13
                  13
                  13
                  13
                  13
                  13
                  13
                  13
                  13
                  13
                  13
                  13
                  13
                  13
                  13
                  13
                  13
                  13
                  13
                  13
                  13
                  13
                  13
                  13
                  13
                  13
                  13
                  13
                  13
                  13
                  13
                  13
                  13
                  13
                  13
                  13
                  13
                  13
                  13
                  13
                  13
                  13
                  13
                  13
                  13
                  13
                  13
                  13
                  13
                  13
                  13
                  13
                  13
                  13
                  13
                  13
                  13
                  13
                  13
                  13
                  13
                  13
                  13
                  13
                  13
                  13
                  13
                  13
                  13
                  13
                  13
                  13
                  13
                  13
                  13
                  13
                  13
                  13
                  13
                  13
                  13
                  13
                  13
                  13
                  13
                  13
                  13
                  13
                  13
                  13
                  13
                  13
                  13
                  13
                  13
                  13
                  13
                  13
                  13
                  13
                  13
                  13
                  13
                  13
                  13
                  13
                  13
                  13
                  13
                  13
                  13
                  13
                  13
                  13
                  13
                  13
                  13
                  13
                  13
                  13
                  13
                  13
                  13
                  13
                  13
                  13
                  13
                  13
                  13
                  13
                  13
                  13
                  13
                  13
                  13
                  13
                  13
                  13
                  13
                  13
                  13
                  13
                  13
                  13
                  13
                  13
                  13
                  13
                  13
                  13
                  13
                  13
                  13
                  13
                  13
                  13
                  13
                  13
                  13
                  13
                  13
                  13
                  13
                  13
                  13
                  13
                  13
                  13
                  13
                  13
                  13
                  13
                  13
                  13
                  13
                  13
                  13
                  13
                  13
                  13
                  13
                  13
                  13
                  13
                  13
                  13
                  13
                  13
                  13
                  13
                  13
                  13
                  14
                  14
                  14
                  14
                  14
                  14
                  14
                  14
                  14
                  14
                  14
                  14
                  14
                  14
                  14
                  14
                  14
                  14
                  14
                  14
                  14
                  14
                  14
                  14
                  14
                  14
                  14
                  14
                  14
                  14
                  14
                  14
                  14
                  14
                  14
                  14
                  14
                  14
                  14
                  14
                  14
                  14
                  14
                  14
                  14
                  14
                  14
                  14
                  14
                  14
                  14
                  14
                  14
                  14
                  14
                  14
                  14
                  14
                  14
                  14
                  14
                  14
                  14
                  14
                  14
                  14
                  14
                  14
                  14
                  14
                  14
                  14
                  14
                  14
                  14
                  14
                  14
                  14
                  14
                  14
                  14
                  14
                  14
                  14
                  14
                  14
                  14
                  14
                  14
                  14
                  14
                  14
                  14
                  14
                  14
                  14
                  14
                  14
                  14
                  14
                  14
                  14
                  14
                  14
                  14
                  14
                  14
                  14
                  14
                  14
                  14
                  14
                  14
                  14
                  14
                  14
                  14
                  14
                  14
                  14
                  14
                  14
                  14
                  14
                  14
                  14
                  14
                  14
                  14
                  14
                  14
                  14
                  14
                  14
                  14
                  14
                  14
                  14
                  14
                  14
                  14
                  14
                  14
                  14
                  14
                  14
                  14
                  14
                  14
                  14
                  14
                  14
                  14
                  14
                  14
                  14
                  14
                  14
                  14
                  14
                  14
                  14
                  14
                  14
                  14
                  14
                  14
                  14
                  14
                  14
                  14
                  14
                  14
                  14
                  14
                  14
                  14
                  14
                  14
                  14
                  14
                  14
                  14
                  14
                  14
                  14
                  14
                  14
                  14
                  14
                  14
                  14
                  14
                  14
                  14
                  14
                  14
                  14
                  14
                  14
                  14
                  14
                  14
                  14
                  14
                  14
                  14
                  14
                  14
                  14
                  14
                  14
                  14
                  14
                  14
                  14
                  14
                  14
                  14
                  14
                  14
                  14
                  14
                  14
                  14
                  14
                  14
                  14
                  14
                  14
                  14
                  14
                  14
                  14
                  15
                  15
                  15
                  15
                  15
                  15
                  15
                  15
                  15
                  15
                  15
                  15
                  15
                  15
                  15
                  15
                  15
                  15
                  15
                  15
                  15
                  15
                  15
                  15
                  15
                  15
                  15
                  15
                  15
                  15
                  15
                  15
                  15
                  15
                  15
                  15
                  15
                  15
                  15
                  15
                  15
                  15
                  15
                  15
                  15
                  15
                  15
                  15
                  15
                  15
                  15
                  15
                  15
                  15
                  15
                  15
                  15
                  15
                  15
                  15
                  15
                  15
                  15
                  15
                  15
                  15
                  15
                  15
                  15
                  15
                  15
                  15
                  15
                  15
                  15
                  15
                  15
                  15
                  15
                  15
                  15
                  15
                  15
                  15
                  15
                  15
                  15
                  15
                  15
                  15
                  15
                  15
                  15
                  15
                  15
                  15
                  15
                  15
                  15
                  15
                  15
                  15
                  15
                  15
                  15
                  15
                  15
                  15
                  15
                  15
                  15
                  15
                  15
                  15
                  15
                  15
                  15
                  15
                  15
                  15
                  15
                  15
                  15
                  15
                  15
                  15
                  15
                  15
                  15
                  15
                  15
                  15
                  15
                  15
                  15
                  15
                  15
                  15
                  15
                  15
                  15
                  15
                  15
                  15
                  15
                  15
                  15
                  15
                  15
                  15
                  15
                  15
                  15
                  15
                  15
                  15
                  15
                  15
                  15
                  15
                  15
                  15
                  15
                  15
                  15
                  15
                  15
                  15
                  15
                  15
                  15
                  15
                  15
                  15
                  15
                  15
                  15
                  15
                  15
                  15
                  15
                  15
                  15
                  15
                  15
                  15
                  15
                  15
                  15
                  15
                  15
                  15
                  15
                  15
                  15
                  15
                  15
                  15
                  15
                  15
                  15
                  15
                  15
                  15
                  15
                  15
                  15
                  15
                  15
                  15
                  15
                  15
                  15
                  15
                  15
                  15
                  15
                  15
                  15
                  15
                  15
                  15
                  15
                  15
                  15
                  15
                  15
                  15
                  15
                  15
                  15
                  15
                  15
                  15
                  15
                  15
                  15
                  15
                  15
                  15
                  15
                  15
                  15
                  15
                  15
                  15
                  15
                  15
                  15
                  15
                  15
                  15
                  15
                  15
                  15
                  15
                  15
                  15
                  15
                  15
                  15
                  15
                  15
                  15
                  15
                  15
                  15
                  15
                  15
                  15
                  15
                  15
                  15
                  15
                  15
                  15
                  15
                  15
                  15
                  15
                  15
                  15
                  15
                  15
                  15
                  15
                  15
                  15
                  15
                  15
                  15
                  15
                  15
                  15
                  15
                  15
                  15
                  15
                  15
                  15
                  15
                  15
                  15
                  15
                  15
                  15
                  15
                  15
                  15
                  15
                  15
                  15
                  16
                  16
                  16
                  16
                  16
                  16
                  16
                  16
                  16
                  16
                  16
                  16
                  16
                  16
                  16
                  16
                  16
                  16
                  16
                  16
                  16
                  16
                  16
                  16
                  16
                  16
                  16
                  16
                  16
                  16
                  16
                  16
                  16
                  16
                  16
                  16
                  16
                  16
                  16
                  16
                  16
                  16
                  16
                  16
                  16
                  16
                  16
                  16
                  16
                  16
                  16
                  16
                  16
                  16
                  16
                  16
                  16
                  16
                  16
                  16
                  16
                  16
                  16
                  16
                  16
                  16
                  16
                  16
                  16
                  16
                  16
                  16
                  16
                  16
                  16
                  16
                  16
                  16
                  16
                  16
                  16
                  16
                  16
                  16
                  16
                  16
                  16
                  16
                  16
                  16
                  16
                  16
                  16
                  16
                  16
                  16
                  16
                  16
                  16
                  16
                  16
                  16
                  16
                  16
                  16
                  16
                  16
                  16
                  16
                  16
                  16
                  16
                  16
                  16
                  16
                  16
                  16
                  16
                  16
                  16
                  16
                  16
                  16
                  16
                  16
                  16
                  16
                  16
                  16
                  16
                  16
                  16
                  16
                  16
                  16
                  16
                  16
                  16
                  16
                  16
                  16
                  16
                  16
                  16
                  16
                  16
                  16
                  16
                  16
                  16
                  16
                  16
                  16
                  16
                  16
                  16
                  16
                  16
                  16
                  16
                  16
                  16
                  16
                  16
                  16
                  16
                  16
                  16
                  16
                  16
                  16
                  16
                  16
                  16
                  16
                  16
                  16
                  16
                  16
                  16
                  16
                  16
                  16
                  16
                  16
                  16
                  16
                  16
                  16
                  16
                  16
                  16
                  16
                  16
                  16
                  16
                  16
                  16
                  16
                  16
                  16
                  16
                  16
                  16
                  16
                  16
                  16
                  16
                  16
                  16
                  16
                  16
                  16
                  16
                  16
                  16
                  16
                  16
                  16
                  16
                  16
                  16
                  16
                  16
                  16
                  16
                  16
                  16
                  16
                  16
                  16
                  16
                  16
                  16
                  17
                  17
                  17
                  17
                  17
                  17
                  17
                  17
                  17
                  17
                  17
                  17
                  17
                  17
                  17
                  17
                  17
                  17
                  17
                  17
                  17
                  17
                  17
                  17
                  17
                  17
                  17
                  17
                  17
                  17
                  17
                  17
                  17
                  17
                  17
                  17
                  17
                  17
                  17
                  17
                  17
                  17
                  17
                  17
                  17
                  17
                  17
                  17
                  17
                  17
                  17
                  17
                  17
                  17
                  17
                  17
                  17
                  17
                  17
                  17
                  17
                  17
                  17
                  17
                  17
                  17
                  17
                  17
                  17
                  17
                  17
                  17
                  17
                  17
                  17
                  17
                  17
                  17
                  17
                  17
                  17
                  17
                  17
                  17
                  17
                  17
                  17
                  17
                  17
                  17
                  17
                  17
                  17
                  17
                  17
                  17
                  17
                  17
                  17
                  17
                  17
                  17
                  17
                  17
                  17
                  17
                  17
                  17
                  17
                  17
                  17
                  17
                  17
                  17
                  17
                  17
                  17
                  17
                  17
                  17
                  17
                  17
                  17
                  17
                  17
                  17
                  17
                  17
                  17
                  17
                  17
                  17
                  17
                  17
                  17
                  17
                  17
                  17
                  17
                  17
                  17
                  17
                  17
                  17
                  17
                  17
                  17
                  17
                  17
                  17
                  17
                  17
                  17
                  17
                  17
                  17
                  17
                  17
                  17
                  17
                  17
                  17
                  17
                  17
                  17
                  17
                  17
                  17
                  17
                  17
                  17
                  17
                  17
                  17
                  17
                  17
                  17
                  17
                  17
                  17
                  17
                  17
                  17
                  17
                  17
                  17
                  17
                  17
                  17
                  17
                  17
                  17
                  17
                  17
                  17
                  17
                  17
                  17
                  17
                  17
                  17
                  17
                  17
                  17
                  17
                  17
                  17
                  17
                  17
                  17
                  17
                  17
                  17
                  17
                  17
                  17
                  17
                  17
                  17
                  17
                  17
                  17
                  17
                  17
                  17
                  17
                  17
                  17
                  17
                  17
                  17
                  17
                  17
                  17
                  18
                  18
                  18
                  18
                  18
                  18
                  18
                  18
                  18
                  18
                  18
                  18
                  18
                  18
                  18
                  18
                  18
                  18
                  18
                  18
                  18
                  18
                  18
                  18
                  18
                  18
                  18
                  18
                  18
                  18
                  18
                  18
                  18
                  18
                  18
                  18
                  18
                  18
                  18
                  18
                  18
                  18
                  18
                  18
                  18
                  18
                  18
                  18
                  18
                  18
                  18
                  18
                  18
                  18
                  18
                  18
                  18
                  18
                  18
                  18
                  18
                  18
                  18
                  18
                  18
                  18
                  18
                  18
                  18
                  18
                  18
                  18
                  18
                  18
                  18
                  18
                  18
                  18
                  18
                  18
                  18
                  18
                  18
                  18
                  18
                  18
                  18
                  18
                  18
                  18
                  18
                  18
                  18
                  18
                  18
                  18
                  18
                  18
                  18
                  18
                  18
                  18
                  18
                  18
                  18
                  18
                  18
                  18
                  18
                  18
                  18
                  18
                  18
                  18
                  18
                  18
                  18
                  18
                  18
                  18
                  18
                  18
                  18
                  18
                  18
                  18
                  18
                  18
                  18
                  18
                  18
                  18
                  18
                  18
                  18
                  18
                  18
                  18
                  18
                  18
                  18
                  18
                  18
                  18
                  18
                  18
                  18
                  18
                  18
                  18
                  18
                  18
                  18
                  18
                  18
                  18
  
SCALARS                 displacement_x  double 1
LOOKUP_TABLE default
         0.00000E+00
         0.00000E+00
         0.00000E+00
         0.00000E+00
         0.00000E+00
         0.00000E+00
         0.00000E+00
         0.00000E+00
         0.00000E+00
         0.00000E+00
         0.00000E+00
         0.00000E+00
         0.00000E+00
         0.00000E+00
         0.00000E+00
         0.00000E+00
         0.00000E+00
         0.00000E+00
         0.00000E+00
         0.00000E+00
         0.00000E+00
         0.00000E+00
         0.00000E+00
         0.00000E+00
         0.00000E+00
         0.00000E+00
         0.00000E+00
         0.00000E+00
         0.00000E+00
         0.00000E+00
         0.00000E+00
         0.00000E+00
         0.00000E+00
         0.00000E+00
         0.00000E+00
         0.00000E+00
         0.00000E+00
         0.00000E+00
         0.00000E+00
         0.00000E+00
         0.00000E+00
         0.00000E+00
         0.00000E+00
         0.00000E+00
         0.00000E+00
         0.00000E+00
         0.00000E+00
         0.00000E+00
         0.00000E+00
         0.00000E+00
         0.00000E+00
         0.00000E+00
         0.00000E+00
         0.00000E+00
         0.00000E+00
         0.00000E+00
         0.00000E+00
         0.00000E+00
         0.00000E+00
         0.00000E+00
         0.00000E+00
         0.00000E+00
         0.00000E+00
         0.00000E+00
         0.00000E+00
         0.00000E+00
         0.00000E+00
         0.00000E+00
         0.00000E+00
         0.00000E+00
         0.00000E+00
         0.00000E+00
         0.00000E+00
         0.00000E+00
         0.00000E+00
         0.00000E+00
         0.00000E+00
         0.00000E+00
         0.00000E+00
         0.00000E+00
         0.00000E+00
         0.00000E+00
         0.00000E+00
         0.00000E+00
         0.00000E+00
         0.00000E+00
         0.00000E+00
         0.00000E+00
         0.00000E+00
         0.00000E+00
         0.00000E+00
         0.00000E+00
         0.00000E+00
         0.00000E+00
         0.00000E+00
         0.00000E+00
         0.00000E+00
         0.00000E+00
         0.00000E+00
         0.00000E+00
         0.00000E+00
         0.00000E+00
         0.00000E+00
         0.00000E+00
         0.00000E+00
         0.00000E+00
         0.00000E+00
         0.00000E+00
         0.00000E+00
         0.00000E+00
         0.00000E+00
         0.00000E+00
         0.00000E+00
         0.00000E+00
         0.00000E+00
         0.00000E+00
         0.00000E+00
         0.00000E+00
         0.00000E+00
         0.00000E+00
         0.00000E+00
         0.00000E+00
         0.00000E+00
         0.00000E+00
         0.00000E+00
         0.00000E+00
         0.00000E+00
         0.00000E+00
         0.00000E+00
         0.00000E+00
         0.00000E+00
         0.00000E+00
         0.00000E+00
         0.00000E+00
         0.00000E+00
         0.00000E+00
         0.00000E+00
         0.00000E+00
         0.00000E+00
         0.00000E+00
         0.00000E+00
         0.00000E+00
         0.00000E+00
         0.00000E+00
         0.00000E+00
         0.00000E+00
         0.00000E+00
         0.00000E+00
         0.00000E+00
         0.00000E+00
         0.00000E+00
         0.00000E+00
         0.00000E+00
         0.00000E+00
         0.00000E+00
         0.00000E+00
         0.00000E+00
         0.00000E+00
         0.00000E+00
         0.00000E+00
         0.00000E+00
         0.00000E+00
         0.00000E+00
         0.00000E+00
         0.00000E+00
         0.00000E+00
         0.00000E+00
         0.00000E+00
         0.00000E+00
         0.00000E+00
         0.00000E+00
         0.00000E+00
         0.00000E+00
         0.00000E+00
         0.00000E+00
         0.00000E+00
         0.00000E+00
         0.00000E+00
         0.00000E+00
         0.00000E+00
         0.00000E+00
         0.00000E+00
         0.00000E+00
         0.00000E+00
         0.00000E+00
         0.00000E+00
         0.00000E+00
         0.00000E+00
         0.00000E+00
         0.00000E+00
         0.00000E+00
         0.00000E+00
         0.00000E+00
         0.00000E+00
         0.00000E+00
         0.00000E+00
         0.00000E+00
         0.00000E+00
         0.00000E+00
         0.00000E+00
         0.00000E+00
         0.00000E+00
         0.00000E+00
         0.00000E+00
         0.00000E+00
         0.00000E+00
         0.00000E+00
         0.00000E+00
         0.00000E+00
         0.00000E+00
         0.00000E+00
         0.00000E+00
         0.00000E+00
         0.00000E+00
         0.00000E+00
         0.00000E+00
         0.00000E+00
         0.00000E+00
         0.00000E+00
         0.00000E+00
         0.00000E+00
         0.00000E+00
         0.00000E+00
         0.00000E+00
         0.00000E+00
         0.00000E+00
         0.00000E+00
         0.00000E+00
         0.00000E+00
         0.00000E+00
         0.00000E+00
         0.00000E+00
         0.00000E+00
         0.00000E+00
         0.00000E+00
         0.00000E+00
         0.00000E+00
         0.00000E+00
         0.00000E+00
         0.00000E+00
         0.00000E+00
         0.00000E+00
         0.00000E+00
         0.00000E+00
         0.00000E+00
         0.00000E+00
         0.00000E+00
         0.00000E+00
         0.00000E+00
         0.00000E+00
         0.00000E+00
         0.00000E+00
         0.00000E+00
         0.00000E+00
         0.00000E+00
         0.00000E+00
         0.00000E+00
         0.00000E+00
         0.00000E+00
         0.00000E+00
         0.00000E+00
         0.00000E+00
         0.00000E+00
         0.00000E+00
         0.00000E+00
         0.00000E+00
         0.00000E+00
         0.00000E+00
         0.00000E+00
         0.00000E+00
         0.00000E+00
         0.00000E+00
         0.00000E+00
         0.00000E+00
         0.00000E+00
         0.00000E+00
         0.00000E+00
         0.00000E+00
         0.00000E+00
         0.00000E+00
         0.00000E+00
         0.00000E+00
         0.00000E+00
         0.00000E+00
         0.00000E+00
         0.00000E+00
         0.00000E+00
         0.00000E+00
         0.00000E+00
         0.00000E+00
         0.00000E+00
         0.00000E+00
         0.00000E+00
         0.00000E+00
         0.00000E+00
         0.00000E+00
         0.00000E+00
         0.00000E+00
         0.00000E+00
         0.00000E+00
         0.00000E+00
         0.00000E+00
         0.00000E+00
         0.00000E+00
         0.00000E+00
         0.00000E+00
         0.00000E+00
         0.00000E+00
         0.00000E+00
         0.00000E+00
         0.00000E+00
         0.00000E+00
         0.00000E+00
         0.00000E+00
         0.00000E+00
         0.00000E+00
         0.00000E+00
         0.00000E+00
         0.00000E+00
         0.00000E+00
         0.00000E+00
         0.00000E+00
         0.00000E+00
         0.00000E+00
         0.00000E+00
         0.00000E+00
         0.00000E+00
         0.00000E+00
         0.00000E+00
         0.00000E+00
         0.00000E+00
         0.00000E+00
         0.00000E+00
         0.00000E+00
         0.00000E+00
         0.00000E+00
         0.00000E+00
         0.00000E+00
         0.00000E+00
         0.00000E+00
         0.00000E+00
         0.00000E+00
         0.00000E+00
         0.00000E+00
         0.00000E+00
         0.00000E+00
         0.00000E+00
         0.00000E+00
         0.00000E+00
         0.00000E+00
         0.00000E+00
         0.00000E+00
         0.00000E+00
         0.00000E+00
         0.00000E+00
         0.00000E+00
         0.00000E+00
         0.00000E+00
         0.00000E+00
         0.00000E+00
         0.00000E+00
         0.00000E+00
         0.00000E+00
         0.00000E+00
         0.00000E+00
         0.00000E+00
         0.00000E+00
         0.00000E+00
         0.00000E+00
         0.00000E+00
         0.00000E+00
         0.00000E+00
         0.00000E+00
         0.00000E+00
         0.00000E+00
         0.00000E+00
         0.00000E+00
         0.00000E+00
         0.00000E+00
         0.00000E+00
         0.00000E+00
         0.00000E+00
         0.00000E+00
         0.00000E+00
         0.00000E+00
         0.00000E+00
         0.00000E+00
         0.00000E+00
         0.00000E+00
         0.00000E+00
         0.00000E+00
         0.00000E+00
         0.00000E+00
         0.00000E+00
         0.00000E+00
         0.00000E+00
         0.00000E+00
         0.00000E+00
         0.00000E+00
         0.00000E+00
         0.00000E+00
         0.00000E+00
         0.00000E+00
         0.00000E+00
         0.00000E+00
         0.00000E+00
         0.00000E+00
         0.00000E+00
         0.00000E+00
         0.00000E+00
         0.00000E+00
         0.00000E+00
         0.00000E+00
         0.00000E+00
         0.00000E+00
         0.00000E+00
         0.00000E+00
         0.00000E+00
         0.00000E+00
         0.00000E+00
         0.00000E+00
         0.00000E+00
         0.00000E+00
         0.00000E+00
         0.00000E+00
         0.00000E+00
         0.00000E+00
         0.00000E+00
         0.00000E+00
         0.00000E+00
         0.00000E+00
         0.00000E+00
         0.00000E+00
         0.00000E+00
         0.00000E+00
         0.00000E+00
         0.00000E+00
         0.00000E+00
         0.00000E+00
         0.00000E+00
         0.00000E+00
         0.00000E+00
         0.00000E+00
         0.00000E+00
         0.00000E+00
         0.00000E+00
         0.00000E+00
         0.00000E+00
         0.00000E+00
         0.00000E+00
         0.00000E+00
         0.00000E+00
         0.00000E+00
         0.00000E+00
         0.00000E+00
         0.00000E+00
         0.00000E+00
         0.00000E+00
         0.00000E+00
         0.00000E+00
         0.00000E+00
         0.00000E+00
         0.00000E+00
         0.00000E+00
         0.00000E+00
         0.00000E+00
         0.00000E+00
         0.00000E+00
         0.00000E+00
         0.00000E+00
         0.00000E+00
         0.00000E+00
         0.00000E+00
         0.00000E+00
         0.00000E+00
         0.00000E+00
         0.00000E+00
         0.00000E+00
         0.00000E+00
         0.00000E+00
         0.00000E+00
         0.00000E+00
         0.00000E+00
         0.00000E+00
         0.00000E+00
         0.00000E+00
         0.00000E+00
         0.00000E+00
         0.00000E+00
         0.00000E+00
         0.00000E+00
         0.00000E+00
         0.00000E+00
         0.00000E+00
         0.00000E+00
         0.00000E+00
         0.00000E+00
         0.00000E+00
         0.00000E+00
         0.00000E+00
         0.00000E+00
         0.00000E+00
         0.00000E+00
         0.00000E+00
         0.00000E+00
         0.00000E+00
         0.00000E+00
         0.00000E+00
         0.00000E+00
         0.00000E+00
         0.00000E+00
         0.00000E+00
         0.00000E+00
         0.00000E+00
         0.00000E+00
         0.00000E+00
         0.00000E+00
         0.00000E+00
         0.00000E+00
         0.00000E+00
         0.00000E+00
         0.00000E+00
         0.00000E+00
         0.00000E+00
         0.00000E+00
         0.00000E+00
         0.00000E+00
         0.00000E+00
         0.00000E+00
         0.00000E+00
         0.00000E+00
         0.00000E+00
         0.00000E+00
         0.00000E+00
         0.00000E+00
         0.00000E+00
         0.00000E+00
         0.00000E+00
         0.00000E+00
         0.00000E+00
         0.00000E+00
         0.00000E+00
         0.00000E+00
         0.00000E+00
         0.00000E+00
         0.00000E+00
         0.00000E+00
         0.00000E+00
         0.00000E+00
         0.00000E+00
         0.00000E+00
         0.00000E+00
         0.00000E+00
         0.00000E+00
         0.00000E+00
         0.00000E+00
         0.00000E+00
         0.00000E+00
         0.00000E+00
         0.00000E+00
         0.00000E+00
         0.00000E+00
         0.00000E+00
         0.00000E+00
         0.00000E+00
         0.00000E+00
         0.00000E+00
         0.00000E+00
         0.00000E+00
         0.00000E+00
         0.00000E+00
         0.00000E+00
         0.00000E+00
         0.00000E+00
         0.00000E+00
         0.00000E+00
         0.00000E+00
         0.00000E+00
         0.00000E+00
         0.00000E+00
         0.00000E+00
         0.00000E+00
         0.00000E+00
         0.00000E+00
         0.00000E+00
         0.00000E+00
         0.00000E+00
         0.00000E+00
         0.00000E+00
         0.00000E+00
         0.00000E+00
         0.00000E+00
         0.00000E+00
         0.00000E+00
         0.00000E+00
         0.00000E+00
         0.00000E+00
         0.00000E+00
         0.00000E+00
         0.00000E+00
         0.00000E+00
         0.00000E+00
         0.00000E+00
         0.00000E+00
         0.00000E+00
         0.00000E+00
         0.00000E+00
         0.00000E+00
         0.00000E+00
         0.00000E+00
         0.00000E+00
         0.00000E+00
         0.00000E+00
         0.00000E+00
         0.00000E+00
         0.00000E+00
         0.00000E+00
         0.00000E+00
         0.00000E+00
         0.00000E+00
         0.00000E+00
         0.00000E+00
         0.00000E+00
         0.00000E+00
         0.00000E+00
         0.00000E+00
         0.00000E+00
         0.00000E+00
         0.00000E+00
         0.00000E+00
         0.00000E+00
         0.00000E+00
         0.00000E+00
         0.00000E+00
         0.00000E+00
         0.00000E+00
         0.00000E+00
         0.00000E+00
         0.00000E+00
         0.00000E+00
         0.00000E+00
         0.00000E+00
         0.00000E+00
         0.00000E+00
         0.00000E+00
         0.00000E+00
         0.00000E+00
         0.00000E+00
         0.00000E+00
         0.00000E+00
         0.00000E+00
         0.00000E+00
         0.00000E+00
         0.00000E+00
         0.00000E+00
         0.00000E+00
         0.00000E+00
         0.00000E+00
         0.00000E+00
         0.00000E+00
         0.00000E+00
         0.00000E+00
         0.00000E+00
         0.00000E+00
         0.00000E+00
         0.00000E+00
         0.00000E+00
         0.00000E+00
         0.00000E+00
         0.00000E+00
         0.00000E+00
         0.00000E+00
         0.00000E+00
         0.00000E+00
         0.00000E+00
         0.00000E+00
         0.00000E+00
         0.00000E+00
         0.00000E+00
         0.00000E+00
         0.00000E+00
         0.00000E+00
         0.00000E+00
         0.00000E+00
         0.00000E+00
         0.00000E+00
         0.00000E+00
         0.00000E+00
         0.00000E+00
         0.00000E+00
         0.00000E+00
         0.00000E+00
         0.00000E+00
         0.00000E+00
         0.00000E+00
         0.00000E+00
         0.00000E+00
         0.00000E+00
         0.00000E+00
         0.00000E+00
         0.00000E+00
         0.00000E+00
         0.00000E+00
         0.00000E+00
         0.00000E+00
         0.00000E+00
         0.00000E+00
         0.00000E+00
         0.00000E+00
         0.00000E+00
         0.00000E+00
         0.00000E+00
         0.00000E+00
         0.00000E+00
         0.00000E+00
         0.00000E+00
         0.00000E+00
         0.00000E+00
         0.00000E+00
         0.00000E+00
         0.00000E+00
         0.00000E+00
         0.00000E+00
         0.00000E+00
         0.00000E+00
         0.00000E+00
         0.00000E+00
         0.00000E+00
         0.00000E+00
         0.00000E+00
         0.00000E+00
         0.00000E+00
         0.00000E+00
         0.00000E+00
         0.00000E+00
         0.00000E+00
         0.00000E+00
         0.00000E+00
         0.00000E+00
         0.00000E+00
         0.00000E+00
         0.00000E+00
         0.00000E+00
         0.00000E+00
         0.00000E+00
         0.00000E+00
         0.00000E+00
         0.00000E+00
         0.00000E+00
         0.00000E+00
         0.00000E+00
         0.00000E+00
         0.00000E+00
         0.00000E+00
         0.00000E+00
         0.00000E+00
         0.00000E+00
         0.00000E+00
         0.00000E+00
         0.00000E+00
         0.00000E+00
         0.00000E+00
         0.00000E+00
         0.00000E+00
         0.00000E+00
         0.00000E+00
         0.00000E+00
         0.00000E+00
         0.00000E+00
         0.00000E+00
         0.00000E+00
         0.00000E+00
         0.00000E+00
         0.00000E+00
         0.00000E+00
         0.00000E+00
         0.00000E+00
         0.00000E+00
         0.00000E+00
         0.00000E+00
         0.00000E+00
         0.00000E+00
         0.00000E+00
         0.00000E+00
         0.00000E+00
         0.00000E+00
         0.00000E+00
         0.00000E+00
         0.00000E+00
         0.00000E+00
         0.00000E+00
         0.00000E+00
         0.00000E+00
         0.00000E+00
         0.00000E+00
         0.00000E+00
         0.00000E+00
         0.00000E+00
         0.00000E+00
         0.00000E+00
         0.00000E+00
         0.00000E+00
         0.00000E+00
         0.00000E+00
         0.00000E+00
         0.00000E+00
         0.00000E+00
         0.00000E+00
         0.00000E+00
         0.00000E+00
         0.00000E+00
         0.00000E+00
         0.00000E+00
         0.00000E+00
         0.00000E+00
         0.00000E+00
         0.00000E+00
         0.00000E+00
         0.00000E+00
         0.00000E+00
         0.00000E+00
         0.00000E+00
         0.00000E+00
         0.00000E+00
         0.00000E+00
         0.00000E+00
         0.00000E+00
         0.00000E+00
         0.00000E+00
         0.00000E+00
         0.00000E+00
         0.00000E+00
         0.00000E+00
         0.00000E+00
         0.00000E+00
         0.00000E+00
         0.00000E+00
         0.00000E+00
         0.00000E+00
         0.00000E+00
         0.00000E+00
         0.00000E+00
         0.00000E+00
         0.00000E+00
         0.00000E+00
         0.00000E+00
         0.00000E+00
         0.00000E+00
         0.00000E+00
         0.00000E+00
         0.00000E+00
         0.00000E+00
         0.00000E+00
         0.00000E+00
         0.00000E+00
         0.00000E+00
         0.00000E+00
         0.00000E+00
         0.00000E+00
         0.00000E+00
         0.00000E+00
         0.00000E+00
         0.00000E+00
         0.00000E+00
         0.00000E+00
         0.00000E+00
         0.00000E+00
         0.00000E+00
         0.00000E+00
         0.00000E+00
         0.00000E+00
         0.00000E+00
         0.00000E+00
         0.00000E+00
         0.00000E+00
         0.00000E+00
         0.00000E+00
         0.00000E+00
         0.00000E+00
         0.00000E+00
         0.00000E+00
         0.00000E+00
         0.00000E+00
         0.00000E+00
         0.00000E+00
         0.00000E+00
         0.00000E+00
         0.00000E+00
         0.00000E+00
         0.00000E+00
         0.00000E+00
         0.00000E+00
         0.00000E+00
         0.00000E+00
         0.00000E+00
         0.00000E+00
         0.00000E+00
         0.00000E+00
         0.00000E+00
         0.00000E+00
         0.00000E+00
         0.00000E+00
         0.00000E+00
         0.00000E+00
         0.00000E+00
         0.00000E+00
         0.00000E+00
         0.00000E+00
         0.00000E+00
         0.00000E+00
         0.00000E+00
         0.00000E+00
         0.00000E+00
         0.00000E+00
         0.00000E+00
         0.00000E+00
         0.00000E+00
         0.00000E+00
         0.00000E+00
         0.00000E+00
         0.00000E+00
         0.00000E+00
         0.00000E+00
         0.00000E+00
         0.00000E+00
         0.00000E+00
         0.00000E+00
         0.00000E+00
         0.00000E+00
         0.00000E+00
         0.00000E+00
         0.00000E+00
         0.00000E+00
         0.00000E+00
         0.00000E+00
         0.00000E+00
         0.00000E+00
         0.00000E+00
         0.00000E+00
         0.00000E+00
         0.00000E+00
         0.00000E+00
         0.00000E+00
         0.00000E+00
         0.00000E+00
         0.00000E+00
         0.00000E+00
         0.00000E+00
         0.00000E+00
         0.00000E+00
         0.00000E+00
         0.00000E+00
         0.00000E+00
         0.00000E+00
         0.00000E+00
         0.00000E+00
         0.00000E+00
         0.00000E+00
         0.00000E+00
         0.00000E+00
         0.00000E+00
         0.00000E+00
         0.00000E+00
         0.00000E+00
         0.00000E+00
         0.00000E+00
         0.00000E+00
         0.00000E+00
         0.00000E+00
         0.00000E+00
         0.00000E+00
         0.00000E+00
         0.00000E+00
         0.00000E+00
         0.00000E+00
         0.00000E+00
         0.00000E+00
         0.00000E+00
         0.00000E+00
         0.00000E+00
         0.00000E+00
         0.00000E+00
         0.00000E+00
         0.00000E+00
         0.00000E+00
         0.00000E+00
         0.00000E+00
         0.00000E+00
         0.00000E+00
         0.00000E+00
         0.00000E+00
         0.00000E+00
         0.00000E+00
         0.00000E+00
         0.00000E+00
         0.00000E+00
         0.00000E+00
         0.00000E+00
         0.00000E+00
         0.00000E+00
         0.00000E+00
         0.00000E+00
         0.00000E+00
         0.00000E+00
         0.00000E+00
         0.00000E+00
         0.00000E+00
         0.00000E+00
         0.00000E+00
         0.00000E+00
         0.00000E+00
         0.00000E+00
         0.00000E+00
         0.00000E+00
         0.00000E+00
         0.00000E+00
         0.00000E+00
         0.00000E+00
         0.00000E+00
         0.00000E+00
         0.00000E+00
         0.00000E+00
         0.00000E+00
         0.00000E+00
         0.00000E+00
         0.00000E+00
         0.00000E+00
         0.00000E+00
         0.00000E+00
         0.00000E+00
         0.00000E+00
         0.00000E+00
         0.00000E+00
         0.00000E+00
         0.00000E+00
         0.00000E+00
         0.00000E+00
         0.00000E+00
         0.00000E+00
         0.00000E+00
         0.00000E+00
         0.00000E+00
         0.00000E+00
         0.00000E+00
         0.00000E+00
         0.00000E+00
         0.00000E+00
         0.00000E+00
         0.00000E+00
         0.00000E+00
         0.00000E+00
         0.00000E+00
         0.00000E+00
         0.00000E+00
         0.00000E+00
         0.00000E+00
         0.00000E+00
         0.00000E+00
         0.00000E+00
         0.00000E+00
         0.00000E+00
         0.00000E+00
         0.00000E+00
         0.00000E+00
         0.00000E+00
         0.00000E+00
         0.00000E+00
         0.00000E+00
         0.00000E+00
         0.00000E+00
         0.00000E+00
         0.00000E+00
         0.00000E+00
         0.00000E+00
         0.00000E+00
         0.00000E+00
         0.00000E+00
         0.00000E+00
         0.00000E+00
         0.00000E+00
         0.00000E+00
         0.00000E+00
         0.00000E+00
         0.00000E+00
         0.00000E+00
         0.00000E+00
         0.00000E+00
         0.00000E+00
         0.00000E+00
         0.00000E+00
         0.00000E+00
         0.00000E+00
         0.00000E+00
         0.00000E+00
         0.00000E+00
         0.00000E+00
         0.00000E+00
         0.00000E+00
         0.00000E+00
         0.00000E+00
         0.00000E+00
         0.00000E+00
         0.00000E+00
         0.00000E+00
         0.00000E+00
         0.00000E+00
         0.00000E+00
         0.00000E+00
         0.00000E+00
         0.00000E+00
         0.00000E+00
         0.00000E+00
         0.00000E+00
         0.00000E+00
         0.00000E+00
         0.00000E+00
         0.00000E+00
         0.00000E+00
         0.00000E+00
         0.00000E+00
         0.00000E+00
         0.00000E+00
         0.00000E+00
         0.00000E+00
         0.00000E+00
         0.00000E+00
         0.00000E+00
         0.00000E+00
         0.00000E+00
         0.00000E+00
         0.00000E+00
         0.00000E+00
         0.00000E+00
         0.00000E+00
         0.00000E+00
         0.00000E+00
         0.00000E+00
         0.00000E+00
         0.00000E+00
         0.00000E+00
         0.00000E+00
         0.00000E+00
         0.00000E+00
         0.00000E+00
         0.00000E+00
         0.00000E+00
         0.00000E+00
         0.00000E+00
         0.00000E+00
         0.00000E+00
         0.00000E+00
         0.00000E+00
         0.00000E+00
         0.00000E+00
         0.00000E+00
         0.00000E+00
         0.00000E+00
         0.00000E+00
         0.00000E+00
         0.00000E+00
         0.00000E+00
         0.00000E+00
         0.00000E+00
         0.00000E+00
         0.00000E+00
         0.00000E+00
         0.00000E+00
         0.00000E+00
         0.00000E+00
         0.00000E+00
         0.00000E+00
         0.00000E+00
         0.00000E+00
         0.00000E+00
         0.00000E+00
         0.00000E+00
         0.00000E+00
         0.00000E+00
         0.00000E+00
         0.00000E+00
         0.00000E+00
         0.00000E+00
         0.00000E+00
         0.00000E+00
         0.00000E+00
         0.00000E+00
         0.00000E+00
         0.00000E+00
         0.00000E+00
         0.00000E+00
         0.00000E+00
         0.00000E+00
         0.00000E+00
         0.00000E+00
         0.00000E+00
         0.00000E+00
         0.00000E+00
         0.00000E+00
         0.00000E+00
         0.00000E+00
         0.00000E+00
         0.00000E+00
         0.00000E+00
         0.00000E+00
         0.00000E+00
         0.00000E+00
         0.00000E+00
         0.00000E+00
         0.00000E+00
         0.00000E+00
         0.00000E+00
         0.00000E+00
         0.00000E+00
         0.00000E+00
         0.00000E+00
         0.00000E+00
         0.00000E+00
         0.00000E+00
         0.00000E+00
         0.00000E+00
         0.00000E+00
         0.00000E+00
         0.00000E+00
         0.00000E+00
         0.00000E+00
         0.00000E+00
         0.00000E+00
         0.00000E+00
         0.00000E+00
         0.00000E+00
         0.00000E+00
         0.00000E+00
         0.00000E+00
         0.00000E+00
         0.00000E+00
         0.00000E+00
         0.00000E+00
         0.00000E+00
         0.00000E+00
         0.00000E+00
         0.00000E+00
         0.00000E+00
         0.00000E+00
         0.00000E+00
         0.00000E+00
         0.00000E+00
         0.00000E+00
         0.00000E+00
         0.00000E+00
         0.00000E+00
         0.00000E+00
         0.00000E+00
         0.00000E+00
         0.00000E+00
         0.00000E+00
         0.00000E+00
         0.00000E+00
         0.00000E+00
         0.00000E+00
         0.00000E+00
         0.00000E+00
         0.00000E+00
         0.00000E+00
         0.00000E+00
         0.00000E+00
         0.00000E+00
         0.00000E+00
         0.00000E+00
         0.00000E+00
         0.00000E+00
         0.00000E+00
         0.00000E+00
         0.00000E+00
         0.00000E+00
         0.00000E+00
         0.00000E+00
         0.00000E+00
         0.00000E+00
         0.00000E+00
         0.00000E+00
         0.00000E+00
         0.00000E+00
         0.00000E+00
         0.00000E+00
         0.00000E+00
         0.00000E+00
         0.00000E+00
         0.00000E+00
         0.00000E+00
         0.00000E+00
         0.00000E+00
         0.00000E+00
         0.00000E+00
         0.00000E+00
         0.00000E+00
         0.00000E+00
         0.00000E+00
         0.00000E+00
         0.00000E+00
         0.00000E+00
         0.00000E+00
         0.00000E+00
         0.00000E+00
         0.00000E+00
         0.00000E+00
         0.00000E+00
         0.00000E+00
         0.00000E+00
         0.00000E+00
         0.00000E+00
         0.00000E+00
         0.00000E+00
         0.00000E+00
         0.00000E+00
         0.00000E+00
         0.00000E+00
         0.00000E+00
         0.00000E+00
         0.00000E+00
         0.00000E+00
         0.00000E+00
         0.00000E+00
         0.00000E+00
         0.00000E+00
         0.00000E+00
         0.00000E+00
         0.00000E+00
         0.00000E+00
         0.00000E+00
         0.00000E+00
         0.00000E+00
         0.00000E+00
         0.00000E+00
         0.00000E+00
         0.00000E+00
         0.00000E+00
         0.00000E+00
         0.00000E+00
         0.00000E+00
         0.00000E+00
         0.00000E+00
         0.00000E+00
         0.00000E+00
         0.00000E+00
         0.00000E+00
         0.00000E+00
         0.00000E+00
         0.00000E+00
         0.00000E+00
         0.00000E+00
         0.00000E+00
         0.00000E+00
         0.00000E+00
         0.00000E+00
         0.00000E+00
         0.00000E+00
         0.00000E+00
         0.00000E+00
         0.00000E+00
         0.00000E+00
         0.00000E+00
         0.00000E+00
         0.00000E+00
         0.00000E+00
         0.00000E+00
         0.00000E+00
         0.00000E+00
         0.00000E+00
         0.00000E+00
         0.00000E+00
         0.00000E+00
         0.00000E+00
         0.00000E+00
         0.00000E+00
         0.00000E+00
         0.00000E+00
         0.00000E+00
         0.00000E+00
         0.00000E+00
         0.00000E+00
         0.00000E+00
         0.00000E+00
         0.00000E+00
         0.00000E+00
         0.00000E+00
         0.00000E+00
         0.00000E+00
         0.00000E+00
         0.00000E+00
         0.00000E+00
         0.00000E+00
         0.00000E+00
         0.00000E+00
         0.00000E+00
         0.00000E+00
         0.00000E+00
         0.00000E+00
         0.00000E+00
         0.00000E+00
         0.00000E+00
         0.00000E+00
         0.00000E+00
         0.00000E+00
         0.00000E+00
         0.00000E+00
         0.00000E+00
         0.00000E+00
         0.00000E+00
         0.00000E+00
         0.00000E+00
         0.00000E+00
         0.00000E+00
         0.00000E+00
         0.00000E+00
         0.00000E+00
         0.00000E+00
         0.00000E+00
         0.00000E+00
         0.00000E+00
         0.00000E+00
         0.00000E+00
         0.00000E+00
         0.00000E+00
         0.00000E+00
         0.00000E+00
         0.00000E+00
         0.00000E+00
         0.00000E+00
         0.00000E+00
         0.00000E+00
         0.00000E+00
         0.00000E+00
         0.00000E+00
         0.00000E+00
         0.00000E+00
         0.00000E+00
         0.00000E+00
         0.00000E+00
         0.00000E+00
         0.00000E+00
         0.00000E+00
         0.00000E+00
         0.00000E+00
         0.00000E+00
         0.00000E+00
         0.00000E+00
         0.00000E+00
         0.00000E+00
         0.00000E+00
         0.00000E+00
         0.00000E+00
         0.00000E+00
         0.00000E+00
         0.00000E+00
         0.00000E+00
         0.00000E+00
         0.00000E+00
         0.00000E+00
         0.00000E+00
         0.00000E+00
         0.00000E+00
         0.00000E+00
         0.00000E+00
         0.00000E+00
         0.00000E+00
         0.00000E+00
         0.00000E+00
         0.00000E+00
         0.00000E+00
         0.00000E+00
         0.00000E+00
         0.00000E+00
         0.00000E+00
         0.00000E+00
         0.00000E+00
         0.00000E+00
         0.00000E+00
         0.00000E+00
         0.00000E+00
         0.00000E+00
         0.00000E+00
         0.00000E+00
         0.00000E+00
         0.00000E+00
         0.00000E+00
         0.00000E+00
         0.00000E+00
         0.00000E+00
         0.00000E+00
         0.00000E+00
         0.00000E+00
         0.00000E+00
         0.00000E+00
         0.00000E+00
         0.00000E+00
         0.00000E+00
         0.00000E+00
         0.00000E+00
         0.00000E+00
         0.00000E+00
         0.00000E+00
         0.00000E+00
         0.00000E+00
         0.00000E+00
         0.00000E+00
         0.00000E+00
         0.00000E+00
         0.00000E+00
         0.00000E+00
         0.00000E+00
         0.00000E+00
         0.00000E+00
         0.00000E+00
         0.00000E+00
         0.00000E+00
         0.00000E+00
         0.00000E+00
         0.00000E+00
         0.00000E+00
         0.00000E+00
         0.00000E+00
         0.00000E+00
         0.00000E+00
         0.00000E+00
         0.00000E+00
         0.00000E+00
         0.00000E+00
         0.00000E+00
         0.00000E+00
         0.00000E+00
         0.00000E+00
         0.00000E+00
         0.00000E+00
         0.00000E+00
         0.00000E+00
         0.00000E+00
         0.00000E+00
         0.00000E+00
         0.00000E+00
         0.00000E+00
         0.00000E+00
         0.00000E+00
         0.00000E+00
         0.00000E+00
         0.00000E+00
         0.00000E+00
         0.00000E+00
         0.00000E+00
         0.00000E+00
         0.00000E+00
         0.00000E+00
         0.00000E+00
         0.00000E+00
         0.00000E+00
         0.00000E+00
         0.00000E+00
         0.00000E+00
         0.00000E+00
         0.00000E+00
         0.00000E+00
         0.00000E+00
         0.00000E+00
         0.00000E+00
         0.00000E+00
         0.00000E+00
         0.00000E+00
         0.00000E+00
         0.00000E+00
         0.00000E+00
         0.00000E+00
         0.00000E+00
         0.00000E+00
         0.00000E+00
         0.00000E+00
         0.00000E+00
         0.00000E+00
         0.00000E+00
         0.00000E+00
         0.00000E+00
         0.00000E+00
         0.00000E+00
         0.00000E+00
         0.00000E+00
         0.00000E+00
         0.00000E+00
         0.00000E+00
         0.00000E+00
         0.00000E+00
         0.00000E+00
         0.00000E+00
         0.00000E+00
         0.00000E+00
         0.00000E+00
         0.00000E+00
         0.00000E+00
         0.00000E+00
         0.00000E+00
         0.00000E+00
         0.00000E+00
         0.00000E+00
         0.00000E+00
         0.00000E+00
         0.00000E+00
         0.00000E+00
         0.00000E+00
         0.00000E+00
         0.00000E+00
         0.00000E+00
         0.00000E+00
         0.00000E+00
         0.00000E+00
         0.00000E+00
         0.00000E+00
         0.00000E+00
         0.00000E+00
         0.00000E+00
         0.00000E+00
         0.00000E+00
         0.00000E+00
         0.00000E+00
         0.00000E+00
         0.00000E+00
         0.00000E+00
         0.00000E+00
         0.00000E+00
         0.00000E+00
         0.00000E+00
         0.00000E+00
         0.00000E+00
         0.00000E+00
         0.00000E+00
         0.00000E+00
         0.00000E+00
         0.00000E+00
         0.00000E+00
         0.00000E+00
         0.00000E+00
         0.00000E+00
         0.00000E+00
         0.00000E+00
         0.00000E+00
         0.00000E+00
         0.00000E+00
         0.00000E+00
         0.00000E+00
         0.00000E+00
         0.00000E+00
         0.00000E+00
         0.00000E+00
         0.00000E+00
         0.00000E+00
         0.00000E+00
         0.00000E+00
         0.00000E+00
         0.00000E+00
         0.00000E+00
         0.00000E+00
         0.00000E+00
         0.00000E+00
         0.00000E+00
         0.00000E+00
         0.00000E+00
         0.00000E+00
         0.00000E+00
         0.00000E+00
         0.00000E+00
         0.00000E+00
         0.00000E+00
         0.00000E+00
         0.00000E+00
         0.00000E+00
         0.00000E+00
         0.00000E+00
         0.00000E+00
         0.00000E+00
         0.00000E+00
         0.00000E+00
         0.00000E+00
         0.00000E+00
         0.00000E+00
         0.00000E+00
         0.00000E+00
         0.00000E+00
         0.00000E+00
         0.00000E+00
         0.00000E+00
         0.00000E+00
         0.00000E+00
         0.00000E+00
         0.00000E+00
         0.00000E+00
         0.00000E+00
         0.00000E+00
         0.00000E+00
         0.00000E+00
         0.00000E+00
         0.00000E+00
         0.00000E+00
         0.00000E+00
         0.00000E+00
         0.00000E+00
         0.00000E+00
         0.00000E+00
         0.00000E+00
         0.00000E+00
         0.00000E+00
         0.00000E+00
         0.00000E+00
         0.00000E+00
         0.00000E+00
         0.00000E+00
         0.00000E+00
         0.00000E+00
         0.00000E+00
         0.00000E+00
         0.00000E+00
         0.00000E+00
         0.00000E+00
         0.00000E+00
         0.00000E+00
         0.00000E+00
         0.00000E+00
         0.00000E+00
         0.00000E+00
         0.00000E+00
         0.00000E+00
         0.00000E+00
         0.00000E+00
         0.00000E+00
         0.00000E+00
         0.00000E+00
         0.00000E+00
         0.00000E+00
         0.00000E+00
         0.00000E+00
         0.00000E+00
         0.00000E+00
         0.00000E+00
         0.00000E+00
         0.00000E+00
         0.00000E+00
         0.00000E+00
         0.00000E+00
         0.00000E+00
         0.00000E+00
         0.00000E+00
         0.00000E+00
         0.00000E+00
         0.00000E+00
         0.00000E+00
         0.00000E+00
         0.00000E+00
         0.00000E+00
         0.00000E+00
         0.00000E+00
         0.00000E+00
         0.00000E+00
         0.00000E+00
         0.00000E+00
         0.00000E+00
         0.00000E+00
         0.00000E+00
         0.00000E+00
         0.00000E+00
         0.00000E+00
         0.00000E+00
         0.00000E+00
         0.00000E+00
         0.00000E+00
         0.00000E+00
         0.00000E+00
         0.00000E+00
         0.00000E+00
         0.00000E+00
         0.00000E+00
         0.00000E+00
         0.00000E+00
         0.00000E+00
         0.00000E+00
         0.00000E+00
         0.00000E+00
         0.00000E+00
         0.00000E+00
         0.00000E+00
         0.00000E+00
         0.00000E+00
         0.00000E+00
         0.00000E+00
         0.00000E+00
         0.00000E+00
         0.00000E+00
         0.00000E+00
         0.00000E+00
         0.00000E+00
         0.00000E+00
         0.00000E+00
         0.00000E+00
         0.00000E+00
         0.00000E+00
         0.00000E+00
         0.00000E+00
         0.00000E+00
         0.00000E+00
         0.00000E+00
         0.00000E+00
         0.00000E+00
         0.00000E+00
         0.00000E+00
         0.00000E+00
         0.00000E+00
         0.00000E+00
         0.00000E+00
         0.00000E+00
         0.00000E+00
         0.00000E+00
         0.00000E+00
         0.00000E+00
         0.00000E+00
         0.00000E+00
         0.00000E+00
         0.00000E+00
         0.00000E+00
         0.00000E+00
         0.00000E+00
         0.00000E+00
         0.00000E+00
         0.00000E+00
         0.00000E+00
         0.00000E+00
         0.00000E+00
         0.00000E+00
         0.00000E+00
         0.00000E+00
         0.00000E+00
         0.00000E+00
         0.00000E+00
         0.00000E+00
         0.00000E+00
         0.00000E+00
         0.00000E+00
         0.00000E+00
         0.00000E+00
         0.00000E+00
         0.00000E+00
         0.00000E+00
         0.00000E+00
         0.00000E+00
         0.00000E+00
         0.00000E+00
         0.00000E+00
         0.00000E+00
         0.00000E+00
         0.00000E+00
         0.00000E+00
         0.00000E+00
         0.00000E+00
         0.00000E+00
         0.00000E+00
         0.00000E+00
         0.00000E+00
         0.00000E+00
         0.00000E+00
         0.00000E+00
         0.00000E+00
         0.00000E+00
         0.00000E+00
         0.00000E+00
         0.00000E+00
         0.00000E+00
         0.00000E+00
         0.00000E+00
         0.00000E+00
         0.00000E+00
         0.00000E+00
         0.00000E+00
         0.00000E+00
         0.00000E+00
         0.00000E+00
         0.00000E+00
         0.00000E+00
         0.00000E+00
         0.00000E+00
         0.00000E+00
         0.00000E+00
         0.00000E+00
         0.00000E+00
         0.00000E+00
         0.00000E+00
         0.00000E+00
         0.00000E+00
         0.00000E+00
         0.00000E+00
         0.00000E+00
         0.00000E+00
         0.00000E+00
         0.00000E+00
         0.00000E+00
         0.00000E+00
         0.00000E+00
         0.00000E+00
         0.00000E+00
         0.00000E+00
         0.00000E+00
         0.00000E+00
         0.00000E+00
         0.00000E+00
         0.00000E+00
         0.00000E+00
         0.00000E+00
         0.00000E+00
         0.00000E+00
         0.00000E+00
         0.00000E+00
         0.00000E+00
         0.00000E+00
         0.00000E+00
         0.00000E+00
         0.00000E+00
         0.00000E+00
         0.00000E+00
         0.00000E+00
         0.00000E+00
         0.00000E+00
         0.00000E+00
         0.00000E+00
         0.00000E+00
         0.00000E+00
         0.00000E+00
         0.00000E+00
         0.00000E+00
         0.00000E+00
         0.00000E+00
         0.00000E+00
         0.00000E+00
         0.00000E+00
         0.00000E+00
         0.00000E+00
         0.00000E+00
         0.00000E+00
         0.00000E+00
         0.00000E+00
         0.00000E+00
         0.00000E+00
         0.00000E+00
         0.00000E+00
         0.00000E+00
         0.00000E+00
         0.00000E+00
         0.00000E+00
         0.00000E+00
  
SCALARS                 displacement_y  double 1
LOOKUP_TABLE default
         0.00000E+00
         0.00000E+00
         0.00000E+00
         0.00000E+00
         0.00000E+00
         0.00000E+00
         0.00000E+00
         0.00000E+00
         0.00000E+00
         0.00000E+00
         0.00000E+00
         0.00000E+00
         0.00000E+00
         0.00000E+00
         0.00000E+00
         0.00000E+00
         0.00000E+00
         0.00000E+00
         0.00000E+00
         0.00000E+00
         0.00000E+00
         0.00000E+00
         0.00000E+00
         0.00000E+00
         0.00000E+00
         0.00000E+00
         0.00000E+00
         0.00000E+00
         0.00000E+00
         0.00000E+00
         0.00000E+00
         0.00000E+00
         0.00000E+00
         0.00000E+00
         0.00000E+00
         0.00000E+00
         0.00000E+00
         0.00000E+00
         0.00000E+00
         0.00000E+00
         0.00000E+00
         0.00000E+00
         0.00000E+00
         0.00000E+00
         0.00000E+00
         0.00000E+00
         0.00000E+00
         0.00000E+00
         0.00000E+00
         0.00000E+00
         0.00000E+00
         0.00000E+00
         0.00000E+00
         0.00000E+00
         0.00000E+00
         0.00000E+00
         0.00000E+00
         0.00000E+00
         0.00000E+00
         0.00000E+00
         0.00000E+00
         0.00000E+00
         0.00000E+00
         0.00000E+00
         0.00000E+00
         0.00000E+00
         0.00000E+00
         0.00000E+00
         0.00000E+00
         0.00000E+00
         0.00000E+00
         0.00000E+00
         0.00000E+00
         0.00000E+00
         0.00000E+00
         0.00000E+00
         0.00000E+00
         0.00000E+00
         0.00000E+00
         0.00000E+00
         0.00000E+00
         0.00000E+00
         0.00000E+00
         0.00000E+00
         0.00000E+00
         0.00000E+00
         0.00000E+00
         0.00000E+00
         0.00000E+00
         0.00000E+00
         0.00000E+00
         0.00000E+00
         0.00000E+00
         0.00000E+00
         0.00000E+00
         0.00000E+00
         0.00000E+00
         0.00000E+00
         0.00000E+00
         0.00000E+00
         0.00000E+00
         0.00000E+00
         0.00000E+00
         0.00000E+00
         0.00000E+00
         0.00000E+00
         0.00000E+00
         0.00000E+00
         0.00000E+00
         0.00000E+00
         0.00000E+00
         0.00000E+00
         0.00000E+00
         0.00000E+00
         0.00000E+00
         0.00000E+00
         0.00000E+00
         0.00000E+00
         0.00000E+00
         0.00000E+00
         0.00000E+00
         0.00000E+00
         0.00000E+00
         0.00000E+00
         0.00000E+00
         0.00000E+00
         0.00000E+00
         0.00000E+00
         0.00000E+00
         0.00000E+00
         0.00000E+00
         0.00000E+00
         0.00000E+00
         0.00000E+00
         0.00000E+00
         0.00000E+00
         0.00000E+00
         0.00000E+00
         0.00000E+00
         0.00000E+00
         0.00000E+00
         0.00000E+00
         0.00000E+00
         0.00000E+00
         0.00000E+00
         0.00000E+00
         0.00000E+00
         0.00000E+00
         0.00000E+00
         0.00000E+00
         0.00000E+00
         0.00000E+00
         0.00000E+00
         0.00000E+00
         0.00000E+00
         0.00000E+00
         0.00000E+00
         0.00000E+00
         0.00000E+00
         0.00000E+00
         0.00000E+00
         0.00000E+00
         0.00000E+00
         0.00000E+00
         0.00000E+00
         0.00000E+00
         0.00000E+00
         0.00000E+00
         0.00000E+00
         0.00000E+00
         0.00000E+00
         0.00000E+00
         0.00000E+00
         0.00000E+00
         0.00000E+00
         0.00000E+00
         0.00000E+00
         0.00000E+00
         0.00000E+00
         0.00000E+00
         0.00000E+00
         0.00000E+00
         0.00000E+00
         0.00000E+00
         0.00000E+00
         0.00000E+00
         0.00000E+00
         0.00000E+00
         0.00000E+00
         0.00000E+00
         0.00000E+00
         0.00000E+00
         0.00000E+00
         0.00000E+00
         0.00000E+00
         0.00000E+00
         0.00000E+00
         0.00000E+00
         0.00000E+00
         0.00000E+00
         0.00000E+00
         0.00000E+00
         0.00000E+00
         0.00000E+00
         0.00000E+00
         0.00000E+00
         0.00000E+00
         0.00000E+00
         0.00000E+00
         0.00000E+00
         0.00000E+00
         0.00000E+00
         0.00000E+00
         0.00000E+00
         0.00000E+00
         0.00000E+00
         0.00000E+00
         0.00000E+00
         0.00000E+00
         0.00000E+00
         0.00000E+00
         0.00000E+00
         0.00000E+00
         0.00000E+00
         0.00000E+00
         0.00000E+00
         0.00000E+00
         0.00000E+00
         0.00000E+00
         0.00000E+00
         0.00000E+00
         0.00000E+00
         0.00000E+00
         0.00000E+00
         0.00000E+00
         0.00000E+00
         0.00000E+00
         0.00000E+00
         0.00000E+00
         0.00000E+00
         0.00000E+00
         0.00000E+00
         0.00000E+00
         0.00000E+00
         0.00000E+00
         0.00000E+00
         0.00000E+00
         0.00000E+00
         0.00000E+00
         0.00000E+00
         0.00000E+00
         0.00000E+00
         0.00000E+00
         0.00000E+00
         0.00000E+00
         0.00000E+00
         0.00000E+00
         0.00000E+00
         0.00000E+00
         0.00000E+00
         0.00000E+00
         0.00000E+00
         0.00000E+00
         0.00000E+00
         0.00000E+00
         0.00000E+00
         0.00000E+00
         0.00000E+00
         0.00000E+00
         0.00000E+00
         0.00000E+00
         0.00000E+00
         0.00000E+00
         0.00000E+00
         0.00000E+00
         0.00000E+00
         0.00000E+00
         0.00000E+00
         0.00000E+00
         0.00000E+00
         0.00000E+00
         0.00000E+00
         0.00000E+00
         0.00000E+00
         0.00000E+00
         0.00000E+00
         0.00000E+00
         0.00000E+00
         0.00000E+00
         0.00000E+00
         0.00000E+00
         0.00000E+00
         0.00000E+00
         0.00000E+00
         0.00000E+00
         0.00000E+00
         0.00000E+00
         0.00000E+00
         0.00000E+00
         0.00000E+00
         0.00000E+00
         0.00000E+00
         0.00000E+00
         0.00000E+00
         0.00000E+00
         0.00000E+00
         0.00000E+00
         0.00000E+00
         0.00000E+00
         0.00000E+00
         0.00000E+00
         0.00000E+00
         0.00000E+00
         0.00000E+00
         0.00000E+00
         0.00000E+00
         0.00000E+00
         0.00000E+00
         0.00000E+00
         0.00000E+00
         0.00000E+00
         0.00000E+00
         0.00000E+00
         0.00000E+00
         0.00000E+00
         0.00000E+00
         0.00000E+00
         0.00000E+00
         0.00000E+00
         0.00000E+00
         0.00000E+00
         0.00000E+00
         0.00000E+00
         0.00000E+00
         0.00000E+00
         0.00000E+00
         0.00000E+00
         0.00000E+00
         0.00000E+00
         0.00000E+00
         0.00000E+00
         0.00000E+00
         0.00000E+00
         0.00000E+00
         0.00000E+00
         0.00000E+00
         0.00000E+00
         0.00000E+00
         0.00000E+00
         0.00000E+00
         0.00000E+00
         0.00000E+00
         0.00000E+00
         0.00000E+00
         0.00000E+00
         0.00000E+00
         0.00000E+00
         0.00000E+00
         0.00000E+00
         0.00000E+00
         0.00000E+00
         0.00000E+00
         0.00000E+00
         0.00000E+00
         0.00000E+00
         0.00000E+00
         0.00000E+00
         0.00000E+00
         0.00000E+00
         0.00000E+00
         0.00000E+00
         0.00000E+00
         0.00000E+00
         0.00000E+00
         0.00000E+00
         0.00000E+00
         0.00000E+00
         0.00000E+00
         0.00000E+00
         0.00000E+00
         0.00000E+00
         0.00000E+00
         0.00000E+00
         0.00000E+00
         0.00000E+00
         0.00000E+00
         0.00000E+00
         0.00000E+00
         0.00000E+00
         0.00000E+00
         0.00000E+00
         0.00000E+00
         0.00000E+00
         0.00000E+00
         0.00000E+00
         0.00000E+00
         0.00000E+00
         0.00000E+00
         0.00000E+00
         0.00000E+00
         0.00000E+00
         0.00000E+00
         0.00000E+00
         0.00000E+00
         0.00000E+00
         0.00000E+00
         0.00000E+00
         0.00000E+00
         0.00000E+00
         0.00000E+00
         0.00000E+00
         0.00000E+00
         0.00000E+00
         0.00000E+00
         0.00000E+00
         0.00000E+00
         0.00000E+00
         0.00000E+00
         0.00000E+00
         0.00000E+00
         0.00000E+00
         0.00000E+00
         0.00000E+00
         0.00000E+00
         0.00000E+00
         0.00000E+00
         0.00000E+00
         0.00000E+00
         0.00000E+00
         0.00000E+00
         0.00000E+00
         0.00000E+00
         0.00000E+00
         0.00000E+00
         0.00000E+00
         0.00000E+00
         0.00000E+00
         0.00000E+00
         0.00000E+00
         0.00000E+00
         0.00000E+00
         0.00000E+00
         0.00000E+00
         0.00000E+00
         0.00000E+00
         0.00000E+00
         0.00000E+00
         0.00000E+00
         0.00000E+00
         0.00000E+00
         0.00000E+00
         0.00000E+00
         0.00000E+00
         0.00000E+00
         0.00000E+00
         0.00000E+00
         0.00000E+00
         0.00000E+00
         0.00000E+00
         0.00000E+00
         0.00000E+00
         0.00000E+00
         0.00000E+00
         0.00000E+00
         0.00000E+00
         0.00000E+00
         0.00000E+00
         0.00000E+00
         0.00000E+00
         0.00000E+00
         0.00000E+00
         0.00000E+00
         0.00000E+00
         0.00000E+00
         0.00000E+00
         0.00000E+00
         0.00000E+00
         0.00000E+00
         0.00000E+00
         0.00000E+00
         0.00000E+00
         0.00000E+00
         0.00000E+00
         0.00000E+00
         0.00000E+00
         0.00000E+00
         0.00000E+00
         0.00000E+00
         0.00000E+00
         0.00000E+00
         0.00000E+00
         0.00000E+00
         0.00000E+00
         0.00000E+00
         0.00000E+00
         0.00000E+00
         0.00000E+00
         0.00000E+00
         0.00000E+00
         0.00000E+00
         0.00000E+00
         0.00000E+00
         0.00000E+00
         0.00000E+00
         0.00000E+00
         0.00000E+00
         0.00000E+00
         0.00000E+00
         0.00000E+00
         0.00000E+00
         0.00000E+00
         0.00000E+00
         0.00000E+00
         0.00000E+00
         0.00000E+00
         0.00000E+00
         0.00000E+00
         0.00000E+00
         0.00000E+00
         0.00000E+00
         0.00000E+00
         0.00000E+00
         0.00000E+00
         0.00000E+00
         0.00000E+00
         0.00000E+00
         0.00000E+00
         0.00000E+00
         0.00000E+00
         0.00000E+00
         0.00000E+00
         0.00000E+00
         0.00000E+00
         0.00000E+00
         0.00000E+00
         0.00000E+00
         0.00000E+00
         0.00000E+00
         0.00000E+00
         0.00000E+00
         0.00000E+00
         0.00000E+00
         0.00000E+00
         0.00000E+00
         0.00000E+00
         0.00000E+00
         0.00000E+00
         0.00000E+00
         0.00000E+00
         0.00000E+00
         0.00000E+00
         0.00000E+00
         0.00000E+00
         0.00000E+00
         0.00000E+00
         0.00000E+00
         0.00000E+00
         0.00000E+00
         0.00000E+00
         0.00000E+00
         0.00000E+00
         0.00000E+00
         0.00000E+00
         0.00000E+00
         0.00000E+00
         0.00000E+00
         0.00000E+00
         0.00000E+00
         0.00000E+00
         0.00000E+00
         0.00000E+00
         0.00000E+00
         0.00000E+00
         0.00000E+00
         0.00000E+00
         0.00000E+00
         0.00000E+00
         0.00000E+00
         0.00000E+00
         0.00000E+00
         0.00000E+00
         0.00000E+00
         0.00000E+00
         0.00000E+00
         0.00000E+00
         0.00000E+00
         0.00000E+00
         0.00000E+00
         0.00000E+00
         0.00000E+00
         0.00000E+00
         0.00000E+00
         0.00000E+00
         0.00000E+00
         0.00000E+00
         0.00000E+00
         0.00000E+00
         0.00000E+00
         0.00000E+00
         0.00000E+00
         0.00000E+00
         0.00000E+00
         0.00000E+00
         0.00000E+00
         0.00000E+00
         0.00000E+00
         0.00000E+00
         0.00000E+00
         0.00000E+00
         0.00000E+00
         0.00000E+00
         0.00000E+00
         0.00000E+00
         0.00000E+00
         0.00000E+00
         0.00000E+00
         0.00000E+00
         0.00000E+00
         0.00000E+00
         0.00000E+00
         0.00000E+00
         0.00000E+00
         0.00000E+00
         0.00000E+00
         0.00000E+00
         0.00000E+00
         0.00000E+00
         0.00000E+00
         0.00000E+00
         0.00000E+00
         0.00000E+00
         0.00000E+00
         0.00000E+00
         0.00000E+00
         0.00000E+00
         0.00000E+00
         0.00000E+00
         0.00000E+00
         0.00000E+00
         0.00000E+00
         0.00000E+00
         0.00000E+00
         0.00000E+00
         0.00000E+00
         0.00000E+00
         0.00000E+00
         0.00000E+00
         0.00000E+00
         0.00000E+00
         0.00000E+00
         0.00000E+00
         0.00000E+00
         0.00000E+00
         0.00000E+00
         0.00000E+00
         0.00000E+00
         0.00000E+00
         0.00000E+00
         0.00000E+00
         0.00000E+00
         0.00000E+00
         0.00000E+00
         0.00000E+00
         0.00000E+00
         0.00000E+00
         0.00000E+00
         0.00000E+00
         0.00000E+00
         0.00000E+00
         0.00000E+00
         0.00000E+00
         0.00000E+00
         0.00000E+00
         0.00000E+00
         0.00000E+00
         0.00000E+00
         0.00000E+00
         0.00000E+00
         0.00000E+00
         0.00000E+00
         0.00000E+00
         0.00000E+00
         0.00000E+00
         0.00000E+00
         0.00000E+00
         0.00000E+00
         0.00000E+00
         0.00000E+00
         0.00000E+00
         0.00000E+00
         0.00000E+00
         0.00000E+00
         0.00000E+00
         0.00000E+00
         0.00000E+00
         0.00000E+00
         0.00000E+00
         0.00000E+00
         0.00000E+00
         0.00000E+00
         0.00000E+00
         0.00000E+00
         0.00000E+00
         0.00000E+00
         0.00000E+00
         0.00000E+00
         0.00000E+00
         0.00000E+00
         0.00000E+00
         0.00000E+00
         0.00000E+00
         0.00000E+00
         0.00000E+00
         0.00000E+00
         0.00000E+00
         0.00000E+00
         0.00000E+00
         0.00000E+00
         0.00000E+00
         0.00000E+00
         0.00000E+00
         0.00000E+00
         0.00000E+00
         0.00000E+00
         0.00000E+00
         0.00000E+00
         0.00000E+00
         0.00000E+00
         0.00000E+00
         0.00000E+00
         0.00000E+00
         0.00000E+00
         0.00000E+00
         0.00000E+00
         0.00000E+00
         0.00000E+00
         0.00000E+00
         0.00000E+00
         0.00000E+00
         0.00000E+00
         0.00000E+00
         0.00000E+00
         0.00000E+00
         0.00000E+00
         0.00000E+00
         0.00000E+00
         0.00000E+00
         0.00000E+00
         0.00000E+00
         0.00000E+00
         0.00000E+00
         0.00000E+00
         0.00000E+00
         0.00000E+00
         0.00000E+00
         0.00000E+00
         0.00000E+00
         0.00000E+00
         0.00000E+00
         0.00000E+00
         0.00000E+00
         0.00000E+00
         0.00000E+00
         0.00000E+00
         0.00000E+00
         0.00000E+00
         0.00000E+00
         0.00000E+00
         0.00000E+00
         0.00000E+00
         0.00000E+00
         0.00000E+00
         0.00000E+00
         0.00000E+00
         0.00000E+00
         0.00000E+00
         0.00000E+00
         0.00000E+00
         0.00000E+00
         0.00000E+00
         0.00000E+00
         0.00000E+00
         0.00000E+00
         0.00000E+00
         0.00000E+00
         0.00000E+00
         0.00000E+00
         0.00000E+00
         0.00000E+00
         0.00000E+00
         0.00000E+00
         0.00000E+00
         0.00000E+00
         0.00000E+00
         0.00000E+00
         0.00000E+00
         0.00000E+00
         0.00000E+00
         0.00000E+00
         0.00000E+00
         0.00000E+00
         0.00000E+00
         0.00000E+00
         0.00000E+00
         0.00000E+00
         0.00000E+00
         0.00000E+00
         0.00000E+00
         0.00000E+00
         0.00000E+00
         0.00000E+00
         0.00000E+00
         0.00000E+00
         0.00000E+00
         0.00000E+00
         0.00000E+00
         0.00000E+00
         0.00000E+00
         0.00000E+00
         0.00000E+00
         0.00000E+00
         0.00000E+00
         0.00000E+00
         0.00000E+00
         0.00000E+00
         0.00000E+00
         0.00000E+00
         0.00000E+00
         0.00000E+00
         0.00000E+00
         0.00000E+00
         0.00000E+00
         0.00000E+00
         0.00000E+00
         0.00000E+00
         0.00000E+00
         0.00000E+00
         0.00000E+00
         0.00000E+00
         0.00000E+00
         0.00000E+00
         0.00000E+00
         0.00000E+00
         0.00000E+00
         0.00000E+00
         0.00000E+00
         0.00000E+00
         0.00000E+00
         0.00000E+00
         0.00000E+00
         0.00000E+00
         0.00000E+00
         0.00000E+00
         0.00000E+00
         0.00000E+00
         0.00000E+00
         0.00000E+00
         0.00000E+00
         0.00000E+00
         0.00000E+00
         0.00000E+00
         0.00000E+00
         0.00000E+00
         0.00000E+00
         0.00000E+00
         0.00000E+00
         0.00000E+00
         0.00000E+00
         0.00000E+00
         0.00000E+00
         0.00000E+00
         0.00000E+00
         0.00000E+00
         0.00000E+00
         0.00000E+00
         0.00000E+00
         0.00000E+00
         0.00000E+00
         0.00000E+00
         0.00000E+00
         0.00000E+00
         0.00000E+00
         0.00000E+00
         0.00000E+00
         0.00000E+00
         0.00000E+00
         0.00000E+00
         0.00000E+00
         0.00000E+00
         0.00000E+00
         0.00000E+00
         0.00000E+00
         0.00000E+00
         0.00000E+00
         0.00000E+00
         0.00000E+00
         0.00000E+00
         0.00000E+00
         0.00000E+00
         0.00000E+00
         0.00000E+00
         0.00000E+00
         0.00000E+00
         0.00000E+00
         0.00000E+00
         0.00000E+00
         0.00000E+00
         0.00000E+00
         0.00000E+00
         0.00000E+00
         0.00000E+00
         0.00000E+00
         0.00000E+00
         0.00000E+00
         0.00000E+00
         0.00000E+00
         0.00000E+00
         0.00000E+00
         0.00000E+00
         0.00000E+00
         0.00000E+00
         0.00000E+00
         0.00000E+00
         0.00000E+00
         0.00000E+00
         0.00000E+00
         0.00000E+00
         0.00000E+00
         0.00000E+00
         0.00000E+00
         0.00000E+00
         0.00000E+00
         0.00000E+00
         0.00000E+00
         0.00000E+00
         0.00000E+00
         0.00000E+00
         0.00000E+00
         0.00000E+00
         0.00000E+00
         0.00000E+00
         0.00000E+00
         0.00000E+00
         0.00000E+00
         0.00000E+00
         0.00000E+00
         0.00000E+00
         0.00000E+00
         0.00000E+00
         0.00000E+00
         0.00000E+00
         0.00000E+00
         0.00000E+00
         0.00000E+00
         0.00000E+00
         0.00000E+00
         0.00000E+00
         0.00000E+00
         0.00000E+00
         0.00000E+00
         0.00000E+00
         0.00000E+00
         0.00000E+00
         0.00000E+00
         0.00000E+00
         0.00000E+00
         0.00000E+00
         0.00000E+00
         0.00000E+00
         0.00000E+00
         0.00000E+00
         0.00000E+00
         0.00000E+00
         0.00000E+00
         0.00000E+00
         0.00000E+00
         0.00000E+00
         0.00000E+00
         0.00000E+00
         0.00000E+00
         0.00000E+00
         0.00000E+00
         0.00000E+00
         0.00000E+00
         0.00000E+00
         0.00000E+00
         0.00000E+00
         0.00000E+00
         0.00000E+00
         0.00000E+00
         0.00000E+00
         0.00000E+00
         0.00000E+00
         0.00000E+00
         0.00000E+00
         0.00000E+00
         0.00000E+00
         0.00000E+00
         0.00000E+00
         0.00000E+00
         0.00000E+00
         0.00000E+00
         0.00000E+00
         0.00000E+00
         0.00000E+00
         0.00000E+00
         0.00000E+00
         0.00000E+00
         0.00000E+00
         0.00000E+00
         0.00000E+00
         0.00000E+00
         0.00000E+00
         0.00000E+00
         0.00000E+00
         0.00000E+00
         0.00000E+00
         0.00000E+00
         0.00000E+00
         0.00000E+00
         0.00000E+00
         0.00000E+00
         0.00000E+00
         0.00000E+00
         0.00000E+00
         0.00000E+00
         0.00000E+00
         0.00000E+00
         0.00000E+00
         0.00000E+00
         0.00000E+00
         0.00000E+00
         0.00000E+00
         0.00000E+00
         0.00000E+00
         0.00000E+00
         0.00000E+00
         0.00000E+00
         0.00000E+00
         0.00000E+00
         0.00000E+00
         0.00000E+00
         0.00000E+00
         0.00000E+00
         0.00000E+00
         0.00000E+00
         0.00000E+00
         0.00000E+00
         0.00000E+00
         0.00000E+00
         0.00000E+00
         0.00000E+00
         0.00000E+00
         0.00000E+00
         0.00000E+00
         0.00000E+00
         0.00000E+00
         0.00000E+00
         0.00000E+00
         0.00000E+00
         0.00000E+00
         0.00000E+00
         0.00000E+00
         0.00000E+00
         0.00000E+00
         0.00000E+00
         0.00000E+00
         0.00000E+00
         0.00000E+00
         0.00000E+00
         0.00000E+00
         0.00000E+00
         0.00000E+00
         0.00000E+00
         0.00000E+00
         0.00000E+00
         0.00000E+00
         0.00000E+00
         0.00000E+00
         0.00000E+00
         0.00000E+00
         0.00000E+00
         0.00000E+00
         0.00000E+00
         0.00000E+00
         0.00000E+00
         0.00000E+00
         0.00000E+00
         0.00000E+00
         0.00000E+00
         0.00000E+00
         0.00000E+00
         0.00000E+00
         0.00000E+00
         0.00000E+00
         0.00000E+00
         0.00000E+00
         0.00000E+00
         0.00000E+00
         0.00000E+00
         0.00000E+00
         0.00000E+00
         0.00000E+00
         0.00000E+00
         0.00000E+00
         0.00000E+00
         0.00000E+00
         0.00000E+00
         0.00000E+00
         0.00000E+00
         0.00000E+00
         0.00000E+00
         0.00000E+00
         0.00000E+00
         0.00000E+00
         0.00000E+00
         0.00000E+00
         0.00000E+00
         0.00000E+00
         0.00000E+00
         0.00000E+00
         0.00000E+00
         0.00000E+00
         0.00000E+00
         0.00000E+00
         0.00000E+00
         0.00000E+00
         0.00000E+00
         0.00000E+00
         0.00000E+00
         0.00000E+00
         0.00000E+00
         0.00000E+00
         0.00000E+00
         0.00000E+00
         0.00000E+00
         0.00000E+00
         0.00000E+00
         0.00000E+00
         0.00000E+00
         0.00000E+00
         0.00000E+00
         0.00000E+00
         0.00000E+00
         0.00000E+00
         0.00000E+00
         0.00000E+00
         0.00000E+00
         0.00000E+00
         0.00000E+00
         0.00000E+00
         0.00000E+00
         0.00000E+00
         0.00000E+00
         0.00000E+00
         0.00000E+00
         0.00000E+00
         0.00000E+00
         0.00000E+00
         0.00000E+00
         0.00000E+00
         0.00000E+00
         0.00000E+00
         0.00000E+00
         0.00000E+00
         0.00000E+00
         0.00000E+00
         0.00000E+00
         0.00000E+00
         0.00000E+00
         0.00000E+00
         0.00000E+00
         0.00000E+00
         0.00000E+00
         0.00000E+00
         0.00000E+00
         0.00000E+00
         0.00000E+00
         0.00000E+00
         0.00000E+00
         0.00000E+00
         0.00000E+00
         0.00000E+00
         0.00000E+00
         0.00000E+00
         0.00000E+00
         0.00000E+00
         0.00000E+00
         0.00000E+00
         0.00000E+00
         0.00000E+00
         0.00000E+00
         0.00000E+00
         0.00000E+00
         0.00000E+00
         0.00000E+00
         0.00000E+00
         0.00000E+00
         0.00000E+00
         0.00000E+00
         0.00000E+00
         0.00000E+00
         0.00000E+00
         0.00000E+00
         0.00000E+00
         0.00000E+00
         0.00000E+00
         0.00000E+00
         0.00000E+00
         0.00000E+00
         0.00000E+00
         0.00000E+00
         0.00000E+00
         0.00000E+00
         0.00000E+00
         0.00000E+00
         0.00000E+00
         0.00000E+00
         0.00000E+00
         0.00000E+00
         0.00000E+00
         0.00000E+00
         0.00000E+00
         0.00000E+00
         0.00000E+00
         0.00000E+00
         0.00000E+00
         0.00000E+00
         0.00000E+00
         0.00000E+00
         0.00000E+00
         0.00000E+00
         0.00000E+00
         0.00000E+00
         0.00000E+00
         0.00000E+00
         0.00000E+00
         0.00000E+00
         0.00000E+00
         0.00000E+00
         0.00000E+00
         0.00000E+00
         0.00000E+00
         0.00000E+00
         0.00000E+00
         0.00000E+00
         0.00000E+00
         0.00000E+00
         0.00000E+00
         0.00000E+00
         0.00000E+00
         0.00000E+00
         0.00000E+00
         0.00000E+00
         0.00000E+00
         0.00000E+00
         0.00000E+00
         0.00000E+00
         0.00000E+00
         0.00000E+00
         0.00000E+00
         0.00000E+00
         0.00000E+00
         0.00000E+00
         0.00000E+00
         0.00000E+00
         0.00000E+00
         0.00000E+00
         0.00000E+00
         0.00000E+00
         0.00000E+00
         0.00000E+00
         0.00000E+00
         0.00000E+00
         0.00000E+00
         0.00000E+00
         0.00000E+00
         0.00000E+00
         0.00000E+00
         0.00000E+00
         0.00000E+00
         0.00000E+00
         0.00000E+00
         0.00000E+00
         0.00000E+00
         0.00000E+00
         0.00000E+00
         0.00000E+00
         0.00000E+00
         0.00000E+00
         0.00000E+00
         0.00000E+00
         0.00000E+00
         0.00000E+00
         0.00000E+00
         0.00000E+00
         0.00000E+00
         0.00000E+00
         0.00000E+00
         0.00000E+00
         0.00000E+00
         0.00000E+00
         0.00000E+00
         0.00000E+00
         0.00000E+00
         0.00000E+00
         0.00000E+00
         0.00000E+00
         0.00000E+00
         0.00000E+00
         0.00000E+00
         0.00000E+00
         0.00000E+00
         0.00000E+00
         0.00000E+00
         0.00000E+00
         0.00000E+00
         0.00000E+00
         0.00000E+00
         0.00000E+00
         0.00000E+00
         0.00000E+00
         0.00000E+00
         0.00000E+00
         0.00000E+00
         0.00000E+00
         0.00000E+00
         0.00000E+00
         0.00000E+00
         0.00000E+00
         0.00000E+00
         0.00000E+00
         0.00000E+00
         0.00000E+00
         0.00000E+00
         0.00000E+00
         0.00000E+00
         0.00000E+00
         0.00000E+00
         0.00000E+00
         0.00000E+00
         0.00000E+00
         0.00000E+00
         0.00000E+00
         0.00000E+00
         0.00000E+00
         0.00000E+00
         0.00000E+00
         0.00000E+00
         0.00000E+00
         0.00000E+00
         0.00000E+00
         0.00000E+00
         0.00000E+00
         0.00000E+00
         0.00000E+00
         0.00000E+00
         0.00000E+00
         0.00000E+00
         0.00000E+00
         0.00000E+00
         0.00000E+00
         0.00000E+00
         0.00000E+00
         0.00000E+00
         0.00000E+00
         0.00000E+00
         0.00000E+00
         0.00000E+00
         0.00000E+00
         0.00000E+00
         0.00000E+00
         0.00000E+00
         0.00000E+00
         0.00000E+00
         0.00000E+00
         0.00000E+00
         0.00000E+00
         0.00000E+00
         0.00000E+00
         0.00000E+00
         0.00000E+00
         0.00000E+00
         0.00000E+00
         0.00000E+00
         0.00000E+00
         0.00000E+00
         0.00000E+00
         0.00000E+00
         0.00000E+00
         0.00000E+00
         0.00000E+00
         0.00000E+00
         0.00000E+00
         0.00000E+00
         0.00000E+00
         0.00000E+00
         0.00000E+00
         0.00000E+00
         0.00000E+00
         0.00000E+00
         0.00000E+00
         0.00000E+00
         0.00000E+00
         0.00000E+00
         0.00000E+00
         0.00000E+00
         0.00000E+00
         0.00000E+00
         0.00000E+00
         0.00000E+00
         0.00000E+00
         0.00000E+00
         0.00000E+00
         0.00000E+00
         0.00000E+00
         0.00000E+00
         0.00000E+00
         0.00000E+00
         0.00000E+00
         0.00000E+00
         0.00000E+00
         0.00000E+00
         0.00000E+00
         0.00000E+00
         0.00000E+00
         0.00000E+00
         0.00000E+00
         0.00000E+00
         0.00000E+00
         0.00000E+00
         0.00000E+00
         0.00000E+00
         0.00000E+00
         0.00000E+00
         0.00000E+00
         0.00000E+00
         0.00000E+00
         0.00000E+00
         0.00000E+00
         0.00000E+00
         0.00000E+00
         0.00000E+00
         0.00000E+00
         0.00000E+00
         0.00000E+00
         0.00000E+00
         0.00000E+00
         0.00000E+00
         0.00000E+00
         0.00000E+00
         0.00000E+00
         0.00000E+00
         0.00000E+00
         0.00000E+00
         0.00000E+00
         0.00000E+00
         0.00000E+00
         0.00000E+00
         0.00000E+00
         0.00000E+00
         0.00000E+00
         0.00000E+00
         0.00000E+00
         0.00000E+00
         0.00000E+00
         0.00000E+00
         0.00000E+00
         0.00000E+00
         0.00000E+00
         0.00000E+00
         0.00000E+00
         0.00000E+00
         0.00000E+00
         0.00000E+00
         0.00000E+00
         0.00000E+00
         0.00000E+00
         0.00000E+00
         0.00000E+00
         0.00000E+00
         0.00000E+00
         0.00000E+00
         0.00000E+00
         0.00000E+00
         0.00000E+00
         0.00000E+00
         0.00000E+00
         0.00000E+00
         0.00000E+00
         0.00000E+00
         0.00000E+00
         0.00000E+00
         0.00000E+00
         0.00000E+00
         0.00000E+00
         0.00000E+00
         0.00000E+00
         0.00000E+00
         0.00000E+00
         0.00000E+00
         0.00000E+00
         0.00000E+00
         0.00000E+00
         0.00000E+00
         0.00000E+00
         0.00000E+00
         0.00000E+00
         0.00000E+00
         0.00000E+00
         0.00000E+00
         0.00000E+00
         0.00000E+00
         0.00000E+00
         0.00000E+00
         0.00000E+00
         0.00000E+00
         0.00000E+00
         0.00000E+00
         0.00000E+00
         0.00000E+00
         0.00000E+00
         0.00000E+00
         0.00000E+00
         0.00000E+00
         0.00000E+00
         0.00000E+00
         0.00000E+00
         0.00000E+00
         0.00000E+00
         0.00000E+00
         0.00000E+00
         0.00000E+00
         0.00000E+00
         0.00000E+00
         0.00000E+00
         0.00000E+00
         0.00000E+00
         0.00000E+00
         0.00000E+00
         0.00000E+00
         0.00000E+00
         0.00000E+00
         0.00000E+00
         0.00000E+00
         0.00000E+00
         0.00000E+00
         0.00000E+00
         0.00000E+00
         0.00000E+00
         0.00000E+00
         0.00000E+00
         0.00000E+00
         0.00000E+00
         0.00000E+00
         0.00000E+00
         0.00000E+00
         0.00000E+00
         0.00000E+00
         0.00000E+00
         0.00000E+00
         0.00000E+00
         0.00000E+00
         0.00000E+00
         0.00000E+00
         0.00000E+00
         0.00000E+00
         0.00000E+00
         0.00000E+00
         0.00000E+00
         0.00000E+00
         0.00000E+00
         0.00000E+00
         0.00000E+00
         0.00000E+00
         0.00000E+00
         0.00000E+00
         0.00000E+00
         0.00000E+00
         0.00000E+00
         0.00000E+00
         0.00000E+00
         0.00000E+00
         0.00000E+00
         0.00000E+00
         0.00000E+00
         0.00000E+00
         0.00000E+00
         0.00000E+00
         0.00000E+00
         0.00000E+00
         0.00000E+00
         0.00000E+00
         0.00000E+00
         0.00000E+00
         0.00000E+00
         0.00000E+00
         0.00000E+00
         0.00000E+00
         0.00000E+00
         0.00000E+00
         0.00000E+00
         0.00000E+00
         0.00000E+00
         0.00000E+00
         0.00000E+00
         0.00000E+00
         0.00000E+00
         0.00000E+00
         0.00000E+00
         0.00000E+00
         0.00000E+00
         0.00000E+00
         0.00000E+00
         0.00000E+00
         0.00000E+00
         0.00000E+00
         0.00000E+00
         0.00000E+00
         0.00000E+00
         0.00000E+00
         0.00000E+00
         0.00000E+00
         0.00000E+00
         0.00000E+00
         0.00000E+00
         0.00000E+00
         0.00000E+00
         0.00000E+00
         0.00000E+00
         0.00000E+00
         0.00000E+00
         0.00000E+00
         0.00000E+00
         0.00000E+00
         0.00000E+00
         0.00000E+00
         0.00000E+00
         0.00000E+00
         0.00000E+00
         0.00000E+00
         0.00000E+00
         0.00000E+00
         0.00000E+00
         0.00000E+00
         0.00000E+00
         0.00000E+00
         0.00000E+00
         0.00000E+00
         0.00000E+00
         0.00000E+00
         0.00000E+00
         0.00000E+00
         0.00000E+00
         0.00000E+00
         0.00000E+00
         0.00000E+00
         0.00000E+00
         0.00000E+00
         0.00000E+00
         0.00000E+00
         0.00000E+00
         0.00000E+00
         0.00000E+00
         0.00000E+00
         0.00000E+00
         0.00000E+00
         0.00000E+00
         0.00000E+00
         0.00000E+00
         0.00000E+00
         0.00000E+00
         0.00000E+00
         0.00000E+00
         0.00000E+00
         0.00000E+00
         0.00000E+00
         0.00000E+00
         0.00000E+00
         0.00000E+00
         0.00000E+00
         0.00000E+00
         0.00000E+00
         0.00000E+00
         0.00000E+00
         0.00000E+00
         0.00000E+00
         0.00000E+00
         0.00000E+00
         0.00000E+00
         0.00000E+00
         0.00000E+00
         0.00000E+00
         0.00000E+00
         0.00000E+00
         0.00000E+00
         0.00000E+00
         0.00000E+00
         0.00000E+00
         0.00000E+00
         0.00000E+00
         0.00000E+00
         0.00000E+00
         0.00000E+00
         0.00000E+00
         0.00000E+00
         0.00000E+00
         0.00000E+00
         0.00000E+00
         0.00000E+00
         0.00000E+00
         0.00000E+00
         0.00000E+00
         0.00000E+00
         0.00000E+00
         0.00000E+00
         0.00000E+00
         0.00000E+00
         0.00000E+00
         0.00000E+00
         0.00000E+00
         0.00000E+00
         0.00000E+00
         0.00000E+00
         0.00000E+00
         0.00000E+00
         0.00000E+00
         0.00000E+00
         0.00000E+00
         0.00000E+00
         0.00000E+00
         0.00000E+00
         0.00000E+00
         0.00000E+00
         0.00000E+00
         0.00000E+00
         0.00000E+00
         0.00000E+00
         0.00000E+00
         0.00000E+00
         0.00000E+00
         0.00000E+00
         0.00000E+00
         0.00000E+00
         0.00000E+00
         0.00000E+00
         0.00000E+00
         0.00000E+00
         0.00000E+00
         0.00000E+00
         0.00000E+00
         0.00000E+00
         0.00000E+00
         0.00000E+00
         0.00000E+00
         0.00000E+00
         0.00000E+00
         0.00000E+00
         0.00000E+00
         0.00000E+00
         0.00000E+00
         0.00000E+00
         0.00000E+00
         0.00000E+00
         0.00000E+00
         0.00000E+00
         0.00000E+00
         0.00000E+00
         0.00000E+00
         0.00000E+00
         0.00000E+00
         0.00000E+00
         0.00000E+00
         0.00000E+00
         0.00000E+00
         0.00000E+00
         0.00000E+00
         0.00000E+00
         0.00000E+00
         0.00000E+00
         0.00000E+00
         0.00000E+00
         0.00000E+00
         0.00000E+00
         0.00000E+00
         0.00000E+00
         0.00000E+00
         0.00000E+00
         0.00000E+00
         0.00000E+00
         0.00000E+00
         0.00000E+00
         0.00000E+00
         0.00000E+00
         0.00000E+00
         0.00000E+00
         0.00000E+00
         0.00000E+00
         0.00000E+00
         0.00000E+00
         0.00000E+00
         0.00000E+00
         0.00000E+00
         0.00000E+00
         0.00000E+00
         0.00000E+00
         0.00000E+00
         0.00000E+00
         0.00000E+00
         0.00000E+00
         0.00000E+00
         0.00000E+00
         0.00000E+00
         0.00000E+00
         0.00000E+00
         0.00000E+00
         0.00000E+00
         0.00000E+00
         0.00000E+00
         0.00000E+00
         0.00000E+00
         0.00000E+00
         0.00000E+00
         0.00000E+00
         0.00000E+00
         0.00000E+00
         0.00000E+00
         0.00000E+00
         0.00000E+00
         0.00000E+00
         0.00000E+00
         0.00000E+00
         0.00000E+00
         0.00000E+00
         0.00000E+00
         0.00000E+00
         0.00000E+00
         0.00000E+00
         0.00000E+00
         0.00000E+00
         0.00000E+00
         0.00000E+00
         0.00000E+00
         0.00000E+00
         0.00000E+00
         0.00000E+00
         0.00000E+00
         0.00000E+00
         0.00000E+00
         0.00000E+00
         0.00000E+00
         0.00000E+00
         0.00000E+00
         0.00000E+00
         0.00000E+00
         0.00000E+00
         0.00000E+00
         0.00000E+00
         0.00000E+00
         0.00000E+00
         0.00000E+00
         0.00000E+00
         0.00000E+00
         0.00000E+00
         0.00000E+00
         0.00000E+00
         0.00000E+00
         0.00000E+00
         0.00000E+00
         0.00000E+00
         0.00000E+00
         0.00000E+00
         0.00000E+00
         0.00000E+00
         0.00000E+00
         0.00000E+00
         0.00000E+00
         0.00000E+00
         0.00000E+00
         0.00000E+00
         0.00000E+00
         0.00000E+00
         0.00000E+00
         0.00000E+00
         0.00000E+00
         0.00000E+00
         0.00000E+00
         0.00000E+00
         0.00000E+00
         0.00000E+00
         0.00000E+00
         0.00000E+00
         0.00000E+00
         0.00000E+00
         0.00000E+00
         0.00000E+00
         0.00000E+00
         0.00000E+00
         0.00000E+00
         0.00000E+00
         0.00000E+00
         0.00000E+00
         0.00000E+00
         0.00000E+00
         0.00000E+00
         0.00000E+00
         0.00000E+00
         0.00000E+00
         0.00000E+00
         0.00000E+00
         0.00000E+00
         0.00000E+00
         0.00000E+00
         0.00000E+00
         0.00000E+00
         0.00000E+00
         0.00000E+00
         0.00000E+00
         0.00000E+00
         0.00000E+00
         0.00000E+00
         0.00000E+00
         0.00000E+00
         0.00000E+00
         0.00000E+00
         0.00000E+00
         0.00000E+00
         0.00000E+00
         0.00000E+00
         0.00000E+00
         0.00000E+00
         0.00000E+00
         0.00000E+00
         0.00000E+00
         0.00000E+00
         0.00000E+00
         0.00000E+00
         0.00000E+00
         0.00000E+00
         0.00000E+00
         0.00000E+00
         0.00000E+00
         0.00000E+00
         0.00000E+00
         0.00000E+00
         0.00000E+00
         0.00000E+00
         0.00000E+00
         0.00000E+00
         0.00000E+00
  
SCALARS                 displacement_z  double 1
LOOKUP_TABLE default
        -0.84466E-02
        -0.84332E-02
        -0.84312E-02
        -0.84561E-02
        -0.51907E-16
        -0.58204E-16
        -0.55733E-16
        -0.50632E-16
        -0.84059E-02
        -0.84358E-02
        -0.52341E-16
        -0.50653E-16
        -0.84186E-02
        -0.84376E-02
        -0.62190E-16
        -0.58474E-16
        -0.84478E-02
        -0.84514E-02
        -0.45954E-16
        -0.50968E-16
        -0.84084E-02
        -0.83969E-02
        -0.84025E-02
        -0.61637E-16
        -0.53829E-16
        -0.55585E-16
        -0.84320E-02
        -0.84244E-02
        -0.59131E-16
        -0.49867E-16
        -0.84584E-02
        -0.84649E-02
        -0.84539E-02
        -0.50462E-16
        -0.46913E-16
        -0.45612E-16
        -0.84316E-02
        -0.84589E-02
        -0.53387E-16
        -0.48716E-16
        -0.84237E-02
        -0.84467E-02
        -0.46141E-16
        -0.40848E-16
        -0.84025E-02
        -0.84133E-02
        -0.50564E-16
        -0.56498E-16
        -0.84669E-02
        -0.49396E-16
        -0.84282E-02
        -0.58043E-16
        -0.84568E-02
        -0.52162E-16
        -0.84651E-02
        -0.50034E-16
        -0.84423E-02
        -0.84604E-02
        -0.50980E-16
        -0.49650E-16
        -0.84523E-02
        -0.84280E-02
        -0.51122E-16
        -0.57792E-16
        -0.84508E-02
        -0.49330E-16
        -0.84408E-02
        -0.53838E-16
        -0.83683E-02
        -0.83976E-02
        -0.51822E-16
        -0.54300E-16
        -0.84085E-02
        -0.54756E-16
        -0.84400E-02
        -0.43260E-16
        -0.84371E-02
        -0.41991E-16
        -0.84095E-02
        -0.44276E-16
        -0.83780E-02
        -0.84174E-02
        -0.42185E-16
        -0.43980E-16
        -0.84494E-02
        -0.40962E-16
        -0.84052E-02
        -0.53715E-16
        -0.83937E-02
        -0.54977E-16
        -0.83652E-02
        -0.84041E-02
        -0.52796E-16
        -0.53412E-16
        -0.84305E-02
        -0.48514E-16
        -0.84267E-02
        -0.47822E-16
        -0.84056E-02
        -0.51194E-16
        -0.83754E-02
        -0.84107E-02
        -0.50203E-16
        -0.51677E-16
        -0.82878E-02
        -0.83017E-02
        -0.38977E-16
        -0.36661E-16
        -0.83001E-02
        -0.37218E-16
        -0.82900E-02
        -0.35686E-16
        -0.82909E-02
        -0.35189E-16
        -0.82896E-02
        -0.33254E-16
        -0.82977E-02
        -0.29543E-16
        -0.83011E-02
        -0.26602E-16
        -0.82991E-02
        -0.26417E-16
        -0.82974E-02
        -0.28647E-16
        -0.82851E-02
        -0.30108E-16
        -0.83008E-02
        -0.27491E-16
        -0.83064E-02
        -0.24780E-16
        -0.83049E-02
        -0.24752E-16
        -0.82986E-02
        -0.27667E-16
        -0.82924E-02
        -0.31546E-16
        -0.82892E-02
        -0.33890E-16
        -0.82989E-02
        -0.36601E-16
        -0.82895E-02
        -0.39213E-16
        -0.83037E-02
        -0.35922E-16
        -0.82989E-02
        -0.31513E-16
        -0.82943E-02
        -0.31416E-16
        -0.83023E-02
        -0.34372E-16
        -0.82911E-02
        -0.36644E-16
        -0.83023E-02
        -0.34775E-16
        -0.83026E-02
        -0.33619E-16
        -0.11905E-01
        -0.11903E-01
        -0.11903E-01
        -0.11906E-01
        -0.11899E-01
        -0.11903E-01
        -0.11901E-01
        -0.11904E-01
        -0.11906E-01
        -0.11906E-01
        -0.11900E-01
        -0.11898E-01
        -0.11898E-01
        -0.11903E-01
        -0.11902E-01
        -0.11906E-01
        -0.11908E-01
        -0.11906E-01
        -0.11903E-01
        -0.11907E-01
        -0.11902E-01
        -0.11905E-01
        -0.11898E-01
        -0.11900E-01
        -0.11908E-01
        -0.11902E-01
        -0.11907E-01
        -0.11908E-01
        -0.11904E-01
        -0.11907E-01
        -0.11906E-01
        -0.11902E-01
        -0.11906E-01
        -0.11904E-01
        -0.11894E-01
        -0.11897E-01
        -0.11899E-01
        -0.11905E-01
        -0.11904E-01
        -0.11899E-01
        -0.11895E-01
        -0.11900E-01
        -0.11906E-01
        -0.11899E-01
        -0.11897E-01
        -0.11893E-01
        -0.11898E-01
        -0.11903E-01
        -0.11902E-01
        -0.11899E-01
        -0.11895E-01
        -0.11899E-01
        -0.11885E-01
        -0.11887E-01
        -0.11887E-01
        -0.11886E-01
        -0.11886E-01
        -0.11886E-01
        -0.11887E-01
        -0.11888E-01
        -0.11887E-01
        -0.11886E-01
        -0.11884E-01
        -0.11887E-01
        -0.11888E-01
        -0.11888E-01
        -0.11887E-01
        -0.11886E-01
        -0.11886E-01
        -0.11887E-01
        -0.11886E-01
        -0.11888E-01
        -0.11888E-01
        -0.11887E-01
        -0.11887E-01
        -0.11886E-01
        -0.11888E-01
        -0.11888E-01
        -0.12189E-01
        -0.12189E-01
        -0.12189E-01
        -0.12189E-01
        -0.12189E-01
        -0.12189E-01
        -0.12189E-01
        -0.12189E-01
        -0.12189E-01
        -0.12189E-01
        -0.12189E-01
        -0.12189E-01
        -0.12189E-01
        -0.12189E-01
        -0.12189E-01
        -0.12189E-01
        -0.12189E-01
        -0.12189E-01
        -0.12189E-01
        -0.12189E-01
        -0.12189E-01
        -0.12189E-01
        -0.12189E-01
        -0.12189E-01
        -0.12189E-01
        -0.12189E-01
        -0.12189E-01
        -0.12189E-01
        -0.12189E-01
        -0.12189E-01
        -0.12189E-01
        -0.12189E-01
        -0.12189E-01
        -0.12189E-01
        -0.12189E-01
        -0.12189E-01
        -0.12189E-01
        -0.12189E-01
        -0.12189E-01
        -0.12189E-01
        -0.12189E-01
        -0.12189E-01
        -0.12189E-01
        -0.12189E-01
        -0.12189E-01
        -0.12189E-01
        -0.12189E-01
        -0.12189E-01
        -0.12189E-01
        -0.12189E-01
        -0.12189E-01
        -0.12189E-01
        -0.12189E-01
        -0.12189E-01
        -0.12189E-01
        -0.12189E-01
        -0.12189E-01
        -0.12189E-01
        -0.12189E-01
        -0.12189E-01
        -0.12189E-01
        -0.12189E-01
        -0.12189E-01
        -0.12189E-01
        -0.12189E-01
        -0.12189E-01
        -0.12189E-01
        -0.12189E-01
        -0.12189E-01
        -0.12189E-01
        -0.12189E-01
        -0.12189E-01
        -0.12189E-01
        -0.12189E-01
        -0.12189E-01
        -0.12189E-01
        -0.12189E-01
        -0.12189E-01
        -0.12189E-01
        -0.12189E-01
        -0.12189E-01
        -0.12189E-01
        -0.12189E-01
        -0.12189E-01
        -0.12189E-01
        -0.12189E-01
        -0.12189E-01
        -0.12189E-01
        -0.12189E-01
        -0.12189E-01
        -0.12189E-01
        -0.12189E-01
        -0.12189E-01
        -0.12189E-01
        -0.12189E-01
        -0.12189E-01
        -0.12189E-01
        -0.12189E-01
        -0.12189E-01
        -0.12189E-01
        -0.12189E-01
        -0.12189E-01
        -0.12189E-01
        -0.12189E-01
        -0.12189E-01
        -0.12189E-01
        -0.12189E-01
        -0.12189E-01
        -0.12189E-01
        -0.12189E-01
        -0.12189E-01
        -0.12189E-01
        -0.12189E-01
        -0.12189E-01
        -0.12189E-01
        -0.12189E-01
        -0.12189E-01
        -0.12189E-01
        -0.12189E-01
        -0.12189E-01
        -0.12189E-01
        -0.12189E-01
        -0.12189E-01
        -0.12189E-01
        -0.12189E-01
        -0.12189E-01
        -0.12189E-01
        -0.12189E-01
        -0.12189E-01
        -0.12189E-01
        -0.12189E-01
        -0.12189E-01
        -0.12189E-01
        -0.12189E-01
        -0.12189E-01
        -0.12189E-01
        -0.12189E-01
        -0.12189E-01
        -0.12189E-01
        -0.12189E-01
        -0.12189E-01
        -0.12189E-01
        -0.12189E-01
        -0.12189E-01
        -0.12189E-01
        -0.12189E-01
        -0.12189E-01
        -0.12189E-01
        -0.12189E-01
        -0.12189E-01
        -0.12189E-01
        -0.12189E-01
        -0.12189E-01
        -0.12189E-01
        -0.12189E-01
        -0.12189E-01
        -0.12189E-01
        -0.12189E-01
        -0.12189E-01
        -0.12189E-01
        -0.12189E-01
        -0.12189E-01
        -0.12189E-01
        -0.12189E-01
        -0.12189E-01
        -0.12189E-01
        -0.12189E-01
        -0.12189E-01
        -0.12189E-01
        -0.12189E-01
        -0.12189E-01
        -0.12189E-01
        -0.12189E-01
        -0.12189E-01
        -0.12189E-01
        -0.12189E-01
        -0.12189E-01
        -0.12189E-01
        -0.12189E-01
        -0.12189E-01
        -0.12189E-01
        -0.12189E-01
        -0.12189E-01
        -0.12189E-01
        -0.12189E-01
        -0.12189E-01
        -0.12189E-01
        -0.12189E-01
        -0.12189E-01
        -0.12189E-01
        -0.12189E-01
        -0.12189E-01
        -0.12189E-01
        -0.12189E-01
        -0.12189E-01
        -0.12189E-01
        -0.12189E-01
        -0.12189E-01
        -0.12189E-01
        -0.12189E-01
        -0.12189E-01
        -0.12189E-01
        -0.12189E-01
        -0.12189E-01
        -0.12189E-01
        -0.12189E-01
        -0.12189E-01
        -0.12189E-01
        -0.12189E-01
        -0.12189E-01
        -0.12189E-01
        -0.12189E-01
        -0.12189E-01
        -0.12189E-01
        -0.12189E-01
        -0.12189E-01
        -0.12189E-01
        -0.12189E-01
        -0.12189E-01
        -0.12189E-01
        -0.12189E-01
        -0.12189E-01
        -0.12189E-01
        -0.12189E-01
        -0.12189E-01
        -0.12189E-01
        -0.12189E-01
        -0.12189E-01
        -0.12189E-01
        -0.12189E-01
        -0.12189E-01
        -0.12189E-01
        -0.12189E-01
        -0.12189E-01
        -0.12189E-01
        -0.12189E-01
        -0.12189E-01
        -0.12189E-01
        -0.12189E-01
        -0.12189E-01
        -0.12189E-01
        -0.12189E-01
        -0.12189E-01
        -0.12189E-01
        -0.12189E-01
        -0.12189E-01
        -0.12189E-01
        -0.12189E-01
        -0.12189E-01
        -0.12189E-01
        -0.12189E-01
        -0.12189E-01
        -0.12189E-01
        -0.12189E-01
        -0.12189E-01
        -0.12189E-01
        -0.12189E-01
        -0.12189E-01
        -0.12189E-01
        -0.12189E-01
        -0.12189E-01
        -0.12189E-01
        -0.12189E-01
        -0.12189E-01
        -0.12189E-01
        -0.12189E-01
        -0.12189E-01
        -0.12189E-01
        -0.12189E-01
        -0.12189E-01
        -0.12189E-01
        -0.12189E-01
        -0.12189E-01
        -0.12189E-01
        -0.12189E-01
        -0.12189E-01
        -0.12189E-01
        -0.12189E-01
        -0.12189E-01
        -0.12189E-01
        -0.12189E-01
        -0.12189E-01
        -0.12189E-01
        -0.12189E-01
        -0.12189E-01
        -0.12189E-01
        -0.12189E-01
        -0.12189E-01
        -0.12189E-01
        -0.12189E-01
        -0.12189E-01
        -0.12189E-01
        -0.12189E-01
        -0.12189E-01
        -0.12189E-01
        -0.12189E-01
        -0.12189E-01
        -0.12189E-01
        -0.12189E-01
        -0.12189E-01
        -0.12189E-01
        -0.12189E-01
        -0.12189E-01
        -0.12189E-01
        -0.12189E-01
        -0.12189E-01
        -0.12189E-01
        -0.12189E-01
        -0.12189E-01
        -0.12189E-01
        -0.12189E-01
        -0.12189E-01
        -0.12189E-01
        -0.12189E-01
        -0.12189E-01
        -0.12189E-01
        -0.12189E-01
        -0.12189E-01
        -0.12189E-01
        -0.12189E-01
        -0.12189E-01
        -0.12189E-01
        -0.12189E-01
        -0.12189E-01
        -0.12189E-01
        -0.12189E-01
        -0.12189E-01
        -0.12189E-01
        -0.12189E-01
        -0.12189E-01
        -0.12189E-01
        -0.12189E-01
        -0.12189E-01
        -0.12189E-01
        -0.12189E-01
        -0.12189E-01
        -0.12189E-01
        -0.12189E-01
        -0.12189E-01
        -0.12189E-01
        -0.12189E-01
        -0.12189E-01
        -0.12189E-01
        -0.12189E-01
        -0.12189E-01
        -0.12189E-01
        -0.12189E-01
        -0.12189E-01
        -0.12189E-01
        -0.12189E-01
        -0.12189E-01
        -0.12189E-01
        -0.12189E-01
        -0.12189E-01
        -0.12189E-01
        -0.12189E-01
        -0.12189E-01
        -0.12189E-01
        -0.12189E-01
        -0.12189E-01
        -0.12189E-01
        -0.12189E-01
        -0.12189E-01
        -0.12189E-01
        -0.12189E-01
        -0.12189E-01
        -0.12189E-01
        -0.12189E-01
        -0.12189E-01
        -0.12189E-01
        -0.12189E-01
        -0.12189E-01
        -0.12189E-01
        -0.12189E-01
        -0.12189E-01
        -0.12189E-01
        -0.12189E-01
        -0.12189E-01
        -0.12189E-01
        -0.12189E-01
        -0.12189E-01
        -0.12189E-01
        -0.12189E-01
        -0.12189E-01
        -0.12189E-01
        -0.12189E-01
        -0.12189E-01
        -0.12189E-01
        -0.12189E-01
        -0.12189E-01
        -0.12189E-01
        -0.12189E-01
        -0.12189E-01
        -0.12189E-01
        -0.12189E-01
        -0.12189E-01
        -0.12189E-01
        -0.12189E-01
        -0.12189E-01
        -0.12189E-01
        -0.12189E-01
        -0.12189E-01
        -0.12189E-01
        -0.12189E-01
        -0.12189E-01
        -0.12189E-01
        -0.12189E-01
        -0.12189E-01
        -0.12189E-01
        -0.12189E-01
        -0.12189E-01
        -0.12189E-01
        -0.12189E-01
        -0.12189E-01
        -0.12189E-01
        -0.12189E-01
        -0.12189E-01
        -0.12189E-01
        -0.12189E-01
        -0.12189E-01
        -0.12189E-01
        -0.12189E-01
        -0.12189E-01
        -0.12189E-01
        -0.12189E-01
        -0.12189E-01
        -0.12189E-01
        -0.12189E-01
        -0.12189E-01
        -0.12189E-01
        -0.12189E-01
        -0.12189E-01
        -0.12189E-01
        -0.12189E-01
        -0.12189E-01
        -0.12189E-01
        -0.12189E-01
        -0.12189E-01
        -0.12189E-01
        -0.12189E-01
        -0.12189E-01
        -0.12189E-01
        -0.12189E-01
        -0.12189E-01
        -0.12189E-01
        -0.12189E-01
        -0.12189E-01
        -0.12189E-01
        -0.12189E-01
        -0.12189E-01
        -0.12189E-01
        -0.12189E-01
        -0.12189E-01
        -0.12189E-01
        -0.12189E-01
        -0.12189E-01
        -0.12189E-01
        -0.12189E-01
        -0.12189E-01
        -0.12189E-01
        -0.12189E-01
        -0.12189E-01
        -0.12189E-01
        -0.12189E-01
        -0.12189E-01
        -0.12189E-01
        -0.12189E-01
        -0.12189E-01
        -0.12189E-01
        -0.12189E-01
        -0.12189E-01
        -0.12189E-01
        -0.12189E-01
        -0.12189E-01
        -0.12189E-01
        -0.12189E-01
        -0.12189E-01
        -0.12189E-01
        -0.12189E-01
        -0.12189E-01
        -0.12189E-01
        -0.12189E-01
        -0.12189E-01
        -0.12189E-01
        -0.12189E-01
        -0.12189E-01
        -0.12189E-01
        -0.12189E-01
        -0.12189E-01
        -0.12189E-01
        -0.12189E-01
        -0.12189E-01
        -0.12189E-01
        -0.12189E-01
        -0.12189E-01
        -0.12189E-01
        -0.12189E-01
        -0.12189E-01
        -0.12189E-01
        -0.12189E-01
        -0.12189E-01
        -0.12189E-01
        -0.12189E-01
        -0.12189E-01
        -0.12189E-01
        -0.12189E-01
        -0.12189E-01
        -0.12189E-01
        -0.12189E-01
        -0.12189E-01
        -0.12189E-01
        -0.12189E-01
        -0.12189E-01
        -0.12189E-01
        -0.12189E-01
        -0.12189E-01
        -0.12189E-01
        -0.12189E-01
        -0.12189E-01
        -0.12189E-01
        -0.12189E-01
        -0.12189E-01
        -0.12189E-01
        -0.12189E-01
        -0.12189E-01
        -0.12189E-01
        -0.12189E-01
        -0.12189E-01
        -0.12189E-01
        -0.12189E-01
        -0.12189E-01
        -0.12189E-01
        -0.12189E-01
        -0.12189E-01
        -0.12189E-01
        -0.12189E-01
        -0.12189E-01
        -0.12189E-01
        -0.12189E-01
        -0.12189E-01
        -0.12189E-01
        -0.12189E-01
        -0.12189E-01
        -0.12189E-01
        -0.12189E-01
        -0.12189E-01
        -0.12189E-01
        -0.12189E-01
        -0.12189E-01
        -0.12189E-01
        -0.12189E-01
        -0.12189E-01
        -0.12189E-01
        -0.12189E-01
        -0.12189E-01
        -0.12189E-01
        -0.12189E-01
        -0.12189E-01
        -0.12189E-01
        -0.12189E-01
        -0.12189E-01
        -0.12189E-01
        -0.12189E-01
        -0.12189E-01
        -0.12189E-01
        -0.12189E-01
        -0.12189E-01
        -0.12189E-01
        -0.12189E-01
        -0.12189E-01
        -0.12189E-01
        -0.12189E-01
        -0.12189E-01
        -0.12189E-01
        -0.12189E-01
        -0.12189E-01
        -0.12189E-01
        -0.12189E-01
        -0.12189E-01
        -0.12189E-01
        -0.12189E-01
        -0.12189E-01
        -0.12189E-01
        -0.12189E-01
        -0.12189E-01
        -0.12189E-01
        -0.12189E-01
        -0.12189E-01
        -0.12189E-01
        -0.12189E-01
        -0.12189E-01
        -0.12189E-01
        -0.12189E-01
        -0.12189E-01
        -0.12189E-01
        -0.12189E-01
        -0.12189E-01
        -0.12189E-01
        -0.12189E-01
        -0.12189E-01
        -0.12189E-01
        -0.12189E-01
        -0.12189E-01
        -0.12189E-01
        -0.12189E-01
        -0.12189E-01
        -0.12189E-01
        -0.12189E-01
        -0.12189E-01
        -0.12189E-01
        -0.12189E-01
        -0.12189E-01
        -0.12189E-01
        -0.12189E-01
        -0.12189E-01
        -0.12189E-01
        -0.12189E-01
        -0.12189E-01
        -0.12189E-01
        -0.12189E-01
        -0.12189E-01
        -0.12189E-01
        -0.12189E-01
        -0.12189E-01
        -0.12189E-01
        -0.12189E-01
        -0.12189E-01
        -0.12189E-01
        -0.12189E-01
        -0.12189E-01
        -0.12189E-01
        -0.12189E-01
        -0.12189E-01
        -0.12189E-01
        -0.12189E-01
        -0.12189E-01
        -0.12189E-01
        -0.12189E-01
        -0.12189E-01
        -0.12189E-01
        -0.12189E-01
        -0.12189E-01
        -0.12189E-01
        -0.12189E-01
        -0.12189E-01
        -0.12189E-01
        -0.12189E-01
        -0.12189E-01
        -0.12189E-01
        -0.12189E-01
        -0.12189E-01
        -0.12189E-01
        -0.12189E-01
        -0.12189E-01
        -0.12189E-01
        -0.12189E-01
        -0.12189E-01
        -0.12189E-01
        -0.12189E-01
        -0.12189E-01
        -0.12189E-01
        -0.12189E-01
        -0.12189E-01
        -0.12189E-01
        -0.12189E-01
        -0.12189E-01
        -0.12189E-01
        -0.12189E-01
        -0.12189E-01
        -0.12189E-01
        -0.12189E-01
        -0.12189E-01
        -0.12189E-01
        -0.12189E-01
        -0.12189E-01
        -0.12189E-01
        -0.12189E-01
        -0.12189E-01
        -0.12189E-01
        -0.12189E-01
        -0.12189E-01
        -0.12189E-01
        -0.12189E-01
        -0.12189E-01
        -0.12189E-01
        -0.12189E-01
        -0.12189E-01
        -0.12189E-01
        -0.12189E-01
        -0.12189E-01
        -0.12189E-01
        -0.12189E-01
        -0.12189E-01
        -0.12189E-01
        -0.12189E-01
        -0.12189E-01
        -0.12189E-01
        -0.12189E-01
        -0.12189E-01
        -0.12189E-01
        -0.12189E-01
        -0.12189E-01
        -0.12189E-01
        -0.12189E-01
        -0.12189E-01
        -0.12189E-01
        -0.12189E-01
        -0.12189E-01
        -0.12189E-01
        -0.12189E-01
        -0.12189E-01
        -0.12189E-01
        -0.12189E-01
        -0.12189E-01
        -0.12189E-01
        -0.12189E-01
        -0.12189E-01
        -0.12189E-01
        -0.12189E-01
        -0.12189E-01
        -0.12189E-01
        -0.12189E-01
        -0.12189E-01
        -0.12189E-01
        -0.12189E-01
        -0.12189E-01
        -0.12189E-01
        -0.12189E-01
        -0.12189E-01
        -0.12189E-01
        -0.12189E-01
        -0.12189E-01
        -0.12189E-01
        -0.12189E-01
        -0.12189E-01
        -0.12189E-01
        -0.12189E-01
        -0.12189E-01
        -0.12189E-01
        -0.12189E-01
        -0.12189E-01
        -0.12189E-01
        -0.12189E-01
        -0.12189E-01
        -0.12189E-01
        -0.12189E-01
        -0.12189E-01
        -0.12189E-01
        -0.12189E-01
        -0.12189E-01
        -0.12189E-01
        -0.12189E-01
        -0.12189E-01
        -0.12189E-01
        -0.12189E-01
        -0.12189E-01
        -0.12189E-01
        -0.12189E-01
        -0.12189E-01
        -0.12189E-01
        -0.12189E-01
        -0.12189E-01
        -0.12189E-01
        -0.12189E-01
        -0.12189E-01
        -0.12189E-01
        -0.12189E-01
        -0.12189E-01
        -0.12189E-01
        -0.12189E-01
        -0.12189E-01
        -0.12189E-01
        -0.12189E-01
        -0.12189E-01
        -0.12189E-01
        -0.12189E-01
        -0.12189E-01
        -0.12189E-01
        -0.12189E-01
        -0.12189E-01
        -0.12189E-01
        -0.12189E-01
        -0.12189E-01
        -0.12189E-01
        -0.12189E-01
        -0.12189E-01
        -0.12189E-01
        -0.12189E-01
        -0.12189E-01
        -0.12189E-01
        -0.12189E-01
        -0.12189E-01
        -0.12189E-01
        -0.12189E-01
        -0.12189E-01
        -0.12189E-01
        -0.12189E-01
        -0.12189E-01
        -0.12189E-01
        -0.12189E-01
        -0.12189E-01
        -0.12189E-01
        -0.12189E-01
        -0.12189E-01
        -0.12189E-01
        -0.12189E-01
        -0.12189E-01
        -0.12189E-01
        -0.12189E-01
        -0.12189E-01
        -0.12189E-01
        -0.12189E-01
        -0.12189E-01
        -0.12189E-01
        -0.12189E-01
        -0.12189E-01
        -0.12189E-01
        -0.12189E-01
        -0.12189E-01
        -0.12189E-01
        -0.12189E-01
        -0.12189E-01
        -0.12189E-01
        -0.12189E-01
        -0.12189E-01
        -0.12189E-01
        -0.12189E-01
        -0.12189E-01
        -0.12189E-01
        -0.12189E-01
        -0.12189E-01
        -0.12189E-01
        -0.12189E-01
        -0.12189E-01
        -0.12189E-01
        -0.12189E-01
        -0.12189E-01
        -0.12189E-01
        -0.12189E-01
        -0.12189E-01
        -0.12189E-01
        -0.12189E-01
        -0.12189E-01
        -0.12189E-01
        -0.12189E-01
        -0.12189E-01
        -0.12189E-01
        -0.12189E-01
        -0.12189E-01
        -0.12189E-01
        -0.12189E-01
        -0.12189E-01
        -0.12189E-01
        -0.12189E-01
        -0.12189E-01
        -0.12189E-01
        -0.12189E-01
        -0.12189E-01
        -0.12189E-01
        -0.12189E-01
        -0.12189E-01
        -0.12189E-01
        -0.12189E-01
        -0.12189E-01
        -0.12189E-01
        -0.12189E-01
        -0.12189E-01
        -0.12189E-01
        -0.12189E-01
        -0.12189E-01
        -0.12189E-01
        -0.12189E-01
        -0.12189E-01
        -0.12189E-01
        -0.12189E-01
        -0.12189E-01
        -0.12189E-01
        -0.12189E-01
        -0.12189E-01
        -0.12189E-01
        -0.12189E-01
        -0.12189E-01
        -0.12189E-01
        -0.12189E-01
        -0.12189E-01
        -0.12189E-01
        -0.12189E-01
        -0.12189E-01
        -0.12189E-01
        -0.12189E-01
        -0.12189E-01
        -0.12189E-01
        -0.12189E-01
        -0.12189E-01
        -0.12189E-01
        -0.12189E-01
        -0.12189E-01
        -0.12189E-01
        -0.12189E-01
        -0.12189E-01
        -0.12189E-01
        -0.12189E-01
        -0.12189E-01
        -0.12189E-01
        -0.12189E-01
        -0.12189E-01
        -0.12189E-01
        -0.12189E-01
        -0.12189E-01
        -0.12189E-01
        -0.12189E-01
        -0.12189E-01
        -0.12189E-01
        -0.12189E-01
        -0.12189E-01
        -0.12189E-01
        -0.12189E-01
        -0.12189E-01
        -0.12189E-01
        -0.12189E-01
        -0.12189E-01
        -0.12189E-01
        -0.12189E-01
        -0.12189E-01
        -0.12189E-01
        -0.12189E-01
        -0.12189E-01
        -0.12189E-01
        -0.12189E-01
        -0.12189E-01
        -0.12189E-01
        -0.12189E-01
        -0.12189E-01
        -0.12189E-01
        -0.12189E-01
        -0.12189E-01
        -0.12189E-01
        -0.12189E-01
        -0.12189E-01
        -0.12189E-01
        -0.12189E-01
        -0.12189E-01
        -0.12189E-01
        -0.12189E-01
        -0.12189E-01
        -0.12189E-01
        -0.12189E-01
        -0.12189E-01
        -0.12189E-01
        -0.12189E-01
        -0.12189E-01
        -0.12189E-01
        -0.12189E-01
        -0.12189E-01
        -0.12189E-01
        -0.12189E-01
        -0.12189E-01
        -0.12189E-01
        -0.12189E-01
        -0.12189E-01
        -0.12189E-01
        -0.12189E-01
        -0.12189E-01
        -0.12189E-01
        -0.12189E-01
        -0.12189E-01
        -0.12189E-01
        -0.12189E-01
        -0.12189E-01
        -0.12189E-01
        -0.12189E-01
        -0.12189E-01
        -0.12189E-01
        -0.12189E-01
        -0.12189E-01
        -0.12189E-01
        -0.12189E-01
        -0.12189E-01
        -0.12189E-01
        -0.12189E-01
        -0.12189E-01
        -0.12189E-01
        -0.12189E-01
        -0.12189E-01
        -0.12189E-01
        -0.12189E-01
        -0.12189E-01
        -0.12189E-01
        -0.12189E-01
        -0.12189E-01
        -0.12189E-01
        -0.12189E-01
        -0.12189E-01
        -0.12189E-01
        -0.12189E-01
        -0.12189E-01
        -0.12189E-01
        -0.12189E-01
        -0.12189E-01
        -0.12189E-01
        -0.12189E-01
        -0.12189E-01
        -0.12189E-01
        -0.12189E-01
        -0.12189E-01
        -0.12189E-01
        -0.12189E-01
        -0.12189E-01
        -0.12189E-01
        -0.12189E-01
        -0.12189E-01
        -0.12189E-01
        -0.12189E-01
        -0.12189E-01
        -0.12189E-01
        -0.12189E-01
        -0.12189E-01
        -0.12189E-01
        -0.12189E-01
        -0.12189E-01
        -0.12189E-01
        -0.12189E-01
        -0.12189E-01
        -0.12189E-01
        -0.12189E-01
        -0.12189E-01
        -0.12189E-01
        -0.12189E-01
        -0.12189E-01
        -0.12189E-01
        -0.12189E-01
        -0.12189E-01
        -0.12189E-01
        -0.12189E-01
        -0.12189E-01
        -0.12189E-01
        -0.12189E-01
        -0.12189E-01
        -0.12189E-01
        -0.12189E-01
        -0.12189E-01
        -0.12189E-01
        -0.12189E-01
        -0.12189E-01
        -0.12189E-01
        -0.12189E-01
        -0.12189E-01
        -0.12189E-01
        -0.12189E-01
        -0.12189E-01
        -0.12189E-01
        -0.12189E-01
        -0.12189E-01
        -0.12189E-01
        -0.12189E-01
        -0.12189E-01
        -0.12189E-01
        -0.12189E-01
        -0.12189E-01
        -0.12189E-01
        -0.12189E-01
        -0.12189E-01
        -0.12189E-01
        -0.12189E-01
        -0.12189E-01
        -0.12189E-01
        -0.12189E-01
        -0.12189E-01
        -0.12189E-01
        -0.12189E-01
        -0.12189E-01
        -0.12189E-01
        -0.12189E-01
        -0.12189E-01
        -0.12189E-01
        -0.12189E-01
        -0.12189E-01
        -0.12189E-01
        -0.12189E-01
        -0.12189E-01
        -0.12189E-01
        -0.12189E-01
        -0.12189E-01
        -0.12189E-01
        -0.12189E-01
        -0.12189E-01
        -0.12189E-01
        -0.12189E-01
        -0.12189E-01
        -0.12189E-01
        -0.12189E-01
        -0.12189E-01
        -0.12189E-01
        -0.12189E-01
        -0.12189E-01
        -0.12189E-01
        -0.12189E-01
        -0.12189E-01
        -0.12189E-01
        -0.12189E-01
        -0.12189E-01
        -0.12189E-01
        -0.12189E-01
        -0.12189E-01
        -0.12189E-01
        -0.12189E-01
        -0.12189E-01
        -0.12189E-01
        -0.12189E-01
        -0.12189E-01
        -0.12189E-01
        -0.12189E-01
        -0.12189E-01
        -0.12189E-01
        -0.12189E-01
        -0.12189E-01
        -0.12189E-01
        -0.12189E-01
        -0.12189E-01
        -0.12189E-01
        -0.12189E-01
        -0.12189E-01
        -0.12189E-01
        -0.12189E-01
        -0.12189E-01
        -0.12189E-01
        -0.12189E-01
        -0.12189E-01
        -0.12189E-01
        -0.12189E-01
        -0.12189E-01
        -0.12189E-01
        -0.12189E-01
        -0.12189E-01
        -0.12189E-01
        -0.12189E-01
        -0.12189E-01
        -0.12189E-01
        -0.12189E-01
        -0.12189E-01
        -0.12189E-01
        -0.12189E-01
        -0.12189E-01
        -0.12189E-01
        -0.12189E-01
        -0.12189E-01
        -0.12189E-01
        -0.12189E-01
        -0.12189E-01
        -0.12189E-01
        -0.12189E-01
        -0.12189E-01
        -0.12189E-01
        -0.12189E-01
        -0.12189E-01
        -0.12189E-01
        -0.12189E-01
        -0.12189E-01
        -0.12189E-01
        -0.12189E-01
        -0.12189E-01
        -0.12189E-01
        -0.12189E-01
        -0.12189E-01
        -0.12189E-01
        -0.12189E-01
        -0.12189E-01
        -0.12189E-01
        -0.12189E-01
        -0.12189E-01
        -0.12189E-01
        -0.12189E-01
        -0.12189E-01
        -0.12189E-01
        -0.12189E-01
        -0.12189E-01
        -0.12189E-01
        -0.12189E-01
        -0.12189E-01
        -0.12189E-01
        -0.12189E-01
        -0.12189E-01
        -0.12189E-01
        -0.12189E-01
        -0.12189E-01
        -0.12189E-01
        -0.12189E-01
        -0.12189E-01
        -0.12189E-01
        -0.12189E-01
        -0.12189E-01
        -0.12189E-01
        -0.12189E-01
        -0.12189E-01
        -0.12189E-01
        -0.12189E-01
        -0.12189E-01
        -0.12189E-01
        -0.12189E-01
        -0.12189E-01
        -0.12189E-01
        -0.12189E-01
        -0.12189E-01
        -0.12189E-01
        -0.12189E-01
        -0.12189E-01
        -0.12189E-01
        -0.12189E-01
        -0.12189E-01
        -0.12189E-01
        -0.12189E-01
        -0.12189E-01
        -0.12189E-01
        -0.12189E-01
        -0.12189E-01
        -0.12189E-01
        -0.12189E-01
        -0.12189E-01
        -0.12189E-01
        -0.12189E-01
        -0.12189E-01
        -0.12189E-01
        -0.12189E-01
        -0.12189E-01
        -0.12189E-01
        -0.12189E-01
        -0.12189E-01
        -0.12189E-01
        -0.12189E-01
        -0.12189E-01
        -0.12189E-01
        -0.12189E-01
        -0.12189E-01
        -0.12189E-01
        -0.12189E-01
        -0.12189E-01
        -0.12189E-01
        -0.12189E-01
        -0.12189E-01
        -0.12189E-01
        -0.12189E-01
        -0.12189E-01
        -0.12189E-01
        -0.12189E-01
        -0.12189E-01
        -0.12189E-01
        -0.12189E-01
        -0.12189E-01
        -0.12189E-01
        -0.12189E-01
        -0.12189E-01
        -0.12189E-01
        -0.12189E-01
        -0.12189E-01
        -0.12189E-01
        -0.12189E-01
        -0.12189E-01
        -0.12189E-01
        -0.12189E-01
        -0.12189E-01
        -0.12189E-01
        -0.12189E-01
        -0.12189E-01
        -0.12189E-01
        -0.12189E-01
        -0.12189E-01
        -0.12189E-01
        -0.12189E-01
        -0.12189E-01
        -0.12189E-01
        -0.12189E-01
        -0.12189E-01
        -0.12189E-01
        -0.12189E-01
        -0.12189E-01
        -0.12189E-01
        -0.12189E-01
        -0.12189E-01
        -0.12189E-01
        -0.12189E-01
        -0.12189E-01
        -0.12189E-01
        -0.12189E-01
        -0.12189E-01
        -0.12189E-01
        -0.12189E-01
        -0.12189E-01
        -0.12189E-01
        -0.12189E-01
        -0.12189E-01
        -0.12189E-01
        -0.12189E-01
        -0.12189E-01
        -0.12189E-01
        -0.12189E-01
        -0.12189E-01
        -0.12189E-01
        -0.12189E-01
        -0.12189E-01
        -0.12189E-01
        -0.12189E-01
        -0.12189E-01
        -0.12189E-01
        -0.12189E-01
        -0.12189E-01
        -0.12189E-01
        -0.12189E-01
        -0.12189E-01
        -0.12189E-01
        -0.12189E-01
        -0.12189E-01
        -0.12189E-01
        -0.12189E-01
        -0.12189E-01
        -0.12189E-01
        -0.12189E-01
        -0.12189E-01
        -0.12189E-01
        -0.12189E-01
        -0.12189E-01
        -0.12189E-01
        -0.12189E-01
        -0.12189E-01
        -0.12189E-01
        -0.12189E-01
        -0.12189E-01
        -0.12189E-01
        -0.12189E-01
        -0.12189E-01
        -0.12189E-01
        -0.12189E-01
        -0.12189E-01
        -0.12189E-01
        -0.12189E-01
        -0.12189E-01
        -0.12189E-01
        -0.12189E-01
        -0.12189E-01
        -0.12189E-01
        -0.12189E-01
        -0.12189E-01
        -0.12189E-01
        -0.12189E-01
        -0.12189E-01
        -0.12189E-01
        -0.12189E-01
        -0.12189E-01
        -0.12189E-01
        -0.12189E-01
        -0.12189E-01
        -0.12189E-01
        -0.12189E-01
        -0.12189E-01
        -0.12189E-01
        -0.12189E-01
        -0.12189E-01
        -0.12189E-01
        -0.12189E-01
        -0.12189E-01
        -0.12189E-01
        -0.12189E-01
        -0.12189E-01
        -0.12189E-01
        -0.12189E-01
        -0.12189E-01
        -0.12189E-01
        -0.12189E-01
        -0.12189E-01
        -0.12189E-01
        -0.12189E-01
        -0.12189E-01
        -0.12189E-01
        -0.12189E-01
        -0.12189E-01
        -0.12189E-01
        -0.12189E-01
        -0.12189E-01
        -0.12189E-01
        -0.12189E-01
        -0.12189E-01
        -0.12189E-01
        -0.12189E-01
        -0.12189E-01
        -0.12189E-01
        -0.12189E-01
        -0.12189E-01
        -0.12189E-01
        -0.12189E-01
        -0.12189E-01
        -0.12189E-01
        -0.12189E-01
        -0.12189E-01
        -0.12189E-01
        -0.12189E-01
        -0.12189E-01
        -0.12189E-01
        -0.12189E-01
        -0.12189E-01
        -0.12189E-01
        -0.12189E-01
        -0.12189E-01
        -0.12189E-01
        -0.12189E-01
        -0.12189E-01
        -0.12189E-01
        -0.12189E-01
        -0.12189E-01
        -0.12189E-01
        -0.12189E-01
        -0.12189E-01
        -0.12189E-01
        -0.12189E-01
        -0.12189E-01
        -0.12189E-01
        -0.12189E-01
        -0.12189E-01
        -0.12189E-01
        -0.12189E-01
        -0.12189E-01
        -0.12189E-01
        -0.12189E-01
        -0.12189E-01
        -0.12189E-01
        -0.12189E-01
        -0.12189E-01
        -0.12189E-01
        -0.12189E-01
        -0.12189E-01
        -0.12189E-01
        -0.12189E-01
        -0.12189E-01
        -0.12189E-01
        -0.12189E-01
        -0.12189E-01
        -0.12189E-01
        -0.12189E-01
        -0.12189E-01
        -0.12189E-01
        -0.12189E-01
        -0.12189E-01
        -0.12189E-01
        -0.12189E-01
        -0.12189E-01
        -0.12189E-01
        -0.12189E-01
        -0.12189E-01
        -0.12189E-01
        -0.12189E-01
        -0.12189E-01
        -0.12189E-01
        -0.12189E-01
        -0.12189E-01
        -0.12189E-01
        -0.12189E-01
        -0.12189E-01
        -0.12189E-01
        -0.12189E-01
        -0.12189E-01
        -0.12189E-01
        -0.12189E-01
        -0.12189E-01
        -0.12189E-01
        -0.12189E-01
        -0.12189E-01
        -0.12189E-01
        -0.12189E-01
        -0.12189E-01
        -0.12189E-01
        -0.12189E-01
        -0.12189E-01
        -0.12189E-01
        -0.12189E-01
        -0.12189E-01
        -0.12189E-01
        -0.12189E-01
        -0.12189E-01
        -0.12189E-01
        -0.12189E-01
        -0.12189E-01
        -0.12189E-01
        -0.12189E-01
        -0.12189E-01
        -0.12189E-01
        -0.12189E-01
        -0.12189E-01
        -0.12189E-01
        -0.12189E-01
        -0.12189E-01
        -0.12189E-01
        -0.12189E-01
        -0.12189E-01
        -0.12189E-01
        -0.12189E-01
        -0.12189E-01
        -0.12189E-01
        -0.12189E-01
        -0.12189E-01
        -0.12189E-01
        -0.12189E-01
        -0.12189E-01
        -0.12189E-01
        -0.12189E-01
        -0.12189E-01
        -0.12189E-01
        -0.12189E-01
        -0.12189E-01
        -0.12189E-01
        -0.12189E-01
        -0.12189E-01
        -0.12189E-01
        -0.12189E-01
        -0.12189E-01
        -0.12189E-01
        -0.12189E-01
        -0.12189E-01
        -0.12189E-01
        -0.12189E-01
        -0.12189E-01
        -0.12189E-01
        -0.12189E-01
        -0.12189E-01
        -0.12189E-01
        -0.12189E-01
        -0.12189E-01
        -0.12189E-01
        -0.12189E-01
        -0.12189E-01
        -0.12189E-01
        -0.12189E-01
        -0.12189E-01
        -0.12189E-01
        -0.12189E-01
        -0.12189E-01
        -0.12189E-01
        -0.12189E-01
        -0.12189E-01
        -0.12189E-01
        -0.12189E-01
        -0.12189E-01
        -0.12189E-01
        -0.12189E-01
        -0.12189E-01
        -0.12189E-01
        -0.12189E-01
        -0.12189E-01
        -0.12189E-01
        -0.12189E-01
        -0.12189E-01
        -0.12189E-01
        -0.12189E-01
        -0.12189E-01
        -0.12189E-01
        -0.12189E-01
        -0.12189E-01
        -0.12189E-01
        -0.12189E-01
        -0.12189E-01
        -0.12189E-01
        -0.12189E-01
        -0.12189E-01
        -0.12189E-01
        -0.12189E-01
        -0.12189E-01
        -0.12189E-01
        -0.12189E-01
        -0.12189E-01
        -0.12189E-01
        -0.12189E-01
        -0.12189E-01
        -0.12189E-01
        -0.12189E-01
        -0.12189E-01
        -0.12189E-01
        -0.12189E-01
        -0.12189E-01
        -0.12189E-01
        -0.12189E-01
        -0.12189E-01
        -0.12189E-01
        -0.12189E-01
        -0.12189E-01
        -0.12189E-01
        -0.12189E-01
        -0.12189E-01
        -0.12189E-01
        -0.12189E-01
        -0.12189E-01
        -0.12189E-01
        -0.12189E-01
        -0.12189E-01
        -0.12189E-01
        -0.12189E-01
        -0.12189E-01
        -0.12189E-01
        -0.12189E-01
        -0.12189E-01
        -0.12189E-01
        -0.12189E-01
        -0.12189E-01
        -0.12189E-01
        -0.12189E-01
        -0.12189E-01
        -0.12189E-01
        -0.12189E-01
        -0.12189E-01
        -0.12189E-01
        -0.12189E-01
        -0.12189E-01
        -0.12189E-01
        -0.12189E-01
        -0.12189E-01
        -0.12189E-01
        -0.12189E-01
        -0.12189E-01
        -0.12189E-01
        -0.12189E-01
        -0.12189E-01
        -0.12189E-01
        -0.12189E-01
        -0.12189E-01
        -0.12189E-01
        -0.12189E-01
        -0.12189E-01
        -0.12189E-01
        -0.12189E-01
        -0.12189E-01
        -0.12189E-01
        -0.12189E-01
        -0.12189E-01
        -0.12189E-01
        -0.12189E-01
        -0.12189E-01
        -0.12189E-01
        -0.12189E-01
        -0.12189E-01
        -0.12189E-01
        -0.12189E-01
        -0.12189E-01
        -0.12189E-01
        -0.12189E-01
        -0.12189E-01
        -0.12189E-01
        -0.12189E-01
        -0.12189E-01
        -0.12189E-01
        -0.12189E-01
        -0.12189E-01
        -0.12189E-01
        -0.12189E-01
        -0.12189E-01
        -0.12189E-01
        -0.12189E-01
        -0.12189E-01
        -0.12189E-01
        -0.12189E-01
        -0.12189E-01
        -0.12189E-01
        -0.12189E-01
        -0.12189E-01
        -0.12189E-01
        -0.12189E-01
        -0.12189E-01
        -0.12189E-01
        -0.12189E-01
        -0.12189E-01
        -0.12189E-01
        -0.12189E-01
        -0.12189E-01
        -0.12189E-01
        -0.12189E-01
        -0.12189E-01
        -0.12189E-01
        -0.12189E-01
        -0.12189E-01
        -0.12189E-01
        -0.12189E-01
        -0.12189E-01
        -0.12189E-01
        -0.12189E-01
        -0.12189E-01
        -0.12189E-01
        -0.12189E-01
        -0.12189E-01
        -0.12189E-01
        -0.12189E-01
        -0.12189E-01
        -0.12189E-01
        -0.12189E-01
        -0.12189E-01
        -0.12189E-01
        -0.12189E-01
        -0.12189E-01
        -0.12189E-01
        -0.12189E-01
        -0.12189E-01
        -0.12189E-01
        -0.12189E-01
        -0.12189E-01
        -0.12189E-01
        -0.12189E-01
        -0.12189E-01
        -0.12189E-01
        -0.12189E-01
        -0.12189E-01
        -0.12189E-01
        -0.12189E-01
        -0.12189E-01
        -0.12189E-01
        -0.12189E-01
        -0.12189E-01
        -0.12189E-01
        -0.12189E-01
        -0.12189E-01
        -0.12189E-01
        -0.12189E-01
        -0.12189E-01
  
SCALARS                     velocity_x  double 1
LOOKUP_TABLE default
         0.00000E+00
         0.00000E+00
         0.00000E+00
         0.00000E+00
         0.00000E+00
         0.00000E+00
         0.00000E+00
         0.00000E+00
         0.00000E+00
         0.00000E+00
         0.00000E+00
         0.00000E+00
         0.00000E+00
         0.00000E+00
         0.00000E+00
         0.00000E+00
         0.00000E+00
         0.00000E+00
         0.00000E+00
         0.00000E+00
         0.00000E+00
         0.00000E+00
         0.00000E+00
         0.00000E+00
         0.00000E+00
         0.00000E+00
         0.00000E+00
         0.00000E+00
         0.00000E+00
         0.00000E+00
         0.00000E+00
         0.00000E+00
         0.00000E+00
         0.00000E+00
         0.00000E+00
         0.00000E+00
         0.00000E+00
         0.00000E+00
         0.00000E+00
         0.00000E+00
         0.00000E+00
         0.00000E+00
         0.00000E+00
         0.00000E+00
         0.00000E+00
         0.00000E+00
         0.00000E+00
         0.00000E+00
         0.00000E+00
         0.00000E+00
         0.00000E+00
         0.00000E+00
         0.00000E+00
         0.00000E+00
         0.00000E+00
         0.00000E+00
         0.00000E+00
         0.00000E+00
         0.00000E+00
         0.00000E+00
         0.00000E+00
         0.00000E+00
         0.00000E+00
         0.00000E+00
         0.00000E+00
         0.00000E+00
         0.00000E+00
         0.00000E+00
         0.00000E+00
         0.00000E+00
         0.00000E+00
         0.00000E+00
         0.00000E+00
         0.00000E+00
         0.00000E+00
         0.00000E+00
         0.00000E+00
         0.00000E+00
         0.00000E+00
         0.00000E+00
         0.00000E+00
         0.00000E+00
         0.00000E+00
         0.00000E+00
         0.00000E+00
         0.00000E+00
         0.00000E+00
         0.00000E+00
         0.00000E+00
         0.00000E+00
         0.00000E+00
         0.00000E+00
         0.00000E+00
         0.00000E+00
         0.00000E+00
         0.00000E+00
         0.00000E+00
         0.00000E+00
         0.00000E+00
         0.00000E+00
         0.00000E+00
         0.00000E+00
         0.00000E+00
         0.00000E+00
         0.00000E+00
         0.00000E+00
         0.00000E+00
         0.00000E+00
         0.00000E+00
         0.00000E+00
         0.00000E+00
         0.00000E+00
         0.00000E+00
         0.00000E+00
         0.00000E+00
         0.00000E+00
         0.00000E+00
         0.00000E+00
         0.00000E+00
         0.00000E+00
         0.00000E+00
         0.00000E+00
         0.00000E+00
         0.00000E+00
         0.00000E+00
         0.00000E+00
         0.00000E+00
         0.00000E+00
         0.00000E+00
         0.00000E+00
         0.00000E+00
         0.00000E+00
         0.00000E+00
         0.00000E+00
         0.00000E+00
         0.00000E+00
         0.00000E+00
         0.00000E+00
         0.00000E+00
         0.00000E+00
         0.00000E+00
         0.00000E+00
         0.00000E+00
         0.00000E+00
         0.00000E+00
         0.00000E+00
         0.00000E+00
         0.00000E+00
         0.00000E+00
         0.00000E+00
         0.00000E+00
         0.00000E+00
         0.00000E+00
         0.00000E+00
         0.00000E+00
         0.00000E+00
         0.00000E+00
         0.00000E+00
         0.00000E+00
         0.00000E+00
         0.00000E+00
         0.00000E+00
         0.00000E+00
         0.00000E+00
         0.00000E+00
         0.00000E+00
         0.00000E+00
         0.00000E+00
         0.00000E+00
         0.00000E+00
         0.00000E+00
         0.00000E+00
         0.00000E+00
         0.00000E+00
         0.00000E+00
         0.00000E+00
         0.00000E+00
         0.00000E+00
         0.00000E+00
         0.00000E+00
         0.00000E+00
         0.00000E+00
         0.00000E+00
         0.00000E+00
         0.00000E+00
         0.00000E+00
         0.00000E+00
         0.00000E+00
         0.00000E+00
         0.00000E+00
         0.00000E+00
         0.00000E+00
         0.00000E+00
         0.00000E+00
         0.00000E+00
         0.00000E+00
         0.00000E+00
         0.00000E+00
         0.00000E+00
         0.00000E+00
         0.00000E+00
         0.00000E+00
         0.00000E+00
         0.00000E+00
         0.00000E+00
         0.00000E+00
         0.00000E+00
         0.00000E+00
         0.00000E+00
         0.00000E+00
         0.00000E+00
         0.00000E+00
         0.00000E+00
         0.00000E+00
         0.00000E+00
         0.00000E+00
         0.00000E+00
         0.00000E+00
         0.00000E+00
         0.00000E+00
         0.00000E+00
         0.00000E+00
         0.00000E+00
         0.00000E+00
         0.00000E+00
         0.00000E+00
         0.00000E+00
         0.00000E+00
         0.00000E+00
         0.00000E+00
         0.00000E+00
         0.00000E+00
         0.00000E+00
         0.00000E+00
         0.00000E+00
         0.00000E+00
         0.00000E+00
         0.00000E+00
         0.00000E+00
         0.00000E+00
         0.00000E+00
         0.00000E+00
         0.00000E+00
         0.00000E+00
         0.00000E+00
         0.00000E+00
         0.00000E+00
         0.00000E+00
         0.00000E+00
         0.00000E+00
         0.00000E+00
         0.00000E+00
         0.00000E+00
         0.00000E+00
         0.00000E+00
         0.00000E+00
         0.00000E+00
         0.00000E+00
         0.00000E+00
         0.00000E+00
         0.00000E+00
         0.00000E+00
         0.00000E+00
         0.00000E+00
         0.00000E+00
         0.00000E+00
         0.00000E+00
         0.00000E+00
         0.00000E+00
         0.00000E+00
         0.00000E+00
         0.00000E+00
         0.00000E+00
         0.00000E+00
         0.00000E+00
         0.00000E+00
         0.00000E+00
         0.00000E+00
         0.00000E+00
         0.00000E+00
         0.00000E+00
         0.00000E+00
         0.00000E+00
         0.00000E+00
         0.00000E+00
         0.00000E+00
         0.00000E+00
         0.00000E+00
         0.00000E+00
         0.00000E+00
         0.00000E+00
         0.00000E+00
         0.00000E+00
         0.00000E+00
         0.00000E+00
         0.00000E+00
         0.00000E+00
         0.00000E+00
         0.00000E+00
         0.00000E+00
         0.00000E+00
         0.00000E+00
         0.00000E+00
         0.00000E+00
         0.00000E+00
         0.00000E+00
         0.00000E+00
         0.00000E+00
         0.00000E+00
         0.00000E+00
         0.00000E+00
         0.00000E+00
         0.00000E+00
         0.00000E+00
         0.00000E+00
         0.00000E+00
         0.00000E+00
         0.00000E+00
         0.00000E+00
         0.00000E+00
         0.00000E+00
         0.00000E+00
         0.00000E+00
         0.00000E+00
         0.00000E+00
         0.00000E+00
         0.00000E+00
         0.00000E+00
         0.00000E+00
         0.00000E+00
         0.00000E+00
         0.00000E+00
         0.00000E+00
         0.00000E+00
         0.00000E+00
         0.00000E+00
         0.00000E+00
         0.00000E+00
         0.00000E+00
         0.00000E+00
         0.00000E+00
         0.00000E+00
         0.00000E+00
         0.00000E+00
         0.00000E+00
         0.00000E+00
         0.00000E+00
         0.00000E+00
         0.00000E+00
         0.00000E+00
         0.00000E+00
         0.00000E+00
         0.00000E+00
         0.00000E+00
         0.00000E+00
         0.00000E+00
         0.00000E+00
         0.00000E+00
         0.00000E+00
         0.00000E+00
         0.00000E+00
         0.00000E+00
         0.00000E+00
         0.00000E+00
         0.00000E+00
         0.00000E+00
         0.00000E+00
         0.00000E+00
         0.00000E+00
         0.00000E+00
         0.00000E+00
         0.00000E+00
         0.00000E+00
         0.00000E+00
         0.00000E+00
         0.00000E+00
         0.00000E+00
         0.00000E+00
         0.00000E+00
         0.00000E+00
         0.00000E+00
         0.00000E+00
         0.00000E+00
         0.00000E+00
         0.00000E+00
         0.00000E+00
         0.00000E+00
         0.00000E+00
         0.00000E+00
         0.00000E+00
         0.00000E+00
         0.00000E+00
         0.00000E+00
         0.00000E+00
         0.00000E+00
         0.00000E+00
         0.00000E+00
         0.00000E+00
         0.00000E+00
         0.00000E+00
         0.00000E+00
         0.00000E+00
         0.00000E+00
         0.00000E+00
         0.00000E+00
         0.00000E+00
         0.00000E+00
         0.00000E+00
         0.00000E+00
         0.00000E+00
         0.00000E+00
         0.00000E+00
         0.00000E+00
         0.00000E+00
         0.00000E+00
         0.00000E+00
         0.00000E+00
         0.00000E+00
         0.00000E+00
         0.00000E+00
         0.00000E+00
         0.00000E+00
         0.00000E+00
         0.00000E+00
         0.00000E+00
         0.00000E+00
         0.00000E+00
         0.00000E+00
         0.00000E+00
         0.00000E+00
         0.00000E+00
         0.00000E+00
         0.00000E+00
         0.00000E+00
         0.00000E+00
         0.00000E+00
         0.00000E+00
         0.00000E+00
         0.00000E+00
         0.00000E+00
         0.00000E+00
         0.00000E+00
         0.00000E+00
         0.00000E+00
         0.00000E+00
         0.00000E+00
         0.00000E+00
         0.00000E+00
         0.00000E+00
         0.00000E+00
         0.00000E+00
         0.00000E+00
         0.00000E+00
         0.00000E+00
         0.00000E+00
         0.00000E+00
         0.00000E+00
         0.00000E+00
         0.00000E+00
         0.00000E+00
         0.00000E+00
         0.00000E+00
         0.00000E+00
         0.00000E+00
         0.00000E+00
         0.00000E+00
         0.00000E+00
         0.00000E+00
         0.00000E+00
         0.00000E+00
         0.00000E+00
         0.00000E+00
         0.00000E+00
         0.00000E+00
         0.00000E+00
         0.00000E+00
         0.00000E+00
         0.00000E+00
         0.00000E+00
         0.00000E+00
         0.00000E+00
         0.00000E+00
         0.00000E+00
         0.00000E+00
         0.00000E+00
         0.00000E+00
         0.00000E+00
         0.00000E+00
         0.00000E+00
         0.00000E+00
         0.00000E+00
         0.00000E+00
         0.00000E+00
         0.00000E+00
         0.00000E+00
         0.00000E+00
         0.00000E+00
         0.00000E+00
         0.00000E+00
         0.00000E+00
         0.00000E+00
         0.00000E+00
         0.00000E+00
         0.00000E+00
         0.00000E+00
         0.00000E+00
         0.00000E+00
         0.00000E+00
         0.00000E+00
         0.00000E+00
         0.00000E+00
         0.00000E+00
         0.00000E+00
         0.00000E+00
         0.00000E+00
         0.00000E+00
         0.00000E+00
         0.00000E+00
         0.00000E+00
         0.00000E+00
         0.00000E+00
         0.00000E+00
         0.00000E+00
         0.00000E+00
         0.00000E+00
         0.00000E+00
         0.00000E+00
         0.00000E+00
         0.00000E+00
         0.00000E+00
         0.00000E+00
         0.00000E+00
         0.00000E+00
         0.00000E+00
         0.00000E+00
         0.00000E+00
         0.00000E+00
         0.00000E+00
         0.00000E+00
         0.00000E+00
         0.00000E+00
         0.00000E+00
         0.00000E+00
         0.00000E+00
         0.00000E+00
         0.00000E+00
         0.00000E+00
         0.00000E+00
         0.00000E+00
         0.00000E+00
         0.00000E+00
         0.00000E+00
         0.00000E+00
         0.00000E+00
         0.00000E+00
         0.00000E+00
         0.00000E+00
         0.00000E+00
         0.00000E+00
         0.00000E+00
         0.00000E+00
         0.00000E+00
         0.00000E+00
         0.00000E+00
         0.00000E+00
         0.00000E+00
         0.00000E+00
         0.00000E+00
         0.00000E+00
         0.00000E+00
         0.00000E+00
         0.00000E+00
         0.00000E+00
         0.00000E+00
         0.00000E+00
         0.00000E+00
         0.00000E+00
         0.00000E+00
         0.00000E+00
         0.00000E+00
         0.00000E+00
         0.00000E+00
         0.00000E+00
         0.00000E+00
         0.00000E+00
         0.00000E+00
         0.00000E+00
         0.00000E+00
         0.00000E+00
         0.00000E+00
         0.00000E+00
         0.00000E+00
         0.00000E+00
         0.00000E+00
         0.00000E+00
         0.00000E+00
         0.00000E+00
         0.00000E+00
         0.00000E+00
         0.00000E+00
         0.00000E+00
         0.00000E+00
         0.00000E+00
         0.00000E+00
         0.00000E+00
         0.00000E+00
         0.00000E+00
         0.00000E+00
         0.00000E+00
         0.00000E+00
         0.00000E+00
         0.00000E+00
         0.00000E+00
         0.00000E+00
         0.00000E+00
         0.00000E+00
         0.00000E+00
         0.00000E+00
         0.00000E+00
         0.00000E+00
         0.00000E+00
         0.00000E+00
         0.00000E+00
         0.00000E+00
         0.00000E+00
         0.00000E+00
         0.00000E+00
         0.00000E+00
         0.00000E+00
         0.00000E+00
         0.00000E+00
         0.00000E+00
         0.00000E+00
         0.00000E+00
         0.00000E+00
         0.00000E+00
         0.00000E+00
         0.00000E+00
         0.00000E+00
         0.00000E+00
         0.00000E+00
         0.00000E+00
         0.00000E+00
         0.00000E+00
         0.00000E+00
         0.00000E+00
         0.00000E+00
         0.00000E+00
         0.00000E+00
         0.00000E+00
         0.00000E+00
         0.00000E+00
         0.00000E+00
         0.00000E+00
         0.00000E+00
         0.00000E+00
         0.00000E+00
         0.00000E+00
         0.00000E+00
         0.00000E+00
         0.00000E+00
         0.00000E+00
         0.00000E+00
         0.00000E+00
         0.00000E+00
         0.00000E+00
         0.00000E+00
         0.00000E+00
         0.00000E+00
         0.00000E+00
         0.00000E+00
         0.00000E+00
         0.00000E+00
         0.00000E+00
         0.00000E+00
         0.00000E+00
         0.00000E+00
         0.00000E+00
         0.00000E+00
         0.00000E+00
         0.00000E+00
         0.00000E+00
         0.00000E+00
         0.00000E+00
         0.00000E+00
         0.00000E+00
         0.00000E+00
         0.00000E+00
         0.00000E+00
         0.00000E+00
         0.00000E+00
         0.00000E+00
         0.00000E+00
         0.00000E+00
         0.00000E+00
         0.00000E+00
         0.00000E+00
         0.00000E+00
         0.00000E+00
         0.00000E+00
         0.00000E+00
         0.00000E+00
         0.00000E+00
         0.00000E+00
         0.00000E+00
         0.00000E+00
         0.00000E+00
         0.00000E+00
         0.00000E+00
         0.00000E+00
         0.00000E+00
         0.00000E+00
         0.00000E+00
         0.00000E+00
         0.00000E+00
         0.00000E+00
         0.00000E+00
         0.00000E+00
         0.00000E+00
         0.00000E+00
         0.00000E+00
         0.00000E+00
         0.00000E+00
         0.00000E+00
         0.00000E+00
         0.00000E+00
         0.00000E+00
         0.00000E+00
         0.00000E+00
         0.00000E+00
         0.00000E+00
         0.00000E+00
         0.00000E+00
         0.00000E+00
         0.00000E+00
         0.00000E+00
         0.00000E+00
         0.00000E+00
         0.00000E+00
         0.00000E+00
         0.00000E+00
         0.00000E+00
         0.00000E+00
         0.00000E+00
         0.00000E+00
         0.00000E+00
         0.00000E+00
         0.00000E+00
         0.00000E+00
         0.00000E+00
         0.00000E+00
         0.00000E+00
         0.00000E+00
         0.00000E+00
         0.00000E+00
         0.00000E+00
         0.00000E+00
         0.00000E+00
         0.00000E+00
         0.00000E+00
         0.00000E+00
         0.00000E+00
         0.00000E+00
         0.00000E+00
         0.00000E+00
         0.00000E+00
         0.00000E+00
         0.00000E+00
         0.00000E+00
         0.00000E+00
         0.00000E+00
         0.00000E+00
         0.00000E+00
         0.00000E+00
         0.00000E+00
         0.00000E+00
         0.00000E+00
         0.00000E+00
         0.00000E+00
         0.00000E+00
         0.00000E+00
         0.00000E+00
         0.00000E+00
         0.00000E+00
         0.00000E+00
         0.00000E+00
         0.00000E+00
         0.00000E+00
         0.00000E+00
         0.00000E+00
         0.00000E+00
         0.00000E+00
         0.00000E+00
         0.00000E+00
         0.00000E+00
         0.00000E+00
         0.00000E+00
         0.00000E+00
         0.00000E+00
         0.00000E+00
         0.00000E+00
         0.00000E+00
         0.00000E+00
         0.00000E+00
         0.00000E+00
         0.00000E+00
         0.00000E+00
         0.00000E+00
         0.00000E+00
         0.00000E+00
         0.00000E+00
         0.00000E+00
         0.00000E+00
         0.00000E+00
         0.00000E+00
         0.00000E+00
         0.00000E+00
         0.00000E+00
         0.00000E+00
         0.00000E+00
         0.00000E+00
         0.00000E+00
         0.00000E+00
         0.00000E+00
         0.00000E+00
         0.00000E+00
         0.00000E+00
         0.00000E+00
         0.00000E+00
         0.00000E+00
         0.00000E+00
         0.00000E+00
         0.00000E+00
         0.00000E+00
         0.00000E+00
         0.00000E+00
         0.00000E+00
         0.00000E+00
         0.00000E+00
         0.00000E+00
         0.00000E+00
         0.00000E+00
         0.00000E+00
         0.00000E+00
         0.00000E+00
         0.00000E+00
         0.00000E+00
         0.00000E+00
         0.00000E+00
         0.00000E+00
         0.00000E+00
         0.00000E+00
         0.00000E+00
         0.00000E+00
         0.00000E+00
         0.00000E+00
         0.00000E+00
         0.00000E+00
         0.00000E+00
         0.00000E+00
         0.00000E+00
         0.00000E+00
         0.00000E+00
         0.00000E+00
         0.00000E+00
         0.00000E+00
         0.00000E+00
         0.00000E+00
         0.00000E+00
         0.00000E+00
         0.00000E+00
         0.00000E+00
         0.00000E+00
         0.00000E+00
         0.00000E+00
         0.00000E+00
         0.00000E+00
         0.00000E+00
         0.00000E+00
         0.00000E+00
         0.00000E+00
         0.00000E+00
         0.00000E+00
         0.00000E+00
         0.00000E+00
         0.00000E+00
         0.00000E+00
         0.00000E+00
         0.00000E+00
         0.00000E+00
         0.00000E+00
         0.00000E+00
         0.00000E+00
         0.00000E+00
         0.00000E+00
         0.00000E+00
         0.00000E+00
         0.00000E+00
         0.00000E+00
         0.00000E+00
         0.00000E+00
         0.00000E+00
         0.00000E+00
         0.00000E+00
         0.00000E+00
         0.00000E+00
         0.00000E+00
         0.00000E+00
         0.00000E+00
         0.00000E+00
         0.00000E+00
         0.00000E+00
         0.00000E+00
         0.00000E+00
         0.00000E+00
         0.00000E+00
         0.00000E+00
         0.00000E+00
         0.00000E+00
         0.00000E+00
         0.00000E+00
         0.00000E+00
         0.00000E+00
         0.00000E+00
         0.00000E+00
         0.00000E+00
         0.00000E+00
         0.00000E+00
         0.00000E+00
         0.00000E+00
         0.00000E+00
         0.00000E+00
         0.00000E+00
         0.00000E+00
         0.00000E+00
         0.00000E+00
         0.00000E+00
         0.00000E+00
         0.00000E+00
         0.00000E+00
         0.00000E+00
         0.00000E+00
         0.00000E+00
         0.00000E+00
         0.00000E+00
         0.00000E+00
         0.00000E+00
         0.00000E+00
         0.00000E+00
         0.00000E+00
         0.00000E+00
         0.00000E+00
         0.00000E+00
         0.00000E+00
         0.00000E+00
         0.00000E+00
         0.00000E+00
         0.00000E+00
         0.00000E+00
         0.00000E+00
         0.00000E+00
         0.00000E+00
         0.00000E+00
         0.00000E+00
         0.00000E+00
         0.00000E+00
         0.00000E+00
         0.00000E+00
         0.00000E+00
         0.00000E+00
         0.00000E+00
         0.00000E+00
         0.00000E+00
         0.00000E+00
         0.00000E+00
         0.00000E+00
         0.00000E+00
         0.00000E+00
         0.00000E+00
         0.00000E+00
         0.00000E+00
         0.00000E+00
         0.00000E+00
         0.00000E+00
         0.00000E+00
         0.00000E+00
         0.00000E+00
         0.00000E+00
         0.00000E+00
         0.00000E+00
         0.00000E+00
         0.00000E+00
         0.00000E+00
         0.00000E+00
         0.00000E+00
         0.00000E+00
         0.00000E+00
         0.00000E+00
         0.00000E+00
         0.00000E+00
         0.00000E+00
         0.00000E+00
         0.00000E+00
         0.00000E+00
         0.00000E+00
         0.00000E+00
         0.00000E+00
         0.00000E+00
         0.00000E+00
         0.00000E+00
         0.00000E+00
         0.00000E+00
         0.00000E+00
         0.00000E+00
         0.00000E+00
         0.00000E+00
         0.00000E+00
         0.00000E+00
         0.00000E+00
         0.00000E+00
         0.00000E+00
         0.00000E+00
         0.00000E+00
         0.00000E+00
         0.00000E+00
         0.00000E+00
         0.00000E+00
         0.00000E+00
         0.00000E+00
         0.00000E+00
         0.00000E+00
         0.00000E+00
         0.00000E+00
         0.00000E+00
         0.00000E+00
         0.00000E+00
         0.00000E+00
         0.00000E+00
         0.00000E+00
         0.00000E+00
         0.00000E+00
         0.00000E+00
         0.00000E+00
         0.00000E+00
         0.00000E+00
         0.00000E+00
         0.00000E+00
         0.00000E+00
         0.00000E+00
         0.00000E+00
         0.00000E+00
         0.00000E+00
         0.00000E+00
         0.00000E+00
         0.00000E+00
         0.00000E+00
         0.00000E+00
         0.00000E+00
         0.00000E+00
         0.00000E+00
         0.00000E+00
         0.00000E+00
         0.00000E+00
         0.00000E+00
         0.00000E+00
         0.00000E+00
         0.00000E+00
         0.00000E+00
         0.00000E+00
         0.00000E+00
         0.00000E+00
         0.00000E+00
         0.00000E+00
         0.00000E+00
         0.00000E+00
         0.00000E+00
         0.00000E+00
         0.00000E+00
         0.00000E+00
         0.00000E+00
         0.00000E+00
         0.00000E+00
         0.00000E+00
         0.00000E+00
         0.00000E+00
         0.00000E+00
         0.00000E+00
         0.00000E+00
         0.00000E+00
         0.00000E+00
         0.00000E+00
         0.00000E+00
         0.00000E+00
         0.00000E+00
         0.00000E+00
         0.00000E+00
         0.00000E+00
         0.00000E+00
         0.00000E+00
         0.00000E+00
         0.00000E+00
         0.00000E+00
         0.00000E+00
         0.00000E+00
         0.00000E+00
         0.00000E+00
         0.00000E+00
         0.00000E+00
         0.00000E+00
         0.00000E+00
         0.00000E+00
         0.00000E+00
         0.00000E+00
         0.00000E+00
         0.00000E+00
         0.00000E+00
         0.00000E+00
         0.00000E+00
         0.00000E+00
         0.00000E+00
         0.00000E+00
         0.00000E+00
         0.00000E+00
         0.00000E+00
         0.00000E+00
         0.00000E+00
         0.00000E+00
         0.00000E+00
         0.00000E+00
         0.00000E+00
         0.00000E+00
         0.00000E+00
         0.00000E+00
         0.00000E+00
         0.00000E+00
         0.00000E+00
         0.00000E+00
         0.00000E+00
         0.00000E+00
         0.00000E+00
         0.00000E+00
         0.00000E+00
         0.00000E+00
         0.00000E+00
         0.00000E+00
         0.00000E+00
         0.00000E+00
         0.00000E+00
         0.00000E+00
         0.00000E+00
         0.00000E+00
         0.00000E+00
         0.00000E+00
         0.00000E+00
         0.00000E+00
         0.00000E+00
         0.00000E+00
         0.00000E+00
         0.00000E+00
         0.00000E+00
         0.00000E+00
         0.00000E+00
         0.00000E+00
         0.00000E+00
         0.00000E+00
         0.00000E+00
         0.00000E+00
         0.00000E+00
         0.00000E+00
         0.00000E+00
         0.00000E+00
         0.00000E+00
         0.00000E+00
         0.00000E+00
         0.00000E+00
         0.00000E+00
         0.00000E+00
         0.00000E+00
         0.00000E+00
         0.00000E+00
         0.00000E+00
         0.00000E+00
         0.00000E+00
         0.00000E+00
         0.00000E+00
         0.00000E+00
         0.00000E+00
         0.00000E+00
         0.00000E+00
         0.00000E+00
         0.00000E+00
         0.00000E+00
         0.00000E+00
         0.00000E+00
         0.00000E+00
         0.00000E+00
         0.00000E+00
         0.00000E+00
         0.00000E+00
         0.00000E+00
         0.00000E+00
         0.00000E+00
         0.00000E+00
         0.00000E+00
         0.00000E+00
         0.00000E+00
         0.00000E+00
         0.00000E+00
         0.00000E+00
         0.00000E+00
         0.00000E+00
         0.00000E+00
         0.00000E+00
         0.00000E+00
         0.00000E+00
         0.00000E+00
         0.00000E+00
         0.00000E+00
         0.00000E+00
         0.00000E+00
         0.00000E+00
         0.00000E+00
         0.00000E+00
         0.00000E+00
         0.00000E+00
         0.00000E+00
         0.00000E+00
         0.00000E+00
         0.00000E+00
         0.00000E+00
         0.00000E+00
         0.00000E+00
         0.00000E+00
         0.00000E+00
         0.00000E+00
         0.00000E+00
         0.00000E+00
         0.00000E+00
         0.00000E+00
         0.00000E+00
         0.00000E+00
         0.00000E+00
         0.00000E+00
         0.00000E+00
         0.00000E+00
         0.00000E+00
         0.00000E+00
         0.00000E+00
         0.00000E+00
         0.00000E+00
         0.00000E+00
         0.00000E+00
         0.00000E+00
         0.00000E+00
         0.00000E+00
         0.00000E+00
         0.00000E+00
         0.00000E+00
         0.00000E+00
         0.00000E+00
         0.00000E+00
         0.00000E+00
         0.00000E+00
         0.00000E+00
         0.00000E+00
         0.00000E+00
         0.00000E+00
         0.00000E+00
         0.00000E+00
         0.00000E+00
         0.00000E+00
         0.00000E+00
         0.00000E+00
         0.00000E+00
         0.00000E+00
         0.00000E+00
         0.00000E+00
         0.00000E+00
         0.00000E+00
         0.00000E+00
         0.00000E+00
         0.00000E+00
         0.00000E+00
         0.00000E+00
         0.00000E+00
         0.00000E+00
         0.00000E+00
         0.00000E+00
         0.00000E+00
         0.00000E+00
         0.00000E+00
         0.00000E+00
         0.00000E+00
         0.00000E+00
         0.00000E+00
         0.00000E+00
         0.00000E+00
         0.00000E+00
         0.00000E+00
         0.00000E+00
         0.00000E+00
         0.00000E+00
         0.00000E+00
         0.00000E+00
         0.00000E+00
         0.00000E+00
         0.00000E+00
         0.00000E+00
         0.00000E+00
         0.00000E+00
         0.00000E+00
         0.00000E+00
         0.00000E+00
         0.00000E+00
         0.00000E+00
         0.00000E+00
         0.00000E+00
         0.00000E+00
         0.00000E+00
         0.00000E+00
         0.00000E+00
         0.00000E+00
         0.00000E+00
         0.00000E+00
         0.00000E+00
         0.00000E+00
         0.00000E+00
         0.00000E+00
         0.00000E+00
         0.00000E+00
         0.00000E+00
         0.00000E+00
         0.00000E+00
         0.00000E+00
         0.00000E+00
         0.00000E+00
         0.00000E+00
         0.00000E+00
         0.00000E+00
         0.00000E+00
         0.00000E+00
         0.00000E+00
         0.00000E+00
         0.00000E+00
         0.00000E+00
         0.00000E+00
         0.00000E+00
         0.00000E+00
         0.00000E+00
         0.00000E+00
         0.00000E+00
         0.00000E+00
         0.00000E+00
         0.00000E+00
         0.00000E+00
         0.00000E+00
         0.00000E+00
         0.00000E+00
         0.00000E+00
         0.00000E+00
         0.00000E+00
         0.00000E+00
         0.00000E+00
         0.00000E+00
         0.00000E+00
         0.00000E+00
         0.00000E+00
         0.00000E+00
         0.00000E+00
         0.00000E+00
         0.00000E+00
         0.00000E+00
         0.00000E+00
         0.00000E+00
         0.00000E+00
         0.00000E+00
         0.00000E+00
         0.00000E+00
         0.00000E+00
         0.00000E+00
         0.00000E+00
         0.00000E+00
         0.00000E+00
         0.00000E+00
         0.00000E+00
         0.00000E+00
         0.00000E+00
         0.00000E+00
         0.00000E+00
         0.00000E+00
         0.00000E+00
         0.00000E+00
         0.00000E+00
         0.00000E+00
         0.00000E+00
         0.00000E+00
         0.00000E+00
         0.00000E+00
         0.00000E+00
         0.00000E+00
         0.00000E+00
         0.00000E+00
         0.00000E+00
         0.00000E+00
         0.00000E+00
         0.00000E+00
         0.00000E+00
         0.00000E+00
         0.00000E+00
         0.00000E+00
         0.00000E+00
         0.00000E+00
         0.00000E+00
         0.00000E+00
         0.00000E+00
         0.00000E+00
         0.00000E+00
         0.00000E+00
         0.00000E+00
         0.00000E+00
         0.00000E+00
         0.00000E+00
         0.00000E+00
         0.00000E+00
         0.00000E+00
         0.00000E+00
         0.00000E+00
         0.00000E+00
         0.00000E+00
         0.00000E+00
         0.00000E+00
         0.00000E+00
         0.00000E+00
         0.00000E+00
         0.00000E+00
         0.00000E+00
         0.00000E+00
         0.00000E+00
         0.00000E+00
         0.00000E+00
         0.00000E+00
         0.00000E+00
         0.00000E+00
         0.00000E+00
         0.00000E+00
         0.00000E+00
         0.00000E+00
         0.00000E+00
         0.00000E+00
         0.00000E+00
         0.00000E+00
         0.00000E+00
         0.00000E+00
         0.00000E+00
         0.00000E+00
         0.00000E+00
         0.00000E+00
         0.00000E+00
         0.00000E+00
         0.00000E+00
         0.00000E+00
         0.00000E+00
         0.00000E+00
         0.00000E+00
         0.00000E+00
         0.00000E+00
         0.00000E+00
         0.00000E+00
         0.00000E+00
         0.00000E+00
         0.00000E+00
         0.00000E+00
         0.00000E+00
         0.00000E+00
         0.00000E+00
         0.00000E+00
         0.00000E+00
         0.00000E+00
         0.00000E+00
         0.00000E+00
         0.00000E+00
         0.00000E+00
         0.00000E+00
         0.00000E+00
         0.00000E+00
         0.00000E+00
         0.00000E+00
         0.00000E+00
         0.00000E+00
         0.00000E+00
         0.00000E+00
         0.00000E+00
         0.00000E+00
         0.00000E+00
         0.00000E+00
         0.00000E+00
         0.00000E+00
         0.00000E+00
         0.00000E+00
         0.00000E+00
         0.00000E+00
         0.00000E+00
         0.00000E+00
         0.00000E+00
         0.00000E+00
         0.00000E+00
         0.00000E+00
         0.00000E+00
         0.00000E+00
         0.00000E+00
         0.00000E+00
         0.00000E+00
         0.00000E+00
         0.00000E+00
         0.00000E+00
         0.00000E+00
         0.00000E+00
         0.00000E+00
         0.00000E+00
         0.00000E+00
         0.00000E+00
         0.00000E+00
         0.00000E+00
         0.00000E+00
         0.00000E+00
         0.00000E+00
         0.00000E+00
         0.00000E+00
         0.00000E+00
         0.00000E+00
         0.00000E+00
         0.00000E+00
         0.00000E+00
         0.00000E+00
         0.00000E+00
         0.00000E+00
         0.00000E+00
         0.00000E+00
         0.00000E+00
         0.00000E+00
         0.00000E+00
         0.00000E+00
         0.00000E+00
         0.00000E+00
         0.00000E+00
         0.00000E+00
         0.00000E+00
         0.00000E+00
         0.00000E+00
         0.00000E+00
         0.00000E+00
         0.00000E+00
         0.00000E+00
         0.00000E+00
         0.00000E+00
         0.00000E+00
         0.00000E+00
         0.00000E+00
         0.00000E+00
         0.00000E+00
         0.00000E+00
         0.00000E+00
         0.00000E+00
         0.00000E+00
         0.00000E+00
         0.00000E+00
         0.00000E+00
         0.00000E+00
         0.00000E+00
         0.00000E+00
         0.00000E+00
         0.00000E+00
         0.00000E+00
         0.00000E+00
         0.00000E+00
         0.00000E+00
         0.00000E+00
         0.00000E+00
         0.00000E+00
         0.00000E+00
         0.00000E+00
         0.00000E+00
         0.00000E+00
         0.00000E+00
         0.00000E+00
         0.00000E+00
         0.00000E+00
         0.00000E+00
         0.00000E+00
         0.00000E+00
         0.00000E+00
         0.00000E+00
         0.00000E+00
         0.00000E+00
         0.00000E+00
         0.00000E+00
         0.00000E+00
         0.00000E+00
         0.00000E+00
         0.00000E+00
         0.00000E+00
         0.00000E+00
         0.00000E+00
         0.00000E+00
         0.00000E+00
         0.00000E+00
         0.00000E+00
         0.00000E+00
         0.00000E+00
         0.00000E+00
         0.00000E+00
         0.00000E+00
         0.00000E+00
         0.00000E+00
         0.00000E+00
         0.00000E+00
         0.00000E+00
         0.00000E+00
         0.00000E+00
         0.00000E+00
         0.00000E+00
         0.00000E+00
         0.00000E+00
         0.00000E+00
         0.00000E+00
         0.00000E+00
         0.00000E+00
         0.00000E+00
         0.00000E+00
         0.00000E+00
         0.00000E+00
         0.00000E+00
         0.00000E+00
         0.00000E+00
         0.00000E+00
         0.00000E+00
         0.00000E+00
         0.00000E+00
         0.00000E+00
         0.00000E+00
         0.00000E+00
         0.00000E+00
         0.00000E+00
         0.00000E+00
         0.00000E+00
         0.00000E+00
         0.00000E+00
         0.00000E+00
         0.00000E+00
         0.00000E+00
         0.00000E+00
         0.00000E+00
         0.00000E+00
         0.00000E+00
         0.00000E+00
         0.00000E+00
         0.00000E+00
         0.00000E+00
         0.00000E+00
         0.00000E+00
         0.00000E+00
         0.00000E+00
         0.00000E+00
         0.00000E+00
         0.00000E+00
         0.00000E+00
         0.00000E+00
         0.00000E+00
         0.00000E+00
         0.00000E+00
         0.00000E+00
         0.00000E+00
         0.00000E+00
         0.00000E+00
         0.00000E+00
         0.00000E+00
         0.00000E+00
         0.00000E+00
         0.00000E+00
         0.00000E+00
         0.00000E+00
         0.00000E+00
         0.00000E+00
         0.00000E+00
         0.00000E+00
         0.00000E+00
         0.00000E+00
         0.00000E+00
         0.00000E+00
         0.00000E+00
         0.00000E+00
         0.00000E+00
         0.00000E+00
         0.00000E+00
         0.00000E+00
         0.00000E+00
         0.00000E+00
         0.00000E+00
         0.00000E+00
         0.00000E+00
         0.00000E+00
         0.00000E+00
         0.00000E+00
         0.00000E+00
         0.00000E+00
         0.00000E+00
         0.00000E+00
         0.00000E+00
         0.00000E+00
         0.00000E+00
         0.00000E+00
         0.00000E+00
         0.00000E+00
         0.00000E+00
         0.00000E+00
         0.00000E+00
         0.00000E+00
         0.00000E+00
         0.00000E+00
         0.00000E+00
         0.00000E+00
         0.00000E+00
         0.00000E+00
         0.00000E+00
         0.00000E+00
         0.00000E+00
         0.00000E+00
         0.00000E+00
         0.00000E+00
         0.00000E+00
         0.00000E+00
         0.00000E+00
         0.00000E+00
         0.00000E+00
         0.00000E+00
         0.00000E+00
         0.00000E+00
         0.00000E+00
         0.00000E+00
         0.00000E+00
         0.00000E+00
         0.00000E+00
         0.00000E+00
         0.00000E+00
         0.00000E+00
         0.00000E+00
         0.00000E+00
         0.00000E+00
         0.00000E+00
         0.00000E+00
         0.00000E+00
         0.00000E+00
         0.00000E+00
         0.00000E+00
         0.00000E+00
         0.00000E+00
         0.00000E+00
         0.00000E+00
         0.00000E+00
         0.00000E+00
         0.00000E+00
         0.00000E+00
         0.00000E+00
         0.00000E+00
         0.00000E+00
         0.00000E+00
         0.00000E+00
         0.00000E+00
         0.00000E+00
         0.00000E+00
         0.00000E+00
         0.00000E+00
         0.00000E+00
         0.00000E+00
         0.00000E+00
         0.00000E+00
         0.00000E+00
         0.00000E+00
         0.00000E+00
         0.00000E+00
         0.00000E+00
         0.00000E+00
         0.00000E+00
         0.00000E+00
         0.00000E+00
         0.00000E+00
         0.00000E+00
         0.00000E+00
         0.00000E+00
         0.00000E+00
         0.00000E+00
         0.00000E+00
         0.00000E+00
         0.00000E+00
         0.00000E+00
         0.00000E+00
         0.00000E+00
         0.00000E+00
         0.00000E+00
         0.00000E+00
         0.00000E+00
         0.00000E+00
         0.00000E+00
         0.00000E+00
         0.00000E+00
         0.00000E+00
         0.00000E+00
         0.00000E+00
         0.00000E+00
         0.00000E+00
         0.00000E+00
         0.00000E+00
         0.00000E+00
         0.00000E+00
         0.00000E+00
         0.00000E+00
         0.00000E+00
         0.00000E+00
         0.00000E+00
         0.00000E+00
         0.00000E+00
         0.00000E+00
         0.00000E+00
         0.00000E+00
         0.00000E+00
         0.00000E+00
         0.00000E+00
         0.00000E+00
         0.00000E+00
         0.00000E+00
         0.00000E+00
         0.00000E+00
         0.00000E+00
         0.00000E+00
         0.00000E+00
         0.00000E+00
         0.00000E+00
         0.00000E+00
         0.00000E+00
         0.00000E+00
         0.00000E+00
         0.00000E+00
         0.00000E+00
         0.00000E+00
         0.00000E+00
         0.00000E+00
         0.00000E+00
         0.00000E+00
         0.00000E+00
         0.00000E+00
         0.00000E+00
         0.00000E+00
         0.00000E+00
         0.00000E+00
         0.00000E+00
         0.00000E+00
         0.00000E+00
         0.00000E+00
         0.00000E+00
         0.00000E+00
         0.00000E+00
         0.00000E+00
         0.00000E+00
         0.00000E+00
         0.00000E+00
         0.00000E+00
         0.00000E+00
         0.00000E+00
         0.00000E+00
         0.00000E+00
         0.00000E+00
         0.00000E+00
         0.00000E+00
         0.00000E+00
         0.00000E+00
         0.00000E+00
         0.00000E+00
         0.00000E+00
         0.00000E+00
         0.00000E+00
         0.00000E+00
         0.00000E+00
         0.00000E+00
         0.00000E+00
         0.00000E+00
         0.00000E+00
         0.00000E+00
         0.00000E+00
         0.00000E+00
         0.00000E+00
         0.00000E+00
         0.00000E+00
         0.00000E+00
         0.00000E+00
         0.00000E+00
         0.00000E+00
         0.00000E+00
         0.00000E+00
         0.00000E+00
         0.00000E+00
         0.00000E+00
         0.00000E+00
         0.00000E+00
         0.00000E+00
         0.00000E+00
         0.00000E+00
         0.00000E+00
         0.00000E+00
         0.00000E+00
         0.00000E+00
         0.00000E+00
         0.00000E+00
         0.00000E+00
         0.00000E+00
         0.00000E+00
         0.00000E+00
         0.00000E+00
         0.00000E+00
         0.00000E+00
         0.00000E+00
         0.00000E+00
         0.00000E+00
         0.00000E+00
         0.00000E+00
         0.00000E+00
         0.00000E+00
         0.00000E+00
         0.00000E+00
         0.00000E+00
         0.00000E+00
         0.00000E+00
         0.00000E+00
         0.00000E+00
         0.00000E+00
         0.00000E+00
         0.00000E+00
         0.00000E+00
         0.00000E+00
         0.00000E+00
         0.00000E+00
         0.00000E+00
         0.00000E+00
         0.00000E+00
         0.00000E+00
         0.00000E+00
         0.00000E+00
         0.00000E+00
         0.00000E+00
         0.00000E+00
         0.00000E+00
  
SCALARS                     velocity_y  double 1
LOOKUP_TABLE default
         0.00000E+00
         0.00000E+00
         0.00000E+00
         0.00000E+00
         0.00000E+00
         0.00000E+00
         0.00000E+00
         0.00000E+00
         0.00000E+00
         0.00000E+00
         0.00000E+00
         0.00000E+00
         0.00000E+00
         0.00000E+00
         0.00000E+00
         0.00000E+00
         0.00000E+00
         0.00000E+00
         0.00000E+00
         0.00000E+00
         0.00000E+00
         0.00000E+00
         0.00000E+00
         0.00000E+00
         0.00000E+00
         0.00000E+00
         0.00000E+00
         0.00000E+00
         0.00000E+00
         0.00000E+00
         0.00000E+00
         0.00000E+00
         0.00000E+00
         0.00000E+00
         0.00000E+00
         0.00000E+00
         0.00000E+00
         0.00000E+00
         0.00000E+00
         0.00000E+00
         0.00000E+00
         0.00000E+00
         0.00000E+00
         0.00000E+00
         0.00000E+00
         0.00000E+00
         0.00000E+00
         0.00000E+00
         0.00000E+00
         0.00000E+00
         0.00000E+00
         0.00000E+00
         0.00000E+00
         0.00000E+00
         0.00000E+00
         0.00000E+00
         0.00000E+00
         0.00000E+00
         0.00000E+00
         0.00000E+00
         0.00000E+00
         0.00000E+00
         0.00000E+00
         0.00000E+00
         0.00000E+00
         0.00000E+00
         0.00000E+00
         0.00000E+00
         0.00000E+00
         0.00000E+00
         0.00000E+00
         0.00000E+00
         0.00000E+00
         0.00000E+00
         0.00000E+00
         0.00000E+00
         0.00000E+00
         0.00000E+00
         0.00000E+00
         0.00000E+00
         0.00000E+00
         0.00000E+00
         0.00000E+00
         0.00000E+00
         0.00000E+00
         0.00000E+00
         0.00000E+00
         0.00000E+00
         0.00000E+00
         0.00000E+00
         0.00000E+00
         0.00000E+00
         0.00000E+00
         0.00000E+00
         0.00000E+00
         0.00000E+00
         0.00000E+00
         0.00000E+00
         0.00000E+00
         0.00000E+00
         0.00000E+00
         0.00000E+00
         0.00000E+00
         0.00000E+00
         0.00000E+00
         0.00000E+00
         0.00000E+00
         0.00000E+00
         0.00000E+00
         0.00000E+00
         0.00000E+00
         0.00000E+00
         0.00000E+00
         0.00000E+00
         0.00000E+00
         0.00000E+00
         0.00000E+00
         0.00000E+00
         0.00000E+00
         0.00000E+00
         0.00000E+00
         0.00000E+00
         0.00000E+00
         0.00000E+00
         0.00000E+00
         0.00000E+00
         0.00000E+00
         0.00000E+00
         0.00000E+00
         0.00000E+00
         0.00000E+00
         0.00000E+00
         0.00000E+00
         0.00000E+00
         0.00000E+00
         0.00000E+00
         0.00000E+00
         0.00000E+00
         0.00000E+00
         0.00000E+00
         0.00000E+00
         0.00000E+00
         0.00000E+00
         0.00000E+00
         0.00000E+00
         0.00000E+00
         0.00000E+00
         0.00000E+00
         0.00000E+00
         0.00000E+00
         0.00000E+00
         0.00000E+00
         0.00000E+00
         0.00000E+00
         0.00000E+00
         0.00000E+00
         0.00000E+00
         0.00000E+00
         0.00000E+00
         0.00000E+00
         0.00000E+00
         0.00000E+00
         0.00000E+00
         0.00000E+00
         0.00000E+00
         0.00000E+00
         0.00000E+00
         0.00000E+00
         0.00000E+00
         0.00000E+00
         0.00000E+00
         0.00000E+00
         0.00000E+00
         0.00000E+00
         0.00000E+00
         0.00000E+00
         0.00000E+00
         0.00000E+00
         0.00000E+00
         0.00000E+00
         0.00000E+00
         0.00000E+00
         0.00000E+00
         0.00000E+00
         0.00000E+00
         0.00000E+00
         0.00000E+00
         0.00000E+00
         0.00000E+00
         0.00000E+00
         0.00000E+00
         0.00000E+00
         0.00000E+00
         0.00000E+00
         0.00000E+00
         0.00000E+00
         0.00000E+00
         0.00000E+00
         0.00000E+00
         0.00000E+00
         0.00000E+00
         0.00000E+00
         0.00000E+00
         0.00000E+00
         0.00000E+00
         0.00000E+00
         0.00000E+00
         0.00000E+00
         0.00000E+00
         0.00000E+00
         0.00000E+00
         0.00000E+00
         0.00000E+00
         0.00000E+00
         0.00000E+00
         0.00000E+00
         0.00000E+00
         0.00000E+00
         0.00000E+00
         0.00000E+00
         0.00000E+00
         0.00000E+00
         0.00000E+00
         0.00000E+00
         0.00000E+00
         0.00000E+00
         0.00000E+00
         0.00000E+00
         0.00000E+00
         0.00000E+00
         0.00000E+00
         0.00000E+00
         0.00000E+00
         0.00000E+00
         0.00000E+00
         0.00000E+00
         0.00000E+00
         0.00000E+00
         0.00000E+00
         0.00000E+00
         0.00000E+00
         0.00000E+00
         0.00000E+00
         0.00000E+00
         0.00000E+00
         0.00000E+00
         0.00000E+00
         0.00000E+00
         0.00000E+00
         0.00000E+00
         0.00000E+00
         0.00000E+00
         0.00000E+00
         0.00000E+00
         0.00000E+00
         0.00000E+00
         0.00000E+00
         0.00000E+00
         0.00000E+00
         0.00000E+00
         0.00000E+00
         0.00000E+00
         0.00000E+00
         0.00000E+00
         0.00000E+00
         0.00000E+00
         0.00000E+00
         0.00000E+00
         0.00000E+00
         0.00000E+00
         0.00000E+00
         0.00000E+00
         0.00000E+00
         0.00000E+00
         0.00000E+00
         0.00000E+00
         0.00000E+00
         0.00000E+00
         0.00000E+00
         0.00000E+00
         0.00000E+00
         0.00000E+00
         0.00000E+00
         0.00000E+00
         0.00000E+00
         0.00000E+00
         0.00000E+00
         0.00000E+00
         0.00000E+00
         0.00000E+00
         0.00000E+00
         0.00000E+00
         0.00000E+00
         0.00000E+00
         0.00000E+00
         0.00000E+00
         0.00000E+00
         0.00000E+00
         0.00000E+00
         0.00000E+00
         0.00000E+00
         0.00000E+00
         0.00000E+00
         0.00000E+00
         0.00000E+00
         0.00000E+00
         0.00000E+00
         0.00000E+00
         0.00000E+00
         0.00000E+00
         0.00000E+00
         0.00000E+00
         0.00000E+00
         0.00000E+00
         0.00000E+00
         0.00000E+00
         0.00000E+00
         0.00000E+00
         0.00000E+00
         0.00000E+00
         0.00000E+00
         0.00000E+00
         0.00000E+00
         0.00000E+00
         0.00000E+00
         0.00000E+00
         0.00000E+00
         0.00000E+00
         0.00000E+00
         0.00000E+00
         0.00000E+00
         0.00000E+00
         0.00000E+00
         0.00000E+00
         0.00000E+00
         0.00000E+00
         0.00000E+00
         0.00000E+00
         0.00000E+00
         0.00000E+00
         0.00000E+00
         0.00000E+00
         0.00000E+00
         0.00000E+00
         0.00000E+00
         0.00000E+00
         0.00000E+00
         0.00000E+00
         0.00000E+00
         0.00000E+00
         0.00000E+00
         0.00000E+00
         0.00000E+00
         0.00000E+00
         0.00000E+00
         0.00000E+00
         0.00000E+00
         0.00000E+00
         0.00000E+00
         0.00000E+00
         0.00000E+00
         0.00000E+00
         0.00000E+00
         0.00000E+00
         0.00000E+00
         0.00000E+00
         0.00000E+00
         0.00000E+00
         0.00000E+00
         0.00000E+00
         0.00000E+00
         0.00000E+00
         0.00000E+00
         0.00000E+00
         0.00000E+00
         0.00000E+00
         0.00000E+00
         0.00000E+00
         0.00000E+00
         0.00000E+00
         0.00000E+00
         0.00000E+00
         0.00000E+00
         0.00000E+00
         0.00000E+00
         0.00000E+00
         0.00000E+00
         0.00000E+00
         0.00000E+00
         0.00000E+00
         0.00000E+00
         0.00000E+00
         0.00000E+00
         0.00000E+00
         0.00000E+00
         0.00000E+00
         0.00000E+00
         0.00000E+00
         0.00000E+00
         0.00000E+00
         0.00000E+00
         0.00000E+00
         0.00000E+00
         0.00000E+00
         0.00000E+00
         0.00000E+00
         0.00000E+00
         0.00000E+00
         0.00000E+00
         0.00000E+00
         0.00000E+00
         0.00000E+00
         0.00000E+00
         0.00000E+00
         0.00000E+00
         0.00000E+00
         0.00000E+00
         0.00000E+00
         0.00000E+00
         0.00000E+00
         0.00000E+00
         0.00000E+00
         0.00000E+00
         0.00000E+00
         0.00000E+00
         0.00000E+00
         0.00000E+00
         0.00000E+00
         0.00000E+00
         0.00000E+00
         0.00000E+00
         0.00000E+00
         0.00000E+00
         0.00000E+00
         0.00000E+00
         0.00000E+00
         0.00000E+00
         0.00000E+00
         0.00000E+00
         0.00000E+00
         0.00000E+00
         0.00000E+00
         0.00000E+00
         0.00000E+00
         0.00000E+00
         0.00000E+00
         0.00000E+00
         0.00000E+00
         0.00000E+00
         0.00000E+00
         0.00000E+00
         0.00000E+00
         0.00000E+00
         0.00000E+00
         0.00000E+00
         0.00000E+00
         0.00000E+00
         0.00000E+00
         0.00000E+00
         0.00000E+00
         0.00000E+00
         0.00000E+00
         0.00000E+00
         0.00000E+00
         0.00000E+00
         0.00000E+00
         0.00000E+00
         0.00000E+00
         0.00000E+00
         0.00000E+00
         0.00000E+00
         0.00000E+00
         0.00000E+00
         0.00000E+00
         0.00000E+00
         0.00000E+00
         0.00000E+00
         0.00000E+00
         0.00000E+00
         0.00000E+00
         0.00000E+00
         0.00000E+00
         0.00000E+00
         0.00000E+00
         0.00000E+00
         0.00000E+00
         0.00000E+00
         0.00000E+00
         0.00000E+00
         0.00000E+00
         0.00000E+00
         0.00000E+00
         0.00000E+00
         0.00000E+00
         0.00000E+00
         0.00000E+00
         0.00000E+00
         0.00000E+00
         0.00000E+00
         0.00000E+00
         0.00000E+00
         0.00000E+00
         0.00000E+00
         0.00000E+00
         0.00000E+00
         0.00000E+00
         0.00000E+00
         0.00000E+00
         0.00000E+00
         0.00000E+00
         0.00000E+00
         0.00000E+00
         0.00000E+00
         0.00000E+00
         0.00000E+00
         0.00000E+00
         0.00000E+00
         0.00000E+00
         0.00000E+00
         0.00000E+00
         0.00000E+00
         0.00000E+00
         0.00000E+00
         0.00000E+00
         0.00000E+00
         0.00000E+00
         0.00000E+00
         0.00000E+00
         0.00000E+00
         0.00000E+00
         0.00000E+00
         0.00000E+00
         0.00000E+00
         0.00000E+00
         0.00000E+00
         0.00000E+00
         0.00000E+00
         0.00000E+00
         0.00000E+00
         0.00000E+00
         0.00000E+00
         0.00000E+00
         0.00000E+00
         0.00000E+00
         0.00000E+00
         0.00000E+00
         0.00000E+00
         0.00000E+00
         0.00000E+00
         0.00000E+00
         0.00000E+00
         0.00000E+00
         0.00000E+00
         0.00000E+00
         0.00000E+00
         0.00000E+00
         0.00000E+00
         0.00000E+00
         0.00000E+00
         0.00000E+00
         0.00000E+00
         0.00000E+00
         0.00000E+00
         0.00000E+00
         0.00000E+00
         0.00000E+00
         0.00000E+00
         0.00000E+00
         0.00000E+00
         0.00000E+00
         0.00000E+00
         0.00000E+00
         0.00000E+00
         0.00000E+00
         0.00000E+00
         0.00000E+00
         0.00000E+00
         0.00000E+00
         0.00000E+00
         0.00000E+00
         0.00000E+00
         0.00000E+00
         0.00000E+00
         0.00000E+00
         0.00000E+00
         0.00000E+00
         0.00000E+00
         0.00000E+00
         0.00000E+00
         0.00000E+00
         0.00000E+00
         0.00000E+00
         0.00000E+00
         0.00000E+00
         0.00000E+00
         0.00000E+00
         0.00000E+00
         0.00000E+00
         0.00000E+00
         0.00000E+00
         0.00000E+00
         0.00000E+00
         0.00000E+00
         0.00000E+00
         0.00000E+00
         0.00000E+00
         0.00000E+00
         0.00000E+00
         0.00000E+00
         0.00000E+00
         0.00000E+00
         0.00000E+00
         0.00000E+00
         0.00000E+00
         0.00000E+00
         0.00000E+00
         0.00000E+00
         0.00000E+00
         0.00000E+00
         0.00000E+00
         0.00000E+00
         0.00000E+00
         0.00000E+00
         0.00000E+00
         0.00000E+00
         0.00000E+00
         0.00000E+00
         0.00000E+00
         0.00000E+00
         0.00000E+00
         0.00000E+00
         0.00000E+00
         0.00000E+00
         0.00000E+00
         0.00000E+00
         0.00000E+00
         0.00000E+00
         0.00000E+00
         0.00000E+00
         0.00000E+00
         0.00000E+00
         0.00000E+00
         0.00000E+00
         0.00000E+00
         0.00000E+00
         0.00000E+00
         0.00000E+00
         0.00000E+00
         0.00000E+00
         0.00000E+00
         0.00000E+00
         0.00000E+00
         0.00000E+00
         0.00000E+00
         0.00000E+00
         0.00000E+00
         0.00000E+00
         0.00000E+00
         0.00000E+00
         0.00000E+00
         0.00000E+00
         0.00000E+00
         0.00000E+00
         0.00000E+00
         0.00000E+00
         0.00000E+00
         0.00000E+00
         0.00000E+00
         0.00000E+00
         0.00000E+00
         0.00000E+00
         0.00000E+00
         0.00000E+00
         0.00000E+00
         0.00000E+00
         0.00000E+00
         0.00000E+00
         0.00000E+00
         0.00000E+00
         0.00000E+00
         0.00000E+00
         0.00000E+00
         0.00000E+00
         0.00000E+00
         0.00000E+00
         0.00000E+00
         0.00000E+00
         0.00000E+00
         0.00000E+00
         0.00000E+00
         0.00000E+00
         0.00000E+00
         0.00000E+00
         0.00000E+00
         0.00000E+00
         0.00000E+00
         0.00000E+00
         0.00000E+00
         0.00000E+00
         0.00000E+00
         0.00000E+00
         0.00000E+00
         0.00000E+00
         0.00000E+00
         0.00000E+00
         0.00000E+00
         0.00000E+00
         0.00000E+00
         0.00000E+00
         0.00000E+00
         0.00000E+00
         0.00000E+00
         0.00000E+00
         0.00000E+00
         0.00000E+00
         0.00000E+00
         0.00000E+00
         0.00000E+00
         0.00000E+00
         0.00000E+00
         0.00000E+00
         0.00000E+00
         0.00000E+00
         0.00000E+00
         0.00000E+00
         0.00000E+00
         0.00000E+00
         0.00000E+00
         0.00000E+00
         0.00000E+00
         0.00000E+00
         0.00000E+00
         0.00000E+00
         0.00000E+00
         0.00000E+00
         0.00000E+00
         0.00000E+00
         0.00000E+00
         0.00000E+00
         0.00000E+00
         0.00000E+00
         0.00000E+00
         0.00000E+00
         0.00000E+00
         0.00000E+00
         0.00000E+00
         0.00000E+00
         0.00000E+00
         0.00000E+00
         0.00000E+00
         0.00000E+00
         0.00000E+00
         0.00000E+00
         0.00000E+00
         0.00000E+00
         0.00000E+00
         0.00000E+00
         0.00000E+00
         0.00000E+00
         0.00000E+00
         0.00000E+00
         0.00000E+00
         0.00000E+00
         0.00000E+00
         0.00000E+00
         0.00000E+00
         0.00000E+00
         0.00000E+00
         0.00000E+00
         0.00000E+00
         0.00000E+00
         0.00000E+00
         0.00000E+00
         0.00000E+00
         0.00000E+00
         0.00000E+00
         0.00000E+00
         0.00000E+00
         0.00000E+00
         0.00000E+00
         0.00000E+00
         0.00000E+00
         0.00000E+00
         0.00000E+00
         0.00000E+00
         0.00000E+00
         0.00000E+00
         0.00000E+00
         0.00000E+00
         0.00000E+00
         0.00000E+00
         0.00000E+00
         0.00000E+00
         0.00000E+00
         0.00000E+00
         0.00000E+00
         0.00000E+00
         0.00000E+00
         0.00000E+00
         0.00000E+00
         0.00000E+00
         0.00000E+00
         0.00000E+00
         0.00000E+00
         0.00000E+00
         0.00000E+00
         0.00000E+00
         0.00000E+00
         0.00000E+00
         0.00000E+00
         0.00000E+00
         0.00000E+00
         0.00000E+00
         0.00000E+00
         0.00000E+00
         0.00000E+00
         0.00000E+00
         0.00000E+00
         0.00000E+00
         0.00000E+00
         0.00000E+00
         0.00000E+00
         0.00000E+00
         0.00000E+00
         0.00000E+00
         0.00000E+00
         0.00000E+00
         0.00000E+00
         0.00000E+00
         0.00000E+00
         0.00000E+00
         0.00000E+00
         0.00000E+00
         0.00000E+00
         0.00000E+00
         0.00000E+00
         0.00000E+00
         0.00000E+00
         0.00000E+00
         0.00000E+00
         0.00000E+00
         0.00000E+00
         0.00000E+00
         0.00000E+00
         0.00000E+00
         0.00000E+00
         0.00000E+00
         0.00000E+00
         0.00000E+00
         0.00000E+00
         0.00000E+00
         0.00000E+00
         0.00000E+00
         0.00000E+00
         0.00000E+00
         0.00000E+00
         0.00000E+00
         0.00000E+00
         0.00000E+00
         0.00000E+00
         0.00000E+00
         0.00000E+00
         0.00000E+00
         0.00000E+00
         0.00000E+00
         0.00000E+00
         0.00000E+00
         0.00000E+00
         0.00000E+00
         0.00000E+00
         0.00000E+00
         0.00000E+00
         0.00000E+00
         0.00000E+00
         0.00000E+00
         0.00000E+00
         0.00000E+00
         0.00000E+00
         0.00000E+00
         0.00000E+00
         0.00000E+00
         0.00000E+00
         0.00000E+00
         0.00000E+00
         0.00000E+00
         0.00000E+00
         0.00000E+00
         0.00000E+00
         0.00000E+00
         0.00000E+00
         0.00000E+00
         0.00000E+00
         0.00000E+00
         0.00000E+00
         0.00000E+00
         0.00000E+00
         0.00000E+00
         0.00000E+00
         0.00000E+00
         0.00000E+00
         0.00000E+00
         0.00000E+00
         0.00000E+00
         0.00000E+00
         0.00000E+00
         0.00000E+00
         0.00000E+00
         0.00000E+00
         0.00000E+00
         0.00000E+00
         0.00000E+00
         0.00000E+00
         0.00000E+00
         0.00000E+00
         0.00000E+00
         0.00000E+00
         0.00000E+00
         0.00000E+00
         0.00000E+00
         0.00000E+00
         0.00000E+00
         0.00000E+00
         0.00000E+00
         0.00000E+00
         0.00000E+00
         0.00000E+00
         0.00000E+00
         0.00000E+00
         0.00000E+00
         0.00000E+00
         0.00000E+00
         0.00000E+00
         0.00000E+00
         0.00000E+00
         0.00000E+00
         0.00000E+00
         0.00000E+00
         0.00000E+00
         0.00000E+00
         0.00000E+00
         0.00000E+00
         0.00000E+00
         0.00000E+00
         0.00000E+00
         0.00000E+00
         0.00000E+00
         0.00000E+00
         0.00000E+00
         0.00000E+00
         0.00000E+00
         0.00000E+00
         0.00000E+00
         0.00000E+00
         0.00000E+00
         0.00000E+00
         0.00000E+00
         0.00000E+00
         0.00000E+00
         0.00000E+00
         0.00000E+00
         0.00000E+00
         0.00000E+00
         0.00000E+00
         0.00000E+00
         0.00000E+00
         0.00000E+00
         0.00000E+00
         0.00000E+00
         0.00000E+00
         0.00000E+00
         0.00000E+00
         0.00000E+00
         0.00000E+00
         0.00000E+00
         0.00000E+00
         0.00000E+00
         0.00000E+00
         0.00000E+00
         0.00000E+00
         0.00000E+00
         0.00000E+00
         0.00000E+00
         0.00000E+00
         0.00000E+00
         0.00000E+00
         0.00000E+00
         0.00000E+00
         0.00000E+00
         0.00000E+00
         0.00000E+00
         0.00000E+00
         0.00000E+00
         0.00000E+00
         0.00000E+00
         0.00000E+00
         0.00000E+00
         0.00000E+00
         0.00000E+00
         0.00000E+00
         0.00000E+00
         0.00000E+00
         0.00000E+00
         0.00000E+00
         0.00000E+00
         0.00000E+00
         0.00000E+00
         0.00000E+00
         0.00000E+00
         0.00000E+00
         0.00000E+00
         0.00000E+00
         0.00000E+00
         0.00000E+00
         0.00000E+00
         0.00000E+00
         0.00000E+00
         0.00000E+00
         0.00000E+00
         0.00000E+00
         0.00000E+00
         0.00000E+00
         0.00000E+00
         0.00000E+00
         0.00000E+00
         0.00000E+00
         0.00000E+00
         0.00000E+00
         0.00000E+00
         0.00000E+00
         0.00000E+00
         0.00000E+00
         0.00000E+00
         0.00000E+00
         0.00000E+00
         0.00000E+00
         0.00000E+00
         0.00000E+00
         0.00000E+00
         0.00000E+00
         0.00000E+00
         0.00000E+00
         0.00000E+00
         0.00000E+00
         0.00000E+00
         0.00000E+00
         0.00000E+00
         0.00000E+00
         0.00000E+00
         0.00000E+00
         0.00000E+00
         0.00000E+00
         0.00000E+00
         0.00000E+00
         0.00000E+00
         0.00000E+00
         0.00000E+00
         0.00000E+00
         0.00000E+00
         0.00000E+00
         0.00000E+00
         0.00000E+00
         0.00000E+00
         0.00000E+00
         0.00000E+00
         0.00000E+00
         0.00000E+00
         0.00000E+00
         0.00000E+00
         0.00000E+00
         0.00000E+00
         0.00000E+00
         0.00000E+00
         0.00000E+00
         0.00000E+00
         0.00000E+00
         0.00000E+00
         0.00000E+00
         0.00000E+00
         0.00000E+00
         0.00000E+00
         0.00000E+00
         0.00000E+00
         0.00000E+00
         0.00000E+00
         0.00000E+00
         0.00000E+00
         0.00000E+00
         0.00000E+00
         0.00000E+00
         0.00000E+00
         0.00000E+00
         0.00000E+00
         0.00000E+00
         0.00000E+00
         0.00000E+00
         0.00000E+00
         0.00000E+00
         0.00000E+00
         0.00000E+00
         0.00000E+00
         0.00000E+00
         0.00000E+00
         0.00000E+00
         0.00000E+00
         0.00000E+00
         0.00000E+00
         0.00000E+00
         0.00000E+00
         0.00000E+00
         0.00000E+00
         0.00000E+00
         0.00000E+00
         0.00000E+00
         0.00000E+00
         0.00000E+00
         0.00000E+00
         0.00000E+00
         0.00000E+00
         0.00000E+00
         0.00000E+00
         0.00000E+00
         0.00000E+00
         0.00000E+00
         0.00000E+00
         0.00000E+00
         0.00000E+00
         0.00000E+00
         0.00000E+00
         0.00000E+00
         0.00000E+00
         0.00000E+00
         0.00000E+00
         0.00000E+00
         0.00000E+00
         0.00000E+00
         0.00000E+00
         0.00000E+00
         0.00000E+00
         0.00000E+00
         0.00000E+00
         0.00000E+00
         0.00000E+00
         0.00000E+00
         0.00000E+00
         0.00000E+00
         0.00000E+00
         0.00000E+00
         0.00000E+00
         0.00000E+00
         0.00000E+00
         0.00000E+00
         0.00000E+00
         0.00000E+00
         0.00000E+00
         0.00000E+00
         0.00000E+00
         0.00000E+00
         0.00000E+00
         0.00000E+00
         0.00000E+00
         0.00000E+00
         0.00000E+00
         0.00000E+00
         0.00000E+00
         0.00000E+00
         0.00000E+00
         0.00000E+00
         0.00000E+00
         0.00000E+00
         0.00000E+00
         0.00000E+00
         0.00000E+00
         0.00000E+00
         0.00000E+00
         0.00000E+00
         0.00000E+00
         0.00000E+00
         0.00000E+00
         0.00000E+00
         0.00000E+00
         0.00000E+00
         0.00000E+00
         0.00000E+00
         0.00000E+00
         0.00000E+00
         0.00000E+00
         0.00000E+00
         0.00000E+00
         0.00000E+00
         0.00000E+00
         0.00000E+00
         0.00000E+00
         0.00000E+00
         0.00000E+00
         0.00000E+00
         0.00000E+00
         0.00000E+00
         0.00000E+00
         0.00000E+00
         0.00000E+00
         0.00000E+00
         0.00000E+00
         0.00000E+00
         0.00000E+00
         0.00000E+00
         0.00000E+00
         0.00000E+00
         0.00000E+00
         0.00000E+00
         0.00000E+00
         0.00000E+00
         0.00000E+00
         0.00000E+00
         0.00000E+00
         0.00000E+00
         0.00000E+00
         0.00000E+00
         0.00000E+00
         0.00000E+00
         0.00000E+00
         0.00000E+00
         0.00000E+00
         0.00000E+00
         0.00000E+00
         0.00000E+00
         0.00000E+00
         0.00000E+00
         0.00000E+00
         0.00000E+00
         0.00000E+00
         0.00000E+00
         0.00000E+00
         0.00000E+00
         0.00000E+00
         0.00000E+00
         0.00000E+00
         0.00000E+00
         0.00000E+00
         0.00000E+00
         0.00000E+00
         0.00000E+00
         0.00000E+00
         0.00000E+00
         0.00000E+00
         0.00000E+00
         0.00000E+00
         0.00000E+00
         0.00000E+00
         0.00000E+00
         0.00000E+00
         0.00000E+00
         0.00000E+00
         0.00000E+00
         0.00000E+00
         0.00000E+00
         0.00000E+00
         0.00000E+00
         0.00000E+00
         0.00000E+00
         0.00000E+00
         0.00000E+00
         0.00000E+00
         0.00000E+00
         0.00000E+00
         0.00000E+00
         0.00000E+00
         0.00000E+00
         0.00000E+00
         0.00000E+00
         0.00000E+00
         0.00000E+00
         0.00000E+00
         0.00000E+00
         0.00000E+00
         0.00000E+00
         0.00000E+00
         0.00000E+00
         0.00000E+00
         0.00000E+00
         0.00000E+00
         0.00000E+00
         0.00000E+00
         0.00000E+00
         0.00000E+00
         0.00000E+00
         0.00000E+00
         0.00000E+00
         0.00000E+00
         0.00000E+00
         0.00000E+00
         0.00000E+00
         0.00000E+00
         0.00000E+00
         0.00000E+00
         0.00000E+00
         0.00000E+00
         0.00000E+00
         0.00000E+00
         0.00000E+00
         0.00000E+00
         0.00000E+00
         0.00000E+00
         0.00000E+00
         0.00000E+00
         0.00000E+00
         0.00000E+00
         0.00000E+00
         0.00000E+00
         0.00000E+00
         0.00000E+00
         0.00000E+00
         0.00000E+00
         0.00000E+00
         0.00000E+00
         0.00000E+00
         0.00000E+00
         0.00000E+00
         0.00000E+00
         0.00000E+00
         0.00000E+00
         0.00000E+00
         0.00000E+00
         0.00000E+00
         0.00000E+00
         0.00000E+00
         0.00000E+00
         0.00000E+00
         0.00000E+00
         0.00000E+00
         0.00000E+00
         0.00000E+00
         0.00000E+00
         0.00000E+00
         0.00000E+00
         0.00000E+00
         0.00000E+00
         0.00000E+00
         0.00000E+00
         0.00000E+00
         0.00000E+00
         0.00000E+00
         0.00000E+00
         0.00000E+00
         0.00000E+00
         0.00000E+00
         0.00000E+00
         0.00000E+00
         0.00000E+00
         0.00000E+00
         0.00000E+00
         0.00000E+00
         0.00000E+00
         0.00000E+00
         0.00000E+00
         0.00000E+00
         0.00000E+00
         0.00000E+00
         0.00000E+00
         0.00000E+00
         0.00000E+00
         0.00000E+00
         0.00000E+00
         0.00000E+00
         0.00000E+00
         0.00000E+00
         0.00000E+00
         0.00000E+00
         0.00000E+00
         0.00000E+00
         0.00000E+00
         0.00000E+00
         0.00000E+00
         0.00000E+00
         0.00000E+00
         0.00000E+00
         0.00000E+00
         0.00000E+00
         0.00000E+00
         0.00000E+00
         0.00000E+00
         0.00000E+00
         0.00000E+00
         0.00000E+00
         0.00000E+00
         0.00000E+00
         0.00000E+00
         0.00000E+00
         0.00000E+00
         0.00000E+00
         0.00000E+00
         0.00000E+00
         0.00000E+00
         0.00000E+00
         0.00000E+00
         0.00000E+00
         0.00000E+00
         0.00000E+00
         0.00000E+00
         0.00000E+00
         0.00000E+00
         0.00000E+00
         0.00000E+00
         0.00000E+00
         0.00000E+00
         0.00000E+00
         0.00000E+00
         0.00000E+00
         0.00000E+00
         0.00000E+00
         0.00000E+00
         0.00000E+00
         0.00000E+00
         0.00000E+00
         0.00000E+00
         0.00000E+00
         0.00000E+00
         0.00000E+00
         0.00000E+00
         0.00000E+00
         0.00000E+00
         0.00000E+00
         0.00000E+00
         0.00000E+00
         0.00000E+00
         0.00000E+00
         0.00000E+00
         0.00000E+00
         0.00000E+00
         0.00000E+00
         0.00000E+00
         0.00000E+00
         0.00000E+00
         0.00000E+00
         0.00000E+00
         0.00000E+00
         0.00000E+00
         0.00000E+00
         0.00000E+00
         0.00000E+00
         0.00000E+00
         0.00000E+00
         0.00000E+00
         0.00000E+00
         0.00000E+00
         0.00000E+00
         0.00000E+00
         0.00000E+00
         0.00000E+00
         0.00000E+00
         0.00000E+00
         0.00000E+00
         0.00000E+00
         0.00000E+00
         0.00000E+00
         0.00000E+00
         0.00000E+00
         0.00000E+00
         0.00000E+00
         0.00000E+00
         0.00000E+00
         0.00000E+00
         0.00000E+00
         0.00000E+00
         0.00000E+00
         0.00000E+00
         0.00000E+00
         0.00000E+00
         0.00000E+00
         0.00000E+00
         0.00000E+00
         0.00000E+00
         0.00000E+00
         0.00000E+00
         0.00000E+00
         0.00000E+00
         0.00000E+00
         0.00000E+00
         0.00000E+00
         0.00000E+00
         0.00000E+00
         0.00000E+00
         0.00000E+00
         0.00000E+00
         0.00000E+00
         0.00000E+00
         0.00000E+00
         0.00000E+00
         0.00000E+00
         0.00000E+00
         0.00000E+00
         0.00000E+00
         0.00000E+00
         0.00000E+00
         0.00000E+00
         0.00000E+00
         0.00000E+00
         0.00000E+00
         0.00000E+00
         0.00000E+00
         0.00000E+00
         0.00000E+00
         0.00000E+00
         0.00000E+00
         0.00000E+00
         0.00000E+00
         0.00000E+00
         0.00000E+00
         0.00000E+00
         0.00000E+00
         0.00000E+00
         0.00000E+00
         0.00000E+00
         0.00000E+00
         0.00000E+00
         0.00000E+00
         0.00000E+00
         0.00000E+00
         0.00000E+00
         0.00000E+00
         0.00000E+00
         0.00000E+00
         0.00000E+00
         0.00000E+00
         0.00000E+00
         0.00000E+00
         0.00000E+00
         0.00000E+00
         0.00000E+00
         0.00000E+00
         0.00000E+00
         0.00000E+00
         0.00000E+00
         0.00000E+00
         0.00000E+00
         0.00000E+00
         0.00000E+00
         0.00000E+00
         0.00000E+00
         0.00000E+00
         0.00000E+00
         0.00000E+00
         0.00000E+00
         0.00000E+00
         0.00000E+00
         0.00000E+00
         0.00000E+00
         0.00000E+00
         0.00000E+00
         0.00000E+00
         0.00000E+00
         0.00000E+00
         0.00000E+00
         0.00000E+00
         0.00000E+00
         0.00000E+00
         0.00000E+00
         0.00000E+00
         0.00000E+00
         0.00000E+00
         0.00000E+00
         0.00000E+00
         0.00000E+00
         0.00000E+00
         0.00000E+00
         0.00000E+00
         0.00000E+00
         0.00000E+00
         0.00000E+00
         0.00000E+00
         0.00000E+00
         0.00000E+00
         0.00000E+00
         0.00000E+00
         0.00000E+00
         0.00000E+00
         0.00000E+00
         0.00000E+00
         0.00000E+00
         0.00000E+00
         0.00000E+00
         0.00000E+00
         0.00000E+00
         0.00000E+00
         0.00000E+00
         0.00000E+00
         0.00000E+00
         0.00000E+00
         0.00000E+00
         0.00000E+00
         0.00000E+00
         0.00000E+00
         0.00000E+00
         0.00000E+00
         0.00000E+00
         0.00000E+00
         0.00000E+00
         0.00000E+00
         0.00000E+00
         0.00000E+00
         0.00000E+00
         0.00000E+00
         0.00000E+00
         0.00000E+00
         0.00000E+00
         0.00000E+00
         0.00000E+00
         0.00000E+00
         0.00000E+00
         0.00000E+00
         0.00000E+00
         0.00000E+00
         0.00000E+00
         0.00000E+00
         0.00000E+00
         0.00000E+00
         0.00000E+00
         0.00000E+00
         0.00000E+00
         0.00000E+00
         0.00000E+00
         0.00000E+00
         0.00000E+00
         0.00000E+00
         0.00000E+00
         0.00000E+00
         0.00000E+00
         0.00000E+00
         0.00000E+00
         0.00000E+00
         0.00000E+00
         0.00000E+00
         0.00000E+00
         0.00000E+00
         0.00000E+00
         0.00000E+00
         0.00000E+00
         0.00000E+00
         0.00000E+00
         0.00000E+00
         0.00000E+00
         0.00000E+00
         0.00000E+00
         0.00000E+00
         0.00000E+00
         0.00000E+00
         0.00000E+00
         0.00000E+00
         0.00000E+00
         0.00000E+00
         0.00000E+00
         0.00000E+00
         0.00000E+00
         0.00000E+00
         0.00000E+00
         0.00000E+00
         0.00000E+00
         0.00000E+00
         0.00000E+00
         0.00000E+00
         0.00000E+00
         0.00000E+00
         0.00000E+00
         0.00000E+00
         0.00000E+00
         0.00000E+00
         0.00000E+00
         0.00000E+00
         0.00000E+00
         0.00000E+00
         0.00000E+00
         0.00000E+00
         0.00000E+00
         0.00000E+00
         0.00000E+00
         0.00000E+00
         0.00000E+00
         0.00000E+00
         0.00000E+00
         0.00000E+00
         0.00000E+00
         0.00000E+00
         0.00000E+00
         0.00000E+00
         0.00000E+00
         0.00000E+00
         0.00000E+00
         0.00000E+00
         0.00000E+00
         0.00000E+00
         0.00000E+00
         0.00000E+00
         0.00000E+00
         0.00000E+00
         0.00000E+00
         0.00000E+00
         0.00000E+00
         0.00000E+00
         0.00000E+00
         0.00000E+00
         0.00000E+00
         0.00000E+00
         0.00000E+00
         0.00000E+00
         0.00000E+00
         0.00000E+00
         0.00000E+00
         0.00000E+00
         0.00000E+00
         0.00000E+00
         0.00000E+00
         0.00000E+00
         0.00000E+00
         0.00000E+00
         0.00000E+00
         0.00000E+00
         0.00000E+00
         0.00000E+00
         0.00000E+00
         0.00000E+00
         0.00000E+00
         0.00000E+00
         0.00000E+00
         0.00000E+00
         0.00000E+00
         0.00000E+00
         0.00000E+00
         0.00000E+00
         0.00000E+00
         0.00000E+00
         0.00000E+00
         0.00000E+00
         0.00000E+00
         0.00000E+00
         0.00000E+00
         0.00000E+00
         0.00000E+00
         0.00000E+00
         0.00000E+00
         0.00000E+00
         0.00000E+00
         0.00000E+00
         0.00000E+00
         0.00000E+00
         0.00000E+00
         0.00000E+00
         0.00000E+00
         0.00000E+00
         0.00000E+00
         0.00000E+00
         0.00000E+00
         0.00000E+00
         0.00000E+00
         0.00000E+00
         0.00000E+00
         0.00000E+00
         0.00000E+00
         0.00000E+00
         0.00000E+00
         0.00000E+00
         0.00000E+00
         0.00000E+00
         0.00000E+00
         0.00000E+00
         0.00000E+00
         0.00000E+00
         0.00000E+00
         0.00000E+00
         0.00000E+00
         0.00000E+00
         0.00000E+00
         0.00000E+00
         0.00000E+00
         0.00000E+00
         0.00000E+00
         0.00000E+00
         0.00000E+00
         0.00000E+00
         0.00000E+00
         0.00000E+00
         0.00000E+00
         0.00000E+00
         0.00000E+00
         0.00000E+00
         0.00000E+00
         0.00000E+00
         0.00000E+00
         0.00000E+00
         0.00000E+00
         0.00000E+00
         0.00000E+00
         0.00000E+00
         0.00000E+00
         0.00000E+00
         0.00000E+00
         0.00000E+00
         0.00000E+00
         0.00000E+00
         0.00000E+00
         0.00000E+00
         0.00000E+00
         0.00000E+00
         0.00000E+00
         0.00000E+00
         0.00000E+00
         0.00000E+00
         0.00000E+00
         0.00000E+00
         0.00000E+00
         0.00000E+00
         0.00000E+00
         0.00000E+00
         0.00000E+00
         0.00000E+00
         0.00000E+00
         0.00000E+00
         0.00000E+00
         0.00000E+00
         0.00000E+00
         0.00000E+00
         0.00000E+00
         0.00000E+00
         0.00000E+00
         0.00000E+00
         0.00000E+00
         0.00000E+00
         0.00000E+00
         0.00000E+00
         0.00000E+00
         0.00000E+00
         0.00000E+00
         0.00000E+00
         0.00000E+00
         0.00000E+00
         0.00000E+00
         0.00000E+00
         0.00000E+00
         0.00000E+00
         0.00000E+00
         0.00000E+00
         0.00000E+00
         0.00000E+00
         0.00000E+00
         0.00000E+00
         0.00000E+00
         0.00000E+00
         0.00000E+00
         0.00000E+00
         0.00000E+00
         0.00000E+00
         0.00000E+00
         0.00000E+00
         0.00000E+00
         0.00000E+00
         0.00000E+00
         0.00000E+00
         0.00000E+00
         0.00000E+00
         0.00000E+00
         0.00000E+00
         0.00000E+00
         0.00000E+00
         0.00000E+00
         0.00000E+00
         0.00000E+00
         0.00000E+00
         0.00000E+00
         0.00000E+00
         0.00000E+00
         0.00000E+00
         0.00000E+00
         0.00000E+00
         0.00000E+00
         0.00000E+00
         0.00000E+00
         0.00000E+00
         0.00000E+00
         0.00000E+00
         0.00000E+00
         0.00000E+00
         0.00000E+00
         0.00000E+00
         0.00000E+00
         0.00000E+00
         0.00000E+00
         0.00000E+00
         0.00000E+00
         0.00000E+00
         0.00000E+00
         0.00000E+00
         0.00000E+00
         0.00000E+00
         0.00000E+00
         0.00000E+00
         0.00000E+00
         0.00000E+00
         0.00000E+00
         0.00000E+00
         0.00000E+00
         0.00000E+00
         0.00000E+00
         0.00000E+00
         0.00000E+00
         0.00000E+00
         0.00000E+00
         0.00000E+00
         0.00000E+00
         0.00000E+00
         0.00000E+00
         0.00000E+00
         0.00000E+00
         0.00000E+00
         0.00000E+00
         0.00000E+00
         0.00000E+00
         0.00000E+00
         0.00000E+00
         0.00000E+00
         0.00000E+00
         0.00000E+00
         0.00000E+00
         0.00000E+00
         0.00000E+00
         0.00000E+00
         0.00000E+00
         0.00000E+00
         0.00000E+00
         0.00000E+00
         0.00000E+00
         0.00000E+00
         0.00000E+00
         0.00000E+00
         0.00000E+00
         0.00000E+00
         0.00000E+00
         0.00000E+00
         0.00000E+00
         0.00000E+00
         0.00000E+00
         0.00000E+00
         0.00000E+00
         0.00000E+00
         0.00000E+00
         0.00000E+00
         0.00000E+00
         0.00000E+00
         0.00000E+00
         0.00000E+00
         0.00000E+00
         0.00000E+00
         0.00000E+00
  
SCALARS                     velocity_z  double 1
LOOKUP_TABLE default
        -0.37300E+03
        -0.37300E+03
        -0.37300E+03
        -0.37300E+03
         0.00000E+00
         0.00000E+00
         0.00000E+00
         0.00000E+00
        -0.37300E+03
        -0.37300E+03
         0.00000E+00
         0.00000E+00
        -0.37300E+03
        -0.37300E+03
         0.00000E+00
         0.00000E+00
        -0.37300E+03
        -0.37300E+03
         0.00000E+00
         0.00000E+00
        -0.37300E+03
        -0.37300E+03
        -0.37300E+03
         0.00000E+00
         0.00000E+00
         0.00000E+00
        -0.37300E+03
        -0.37300E+03
         0.00000E+00
         0.00000E+00
        -0.37300E+03
        -0.37300E+03
        -0.37300E+03
         0.00000E+00
         0.00000E+00
         0.00000E+00
        -0.37300E+03
        -0.37300E+03
         0.00000E+00
         0.00000E+00
        -0.37300E+03
        -0.37300E+03
         0.00000E+00
         0.00000E+00
        -0.37300E+03
        -0.37300E+03
         0.00000E+00
         0.00000E+00
        -0.37300E+03
         0.00000E+00
        -0.37300E+03
         0.00000E+00
        -0.37300E+03
         0.00000E+00
        -0.37300E+03
         0.00000E+00
        -0.37300E+03
        -0.37300E+03
         0.00000E+00
         0.00000E+00
        -0.37300E+03
        -0.37300E+03
         0.00000E+00
         0.00000E+00
        -0.37300E+03
         0.00000E+00
        -0.37300E+03
         0.00000E+00
        -0.37300E+03
        -0.37300E+03
         0.00000E+00
         0.00000E+00
        -0.37300E+03
         0.00000E+00
        -0.37300E+03
         0.00000E+00
        -0.37300E+03
         0.00000E+00
        -0.37300E+03
         0.00000E+00
        -0.37300E+03
        -0.37300E+03
         0.00000E+00
         0.00000E+00
        -0.37300E+03
         0.00000E+00
        -0.37300E+03
         0.00000E+00
        -0.37300E+03
         0.00000E+00
        -0.37300E+03
        -0.37300E+03
         0.00000E+00
         0.00000E+00
        -0.37300E+03
         0.00000E+00
        -0.37300E+03
         0.00000E+00
        -0.37300E+03
         0.00000E+00
        -0.37300E+03
        -0.37300E+03
         0.00000E+00
         0.00000E+00
        -0.37300E+03
        -0.37300E+03
         0.00000E+00
         0.00000E+00
        -0.37300E+03
         0.00000E+00
        -0.37300E+03
         0.00000E+00
        -0.37300E+03
         0.00000E+00
        -0.37300E+03
         0.00000E+00
        -0.37300E+03
         0.00000E+00
        -0.37300E+03
         0.00000E+00
        -0.37300E+03
         0.00000E+00
        -0.37300E+03
         0.00000E+00
        -0.37300E+03
         0.00000E+00
        -0.37300E+03
         0.00000E+00
        -0.37300E+03
         0.00000E+00
        -0.37300E+03
         0.00000E+00
        -0.37300E+03
         0.00000E+00
        -0.37300E+03
         0.00000E+00
        -0.37300E+03
         0.00000E+00
        -0.37300E+03
         0.00000E+00
        -0.37300E+03
         0.00000E+00
        -0.37300E+03
         0.00000E+00
        -0.37300E+03
         0.00000E+00
        -0.37300E+03
         0.00000E+00
        -0.37300E+03
         0.00000E+00
        -0.37300E+03
         0.00000E+00
        -0.37300E+03
         0.00000E+00
        -0.37300E+03
         0.00000E+00
        -0.37300E+03
        -0.37300E+03
        -0.37300E+03
        -0.37300E+03
        -0.37300E+03
        -0.37300E+03
        -0.37300E+03
        -0.37300E+03
        -0.37300E+03
        -0.37300E+03
        -0.37300E+03
        -0.37300E+03
        -0.37300E+03
        -0.37300E+03
        -0.37300E+03
        -0.37300E+03
        -0.37300E+03
        -0.37300E+03
        -0.37300E+03
        -0.37300E+03
        -0.37300E+03
        -0.37300E+03
        -0.37300E+03
        -0.37300E+03
        -0.37300E+03
        -0.37300E+03
        -0.37300E+03
        -0.37300E+03
        -0.37300E+03
        -0.37300E+03
        -0.37300E+03
        -0.37300E+03
        -0.37300E+03
        -0.37300E+03
        -0.37300E+03
        -0.37300E+03
        -0.37300E+03
        -0.37300E+03
        -0.37300E+03
        -0.37300E+03
        -0.37300E+03
        -0.37300E+03
        -0.37300E+03
        -0.37300E+03
        -0.37300E+03
        -0.37300E+03
        -0.37300E+03
        -0.37300E+03
        -0.37300E+03
        -0.37300E+03
        -0.37300E+03
        -0.37300E+03
        -0.37300E+03
        -0.37300E+03
        -0.37300E+03
        -0.37300E+03
        -0.37300E+03
        -0.37300E+03
        -0.37300E+03
        -0.37300E+03
        -0.37300E+03
        -0.37300E+03
        -0.37300E+03
        -0.37300E+03
        -0.37300E+03
        -0.37300E+03
        -0.37300E+03
        -0.37300E+03
        -0.37300E+03
        -0.37300E+03
        -0.37300E+03
        -0.37300E+03
        -0.37300E+03
        -0.37300E+03
        -0.37300E+03
        -0.37300E+03
        -0.37300E+03
        -0.37300E+03
        -0.37300E+03
        -0.37300E+03
        -0.37300E+03
        -0.37300E+03
        -0.37300E+03
        -0.37300E+03
        -0.37300E+03
        -0.37300E+03
        -0.37300E+03
        -0.37300E+03
        -0.37300E+03
        -0.37300E+03
        -0.37300E+03
        -0.37300E+03
        -0.37300E+03
        -0.37300E+03
        -0.37300E+03
        -0.37300E+03
        -0.37300E+03
        -0.37300E+03
        -0.37300E+03
        -0.37300E+03
        -0.37300E+03
        -0.37300E+03
        -0.37300E+03
        -0.37300E+03
        -0.37300E+03
        -0.37300E+03
        -0.37300E+03
        -0.37300E+03
        -0.37300E+03
        -0.37300E+03
        -0.37300E+03
        -0.37300E+03
        -0.37300E+03
        -0.37300E+03
        -0.37300E+03
        -0.37300E+03
        -0.37300E+03
        -0.37300E+03
        -0.37300E+03
        -0.37300E+03
        -0.37300E+03
        -0.37300E+03
        -0.37300E+03
        -0.37300E+03
        -0.37300E+03
        -0.37300E+03
        -0.37300E+03
        -0.37300E+03
        -0.37300E+03
        -0.37300E+03
        -0.37300E+03
        -0.37300E+03
        -0.37300E+03
        -0.37300E+03
        -0.37300E+03
        -0.37300E+03
        -0.37300E+03
        -0.37300E+03
        -0.37300E+03
        -0.37300E+03
        -0.37300E+03
        -0.37300E+03
        -0.37300E+03
        -0.37300E+03
        -0.37300E+03
        -0.37300E+03
        -0.37300E+03
        -0.37300E+03
        -0.37300E+03
        -0.37300E+03
        -0.37300E+03
        -0.37300E+03
        -0.37300E+03
        -0.37300E+03
        -0.37300E+03
        -0.37300E+03
        -0.37300E+03
        -0.37300E+03
        -0.37300E+03
        -0.37300E+03
        -0.37300E+03
        -0.37300E+03
        -0.37300E+03
        -0.37300E+03
        -0.37300E+03
        -0.37300E+03
        -0.37300E+03
        -0.37300E+03
        -0.37300E+03
        -0.37300E+03
        -0.37300E+03
        -0.37300E+03
        -0.37300E+03
        -0.37300E+03
        -0.37300E+03
        -0.37300E+03
        -0.37300E+03
        -0.37300E+03
        -0.37300E+03
        -0.37300E+03
        -0.37300E+03
        -0.37300E+03
        -0.37300E+03
        -0.37300E+03
        -0.37300E+03
        -0.37300E+03
        -0.37300E+03
        -0.37300E+03
        -0.37300E+03
        -0.37300E+03
        -0.37300E+03
        -0.37300E+03
        -0.37300E+03
        -0.37300E+03
        -0.37300E+03
        -0.37300E+03
        -0.37300E+03
        -0.37300E+03
        -0.37300E+03
        -0.37300E+03
        -0.37300E+03
        -0.37300E+03
        -0.37300E+03
        -0.37300E+03
        -0.37300E+03
        -0.37300E+03
        -0.37300E+03
        -0.37300E+03
        -0.37300E+03
        -0.37300E+03
        -0.37300E+03
        -0.37300E+03
        -0.37300E+03
        -0.37300E+03
        -0.37300E+03
        -0.37300E+03
        -0.37300E+03
        -0.37300E+03
        -0.37300E+03
        -0.37300E+03
        -0.37300E+03
        -0.37300E+03
        -0.37300E+03
        -0.37300E+03
        -0.37300E+03
        -0.37300E+03
        -0.37300E+03
        -0.37300E+03
        -0.37300E+03
        -0.37300E+03
        -0.37300E+03
        -0.37300E+03
        -0.37300E+03
        -0.37300E+03
        -0.37300E+03
        -0.37300E+03
        -0.37300E+03
        -0.37300E+03
        -0.37300E+03
        -0.37300E+03
        -0.37300E+03
        -0.37300E+03
        -0.37300E+03
        -0.37300E+03
        -0.37300E+03
        -0.37300E+03
        -0.37300E+03
        -0.37300E+03
        -0.37300E+03
        -0.37300E+03
        -0.37300E+03
        -0.37300E+03
        -0.37300E+03
        -0.37300E+03
        -0.37300E+03
        -0.37300E+03
        -0.37300E+03
        -0.37300E+03
        -0.37300E+03
        -0.37300E+03
        -0.37300E+03
        -0.37300E+03
        -0.37300E+03
        -0.37300E+03
        -0.37300E+03
        -0.37300E+03
        -0.37300E+03
        -0.37300E+03
        -0.37300E+03
        -0.37300E+03
        -0.37300E+03
        -0.37300E+03
        -0.37300E+03
        -0.37300E+03
        -0.37300E+03
        -0.37300E+03
        -0.37300E+03
        -0.37300E+03
        -0.37300E+03
        -0.37300E+03
        -0.37300E+03
        -0.37300E+03
        -0.37300E+03
        -0.37300E+03
        -0.37300E+03
        -0.37300E+03
        -0.37300E+03
        -0.37300E+03
        -0.37300E+03
        -0.37300E+03
        -0.37300E+03
        -0.37300E+03
        -0.37300E+03
        -0.37300E+03
        -0.37300E+03
        -0.37300E+03
        -0.37300E+03
        -0.37300E+03
        -0.37300E+03
        -0.37300E+03
        -0.37300E+03
        -0.37300E+03
        -0.37300E+03
        -0.37300E+03
        -0.37300E+03
        -0.37300E+03
        -0.37300E+03
        -0.37300E+03
        -0.37300E+03
        -0.37300E+03
        -0.37300E+03
        -0.37300E+03
        -0.37300E+03
        -0.37300E+03
        -0.37300E+03
        -0.37300E+03
        -0.37300E+03
        -0.37300E+03
        -0.37300E+03
        -0.37300E+03
        -0.37300E+03
        -0.37300E+03
        -0.37300E+03
        -0.37300E+03
        -0.37300E+03
        -0.37300E+03
        -0.37300E+03
        -0.37300E+03
        -0.37300E+03
        -0.37300E+03
        -0.37300E+03
        -0.37300E+03
        -0.37300E+03
        -0.37300E+03
        -0.37300E+03
        -0.37300E+03
        -0.37300E+03
        -0.37300E+03
        -0.37300E+03
        -0.37300E+03
        -0.37300E+03
        -0.37300E+03
        -0.37300E+03
        -0.37300E+03
        -0.37300E+03
        -0.37300E+03
        -0.37300E+03
        -0.37300E+03
        -0.37300E+03
        -0.37300E+03
        -0.37300E+03
        -0.37300E+03
        -0.37300E+03
        -0.37300E+03
        -0.37300E+03
        -0.37300E+03
        -0.37300E+03
        -0.37300E+03
        -0.37300E+03
        -0.37300E+03
        -0.37300E+03
        -0.37300E+03
        -0.37300E+03
        -0.37300E+03
        -0.37300E+03
        -0.37300E+03
        -0.37300E+03
        -0.37300E+03
        -0.37300E+03
        -0.37300E+03
        -0.37300E+03
        -0.37300E+03
        -0.37300E+03
        -0.37300E+03
        -0.37300E+03
        -0.37300E+03
        -0.37300E+03
        -0.37300E+03
        -0.37300E+03
        -0.37300E+03
        -0.37300E+03
        -0.37300E+03
        -0.37300E+03
        -0.37300E+03
        -0.37300E+03
        -0.37300E+03
        -0.37300E+03
        -0.37300E+03
        -0.37300E+03
        -0.37300E+03
        -0.37300E+03
        -0.37300E+03
        -0.37300E+03
        -0.37300E+03
        -0.37300E+03
        -0.37300E+03
        -0.37300E+03
        -0.37300E+03
        -0.37300E+03
        -0.37300E+03
        -0.37300E+03
        -0.37300E+03
        -0.37300E+03
        -0.37300E+03
        -0.37300E+03
        -0.37300E+03
        -0.37300E+03
        -0.37300E+03
        -0.37300E+03
        -0.37300E+03
        -0.37300E+03
        -0.37300E+03
        -0.37300E+03
        -0.37300E+03
        -0.37300E+03
        -0.37300E+03
        -0.37300E+03
        -0.37300E+03
        -0.37300E+03
        -0.37300E+03
        -0.37300E+03
        -0.37300E+03
        -0.37300E+03
        -0.37300E+03
        -0.37300E+03
        -0.37300E+03
        -0.37300E+03
        -0.37300E+03
        -0.37300E+03
        -0.37300E+03
        -0.37300E+03
        -0.37300E+03
        -0.37300E+03
        -0.37300E+03
        -0.37300E+03
        -0.37300E+03
        -0.37300E+03
        -0.37300E+03
        -0.37300E+03
        -0.37300E+03
        -0.37300E+03
        -0.37300E+03
        -0.37300E+03
        -0.37300E+03
        -0.37300E+03
        -0.37300E+03
        -0.37300E+03
        -0.37300E+03
        -0.37300E+03
        -0.37300E+03
        -0.37300E+03
        -0.37300E+03
        -0.37300E+03
        -0.37300E+03
        -0.37300E+03
        -0.37300E+03
        -0.37300E+03
        -0.37300E+03
        -0.37300E+03
        -0.37300E+03
        -0.37300E+03
        -0.37300E+03
        -0.37300E+03
        -0.37300E+03
        -0.37300E+03
        -0.37300E+03
        -0.37300E+03
        -0.37300E+03
        -0.37300E+03
        -0.37300E+03
        -0.37300E+03
        -0.37300E+03
        -0.37300E+03
        -0.37300E+03
        -0.37300E+03
        -0.37300E+03
        -0.37300E+03
        -0.37300E+03
        -0.37300E+03
        -0.37300E+03
        -0.37300E+03
        -0.37300E+03
        -0.37300E+03
        -0.37300E+03
        -0.37300E+03
        -0.37300E+03
        -0.37300E+03
        -0.37300E+03
        -0.37300E+03
        -0.37300E+03
        -0.37300E+03
        -0.37300E+03
        -0.37300E+03
        -0.37300E+03
        -0.37300E+03
        -0.37300E+03
        -0.37300E+03
        -0.37300E+03
        -0.37300E+03
        -0.37300E+03
        -0.37300E+03
        -0.37300E+03
        -0.37300E+03
        -0.37300E+03
        -0.37300E+03
        -0.37300E+03
        -0.37300E+03
        -0.37300E+03
        -0.37300E+03
        -0.37300E+03
        -0.37300E+03
        -0.37300E+03
        -0.37300E+03
        -0.37300E+03
        -0.37300E+03
        -0.37300E+03
        -0.37300E+03
        -0.37300E+03
        -0.37300E+03
        -0.37300E+03
        -0.37300E+03
        -0.37300E+03
        -0.37300E+03
        -0.37300E+03
        -0.37300E+03
        -0.37300E+03
        -0.37300E+03
        -0.37300E+03
        -0.37300E+03
        -0.37300E+03
        -0.37300E+03
        -0.37300E+03
        -0.37300E+03
        -0.37300E+03
        -0.37300E+03
        -0.37300E+03
        -0.37300E+03
        -0.37300E+03
        -0.37300E+03
        -0.37300E+03
        -0.37300E+03
        -0.37300E+03
        -0.37300E+03
        -0.37300E+03
        -0.37300E+03
        -0.37300E+03
        -0.37300E+03
        -0.37300E+03
        -0.37300E+03
        -0.37300E+03
        -0.37300E+03
        -0.37300E+03
        -0.37300E+03
        -0.37300E+03
        -0.37300E+03
        -0.37300E+03
        -0.37300E+03
        -0.37300E+03
        -0.37300E+03
        -0.37300E+03
        -0.37300E+03
        -0.37300E+03
        -0.37300E+03
        -0.37300E+03
        -0.37300E+03
        -0.37300E+03
        -0.37300E+03
        -0.37300E+03
        -0.37300E+03
        -0.37300E+03
        -0.37300E+03
        -0.37300E+03
        -0.37300E+03
        -0.37300E+03
        -0.37300E+03
        -0.37300E+03
        -0.37300E+03
        -0.37300E+03
        -0.37300E+03
        -0.37300E+03
        -0.37300E+03
        -0.37300E+03
        -0.37300E+03
        -0.37300E+03
        -0.37300E+03
        -0.37300E+03
        -0.37300E+03
        -0.37300E+03
        -0.37300E+03
        -0.37300E+03
        -0.37300E+03
        -0.37300E+03
        -0.37300E+03
        -0.37300E+03
        -0.37300E+03
        -0.37300E+03
        -0.37300E+03
        -0.37300E+03
        -0.37300E+03
        -0.37300E+03
        -0.37300E+03
        -0.37300E+03
        -0.37300E+03
        -0.37300E+03
        -0.37300E+03
        -0.37300E+03
        -0.37300E+03
        -0.37300E+03
        -0.37300E+03
        -0.37300E+03
        -0.37300E+03
        -0.37300E+03
        -0.37300E+03
        -0.37300E+03
        -0.37300E+03
        -0.37300E+03
        -0.37300E+03
        -0.37300E+03
        -0.37300E+03
        -0.37300E+03
        -0.37300E+03
        -0.37300E+03
        -0.37300E+03
        -0.37300E+03
        -0.37300E+03
        -0.37300E+03
        -0.37300E+03
        -0.37300E+03
        -0.37300E+03
        -0.37300E+03
        -0.37300E+03
        -0.37300E+03
        -0.37300E+03
        -0.37300E+03
        -0.37300E+03
        -0.37300E+03
        -0.37300E+03
        -0.37300E+03
        -0.37300E+03
        -0.37300E+03
        -0.37300E+03
        -0.37300E+03
        -0.37300E+03
        -0.37300E+03
        -0.37300E+03
        -0.37300E+03
        -0.37300E+03
        -0.37300E+03
        -0.37300E+03
        -0.37300E+03
        -0.37300E+03
        -0.37300E+03
        -0.37300E+03
        -0.37300E+03
        -0.37300E+03
        -0.37300E+03
        -0.37300E+03
        -0.37300E+03
        -0.37300E+03
        -0.37300E+03
        -0.37300E+03
        -0.37300E+03
        -0.37300E+03
        -0.37300E+03
        -0.37300E+03
        -0.37300E+03
        -0.37300E+03
        -0.37300E+03
        -0.37300E+03
        -0.37300E+03
        -0.37300E+03
        -0.37300E+03
        -0.37300E+03
        -0.37300E+03
        -0.37300E+03
        -0.37300E+03
        -0.37300E+03
        -0.37300E+03
        -0.37300E+03
        -0.37300E+03
        -0.37300E+03
        -0.37300E+03
        -0.37300E+03
        -0.37300E+03
        -0.37300E+03
        -0.37300E+03
        -0.37300E+03
        -0.37300E+03
        -0.37300E+03
        -0.37300E+03
        -0.37300E+03
        -0.37300E+03
        -0.37300E+03
        -0.37300E+03
        -0.37300E+03
        -0.37300E+03
        -0.37300E+03
        -0.37300E+03
        -0.37300E+03
        -0.37300E+03
        -0.37300E+03
        -0.37300E+03
        -0.37300E+03
        -0.37300E+03
        -0.37300E+03
        -0.37300E+03
        -0.37300E+03
        -0.37300E+03
        -0.37300E+03
        -0.37300E+03
        -0.37300E+03
        -0.37300E+03
        -0.37300E+03
        -0.37300E+03
        -0.37300E+03
        -0.37300E+03
        -0.37300E+03
        -0.37300E+03
        -0.37300E+03
        -0.37300E+03
        -0.37300E+03
        -0.37300E+03
        -0.37300E+03
        -0.37300E+03
        -0.37300E+03
        -0.37300E+03
        -0.37300E+03
        -0.37300E+03
        -0.37300E+03
        -0.37300E+03
        -0.37300E+03
        -0.37300E+03
        -0.37300E+03
        -0.37300E+03
        -0.37300E+03
        -0.37300E+03
        -0.37300E+03
        -0.37300E+03
        -0.37300E+03
        -0.37300E+03
        -0.37300E+03
        -0.37300E+03
        -0.37300E+03
        -0.37300E+03
        -0.37300E+03
        -0.37300E+03
        -0.37300E+03
        -0.37300E+03
        -0.37300E+03
        -0.37300E+03
        -0.37300E+03
        -0.37300E+03
        -0.37300E+03
        -0.37300E+03
        -0.37300E+03
        -0.37300E+03
        -0.37300E+03
        -0.37300E+03
        -0.37300E+03
        -0.37300E+03
        -0.37300E+03
        -0.37300E+03
        -0.37300E+03
        -0.37300E+03
        -0.37300E+03
        -0.37300E+03
        -0.37300E+03
        -0.37300E+03
        -0.37300E+03
        -0.37300E+03
        -0.37300E+03
        -0.37300E+03
        -0.37300E+03
        -0.37300E+03
        -0.37300E+03
        -0.37300E+03
        -0.37300E+03
        -0.37300E+03
        -0.37300E+03
        -0.37300E+03
        -0.37300E+03
        -0.37300E+03
        -0.37300E+03
        -0.37300E+03
        -0.37300E+03
        -0.37300E+03
        -0.37300E+03
        -0.37300E+03
        -0.37300E+03
        -0.37300E+03
        -0.37300E+03
        -0.37300E+03
        -0.37300E+03
        -0.37300E+03
        -0.37300E+03
        -0.37300E+03
        -0.37300E+03
        -0.37300E+03
        -0.37300E+03
        -0.37300E+03
        -0.37300E+03
        -0.37300E+03
        -0.37300E+03
        -0.37300E+03
        -0.37300E+03
        -0.37300E+03
        -0.37300E+03
        -0.37300E+03
        -0.37300E+03
        -0.37300E+03
        -0.37300E+03
        -0.37300E+03
        -0.37300E+03
        -0.37300E+03
        -0.37300E+03
        -0.37300E+03
        -0.37300E+03
        -0.37300E+03
        -0.37300E+03
        -0.37300E+03
        -0.37300E+03
        -0.37300E+03
        -0.37300E+03
        -0.37300E+03
        -0.37300E+03
        -0.37300E+03
        -0.37300E+03
        -0.37300E+03
        -0.37300E+03
        -0.37300E+03
        -0.37300E+03
        -0.37300E+03
        -0.37300E+03
        -0.37300E+03
        -0.37300E+03
        -0.37300E+03
        -0.37300E+03
        -0.37300E+03
        -0.37300E+03
        -0.37300E+03
        -0.37300E+03
        -0.37300E+03
        -0.37300E+03
        -0.37300E+03
        -0.37300E+03
        -0.37300E+03
        -0.37300E+03
        -0.37300E+03
        -0.37300E+03
        -0.37300E+03
        -0.37300E+03
        -0.37300E+03
        -0.37300E+03
        -0.37300E+03
        -0.37300E+03
        -0.37300E+03
        -0.37300E+03
        -0.37300E+03
        -0.37300E+03
        -0.37300E+03
        -0.37300E+03
        -0.37300E+03
        -0.37300E+03
        -0.37300E+03
        -0.37300E+03
        -0.37300E+03
        -0.37300E+03
        -0.37300E+03
        -0.37300E+03
        -0.37300E+03
        -0.37300E+03
        -0.37300E+03
        -0.37300E+03
        -0.37300E+03
        -0.37300E+03
        -0.37300E+03
        -0.37300E+03
        -0.37300E+03
        -0.37300E+03
        -0.37300E+03
        -0.37300E+03
        -0.37300E+03
        -0.37300E+03
        -0.37300E+03
        -0.37300E+03
        -0.37300E+03
        -0.37300E+03
        -0.37300E+03
        -0.37300E+03
        -0.37300E+03
        -0.37300E+03
        -0.37300E+03
        -0.37300E+03
        -0.37300E+03
        -0.37300E+03
        -0.37300E+03
        -0.37300E+03
        -0.37300E+03
        -0.37300E+03
        -0.37300E+03
        -0.37300E+03
        -0.37300E+03
        -0.37300E+03
        -0.37300E+03
        -0.37300E+03
        -0.37300E+03
        -0.37300E+03
        -0.37300E+03
        -0.37300E+03
        -0.37300E+03
        -0.37300E+03
        -0.37300E+03
        -0.37300E+03
        -0.37300E+03
        -0.37300E+03
        -0.37300E+03
        -0.37300E+03
        -0.37300E+03
        -0.37300E+03
        -0.37300E+03
        -0.37300E+03
        -0.37300E+03
        -0.37300E+03
        -0.37300E+03
        -0.37300E+03
        -0.37300E+03
        -0.37300E+03
        -0.37300E+03
        -0.37300E+03
        -0.37300E+03
        -0.37300E+03
        -0.37300E+03
        -0.37300E+03
        -0.37300E+03
        -0.37300E+03
        -0.37300E+03
        -0.37300E+03
        -0.37300E+03
        -0.37300E+03
        -0.37300E+03
        -0.37300E+03
        -0.37300E+03
        -0.37300E+03
        -0.37300E+03
        -0.37300E+03
        -0.37300E+03
        -0.37300E+03
        -0.37300E+03
        -0.37300E+03
        -0.37300E+03
        -0.37300E+03
        -0.37300E+03
        -0.37300E+03
        -0.37300E+03
        -0.37300E+03
        -0.37300E+03
        -0.37300E+03
        -0.37300E+03
        -0.37300E+03
        -0.37300E+03
        -0.37300E+03
        -0.37300E+03
        -0.37300E+03
        -0.37300E+03
        -0.37300E+03
        -0.37300E+03
        -0.37300E+03
        -0.37300E+03
        -0.37300E+03
        -0.37300E+03
        -0.37300E+03
        -0.37300E+03
        -0.37300E+03
        -0.37300E+03
        -0.37300E+03
        -0.37300E+03
        -0.37300E+03
        -0.37300E+03
        -0.37300E+03
        -0.37300E+03
        -0.37300E+03
        -0.37300E+03
        -0.37300E+03
        -0.37300E+03
        -0.37300E+03
        -0.37300E+03
        -0.37300E+03
        -0.37300E+03
        -0.37300E+03
        -0.37300E+03
        -0.37300E+03
        -0.37300E+03
        -0.37300E+03
        -0.37300E+03
        -0.37300E+03
        -0.37300E+03
        -0.37300E+03
        -0.37300E+03
        -0.37300E+03
        -0.37300E+03
        -0.37300E+03
        -0.37300E+03
        -0.37300E+03
        -0.37300E+03
        -0.37300E+03
        -0.37300E+03
        -0.37300E+03
        -0.37300E+03
        -0.37300E+03
        -0.37300E+03
        -0.37300E+03
        -0.37300E+03
        -0.37300E+03
        -0.37300E+03
        -0.37300E+03
        -0.37300E+03
        -0.37300E+03
        -0.37300E+03
        -0.37300E+03
        -0.37300E+03
        -0.37300E+03
        -0.37300E+03
        -0.37300E+03
        -0.37300E+03
        -0.37300E+03
        -0.37300E+03
        -0.37300E+03
        -0.37300E+03
        -0.37300E+03
        -0.37300E+03
        -0.37300E+03
        -0.37300E+03
        -0.37300E+03
        -0.37300E+03
        -0.37300E+03
        -0.37300E+03
        -0.37300E+03
        -0.37300E+03
        -0.37300E+03
        -0.37300E+03
        -0.37300E+03
        -0.37300E+03
        -0.37300E+03
        -0.37300E+03
        -0.37300E+03
        -0.37300E+03
        -0.37300E+03
        -0.37300E+03
        -0.37300E+03
        -0.37300E+03
        -0.37300E+03
        -0.37300E+03
        -0.37300E+03
        -0.37300E+03
        -0.37300E+03
        -0.37300E+03
        -0.37300E+03
        -0.37300E+03
        -0.37300E+03
        -0.37300E+03
        -0.37300E+03
        -0.37300E+03
        -0.37300E+03
        -0.37300E+03
        -0.37300E+03
        -0.37300E+03
        -0.37300E+03
        -0.37300E+03
        -0.37300E+03
        -0.37300E+03
        -0.37300E+03
        -0.37300E+03
        -0.37300E+03
        -0.37300E+03
        -0.37300E+03
        -0.37300E+03
        -0.37300E+03
        -0.37300E+03
        -0.37300E+03
        -0.37300E+03
        -0.37300E+03
        -0.37300E+03
        -0.37300E+03
        -0.37300E+03
        -0.37300E+03
        -0.37300E+03
        -0.37300E+03
        -0.37300E+03
        -0.37300E+03
        -0.37300E+03
        -0.37300E+03
        -0.37300E+03
        -0.37300E+03
        -0.37300E+03
        -0.37300E+03
        -0.37300E+03
        -0.37300E+03
        -0.37300E+03
        -0.37300E+03
        -0.37300E+03
        -0.37300E+03
        -0.37300E+03
        -0.37300E+03
        -0.37300E+03
        -0.37300E+03
        -0.37300E+03
        -0.37300E+03
        -0.37300E+03
        -0.37300E+03
        -0.37300E+03
        -0.37300E+03
        -0.37300E+03
        -0.37300E+03
        -0.37300E+03
        -0.37300E+03
        -0.37300E+03
        -0.37300E+03
        -0.37300E+03
        -0.37300E+03
        -0.37300E+03
        -0.37300E+03
        -0.37300E+03
        -0.37300E+03
        -0.37300E+03
        -0.37300E+03
        -0.37300E+03
        -0.37300E+03
        -0.37300E+03
        -0.37300E+03
        -0.37300E+03
        -0.37300E+03
        -0.37300E+03
        -0.37300E+03
        -0.37300E+03
        -0.37300E+03
        -0.37300E+03
        -0.37300E+03
        -0.37300E+03
        -0.37300E+03
        -0.37300E+03
        -0.37300E+03
        -0.37300E+03
        -0.37300E+03
        -0.37300E+03
        -0.37300E+03
        -0.37300E+03
        -0.37300E+03
        -0.37300E+03
        -0.37300E+03
        -0.37300E+03
        -0.37300E+03
        -0.37300E+03
        -0.37300E+03
        -0.37300E+03
        -0.37300E+03
        -0.37300E+03
        -0.37300E+03
        -0.37300E+03
        -0.37300E+03
        -0.37300E+03
        -0.37300E+03
        -0.37300E+03
        -0.37300E+03
        -0.37300E+03
        -0.37300E+03
        -0.37300E+03
        -0.37300E+03
        -0.37300E+03
        -0.37300E+03
        -0.37300E+03
        -0.37300E+03
        -0.37300E+03
        -0.37300E+03
        -0.37300E+03
        -0.37300E+03
        -0.37300E+03
        -0.37300E+03
        -0.37300E+03
        -0.37300E+03
        -0.37300E+03
        -0.37300E+03
        -0.37300E+03
        -0.37300E+03
        -0.37300E+03
        -0.37300E+03
        -0.37300E+03
        -0.37300E+03
        -0.37300E+03
        -0.37300E+03
        -0.37300E+03
        -0.37300E+03
        -0.37300E+03
        -0.37300E+03
        -0.37300E+03
        -0.37300E+03
        -0.37300E+03
        -0.37300E+03
        -0.37300E+03
        -0.37300E+03
        -0.37300E+03
        -0.37300E+03
        -0.37300E+03
        -0.37300E+03
        -0.37300E+03
        -0.37300E+03
        -0.37300E+03
        -0.37300E+03
        -0.37300E+03
        -0.37300E+03
        -0.37300E+03
        -0.37300E+03
        -0.37300E+03
        -0.37300E+03
        -0.37300E+03
        -0.37300E+03
        -0.37300E+03
        -0.37300E+03
        -0.37300E+03
        -0.37300E+03
        -0.37300E+03
        -0.37300E+03
        -0.37300E+03
        -0.37300E+03
        -0.37300E+03
        -0.37300E+03
        -0.37300E+03
        -0.37300E+03
        -0.37300E+03
        -0.37300E+03
        -0.37300E+03
        -0.37300E+03
        -0.37300E+03
        -0.37300E+03
        -0.37300E+03
        -0.37300E+03
        -0.37300E+03
        -0.37300E+03
        -0.37300E+03
        -0.37300E+03
        -0.37300E+03
        -0.37300E+03
        -0.37300E+03
        -0.37300E+03
        -0.37300E+03
        -0.37300E+03
        -0.37300E+03
        -0.37300E+03
        -0.37300E+03
        -0.37300E+03
        -0.37300E+03
        -0.37300E+03
        -0.37300E+03
        -0.37300E+03
        -0.37300E+03
        -0.37300E+03
        -0.37300E+03
        -0.37300E+03
        -0.37300E+03
        -0.37300E+03
        -0.37300E+03
        -0.37300E+03
        -0.37300E+03
        -0.37300E+03
        -0.37300E+03
        -0.37300E+03
        -0.37300E+03
        -0.37300E+03
        -0.37300E+03
        -0.37300E+03
        -0.37300E+03
        -0.37300E+03
        -0.37300E+03
        -0.37300E+03
        -0.37300E+03
        -0.37300E+03
        -0.37300E+03
        -0.37300E+03
        -0.37300E+03
        -0.37300E+03
        -0.37300E+03
        -0.37300E+03
        -0.37300E+03
        -0.37300E+03
        -0.37300E+03
        -0.37300E+03
        -0.37300E+03
        -0.37300E+03
        -0.37300E+03
        -0.37300E+03
        -0.37300E+03
        -0.37300E+03
        -0.37300E+03
        -0.37300E+03
        -0.37300E+03
        -0.37300E+03
        -0.37300E+03
        -0.37300E+03
        -0.37300E+03
        -0.37300E+03
        -0.37300E+03
        -0.37300E+03
        -0.37300E+03
        -0.37300E+03
        -0.37300E+03
        -0.37300E+03
        -0.37300E+03
        -0.37300E+03
        -0.37300E+03
        -0.37300E+03
        -0.37300E+03
        -0.37300E+03
        -0.37300E+03
        -0.37300E+03
        -0.37300E+03
        -0.37300E+03
        -0.37300E+03
        -0.37300E+03
        -0.37300E+03
        -0.37300E+03
        -0.37300E+03
        -0.37300E+03
        -0.37300E+03
        -0.37300E+03
        -0.37300E+03
        -0.37300E+03
        -0.37300E+03
        -0.37300E+03
        -0.37300E+03
        -0.37300E+03
        -0.37300E+03
        -0.37300E+03
        -0.37300E+03
        -0.37300E+03
        -0.37300E+03
        -0.37300E+03
        -0.37300E+03
        -0.37300E+03
        -0.37300E+03
        -0.37300E+03
        -0.37300E+03
        -0.37300E+03
        -0.37300E+03
        -0.37300E+03
        -0.37300E+03
        -0.37300E+03
        -0.37300E+03
        -0.37300E+03
        -0.37300E+03
        -0.37300E+03
        -0.37300E+03
        -0.37300E+03
        -0.37300E+03
        -0.37300E+03
        -0.37300E+03
        -0.37300E+03
        -0.37300E+03
        -0.37300E+03
        -0.37300E+03
        -0.37300E+03
        -0.37300E+03
        -0.37300E+03
        -0.37300E+03
        -0.37300E+03
        -0.37300E+03
        -0.37300E+03
        -0.37300E+03
        -0.37300E+03
        -0.37300E+03
        -0.37300E+03
        -0.37300E+03
        -0.37300E+03
        -0.37300E+03
        -0.37300E+03
        -0.37300E+03
        -0.37300E+03
        -0.37300E+03
        -0.37300E+03
        -0.37300E+03
        -0.37300E+03
        -0.37300E+03
        -0.37300E+03
        -0.37300E+03
        -0.37300E+03
        -0.37300E+03
        -0.37300E+03
        -0.37300E+03
        -0.37300E+03
        -0.37300E+03
        -0.37300E+03
        -0.37300E+03
        -0.37300E+03
        -0.37300E+03
        -0.37300E+03
        -0.37300E+03
        -0.37300E+03
        -0.37300E+03
        -0.37300E+03
        -0.37300E+03
        -0.37300E+03
        -0.37300E+03
        -0.37300E+03
        -0.37300E+03
        -0.37300E+03
        -0.37300E+03
        -0.37300E+03
        -0.37300E+03
        -0.37300E+03
        -0.37300E+03
        -0.37300E+03
        -0.37300E+03
        -0.37300E+03
        -0.37300E+03
        -0.37300E+03
        -0.37300E+03
        -0.37300E+03
        -0.37300E+03
        -0.37300E+03
        -0.37300E+03
        -0.37300E+03
        -0.37300E+03
        -0.37300E+03
        -0.37300E+03
        -0.37300E+03
        -0.37300E+03
        -0.37300E+03
        -0.37300E+03
        -0.37300E+03
        -0.37300E+03
        -0.37300E+03
        -0.37300E+03
        -0.37300E+03
        -0.37300E+03
        -0.37300E+03
        -0.37300E+03
        -0.37300E+03
        -0.37300E+03
        -0.37300E+03
        -0.37300E+03
        -0.37300E+03
        -0.37300E+03
        -0.37300E+03
        -0.37300E+03
        -0.37300E+03
        -0.37300E+03
        -0.37300E+03
        -0.37300E+03
        -0.37300E+03
        -0.37300E+03
        -0.37300E+03
        -0.37300E+03
        -0.37300E+03
        -0.37300E+03
        -0.37300E+03
        -0.37300E+03
        -0.37300E+03
        -0.37300E+03
        -0.37300E+03
        -0.37300E+03
        -0.37300E+03
        -0.37300E+03
        -0.37300E+03
        -0.37300E+03
        -0.37300E+03
        -0.37300E+03
        -0.37300E+03
        -0.37300E+03
        -0.37300E+03
        -0.37300E+03
        -0.37300E+03
        -0.37300E+03
        -0.37300E+03
        -0.37300E+03
        -0.37300E+03
        -0.37300E+03
        -0.37300E+03
        -0.37300E+03
        -0.37300E+03
        -0.37300E+03
        -0.37300E+03
        -0.37300E+03
        -0.37300E+03
        -0.37300E+03
        -0.37300E+03
        -0.37300E+03
        -0.37300E+03
        -0.37300E+03
        -0.37300E+03
        -0.37300E+03
        -0.37300E+03
        -0.37300E+03
        -0.37300E+03
        -0.37300E+03
        -0.37300E+03
        -0.37300E+03
        -0.37300E+03
        -0.37300E+03
        -0.37300E+03
        -0.37300E+03
        -0.37300E+03
        -0.37300E+03
        -0.37300E+03
        -0.37300E+03
        -0.37300E+03
        -0.37300E+03
        -0.37300E+03
        -0.37300E+03
        -0.37300E+03
        -0.37300E+03
        -0.37300E+03
        -0.37300E+03
        -0.37300E+03
        -0.37300E+03
        -0.37300E+03
        -0.37300E+03
        -0.37300E+03
        -0.37300E+03
        -0.37300E+03
        -0.37300E+03
        -0.37300E+03
        -0.37300E+03
        -0.37300E+03
        -0.37300E+03
        -0.37300E+03
        -0.37300E+03
        -0.37300E+03
        -0.37300E+03
        -0.37300E+03
        -0.37300E+03
        -0.37300E+03
        -0.37300E+03
        -0.37300E+03
        -0.37300E+03
        -0.37300E+03
        -0.37300E+03
        -0.37300E+03
        -0.37300E+03
        -0.37300E+03
        -0.37300E+03
        -0.37300E+03
        -0.37300E+03
        -0.37300E+03
        -0.37300E+03
        -0.37300E+03
        -0.37300E+03
        -0.37300E+03
        -0.37300E+03
        -0.37300E+03
        -0.37300E+03
        -0.37300E+03
        -0.37300E+03
        -0.37300E+03
        -0.37300E+03
        -0.37300E+03
        -0.37300E+03
        -0.37300E+03
        -0.37300E+03
        -0.37300E+03
        -0.37300E+03
        -0.37300E+03
        -0.37300E+03
        -0.37300E+03
        -0.37300E+03
        -0.37300E+03
        -0.37300E+03
        -0.37300E+03
        -0.37300E+03
        -0.37300E+03
        -0.37300E+03
        -0.37300E+03
        -0.37300E+03
        -0.37300E+03
        -0.37300E+03
        -0.37300E+03
        -0.37300E+03
        -0.37300E+03
        -0.37300E+03
        -0.37300E+03
        -0.37300E+03
        -0.37300E+03
        -0.37300E+03
        -0.37300E+03
        -0.37300E+03
        -0.37300E+03
        -0.37300E+03
        -0.37300E+03
        -0.37300E+03
        -0.37300E+03
        -0.37300E+03
        -0.37300E+03
        -0.37300E+03
        -0.37300E+03
        -0.37300E+03
        -0.37300E+03
        -0.37300E+03
        -0.37300E+03
        -0.37300E+03
        -0.37300E+03
        -0.37300E+03
        -0.37300E+03
        -0.37300E+03
        -0.37300E+03
        -0.37300E+03
        -0.37300E+03
        -0.37300E+03
        -0.37300E+03
        -0.37300E+03
        -0.37300E+03
        -0.37300E+03
        -0.37300E+03
        -0.37300E+03
        -0.37300E+03
        -0.37300E+03
        -0.37300E+03
        -0.37300E+03
        -0.37300E+03
        -0.37300E+03
        -0.37300E+03
        -0.37300E+03
        -0.37300E+03
        -0.37300E+03
        -0.37300E+03
        -0.37300E+03
        -0.37300E+03
        -0.37300E+03
        -0.37300E+03
        -0.37300E+03
        -0.37300E+03
        -0.37300E+03
        -0.37300E+03
        -0.37300E+03
        -0.37300E+03
        -0.37300E+03
        -0.37300E+03
        -0.37300E+03
        -0.37300E+03
        -0.37300E+03
        -0.37300E+03
        -0.37300E+03
        -0.37300E+03
        -0.37300E+03
        -0.37300E+03
        -0.37300E+03
        -0.37300E+03
        -0.37300E+03
        -0.37300E+03
        -0.37300E+03
        -0.37300E+03
        -0.37300E+03
        -0.37300E+03
        -0.37300E+03
        -0.37300E+03
        -0.37300E+03
        -0.37300E+03
        -0.37300E+03
        -0.37300E+03
        -0.37300E+03
        -0.37300E+03
        -0.37300E+03
        -0.37300E+03
        -0.37300E+03
        -0.37300E+03
        -0.37300E+03
        -0.37300E+03
        -0.37300E+03
        -0.37300E+03
        -0.37300E+03
        -0.37300E+03
        -0.37300E+03
        -0.37300E+03
        -0.37300E+03
        -0.37300E+03
        -0.37300E+03
        -0.37300E+03
        -0.37300E+03
        -0.37300E+03
        -0.37300E+03
        -0.37300E+03
        -0.37300E+03
        -0.37300E+03
        -0.37300E+03
        -0.37300E+03
        -0.37300E+03
        -0.37300E+03
        -0.37300E+03
        -0.37300E+03
        -0.37300E+03
        -0.37300E+03
        -0.37300E+03
        -0.37300E+03
        -0.37300E+03
        -0.37300E+03
        -0.37300E+03
        -0.37300E+03
        -0.37300E+03
        -0.37300E+03
        -0.37300E+03
        -0.37300E+03
        -0.37300E+03
        -0.37300E+03
        -0.37300E+03
        -0.37300E+03
        -0.37300E+03
        -0.37300E+03
        -0.37300E+03
        -0.37300E+03
        -0.37300E+03
        -0.37300E+03
        -0.37300E+03
        -0.37300E+03
        -0.37300E+03
        -0.37300E+03
        -0.37300E+03
        -0.37300E+03
        -0.37300E+03
        -0.37300E+03
        -0.37300E+03
        -0.37300E+03
        -0.37300E+03
        -0.37300E+03
        -0.37300E+03
        -0.37300E+03
        -0.37300E+03
        -0.37300E+03
        -0.37300E+03
        -0.37300E+03
        -0.37300E+03
        -0.37300E+03
        -0.37300E+03
        -0.37300E+03
        -0.37300E+03
        -0.37300E+03
        -0.37300E+03
        -0.37300E+03
        -0.37300E+03
        -0.37300E+03
        -0.37300E+03
        -0.37300E+03
        -0.37300E+03
        -0.37300E+03
        -0.37300E+03
        -0.37300E+03
        -0.37300E+03
        -0.37300E+03
        -0.37300E+03
        -0.37300E+03
        -0.37300E+03
        -0.37300E+03
        -0.37300E+03
        -0.37300E+03
        -0.37300E+03
        -0.37300E+03
        -0.37300E+03
        -0.37300E+03
        -0.37300E+03
        -0.37300E+03
        -0.37300E+03
        -0.37300E+03
        -0.37300E+03
        -0.37300E+03
        -0.37300E+03
        -0.37300E+03
        -0.37300E+03
        -0.37300E+03
        -0.37300E+03
        -0.37300E+03
        -0.37300E+03
        -0.37300E+03
        -0.37300E+03
        -0.37300E+03
        -0.37300E+03
        -0.37300E+03
        -0.37300E+03
        -0.37300E+03
        -0.37300E+03
        -0.37300E+03
        -0.37300E+03
        -0.37300E+03
        -0.37300E+03
        -0.37300E+03
        -0.37300E+03
        -0.37300E+03
        -0.37300E+03
        -0.37300E+03
        -0.37300E+03
        -0.37300E+03
        -0.37300E+03
        -0.37300E+03
        -0.37300E+03
        -0.37300E+03
        -0.37300E+03
        -0.37300E+03
        -0.37300E+03
        -0.37300E+03
        -0.37300E+03
  
SCALARS                 acceleration_x  double 1
LOOKUP_TABLE default
         0.00000E+00
         0.00000E+00
         0.00000E+00
         0.00000E+00
         0.00000E+00
         0.00000E+00
         0.00000E+00
         0.00000E+00
         0.00000E+00
         0.00000E+00
         0.00000E+00
         0.00000E+00
         0.00000E+00
         0.00000E+00
         0.00000E+00
         0.00000E+00
         0.00000E+00
         0.00000E+00
         0.00000E+00
         0.00000E+00
         0.00000E+00
         0.00000E+00
         0.00000E+00
         0.00000E+00
         0.00000E+00
         0.00000E+00
         0.00000E+00
         0.00000E+00
         0.00000E+00
         0.00000E+00
         0.00000E+00
         0.00000E+00
         0.00000E+00
         0.00000E+00
         0.00000E+00
         0.00000E+00
         0.00000E+00
         0.00000E+00
         0.00000E+00
         0.00000E+00
         0.00000E+00
         0.00000E+00
         0.00000E+00
         0.00000E+00
         0.00000E+00
         0.00000E+00
         0.00000E+00
         0.00000E+00
         0.00000E+00
         0.00000E+00
         0.00000E+00
         0.00000E+00
         0.00000E+00
         0.00000E+00
         0.00000E+00
         0.00000E+00
         0.00000E+00
         0.00000E+00
         0.00000E+00
         0.00000E+00
         0.00000E+00
         0.00000E+00
         0.00000E+00
         0.00000E+00
         0.00000E+00
         0.00000E+00
         0.00000E+00
         0.00000E+00
         0.00000E+00
         0.00000E+00
         0.00000E+00
         0.00000E+00
         0.00000E+00
         0.00000E+00
         0.00000E+00
         0.00000E+00
         0.00000E+00
         0.00000E+00
         0.00000E+00
         0.00000E+00
         0.00000E+00
         0.00000E+00
         0.00000E+00
         0.00000E+00
         0.00000E+00
         0.00000E+00
         0.00000E+00
         0.00000E+00
         0.00000E+00
         0.00000E+00
         0.00000E+00
         0.00000E+00
         0.00000E+00
         0.00000E+00
         0.00000E+00
         0.00000E+00
         0.00000E+00
         0.00000E+00
         0.00000E+00
         0.00000E+00
         0.00000E+00
         0.00000E+00
         0.00000E+00
         0.00000E+00
         0.00000E+00
         0.00000E+00
         0.00000E+00
         0.00000E+00
         0.00000E+00
         0.00000E+00
         0.00000E+00
         0.00000E+00
         0.00000E+00
         0.00000E+00
         0.00000E+00
         0.00000E+00
         0.00000E+00
         0.00000E+00
         0.00000E+00
         0.00000E+00
         0.00000E+00
         0.00000E+00
         0.00000E+00
         0.00000E+00
         0.00000E+00
         0.00000E+00
         0.00000E+00
         0.00000E+00
         0.00000E+00
         0.00000E+00
         0.00000E+00
         0.00000E+00
         0.00000E+00
         0.00000E+00
         0.00000E+00
         0.00000E+00
         0.00000E+00
         0.00000E+00
         0.00000E+00
         0.00000E+00
         0.00000E+00
         0.00000E+00
         0.00000E+00
         0.00000E+00
         0.00000E+00
         0.00000E+00
         0.00000E+00
         0.00000E+00
         0.00000E+00
         0.00000E+00
         0.00000E+00
         0.00000E+00
         0.00000E+00
         0.00000E+00
         0.00000E+00
         0.00000E+00
         0.00000E+00
         0.00000E+00
         0.00000E+00
         0.00000E+00
         0.00000E+00
         0.00000E+00
         0.00000E+00
         0.00000E+00
         0.00000E+00
         0.00000E+00
         0.00000E+00
         0.00000E+00
         0.00000E+00
         0.00000E+00
         0.00000E+00
         0.00000E+00
         0.00000E+00
         0.00000E+00
         0.00000E+00
         0.00000E+00
         0.00000E+00
         0.00000E+00
         0.00000E+00
         0.00000E+00
         0.00000E+00
         0.00000E+00
         0.00000E+00
         0.00000E+00
         0.00000E+00
         0.00000E+00
         0.00000E+00
         0.00000E+00
         0.00000E+00
         0.00000E+00
         0.00000E+00
         0.00000E+00
         0.00000E+00
         0.00000E+00
         0.00000E+00
         0.00000E+00
         0.00000E+00
         0.00000E+00
         0.00000E+00
         0.00000E+00
         0.00000E+00
         0.00000E+00
         0.00000E+00
         0.00000E+00
         0.00000E+00
         0.00000E+00
         0.00000E+00
         0.00000E+00
         0.00000E+00
         0.00000E+00
         0.00000E+00
         0.00000E+00
         0.00000E+00
         0.00000E+00
         0.00000E+00
         0.00000E+00
         0.00000E+00
         0.00000E+00
         0.00000E+00
         0.00000E+00
         0.00000E+00
         0.00000E+00
         0.00000E+00
         0.00000E+00
         0.00000E+00
         0.00000E+00
         0.00000E+00
         0.00000E+00
         0.00000E+00
         0.00000E+00
         0.00000E+00
         0.00000E+00
         0.00000E+00
         0.00000E+00
         0.00000E+00
         0.00000E+00
         0.00000E+00
         0.00000E+00
         0.00000E+00
         0.00000E+00
         0.00000E+00
         0.00000E+00
         0.00000E+00
         0.00000E+00
         0.00000E+00
         0.00000E+00
         0.00000E+00
         0.00000E+00
         0.00000E+00
         0.00000E+00
         0.00000E+00
         0.00000E+00
         0.00000E+00
         0.00000E+00
         0.00000E+00
         0.00000E+00
         0.00000E+00
         0.00000E+00
         0.00000E+00
         0.00000E+00
         0.00000E+00
         0.00000E+00
         0.00000E+00
         0.00000E+00
         0.00000E+00
         0.00000E+00
         0.00000E+00
         0.00000E+00
         0.00000E+00
         0.00000E+00
         0.00000E+00
         0.00000E+00
         0.00000E+00
         0.00000E+00
         0.00000E+00
         0.00000E+00
         0.00000E+00
         0.00000E+00
         0.00000E+00
         0.00000E+00
         0.00000E+00
         0.00000E+00
         0.00000E+00
         0.00000E+00
         0.00000E+00
         0.00000E+00
         0.00000E+00
         0.00000E+00
         0.00000E+00
         0.00000E+00
         0.00000E+00
         0.00000E+00
         0.00000E+00
         0.00000E+00
         0.00000E+00
         0.00000E+00
         0.00000E+00
         0.00000E+00
         0.00000E+00
         0.00000E+00
         0.00000E+00
         0.00000E+00
         0.00000E+00
         0.00000E+00
         0.00000E+00
         0.00000E+00
         0.00000E+00
         0.00000E+00
         0.00000E+00
         0.00000E+00
         0.00000E+00
         0.00000E+00
         0.00000E+00
         0.00000E+00
         0.00000E+00
         0.00000E+00
         0.00000E+00
         0.00000E+00
         0.00000E+00
         0.00000E+00
         0.00000E+00
         0.00000E+00
         0.00000E+00
         0.00000E+00
         0.00000E+00
         0.00000E+00
         0.00000E+00
         0.00000E+00
         0.00000E+00
         0.00000E+00
         0.00000E+00
         0.00000E+00
         0.00000E+00
         0.00000E+00
         0.00000E+00
         0.00000E+00
         0.00000E+00
         0.00000E+00
         0.00000E+00
         0.00000E+00
         0.00000E+00
         0.00000E+00
         0.00000E+00
         0.00000E+00
         0.00000E+00
         0.00000E+00
         0.00000E+00
         0.00000E+00
         0.00000E+00
         0.00000E+00
         0.00000E+00
         0.00000E+00
         0.00000E+00
         0.00000E+00
         0.00000E+00
         0.00000E+00
         0.00000E+00
         0.00000E+00
         0.00000E+00
         0.00000E+00
         0.00000E+00
         0.00000E+00
         0.00000E+00
         0.00000E+00
         0.00000E+00
         0.00000E+00
         0.00000E+00
         0.00000E+00
         0.00000E+00
         0.00000E+00
         0.00000E+00
         0.00000E+00
         0.00000E+00
         0.00000E+00
         0.00000E+00
         0.00000E+00
         0.00000E+00
         0.00000E+00
         0.00000E+00
         0.00000E+00
         0.00000E+00
         0.00000E+00
         0.00000E+00
         0.00000E+00
         0.00000E+00
         0.00000E+00
         0.00000E+00
         0.00000E+00
         0.00000E+00
         0.00000E+00
         0.00000E+00
         0.00000E+00
         0.00000E+00
         0.00000E+00
         0.00000E+00
         0.00000E+00
         0.00000E+00
         0.00000E+00
         0.00000E+00
         0.00000E+00
         0.00000E+00
         0.00000E+00
         0.00000E+00
         0.00000E+00
         0.00000E+00
         0.00000E+00
         0.00000E+00
         0.00000E+00
         0.00000E+00
         0.00000E+00
         0.00000E+00
         0.00000E+00
         0.00000E+00
         0.00000E+00
         0.00000E+00
         0.00000E+00
         0.00000E+00
         0.00000E+00
         0.00000E+00
         0.00000E+00
         0.00000E+00
         0.00000E+00
         0.00000E+00
         0.00000E+00
         0.00000E+00
         0.00000E+00
         0.00000E+00
         0.00000E+00
         0.00000E+00
         0.00000E+00
         0.00000E+00
         0.00000E+00
         0.00000E+00
         0.00000E+00
         0.00000E+00
         0.00000E+00
         0.00000E+00
         0.00000E+00
         0.00000E+00
         0.00000E+00
         0.00000E+00
         0.00000E+00
         0.00000E+00
         0.00000E+00
         0.00000E+00
         0.00000E+00
         0.00000E+00
         0.00000E+00
         0.00000E+00
         0.00000E+00
         0.00000E+00
         0.00000E+00
         0.00000E+00
         0.00000E+00
         0.00000E+00
         0.00000E+00
         0.00000E+00
         0.00000E+00
         0.00000E+00
         0.00000E+00
         0.00000E+00
         0.00000E+00
         0.00000E+00
         0.00000E+00
         0.00000E+00
         0.00000E+00
         0.00000E+00
         0.00000E+00
         0.00000E+00
         0.00000E+00
         0.00000E+00
         0.00000E+00
         0.00000E+00
         0.00000E+00
         0.00000E+00
         0.00000E+00
         0.00000E+00
         0.00000E+00
         0.00000E+00
         0.00000E+00
         0.00000E+00
         0.00000E+00
         0.00000E+00
         0.00000E+00
         0.00000E+00
         0.00000E+00
         0.00000E+00
         0.00000E+00
         0.00000E+00
         0.00000E+00
         0.00000E+00
         0.00000E+00
         0.00000E+00
         0.00000E+00
         0.00000E+00
         0.00000E+00
         0.00000E+00
         0.00000E+00
         0.00000E+00
         0.00000E+00
         0.00000E+00
         0.00000E+00
         0.00000E+00
         0.00000E+00
         0.00000E+00
         0.00000E+00
         0.00000E+00
         0.00000E+00
         0.00000E+00
         0.00000E+00
         0.00000E+00
         0.00000E+00
         0.00000E+00
         0.00000E+00
         0.00000E+00
         0.00000E+00
         0.00000E+00
         0.00000E+00
         0.00000E+00
         0.00000E+00
         0.00000E+00
         0.00000E+00
         0.00000E+00
         0.00000E+00
         0.00000E+00
         0.00000E+00
         0.00000E+00
         0.00000E+00
         0.00000E+00
         0.00000E+00
         0.00000E+00
         0.00000E+00
         0.00000E+00
         0.00000E+00
         0.00000E+00
         0.00000E+00
         0.00000E+00
         0.00000E+00
         0.00000E+00
         0.00000E+00
         0.00000E+00
         0.00000E+00
         0.00000E+00
         0.00000E+00
         0.00000E+00
         0.00000E+00
         0.00000E+00
         0.00000E+00
         0.00000E+00
         0.00000E+00
         0.00000E+00
         0.00000E+00
         0.00000E+00
         0.00000E+00
         0.00000E+00
         0.00000E+00
         0.00000E+00
         0.00000E+00
         0.00000E+00
         0.00000E+00
         0.00000E+00
         0.00000E+00
         0.00000E+00
         0.00000E+00
         0.00000E+00
         0.00000E+00
         0.00000E+00
         0.00000E+00
         0.00000E+00
         0.00000E+00
         0.00000E+00
         0.00000E+00
         0.00000E+00
         0.00000E+00
         0.00000E+00
         0.00000E+00
         0.00000E+00
         0.00000E+00
         0.00000E+00
         0.00000E+00
         0.00000E+00
         0.00000E+00
         0.00000E+00
         0.00000E+00
         0.00000E+00
         0.00000E+00
         0.00000E+00
         0.00000E+00
         0.00000E+00
         0.00000E+00
         0.00000E+00
         0.00000E+00
         0.00000E+00
         0.00000E+00
         0.00000E+00
         0.00000E+00
         0.00000E+00
         0.00000E+00
         0.00000E+00
         0.00000E+00
         0.00000E+00
         0.00000E+00
         0.00000E+00
         0.00000E+00
         0.00000E+00
         0.00000E+00
         0.00000E+00
         0.00000E+00
         0.00000E+00
         0.00000E+00
         0.00000E+00
         0.00000E+00
         0.00000E+00
         0.00000E+00
         0.00000E+00
         0.00000E+00
         0.00000E+00
         0.00000E+00
         0.00000E+00
         0.00000E+00
         0.00000E+00
         0.00000E+00
         0.00000E+00
         0.00000E+00
         0.00000E+00
         0.00000E+00
         0.00000E+00
         0.00000E+00
         0.00000E+00
         0.00000E+00
         0.00000E+00
         0.00000E+00
         0.00000E+00
         0.00000E+00
         0.00000E+00
         0.00000E+00
         0.00000E+00
         0.00000E+00
         0.00000E+00
         0.00000E+00
         0.00000E+00
         0.00000E+00
         0.00000E+00
         0.00000E+00
         0.00000E+00
         0.00000E+00
         0.00000E+00
         0.00000E+00
         0.00000E+00
         0.00000E+00
         0.00000E+00
         0.00000E+00
         0.00000E+00
         0.00000E+00
         0.00000E+00
         0.00000E+00
         0.00000E+00
         0.00000E+00
         0.00000E+00
         0.00000E+00
         0.00000E+00
         0.00000E+00
         0.00000E+00
         0.00000E+00
         0.00000E+00
         0.00000E+00
         0.00000E+00
         0.00000E+00
         0.00000E+00
         0.00000E+00
         0.00000E+00
         0.00000E+00
         0.00000E+00
         0.00000E+00
         0.00000E+00
         0.00000E+00
         0.00000E+00
         0.00000E+00
         0.00000E+00
         0.00000E+00
         0.00000E+00
         0.00000E+00
         0.00000E+00
         0.00000E+00
         0.00000E+00
         0.00000E+00
         0.00000E+00
         0.00000E+00
         0.00000E+00
         0.00000E+00
         0.00000E+00
         0.00000E+00
         0.00000E+00
         0.00000E+00
         0.00000E+00
         0.00000E+00
         0.00000E+00
         0.00000E+00
         0.00000E+00
         0.00000E+00
         0.00000E+00
         0.00000E+00
         0.00000E+00
         0.00000E+00
         0.00000E+00
         0.00000E+00
         0.00000E+00
         0.00000E+00
         0.00000E+00
         0.00000E+00
         0.00000E+00
         0.00000E+00
         0.00000E+00
         0.00000E+00
         0.00000E+00
         0.00000E+00
         0.00000E+00
         0.00000E+00
         0.00000E+00
         0.00000E+00
         0.00000E+00
         0.00000E+00
         0.00000E+00
         0.00000E+00
         0.00000E+00
         0.00000E+00
         0.00000E+00
         0.00000E+00
         0.00000E+00
         0.00000E+00
         0.00000E+00
         0.00000E+00
         0.00000E+00
         0.00000E+00
         0.00000E+00
         0.00000E+00
         0.00000E+00
         0.00000E+00
         0.00000E+00
         0.00000E+00
         0.00000E+00
         0.00000E+00
         0.00000E+00
         0.00000E+00
         0.00000E+00
         0.00000E+00
         0.00000E+00
         0.00000E+00
         0.00000E+00
         0.00000E+00
         0.00000E+00
         0.00000E+00
         0.00000E+00
         0.00000E+00
         0.00000E+00
         0.00000E+00
         0.00000E+00
         0.00000E+00
         0.00000E+00
         0.00000E+00
         0.00000E+00
         0.00000E+00
         0.00000E+00
         0.00000E+00
         0.00000E+00
         0.00000E+00
         0.00000E+00
         0.00000E+00
         0.00000E+00
         0.00000E+00
         0.00000E+00
         0.00000E+00
         0.00000E+00
         0.00000E+00
         0.00000E+00
         0.00000E+00
         0.00000E+00
         0.00000E+00
         0.00000E+00
         0.00000E+00
         0.00000E+00
         0.00000E+00
         0.00000E+00
         0.00000E+00
         0.00000E+00
         0.00000E+00
         0.00000E+00
         0.00000E+00
         0.00000E+00
         0.00000E+00
         0.00000E+00
         0.00000E+00
         0.00000E+00
         0.00000E+00
         0.00000E+00
         0.00000E+00
         0.00000E+00
         0.00000E+00
         0.00000E+00
         0.00000E+00
         0.00000E+00
         0.00000E+00
         0.00000E+00
         0.00000E+00
         0.00000E+00
         0.00000E+00
         0.00000E+00
         0.00000E+00
         0.00000E+00
         0.00000E+00
         0.00000E+00
         0.00000E+00
         0.00000E+00
         0.00000E+00
         0.00000E+00
         0.00000E+00
         0.00000E+00
         0.00000E+00
         0.00000E+00
         0.00000E+00
         0.00000E+00
         0.00000E+00
         0.00000E+00
         0.00000E+00
         0.00000E+00
         0.00000E+00
         0.00000E+00
         0.00000E+00
         0.00000E+00
         0.00000E+00
         0.00000E+00
         0.00000E+00
         0.00000E+00
         0.00000E+00
         0.00000E+00
         0.00000E+00
         0.00000E+00
         0.00000E+00
         0.00000E+00
         0.00000E+00
         0.00000E+00
         0.00000E+00
         0.00000E+00
         0.00000E+00
         0.00000E+00
         0.00000E+00
         0.00000E+00
         0.00000E+00
         0.00000E+00
         0.00000E+00
         0.00000E+00
         0.00000E+00
         0.00000E+00
         0.00000E+00
         0.00000E+00
         0.00000E+00
         0.00000E+00
         0.00000E+00
         0.00000E+00
         0.00000E+00
         0.00000E+00
         0.00000E+00
         0.00000E+00
         0.00000E+00
         0.00000E+00
         0.00000E+00
         0.00000E+00
         0.00000E+00
         0.00000E+00
         0.00000E+00
         0.00000E+00
         0.00000E+00
         0.00000E+00
         0.00000E+00
         0.00000E+00
         0.00000E+00
         0.00000E+00
         0.00000E+00
         0.00000E+00
         0.00000E+00
         0.00000E+00
         0.00000E+00
         0.00000E+00
         0.00000E+00
         0.00000E+00
         0.00000E+00
         0.00000E+00
         0.00000E+00
         0.00000E+00
         0.00000E+00
         0.00000E+00
         0.00000E+00
         0.00000E+00
         0.00000E+00
         0.00000E+00
         0.00000E+00
         0.00000E+00
         0.00000E+00
         0.00000E+00
         0.00000E+00
         0.00000E+00
         0.00000E+00
         0.00000E+00
         0.00000E+00
         0.00000E+00
         0.00000E+00
         0.00000E+00
         0.00000E+00
         0.00000E+00
         0.00000E+00
         0.00000E+00
         0.00000E+00
         0.00000E+00
         0.00000E+00
         0.00000E+00
         0.00000E+00
         0.00000E+00
         0.00000E+00
         0.00000E+00
         0.00000E+00
         0.00000E+00
         0.00000E+00
         0.00000E+00
         0.00000E+00
         0.00000E+00
         0.00000E+00
         0.00000E+00
         0.00000E+00
         0.00000E+00
         0.00000E+00
         0.00000E+00
         0.00000E+00
         0.00000E+00
         0.00000E+00
         0.00000E+00
         0.00000E+00
         0.00000E+00
         0.00000E+00
         0.00000E+00
         0.00000E+00
         0.00000E+00
         0.00000E+00
         0.00000E+00
         0.00000E+00
         0.00000E+00
         0.00000E+00
         0.00000E+00
         0.00000E+00
         0.00000E+00
         0.00000E+00
         0.00000E+00
         0.00000E+00
         0.00000E+00
         0.00000E+00
         0.00000E+00
         0.00000E+00
         0.00000E+00
         0.00000E+00
         0.00000E+00
         0.00000E+00
         0.00000E+00
         0.00000E+00
         0.00000E+00
         0.00000E+00
         0.00000E+00
         0.00000E+00
         0.00000E+00
         0.00000E+00
         0.00000E+00
         0.00000E+00
         0.00000E+00
         0.00000E+00
         0.00000E+00
         0.00000E+00
         0.00000E+00
         0.00000E+00
         0.00000E+00
         0.00000E+00
         0.00000E+00
         0.00000E+00
         0.00000E+00
         0.00000E+00
         0.00000E+00
         0.00000E+00
         0.00000E+00
         0.00000E+00
         0.00000E+00
         0.00000E+00
         0.00000E+00
         0.00000E+00
         0.00000E+00
         0.00000E+00
         0.00000E+00
         0.00000E+00
         0.00000E+00
         0.00000E+00
         0.00000E+00
         0.00000E+00
         0.00000E+00
         0.00000E+00
         0.00000E+00
         0.00000E+00
         0.00000E+00
         0.00000E+00
         0.00000E+00
         0.00000E+00
         0.00000E+00
         0.00000E+00
         0.00000E+00
         0.00000E+00
         0.00000E+00
         0.00000E+00
         0.00000E+00
         0.00000E+00
         0.00000E+00
         0.00000E+00
         0.00000E+00
         0.00000E+00
         0.00000E+00
         0.00000E+00
         0.00000E+00
         0.00000E+00
         0.00000E+00
         0.00000E+00
         0.00000E+00
         0.00000E+00
         0.00000E+00
         0.00000E+00
         0.00000E+00
         0.00000E+00
         0.00000E+00
         0.00000E+00
         0.00000E+00
         0.00000E+00
         0.00000E+00
         0.00000E+00
         0.00000E+00
         0.00000E+00
         0.00000E+00
         0.00000E+00
         0.00000E+00
         0.00000E+00
         0.00000E+00
         0.00000E+00
         0.00000E+00
         0.00000E+00
         0.00000E+00
         0.00000E+00
         0.00000E+00
         0.00000E+00
         0.00000E+00
         0.00000E+00
         0.00000E+00
         0.00000E+00
         0.00000E+00
         0.00000E+00
         0.00000E+00
         0.00000E+00
         0.00000E+00
         0.00000E+00
         0.00000E+00
         0.00000E+00
         0.00000E+00
         0.00000E+00
         0.00000E+00
         0.00000E+00
         0.00000E+00
         0.00000E+00
         0.00000E+00
         0.00000E+00
         0.00000E+00
         0.00000E+00
         0.00000E+00
         0.00000E+00
         0.00000E+00
         0.00000E+00
         0.00000E+00
         0.00000E+00
         0.00000E+00
         0.00000E+00
         0.00000E+00
         0.00000E+00
         0.00000E+00
         0.00000E+00
         0.00000E+00
         0.00000E+00
         0.00000E+00
         0.00000E+00
         0.00000E+00
         0.00000E+00
         0.00000E+00
         0.00000E+00
         0.00000E+00
         0.00000E+00
         0.00000E+00
         0.00000E+00
         0.00000E+00
         0.00000E+00
         0.00000E+00
         0.00000E+00
         0.00000E+00
         0.00000E+00
         0.00000E+00
         0.00000E+00
         0.00000E+00
         0.00000E+00
         0.00000E+00
         0.00000E+00
         0.00000E+00
         0.00000E+00
         0.00000E+00
         0.00000E+00
         0.00000E+00
         0.00000E+00
         0.00000E+00
         0.00000E+00
         0.00000E+00
         0.00000E+00
         0.00000E+00
         0.00000E+00
         0.00000E+00
         0.00000E+00
         0.00000E+00
         0.00000E+00
         0.00000E+00
         0.00000E+00
         0.00000E+00
         0.00000E+00
         0.00000E+00
         0.00000E+00
         0.00000E+00
         0.00000E+00
         0.00000E+00
         0.00000E+00
         0.00000E+00
         0.00000E+00
         0.00000E+00
         0.00000E+00
         0.00000E+00
         0.00000E+00
         0.00000E+00
         0.00000E+00
         0.00000E+00
         0.00000E+00
         0.00000E+00
         0.00000E+00
         0.00000E+00
         0.00000E+00
         0.00000E+00
         0.00000E+00
         0.00000E+00
         0.00000E+00
         0.00000E+00
         0.00000E+00
         0.00000E+00
         0.00000E+00
         0.00000E+00
         0.00000E+00
         0.00000E+00
         0.00000E+00
         0.00000E+00
         0.00000E+00
         0.00000E+00
         0.00000E+00
         0.00000E+00
         0.00000E+00
         0.00000E+00
         0.00000E+00
         0.00000E+00
         0.00000E+00
         0.00000E+00
         0.00000E+00
         0.00000E+00
         0.00000E+00
         0.00000E+00
         0.00000E+00
         0.00000E+00
         0.00000E+00
         0.00000E+00
         0.00000E+00
         0.00000E+00
         0.00000E+00
         0.00000E+00
         0.00000E+00
         0.00000E+00
         0.00000E+00
         0.00000E+00
         0.00000E+00
         0.00000E+00
         0.00000E+00
         0.00000E+00
         0.00000E+00
         0.00000E+00
         0.00000E+00
         0.00000E+00
         0.00000E+00
         0.00000E+00
         0.00000E+00
         0.00000E+00
         0.00000E+00
         0.00000E+00
         0.00000E+00
         0.00000E+00
         0.00000E+00
         0.00000E+00
         0.00000E+00
         0.00000E+00
         0.00000E+00
         0.00000E+00
         0.00000E+00
         0.00000E+00
         0.00000E+00
         0.00000E+00
         0.00000E+00
         0.00000E+00
         0.00000E+00
         0.00000E+00
         0.00000E+00
         0.00000E+00
         0.00000E+00
         0.00000E+00
         0.00000E+00
         0.00000E+00
         0.00000E+00
         0.00000E+00
         0.00000E+00
         0.00000E+00
         0.00000E+00
         0.00000E+00
         0.00000E+00
         0.00000E+00
         0.00000E+00
         0.00000E+00
         0.00000E+00
         0.00000E+00
         0.00000E+00
         0.00000E+00
         0.00000E+00
         0.00000E+00
         0.00000E+00
         0.00000E+00
         0.00000E+00
         0.00000E+00
         0.00000E+00
         0.00000E+00
         0.00000E+00
         0.00000E+00
         0.00000E+00
         0.00000E+00
         0.00000E+00
         0.00000E+00
         0.00000E+00
         0.00000E+00
         0.00000E+00
         0.00000E+00
         0.00000E+00
         0.00000E+00
         0.00000E+00
         0.00000E+00
         0.00000E+00
         0.00000E+00
         0.00000E+00
         0.00000E+00
         0.00000E+00
         0.00000E+00
         0.00000E+00
         0.00000E+00
         0.00000E+00
         0.00000E+00
         0.00000E+00
         0.00000E+00
         0.00000E+00
         0.00000E+00
         0.00000E+00
         0.00000E+00
         0.00000E+00
         0.00000E+00
         0.00000E+00
         0.00000E+00
         0.00000E+00
         0.00000E+00
         0.00000E+00
         0.00000E+00
         0.00000E+00
         0.00000E+00
         0.00000E+00
         0.00000E+00
         0.00000E+00
         0.00000E+00
         0.00000E+00
         0.00000E+00
         0.00000E+00
         0.00000E+00
         0.00000E+00
         0.00000E+00
         0.00000E+00
         0.00000E+00
         0.00000E+00
         0.00000E+00
         0.00000E+00
         0.00000E+00
         0.00000E+00
         0.00000E+00
         0.00000E+00
         0.00000E+00
         0.00000E+00
         0.00000E+00
         0.00000E+00
         0.00000E+00
         0.00000E+00
         0.00000E+00
         0.00000E+00
         0.00000E+00
         0.00000E+00
         0.00000E+00
         0.00000E+00
         0.00000E+00
         0.00000E+00
         0.00000E+00
         0.00000E+00
         0.00000E+00
         0.00000E+00
         0.00000E+00
         0.00000E+00
         0.00000E+00
         0.00000E+00
         0.00000E+00
         0.00000E+00
         0.00000E+00
         0.00000E+00
         0.00000E+00
         0.00000E+00
         0.00000E+00
         0.00000E+00
         0.00000E+00
         0.00000E+00
         0.00000E+00
         0.00000E+00
         0.00000E+00
         0.00000E+00
         0.00000E+00
         0.00000E+00
         0.00000E+00
         0.00000E+00
         0.00000E+00
         0.00000E+00
         0.00000E+00
         0.00000E+00
         0.00000E+00
         0.00000E+00
         0.00000E+00
         0.00000E+00
         0.00000E+00
         0.00000E+00
         0.00000E+00
         0.00000E+00
         0.00000E+00
         0.00000E+00
         0.00000E+00
         0.00000E+00
         0.00000E+00
         0.00000E+00
         0.00000E+00
         0.00000E+00
         0.00000E+00
         0.00000E+00
         0.00000E+00
         0.00000E+00
         0.00000E+00
         0.00000E+00
         0.00000E+00
         0.00000E+00
         0.00000E+00
         0.00000E+00
         0.00000E+00
         0.00000E+00
         0.00000E+00
         0.00000E+00
         0.00000E+00
         0.00000E+00
         0.00000E+00
         0.00000E+00
         0.00000E+00
         0.00000E+00
         0.00000E+00
         0.00000E+00
         0.00000E+00
         0.00000E+00
         0.00000E+00
         0.00000E+00
         0.00000E+00
         0.00000E+00
         0.00000E+00
         0.00000E+00
         0.00000E+00
         0.00000E+00
         0.00000E+00
         0.00000E+00
         0.00000E+00
         0.00000E+00
         0.00000E+00
         0.00000E+00
         0.00000E+00
         0.00000E+00
         0.00000E+00
         0.00000E+00
         0.00000E+00
         0.00000E+00
         0.00000E+00
         0.00000E+00
         0.00000E+00
         0.00000E+00
         0.00000E+00
         0.00000E+00
         0.00000E+00
         0.00000E+00
         0.00000E+00
         0.00000E+00
         0.00000E+00
         0.00000E+00
         0.00000E+00
         0.00000E+00
         0.00000E+00
         0.00000E+00
         0.00000E+00
         0.00000E+00
         0.00000E+00
         0.00000E+00
         0.00000E+00
         0.00000E+00
         0.00000E+00
         0.00000E+00
         0.00000E+00
         0.00000E+00
         0.00000E+00
         0.00000E+00
         0.00000E+00
         0.00000E+00
         0.00000E+00
         0.00000E+00
         0.00000E+00
         0.00000E+00
         0.00000E+00
         0.00000E+00
         0.00000E+00
         0.00000E+00
         0.00000E+00
         0.00000E+00
         0.00000E+00
         0.00000E+00
         0.00000E+00
         0.00000E+00
         0.00000E+00
         0.00000E+00
         0.00000E+00
         0.00000E+00
         0.00000E+00
         0.00000E+00
         0.00000E+00
         0.00000E+00
         0.00000E+00
         0.00000E+00
         0.00000E+00
         0.00000E+00
         0.00000E+00
         0.00000E+00
         0.00000E+00
         0.00000E+00
         0.00000E+00
         0.00000E+00
         0.00000E+00
         0.00000E+00
         0.00000E+00
         0.00000E+00
         0.00000E+00
         0.00000E+00
         0.00000E+00
         0.00000E+00
         0.00000E+00
         0.00000E+00
         0.00000E+00
         0.00000E+00
         0.00000E+00
         0.00000E+00
         0.00000E+00
         0.00000E+00
         0.00000E+00
         0.00000E+00
         0.00000E+00
         0.00000E+00
         0.00000E+00
         0.00000E+00
         0.00000E+00
         0.00000E+00
         0.00000E+00
         0.00000E+00
         0.00000E+00
         0.00000E+00
         0.00000E+00
         0.00000E+00
         0.00000E+00
         0.00000E+00
         0.00000E+00
         0.00000E+00
         0.00000E+00
         0.00000E+00
         0.00000E+00
         0.00000E+00
         0.00000E+00
         0.00000E+00
         0.00000E+00
         0.00000E+00
         0.00000E+00
         0.00000E+00
         0.00000E+00
         0.00000E+00
         0.00000E+00
         0.00000E+00
         0.00000E+00
         0.00000E+00
         0.00000E+00
         0.00000E+00
         0.00000E+00
         0.00000E+00
         0.00000E+00
         0.00000E+00
         0.00000E+00
         0.00000E+00
         0.00000E+00
         0.00000E+00
         0.00000E+00
         0.00000E+00
         0.00000E+00
         0.00000E+00
         0.00000E+00
         0.00000E+00
         0.00000E+00
         0.00000E+00
         0.00000E+00
         0.00000E+00
         0.00000E+00
         0.00000E+00
         0.00000E+00
         0.00000E+00
         0.00000E+00
         0.00000E+00
         0.00000E+00
         0.00000E+00
         0.00000E+00
         0.00000E+00
         0.00000E+00
         0.00000E+00
         0.00000E+00
         0.00000E+00
         0.00000E+00
         0.00000E+00
         0.00000E+00
         0.00000E+00
         0.00000E+00
         0.00000E+00
         0.00000E+00
         0.00000E+00
         0.00000E+00
         0.00000E+00
         0.00000E+00
         0.00000E+00
         0.00000E+00
         0.00000E+00
         0.00000E+00
         0.00000E+00
         0.00000E+00
         0.00000E+00
         0.00000E+00
         0.00000E+00
         0.00000E+00
         0.00000E+00
         0.00000E+00
         0.00000E+00
         0.00000E+00
         0.00000E+00
         0.00000E+00
         0.00000E+00
         0.00000E+00
         0.00000E+00
         0.00000E+00
         0.00000E+00
         0.00000E+00
         0.00000E+00
         0.00000E+00
         0.00000E+00
         0.00000E+00
         0.00000E+00
         0.00000E+00
         0.00000E+00
         0.00000E+00
         0.00000E+00
         0.00000E+00
         0.00000E+00
         0.00000E+00
         0.00000E+00
         0.00000E+00
         0.00000E+00
         0.00000E+00
         0.00000E+00
         0.00000E+00
         0.00000E+00
         0.00000E+00
         0.00000E+00
         0.00000E+00
         0.00000E+00
         0.00000E+00
         0.00000E+00
         0.00000E+00
         0.00000E+00
         0.00000E+00
         0.00000E+00
         0.00000E+00
         0.00000E+00
         0.00000E+00
         0.00000E+00
         0.00000E+00
         0.00000E+00
         0.00000E+00
         0.00000E+00
         0.00000E+00
         0.00000E+00
         0.00000E+00
         0.00000E+00
         0.00000E+00
         0.00000E+00
         0.00000E+00
         0.00000E+00
         0.00000E+00
         0.00000E+00
         0.00000E+00
         0.00000E+00
         0.00000E+00
         0.00000E+00
         0.00000E+00
         0.00000E+00
         0.00000E+00
         0.00000E+00
         0.00000E+00
         0.00000E+00
         0.00000E+00
         0.00000E+00
         0.00000E+00
         0.00000E+00
         0.00000E+00
         0.00000E+00
         0.00000E+00
         0.00000E+00
         0.00000E+00
         0.00000E+00
         0.00000E+00
         0.00000E+00
         0.00000E+00
         0.00000E+00
         0.00000E+00
         0.00000E+00
         0.00000E+00
         0.00000E+00
         0.00000E+00
         0.00000E+00
         0.00000E+00
         0.00000E+00
         0.00000E+00
         0.00000E+00
         0.00000E+00
         0.00000E+00
         0.00000E+00
         0.00000E+00
         0.00000E+00
         0.00000E+00
         0.00000E+00
         0.00000E+00
         0.00000E+00
         0.00000E+00
         0.00000E+00
         0.00000E+00
         0.00000E+00
         0.00000E+00
         0.00000E+00
         0.00000E+00
         0.00000E+00
         0.00000E+00
         0.00000E+00
         0.00000E+00
         0.00000E+00
         0.00000E+00
         0.00000E+00
         0.00000E+00
         0.00000E+00
         0.00000E+00
         0.00000E+00
         0.00000E+00
         0.00000E+00
         0.00000E+00
         0.00000E+00
         0.00000E+00
         0.00000E+00
         0.00000E+00
         0.00000E+00
         0.00000E+00
         0.00000E+00
         0.00000E+00
         0.00000E+00
         0.00000E+00
         0.00000E+00
         0.00000E+00
         0.00000E+00
         0.00000E+00
         0.00000E+00
         0.00000E+00
         0.00000E+00
         0.00000E+00
         0.00000E+00
         0.00000E+00
         0.00000E+00
         0.00000E+00
         0.00000E+00
         0.00000E+00
         0.00000E+00
         0.00000E+00
         0.00000E+00
         0.00000E+00
         0.00000E+00
         0.00000E+00
         0.00000E+00
         0.00000E+00
         0.00000E+00
         0.00000E+00
         0.00000E+00
         0.00000E+00
         0.00000E+00
         0.00000E+00
         0.00000E+00
         0.00000E+00
         0.00000E+00
         0.00000E+00
         0.00000E+00
         0.00000E+00
         0.00000E+00
         0.00000E+00
         0.00000E+00
         0.00000E+00
         0.00000E+00
         0.00000E+00
         0.00000E+00
         0.00000E+00
         0.00000E+00
         0.00000E+00
         0.00000E+00
         0.00000E+00
         0.00000E+00
         0.00000E+00
         0.00000E+00
         0.00000E+00
         0.00000E+00
         0.00000E+00
         0.00000E+00
         0.00000E+00
         0.00000E+00
         0.00000E+00
         0.00000E+00
         0.00000E+00
         0.00000E+00
         0.00000E+00
         0.00000E+00
         0.00000E+00
         0.00000E+00
         0.00000E+00
         0.00000E+00
         0.00000E+00
         0.00000E+00
         0.00000E+00
         0.00000E+00
         0.00000E+00
         0.00000E+00
         0.00000E+00
         0.00000E+00
         0.00000E+00
         0.00000E+00
         0.00000E+00
         0.00000E+00
         0.00000E+00
         0.00000E+00
         0.00000E+00
         0.00000E+00
         0.00000E+00
         0.00000E+00
         0.00000E+00
         0.00000E+00
         0.00000E+00
         0.00000E+00
         0.00000E+00
         0.00000E+00
         0.00000E+00
         0.00000E+00
         0.00000E+00
         0.00000E+00
         0.00000E+00
         0.00000E+00
         0.00000E+00
         0.00000E+00
         0.00000E+00
         0.00000E+00
         0.00000E+00
         0.00000E+00
         0.00000E+00
         0.00000E+00
         0.00000E+00
         0.00000E+00
         0.00000E+00
         0.00000E+00
         0.00000E+00
         0.00000E+00
         0.00000E+00
         0.00000E+00
         0.00000E+00
         0.00000E+00
         0.00000E+00
         0.00000E+00
         0.00000E+00
         0.00000E+00
         0.00000E+00
         0.00000E+00
         0.00000E+00
         0.00000E+00
         0.00000E+00
         0.00000E+00
         0.00000E+00
         0.00000E+00
         0.00000E+00
         0.00000E+00
         0.00000E+00
         0.00000E+00
         0.00000E+00
         0.00000E+00
         0.00000E+00
         0.00000E+00
         0.00000E+00
         0.00000E+00
         0.00000E+00
         0.00000E+00
         0.00000E+00
         0.00000E+00
         0.00000E+00
         0.00000E+00
         0.00000E+00
         0.00000E+00
         0.00000E+00
         0.00000E+00
         0.00000E+00
         0.00000E+00
         0.00000E+00
         0.00000E+00
         0.00000E+00
         0.00000E+00
         0.00000E+00
         0.00000E+00
         0.00000E+00
         0.00000E+00
         0.00000E+00
         0.00000E+00
         0.00000E+00
         0.00000E+00
         0.00000E+00
         0.00000E+00
         0.00000E+00
         0.00000E+00
         0.00000E+00
         0.00000E+00
         0.00000E+00
         0.00000E+00
         0.00000E+00
         0.00000E+00
         0.00000E+00
         0.00000E+00
         0.00000E+00
         0.00000E+00
         0.00000E+00
         0.00000E+00
         0.00000E+00
         0.00000E+00
         0.00000E+00
         0.00000E+00
         0.00000E+00
         0.00000E+00
         0.00000E+00
         0.00000E+00
         0.00000E+00
         0.00000E+00
         0.00000E+00
         0.00000E+00
         0.00000E+00
         0.00000E+00
         0.00000E+00
         0.00000E+00
         0.00000E+00
         0.00000E+00
         0.00000E+00
         0.00000E+00
         0.00000E+00
         0.00000E+00
         0.00000E+00
         0.00000E+00
         0.00000E+00
         0.00000E+00
         0.00000E+00
         0.00000E+00
         0.00000E+00
         0.00000E+00
         0.00000E+00
         0.00000E+00
         0.00000E+00
         0.00000E+00
         0.00000E+00
         0.00000E+00
         0.00000E+00
         0.00000E+00
         0.00000E+00
         0.00000E+00
         0.00000E+00
         0.00000E+00
         0.00000E+00
         0.00000E+00
         0.00000E+00
         0.00000E+00
         0.00000E+00
         0.00000E+00
         0.00000E+00
         0.00000E+00
         0.00000E+00
         0.00000E+00
         0.00000E+00
         0.00000E+00
         0.00000E+00
         0.00000E+00
         0.00000E+00
         0.00000E+00
         0.00000E+00
         0.00000E+00
         0.00000E+00
         0.00000E+00
         0.00000E+00
         0.00000E+00
         0.00000E+00
         0.00000E+00
         0.00000E+00
  
SCALARS                 acceleration_y  double 1
LOOKUP_TABLE default
         0.00000E+00
         0.00000E+00
         0.00000E+00
         0.00000E+00
         0.00000E+00
         0.00000E+00
         0.00000E+00
         0.00000E+00
         0.00000E+00
         0.00000E+00
         0.00000E+00
         0.00000E+00
         0.00000E+00
         0.00000E+00
         0.00000E+00
         0.00000E+00
         0.00000E+00
         0.00000E+00
         0.00000E+00
         0.00000E+00
         0.00000E+00
         0.00000E+00
         0.00000E+00
         0.00000E+00
         0.00000E+00
         0.00000E+00
         0.00000E+00
         0.00000E+00
         0.00000E+00
         0.00000E+00
         0.00000E+00
         0.00000E+00
         0.00000E+00
         0.00000E+00
         0.00000E+00
         0.00000E+00
         0.00000E+00
         0.00000E+00
         0.00000E+00
         0.00000E+00
         0.00000E+00
         0.00000E+00
         0.00000E+00
         0.00000E+00
         0.00000E+00
         0.00000E+00
         0.00000E+00
         0.00000E+00
         0.00000E+00
         0.00000E+00
         0.00000E+00
         0.00000E+00
         0.00000E+00
         0.00000E+00
         0.00000E+00
         0.00000E+00
         0.00000E+00
         0.00000E+00
         0.00000E+00
         0.00000E+00
         0.00000E+00
         0.00000E+00
         0.00000E+00
         0.00000E+00
         0.00000E+00
         0.00000E+00
         0.00000E+00
         0.00000E+00
         0.00000E+00
         0.00000E+00
         0.00000E+00
         0.00000E+00
         0.00000E+00
         0.00000E+00
         0.00000E+00
         0.00000E+00
         0.00000E+00
         0.00000E+00
         0.00000E+00
         0.00000E+00
         0.00000E+00
         0.00000E+00
         0.00000E+00
         0.00000E+00
         0.00000E+00
         0.00000E+00
         0.00000E+00
         0.00000E+00
         0.00000E+00
         0.00000E+00
         0.00000E+00
         0.00000E+00
         0.00000E+00
         0.00000E+00
         0.00000E+00
         0.00000E+00
         0.00000E+00
         0.00000E+00
         0.00000E+00
         0.00000E+00
         0.00000E+00
         0.00000E+00
         0.00000E+00
         0.00000E+00
         0.00000E+00
         0.00000E+00
         0.00000E+00
         0.00000E+00
         0.00000E+00
         0.00000E+00
         0.00000E+00
         0.00000E+00
         0.00000E+00
         0.00000E+00
         0.00000E+00
         0.00000E+00
         0.00000E+00
         0.00000E+00
         0.00000E+00
         0.00000E+00
         0.00000E+00
         0.00000E+00
         0.00000E+00
         0.00000E+00
         0.00000E+00
         0.00000E+00
         0.00000E+00
         0.00000E+00
         0.00000E+00
         0.00000E+00
         0.00000E+00
         0.00000E+00
         0.00000E+00
         0.00000E+00
         0.00000E+00
         0.00000E+00
         0.00000E+00
         0.00000E+00
         0.00000E+00
         0.00000E+00
         0.00000E+00
         0.00000E+00
         0.00000E+00
         0.00000E+00
         0.00000E+00
         0.00000E+00
         0.00000E+00
         0.00000E+00
         0.00000E+00
         0.00000E+00
         0.00000E+00
         0.00000E+00
         0.00000E+00
         0.00000E+00
         0.00000E+00
         0.00000E+00
         0.00000E+00
         0.00000E+00
         0.00000E+00
         0.00000E+00
         0.00000E+00
         0.00000E+00
         0.00000E+00
         0.00000E+00
         0.00000E+00
         0.00000E+00
         0.00000E+00
         0.00000E+00
         0.00000E+00
         0.00000E+00
         0.00000E+00
         0.00000E+00
         0.00000E+00
         0.00000E+00
         0.00000E+00
         0.00000E+00
         0.00000E+00
         0.00000E+00
         0.00000E+00
         0.00000E+00
         0.00000E+00
         0.00000E+00
         0.00000E+00
         0.00000E+00
         0.00000E+00
         0.00000E+00
         0.00000E+00
         0.00000E+00
         0.00000E+00
         0.00000E+00
         0.00000E+00
         0.00000E+00
         0.00000E+00
         0.00000E+00
         0.00000E+00
         0.00000E+00
         0.00000E+00
         0.00000E+00
         0.00000E+00
         0.00000E+00
         0.00000E+00
         0.00000E+00
         0.00000E+00
         0.00000E+00
         0.00000E+00
         0.00000E+00
         0.00000E+00
         0.00000E+00
         0.00000E+00
         0.00000E+00
         0.00000E+00
         0.00000E+00
         0.00000E+00
         0.00000E+00
         0.00000E+00
         0.00000E+00
         0.00000E+00
         0.00000E+00
         0.00000E+00
         0.00000E+00
         0.00000E+00
         0.00000E+00
         0.00000E+00
         0.00000E+00
         0.00000E+00
         0.00000E+00
         0.00000E+00
         0.00000E+00
         0.00000E+00
         0.00000E+00
         0.00000E+00
         0.00000E+00
         0.00000E+00
         0.00000E+00
         0.00000E+00
         0.00000E+00
         0.00000E+00
         0.00000E+00
         0.00000E+00
         0.00000E+00
         0.00000E+00
         0.00000E+00
         0.00000E+00
         0.00000E+00
         0.00000E+00
         0.00000E+00
         0.00000E+00
         0.00000E+00
         0.00000E+00
         0.00000E+00
         0.00000E+00
         0.00000E+00
         0.00000E+00
         0.00000E+00
         0.00000E+00
         0.00000E+00
         0.00000E+00
         0.00000E+00
         0.00000E+00
         0.00000E+00
         0.00000E+00
         0.00000E+00
         0.00000E+00
         0.00000E+00
         0.00000E+00
         0.00000E+00
         0.00000E+00
         0.00000E+00
         0.00000E+00
         0.00000E+00
         0.00000E+00
         0.00000E+00
         0.00000E+00
         0.00000E+00
         0.00000E+00
         0.00000E+00
         0.00000E+00
         0.00000E+00
         0.00000E+00
         0.00000E+00
         0.00000E+00
         0.00000E+00
         0.00000E+00
         0.00000E+00
         0.00000E+00
         0.00000E+00
         0.00000E+00
         0.00000E+00
         0.00000E+00
         0.00000E+00
         0.00000E+00
         0.00000E+00
         0.00000E+00
         0.00000E+00
         0.00000E+00
         0.00000E+00
         0.00000E+00
         0.00000E+00
         0.00000E+00
         0.00000E+00
         0.00000E+00
         0.00000E+00
         0.00000E+00
         0.00000E+00
         0.00000E+00
         0.00000E+00
         0.00000E+00
         0.00000E+00
         0.00000E+00
         0.00000E+00
         0.00000E+00
         0.00000E+00
         0.00000E+00
         0.00000E+00
         0.00000E+00
         0.00000E+00
         0.00000E+00
         0.00000E+00
         0.00000E+00
         0.00000E+00
         0.00000E+00
         0.00000E+00
         0.00000E+00
         0.00000E+00
         0.00000E+00
         0.00000E+00
         0.00000E+00
         0.00000E+00
         0.00000E+00
         0.00000E+00
         0.00000E+00
         0.00000E+00
         0.00000E+00
         0.00000E+00
         0.00000E+00
         0.00000E+00
         0.00000E+00
         0.00000E+00
         0.00000E+00
         0.00000E+00
         0.00000E+00
         0.00000E+00
         0.00000E+00
         0.00000E+00
         0.00000E+00
         0.00000E+00
         0.00000E+00
         0.00000E+00
         0.00000E+00
         0.00000E+00
         0.00000E+00
         0.00000E+00
         0.00000E+00
         0.00000E+00
         0.00000E+00
         0.00000E+00
         0.00000E+00
         0.00000E+00
         0.00000E+00
         0.00000E+00
         0.00000E+00
         0.00000E+00
         0.00000E+00
         0.00000E+00
         0.00000E+00
         0.00000E+00
         0.00000E+00
         0.00000E+00
         0.00000E+00
         0.00000E+00
         0.00000E+00
         0.00000E+00
         0.00000E+00
         0.00000E+00
         0.00000E+00
         0.00000E+00
         0.00000E+00
         0.00000E+00
         0.00000E+00
         0.00000E+00
         0.00000E+00
         0.00000E+00
         0.00000E+00
         0.00000E+00
         0.00000E+00
         0.00000E+00
         0.00000E+00
         0.00000E+00
         0.00000E+00
         0.00000E+00
         0.00000E+00
         0.00000E+00
         0.00000E+00
         0.00000E+00
         0.00000E+00
         0.00000E+00
         0.00000E+00
         0.00000E+00
         0.00000E+00
         0.00000E+00
         0.00000E+00
         0.00000E+00
         0.00000E+00
         0.00000E+00
         0.00000E+00
         0.00000E+00
         0.00000E+00
         0.00000E+00
         0.00000E+00
         0.00000E+00
         0.00000E+00
         0.00000E+00
         0.00000E+00
         0.00000E+00
         0.00000E+00
         0.00000E+00
         0.00000E+00
         0.00000E+00
         0.00000E+00
         0.00000E+00
         0.00000E+00
         0.00000E+00
         0.00000E+00
         0.00000E+00
         0.00000E+00
         0.00000E+00
         0.00000E+00
         0.00000E+00
         0.00000E+00
         0.00000E+00
         0.00000E+00
         0.00000E+00
         0.00000E+00
         0.00000E+00
         0.00000E+00
         0.00000E+00
         0.00000E+00
         0.00000E+00
         0.00000E+00
         0.00000E+00
         0.00000E+00
         0.00000E+00
         0.00000E+00
         0.00000E+00
         0.00000E+00
         0.00000E+00
         0.00000E+00
         0.00000E+00
         0.00000E+00
         0.00000E+00
         0.00000E+00
         0.00000E+00
         0.00000E+00
         0.00000E+00
         0.00000E+00
         0.00000E+00
         0.00000E+00
         0.00000E+00
         0.00000E+00
         0.00000E+00
         0.00000E+00
         0.00000E+00
         0.00000E+00
         0.00000E+00
         0.00000E+00
         0.00000E+00
         0.00000E+00
         0.00000E+00
         0.00000E+00
         0.00000E+00
         0.00000E+00
         0.00000E+00
         0.00000E+00
         0.00000E+00
         0.00000E+00
         0.00000E+00
         0.00000E+00
         0.00000E+00
         0.00000E+00
         0.00000E+00
         0.00000E+00
         0.00000E+00
         0.00000E+00
         0.00000E+00
         0.00000E+00
         0.00000E+00
         0.00000E+00
         0.00000E+00
         0.00000E+00
         0.00000E+00
         0.00000E+00
         0.00000E+00
         0.00000E+00
         0.00000E+00
         0.00000E+00
         0.00000E+00
         0.00000E+00
         0.00000E+00
         0.00000E+00
         0.00000E+00
         0.00000E+00
         0.00000E+00
         0.00000E+00
         0.00000E+00
         0.00000E+00
         0.00000E+00
         0.00000E+00
         0.00000E+00
         0.00000E+00
         0.00000E+00
         0.00000E+00
         0.00000E+00
         0.00000E+00
         0.00000E+00
         0.00000E+00
         0.00000E+00
         0.00000E+00
         0.00000E+00
         0.00000E+00
         0.00000E+00
         0.00000E+00
         0.00000E+00
         0.00000E+00
         0.00000E+00
         0.00000E+00
         0.00000E+00
         0.00000E+00
         0.00000E+00
         0.00000E+00
         0.00000E+00
         0.00000E+00
         0.00000E+00
         0.00000E+00
         0.00000E+00
         0.00000E+00
         0.00000E+00
         0.00000E+00
         0.00000E+00
         0.00000E+00
         0.00000E+00
         0.00000E+00
         0.00000E+00
         0.00000E+00
         0.00000E+00
         0.00000E+00
         0.00000E+00
         0.00000E+00
         0.00000E+00
         0.00000E+00
         0.00000E+00
         0.00000E+00
         0.00000E+00
         0.00000E+00
         0.00000E+00
         0.00000E+00
         0.00000E+00
         0.00000E+00
         0.00000E+00
         0.00000E+00
         0.00000E+00
         0.00000E+00
         0.00000E+00
         0.00000E+00
         0.00000E+00
         0.00000E+00
         0.00000E+00
         0.00000E+00
         0.00000E+00
         0.00000E+00
         0.00000E+00
         0.00000E+00
         0.00000E+00
         0.00000E+00
         0.00000E+00
         0.00000E+00
         0.00000E+00
         0.00000E+00
         0.00000E+00
         0.00000E+00
         0.00000E+00
         0.00000E+00
         0.00000E+00
         0.00000E+00
         0.00000E+00
         0.00000E+00
         0.00000E+00
         0.00000E+00
         0.00000E+00
         0.00000E+00
         0.00000E+00
         0.00000E+00
         0.00000E+00
         0.00000E+00
         0.00000E+00
         0.00000E+00
         0.00000E+00
         0.00000E+00
         0.00000E+00
         0.00000E+00
         0.00000E+00
         0.00000E+00
         0.00000E+00
         0.00000E+00
         0.00000E+00
         0.00000E+00
         0.00000E+00
         0.00000E+00
         0.00000E+00
         0.00000E+00
         0.00000E+00
         0.00000E+00
         0.00000E+00
         0.00000E+00
         0.00000E+00
         0.00000E+00
         0.00000E+00
         0.00000E+00
         0.00000E+00
         0.00000E+00
         0.00000E+00
         0.00000E+00
         0.00000E+00
         0.00000E+00
         0.00000E+00
         0.00000E+00
         0.00000E+00
         0.00000E+00
         0.00000E+00
         0.00000E+00
         0.00000E+00
         0.00000E+00
         0.00000E+00
         0.00000E+00
         0.00000E+00
         0.00000E+00
         0.00000E+00
         0.00000E+00
         0.00000E+00
         0.00000E+00
         0.00000E+00
         0.00000E+00
         0.00000E+00
         0.00000E+00
         0.00000E+00
         0.00000E+00
         0.00000E+00
         0.00000E+00
         0.00000E+00
         0.00000E+00
         0.00000E+00
         0.00000E+00
         0.00000E+00
         0.00000E+00
         0.00000E+00
         0.00000E+00
         0.00000E+00
         0.00000E+00
         0.00000E+00
         0.00000E+00
         0.00000E+00
         0.00000E+00
         0.00000E+00
         0.00000E+00
         0.00000E+00
         0.00000E+00
         0.00000E+00
         0.00000E+00
         0.00000E+00
         0.00000E+00
         0.00000E+00
         0.00000E+00
         0.00000E+00
         0.00000E+00
         0.00000E+00
         0.00000E+00
         0.00000E+00
         0.00000E+00
         0.00000E+00
         0.00000E+00
         0.00000E+00
         0.00000E+00
         0.00000E+00
         0.00000E+00
         0.00000E+00
         0.00000E+00
         0.00000E+00
         0.00000E+00
         0.00000E+00
         0.00000E+00
         0.00000E+00
         0.00000E+00
         0.00000E+00
         0.00000E+00
         0.00000E+00
         0.00000E+00
         0.00000E+00
         0.00000E+00
         0.00000E+00
         0.00000E+00
         0.00000E+00
         0.00000E+00
         0.00000E+00
         0.00000E+00
         0.00000E+00
         0.00000E+00
         0.00000E+00
         0.00000E+00
         0.00000E+00
         0.00000E+00
         0.00000E+00
         0.00000E+00
         0.00000E+00
         0.00000E+00
         0.00000E+00
         0.00000E+00
         0.00000E+00
         0.00000E+00
         0.00000E+00
         0.00000E+00
         0.00000E+00
         0.00000E+00
         0.00000E+00
         0.00000E+00
         0.00000E+00
         0.00000E+00
         0.00000E+00
         0.00000E+00
         0.00000E+00
         0.00000E+00
         0.00000E+00
         0.00000E+00
         0.00000E+00
         0.00000E+00
         0.00000E+00
         0.00000E+00
         0.00000E+00
         0.00000E+00
         0.00000E+00
         0.00000E+00
         0.00000E+00
         0.00000E+00
         0.00000E+00
         0.00000E+00
         0.00000E+00
         0.00000E+00
         0.00000E+00
         0.00000E+00
         0.00000E+00
         0.00000E+00
         0.00000E+00
         0.00000E+00
         0.00000E+00
         0.00000E+00
         0.00000E+00
         0.00000E+00
         0.00000E+00
         0.00000E+00
         0.00000E+00
         0.00000E+00
         0.00000E+00
         0.00000E+00
         0.00000E+00
         0.00000E+00
         0.00000E+00
         0.00000E+00
         0.00000E+00
         0.00000E+00
         0.00000E+00
         0.00000E+00
         0.00000E+00
         0.00000E+00
         0.00000E+00
         0.00000E+00
         0.00000E+00
         0.00000E+00
         0.00000E+00
         0.00000E+00
         0.00000E+00
         0.00000E+00
         0.00000E+00
         0.00000E+00
         0.00000E+00
         0.00000E+00
         0.00000E+00
         0.00000E+00
         0.00000E+00
         0.00000E+00
         0.00000E+00
         0.00000E+00
         0.00000E+00
         0.00000E+00
         0.00000E+00
         0.00000E+00
         0.00000E+00
         0.00000E+00
         0.00000E+00
         0.00000E+00
         0.00000E+00
         0.00000E+00
         0.00000E+00
         0.00000E+00
         0.00000E+00
         0.00000E+00
         0.00000E+00
         0.00000E+00
         0.00000E+00
         0.00000E+00
         0.00000E+00
         0.00000E+00
         0.00000E+00
         0.00000E+00
         0.00000E+00
         0.00000E+00
         0.00000E+00
         0.00000E+00
         0.00000E+00
         0.00000E+00
         0.00000E+00
         0.00000E+00
         0.00000E+00
         0.00000E+00
         0.00000E+00
         0.00000E+00
         0.00000E+00
         0.00000E+00
         0.00000E+00
         0.00000E+00
         0.00000E+00
         0.00000E+00
         0.00000E+00
         0.00000E+00
         0.00000E+00
         0.00000E+00
         0.00000E+00
         0.00000E+00
         0.00000E+00
         0.00000E+00
         0.00000E+00
         0.00000E+00
         0.00000E+00
         0.00000E+00
         0.00000E+00
         0.00000E+00
         0.00000E+00
         0.00000E+00
         0.00000E+00
         0.00000E+00
         0.00000E+00
         0.00000E+00
         0.00000E+00
         0.00000E+00
         0.00000E+00
         0.00000E+00
         0.00000E+00
         0.00000E+00
         0.00000E+00
         0.00000E+00
         0.00000E+00
         0.00000E+00
         0.00000E+00
         0.00000E+00
         0.00000E+00
         0.00000E+00
         0.00000E+00
         0.00000E+00
         0.00000E+00
         0.00000E+00
         0.00000E+00
         0.00000E+00
         0.00000E+00
         0.00000E+00
         0.00000E+00
         0.00000E+00
         0.00000E+00
         0.00000E+00
         0.00000E+00
         0.00000E+00
         0.00000E+00
         0.00000E+00
         0.00000E+00
         0.00000E+00
         0.00000E+00
         0.00000E+00
         0.00000E+00
         0.00000E+00
         0.00000E+00
         0.00000E+00
         0.00000E+00
         0.00000E+00
         0.00000E+00
         0.00000E+00
         0.00000E+00
         0.00000E+00
         0.00000E+00
         0.00000E+00
         0.00000E+00
         0.00000E+00
         0.00000E+00
         0.00000E+00
         0.00000E+00
         0.00000E+00
         0.00000E+00
         0.00000E+00
         0.00000E+00
         0.00000E+00
         0.00000E+00
         0.00000E+00
         0.00000E+00
         0.00000E+00
         0.00000E+00
         0.00000E+00
         0.00000E+00
         0.00000E+00
         0.00000E+00
         0.00000E+00
         0.00000E+00
         0.00000E+00
         0.00000E+00
         0.00000E+00
         0.00000E+00
         0.00000E+00
         0.00000E+00
         0.00000E+00
         0.00000E+00
         0.00000E+00
         0.00000E+00
         0.00000E+00
         0.00000E+00
         0.00000E+00
         0.00000E+00
         0.00000E+00
         0.00000E+00
         0.00000E+00
         0.00000E+00
         0.00000E+00
         0.00000E+00
         0.00000E+00
         0.00000E+00
         0.00000E+00
         0.00000E+00
         0.00000E+00
         0.00000E+00
         0.00000E+00
         0.00000E+00
         0.00000E+00
         0.00000E+00
         0.00000E+00
         0.00000E+00
         0.00000E+00
         0.00000E+00
         0.00000E+00
         0.00000E+00
         0.00000E+00
         0.00000E+00
         0.00000E+00
         0.00000E+00
         0.00000E+00
         0.00000E+00
         0.00000E+00
         0.00000E+00
         0.00000E+00
         0.00000E+00
         0.00000E+00
         0.00000E+00
         0.00000E+00
         0.00000E+00
         0.00000E+00
         0.00000E+00
         0.00000E+00
         0.00000E+00
         0.00000E+00
         0.00000E+00
         0.00000E+00
         0.00000E+00
         0.00000E+00
         0.00000E+00
         0.00000E+00
         0.00000E+00
         0.00000E+00
         0.00000E+00
         0.00000E+00
         0.00000E+00
         0.00000E+00
         0.00000E+00
         0.00000E+00
         0.00000E+00
         0.00000E+00
         0.00000E+00
         0.00000E+00
         0.00000E+00
         0.00000E+00
         0.00000E+00
         0.00000E+00
         0.00000E+00
         0.00000E+00
         0.00000E+00
         0.00000E+00
         0.00000E+00
         0.00000E+00
         0.00000E+00
         0.00000E+00
         0.00000E+00
         0.00000E+00
         0.00000E+00
         0.00000E+00
         0.00000E+00
         0.00000E+00
         0.00000E+00
         0.00000E+00
         0.00000E+00
         0.00000E+00
         0.00000E+00
         0.00000E+00
         0.00000E+00
         0.00000E+00
         0.00000E+00
         0.00000E+00
         0.00000E+00
         0.00000E+00
         0.00000E+00
         0.00000E+00
         0.00000E+00
         0.00000E+00
         0.00000E+00
         0.00000E+00
         0.00000E+00
         0.00000E+00
         0.00000E+00
         0.00000E+00
         0.00000E+00
         0.00000E+00
         0.00000E+00
         0.00000E+00
         0.00000E+00
         0.00000E+00
         0.00000E+00
         0.00000E+00
         0.00000E+00
         0.00000E+00
         0.00000E+00
         0.00000E+00
         0.00000E+00
         0.00000E+00
         0.00000E+00
         0.00000E+00
         0.00000E+00
         0.00000E+00
         0.00000E+00
         0.00000E+00
         0.00000E+00
         0.00000E+00
         0.00000E+00
         0.00000E+00
         0.00000E+00
         0.00000E+00
         0.00000E+00
         0.00000E+00
         0.00000E+00
         0.00000E+00
         0.00000E+00
         0.00000E+00
         0.00000E+00
         0.00000E+00
         0.00000E+00
         0.00000E+00
         0.00000E+00
         0.00000E+00
         0.00000E+00
         0.00000E+00
         0.00000E+00
         0.00000E+00
         0.00000E+00
         0.00000E+00
         0.00000E+00
         0.00000E+00
         0.00000E+00
         0.00000E+00
         0.00000E+00
         0.00000E+00
         0.00000E+00
         0.00000E+00
         0.00000E+00
         0.00000E+00
         0.00000E+00
         0.00000E+00
         0.00000E+00
         0.00000E+00
         0.00000E+00
         0.00000E+00
         0.00000E+00
         0.00000E+00
         0.00000E+00
         0.00000E+00
         0.00000E+00
         0.00000E+00
         0.00000E+00
         0.00000E+00
         0.00000E+00
         0.00000E+00
         0.00000E+00
         0.00000E+00
         0.00000E+00
         0.00000E+00
         0.00000E+00
         0.00000E+00
         0.00000E+00
         0.00000E+00
         0.00000E+00
         0.00000E+00
         0.00000E+00
         0.00000E+00
         0.00000E+00
         0.00000E+00
         0.00000E+00
         0.00000E+00
         0.00000E+00
         0.00000E+00
         0.00000E+00
         0.00000E+00
         0.00000E+00
         0.00000E+00
         0.00000E+00
         0.00000E+00
         0.00000E+00
         0.00000E+00
         0.00000E+00
         0.00000E+00
         0.00000E+00
         0.00000E+00
         0.00000E+00
         0.00000E+00
         0.00000E+00
         0.00000E+00
         0.00000E+00
         0.00000E+00
         0.00000E+00
         0.00000E+00
         0.00000E+00
         0.00000E+00
         0.00000E+00
         0.00000E+00
         0.00000E+00
         0.00000E+00
         0.00000E+00
         0.00000E+00
         0.00000E+00
         0.00000E+00
         0.00000E+00
         0.00000E+00
         0.00000E+00
         0.00000E+00
         0.00000E+00
         0.00000E+00
         0.00000E+00
         0.00000E+00
         0.00000E+00
         0.00000E+00
         0.00000E+00
         0.00000E+00
         0.00000E+00
         0.00000E+00
         0.00000E+00
         0.00000E+00
         0.00000E+00
         0.00000E+00
         0.00000E+00
         0.00000E+00
         0.00000E+00
         0.00000E+00
         0.00000E+00
         0.00000E+00
         0.00000E+00
         0.00000E+00
         0.00000E+00
         0.00000E+00
         0.00000E+00
         0.00000E+00
         0.00000E+00
         0.00000E+00
         0.00000E+00
         0.00000E+00
         0.00000E+00
         0.00000E+00
         0.00000E+00
         0.00000E+00
         0.00000E+00
         0.00000E+00
         0.00000E+00
         0.00000E+00
         0.00000E+00
         0.00000E+00
         0.00000E+00
         0.00000E+00
         0.00000E+00
         0.00000E+00
         0.00000E+00
         0.00000E+00
         0.00000E+00
         0.00000E+00
         0.00000E+00
         0.00000E+00
         0.00000E+00
         0.00000E+00
         0.00000E+00
         0.00000E+00
         0.00000E+00
         0.00000E+00
         0.00000E+00
         0.00000E+00
         0.00000E+00
         0.00000E+00
         0.00000E+00
         0.00000E+00
         0.00000E+00
         0.00000E+00
         0.00000E+00
         0.00000E+00
         0.00000E+00
         0.00000E+00
         0.00000E+00
         0.00000E+00
         0.00000E+00
         0.00000E+00
         0.00000E+00
         0.00000E+00
         0.00000E+00
         0.00000E+00
         0.00000E+00
         0.00000E+00
         0.00000E+00
         0.00000E+00
         0.00000E+00
         0.00000E+00
         0.00000E+00
         0.00000E+00
         0.00000E+00
         0.00000E+00
         0.00000E+00
         0.00000E+00
         0.00000E+00
         0.00000E+00
         0.00000E+00
         0.00000E+00
         0.00000E+00
         0.00000E+00
         0.00000E+00
         0.00000E+00
         0.00000E+00
         0.00000E+00
         0.00000E+00
         0.00000E+00
         0.00000E+00
         0.00000E+00
         0.00000E+00
         0.00000E+00
         0.00000E+00
         0.00000E+00
         0.00000E+00
         0.00000E+00
         0.00000E+00
         0.00000E+00
         0.00000E+00
         0.00000E+00
         0.00000E+00
         0.00000E+00
         0.00000E+00
         0.00000E+00
         0.00000E+00
         0.00000E+00
         0.00000E+00
         0.00000E+00
         0.00000E+00
         0.00000E+00
         0.00000E+00
         0.00000E+00
         0.00000E+00
         0.00000E+00
         0.00000E+00
         0.00000E+00
         0.00000E+00
         0.00000E+00
         0.00000E+00
         0.00000E+00
         0.00000E+00
         0.00000E+00
         0.00000E+00
         0.00000E+00
         0.00000E+00
         0.00000E+00
         0.00000E+00
         0.00000E+00
         0.00000E+00
         0.00000E+00
         0.00000E+00
         0.00000E+00
         0.00000E+00
         0.00000E+00
         0.00000E+00
         0.00000E+00
         0.00000E+00
         0.00000E+00
         0.00000E+00
         0.00000E+00
         0.00000E+00
         0.00000E+00
         0.00000E+00
         0.00000E+00
         0.00000E+00
         0.00000E+00
         0.00000E+00
         0.00000E+00
         0.00000E+00
         0.00000E+00
         0.00000E+00
         0.00000E+00
         0.00000E+00
         0.00000E+00
         0.00000E+00
         0.00000E+00
         0.00000E+00
         0.00000E+00
         0.00000E+00
         0.00000E+00
         0.00000E+00
         0.00000E+00
         0.00000E+00
         0.00000E+00
         0.00000E+00
         0.00000E+00
         0.00000E+00
         0.00000E+00
         0.00000E+00
         0.00000E+00
         0.00000E+00
         0.00000E+00
         0.00000E+00
         0.00000E+00
         0.00000E+00
         0.00000E+00
         0.00000E+00
         0.00000E+00
         0.00000E+00
         0.00000E+00
         0.00000E+00
         0.00000E+00
         0.00000E+00
         0.00000E+00
         0.00000E+00
         0.00000E+00
         0.00000E+00
         0.00000E+00
         0.00000E+00
         0.00000E+00
         0.00000E+00
         0.00000E+00
         0.00000E+00
         0.00000E+00
         0.00000E+00
         0.00000E+00
         0.00000E+00
         0.00000E+00
         0.00000E+00
         0.00000E+00
         0.00000E+00
         0.00000E+00
         0.00000E+00
         0.00000E+00
         0.00000E+00
         0.00000E+00
         0.00000E+00
         0.00000E+00
         0.00000E+00
         0.00000E+00
         0.00000E+00
         0.00000E+00
         0.00000E+00
         0.00000E+00
         0.00000E+00
         0.00000E+00
         0.00000E+00
         0.00000E+00
         0.00000E+00
         0.00000E+00
         0.00000E+00
         0.00000E+00
         0.00000E+00
         0.00000E+00
         0.00000E+00
         0.00000E+00
         0.00000E+00
         0.00000E+00
         0.00000E+00
         0.00000E+00
         0.00000E+00
         0.00000E+00
         0.00000E+00
         0.00000E+00
         0.00000E+00
         0.00000E+00
         0.00000E+00
         0.00000E+00
         0.00000E+00
         0.00000E+00
         0.00000E+00
         0.00000E+00
         0.00000E+00
         0.00000E+00
         0.00000E+00
         0.00000E+00
         0.00000E+00
         0.00000E+00
         0.00000E+00
         0.00000E+00
         0.00000E+00
         0.00000E+00
         0.00000E+00
         0.00000E+00
         0.00000E+00
         0.00000E+00
         0.00000E+00
         0.00000E+00
         0.00000E+00
         0.00000E+00
         0.00000E+00
         0.00000E+00
         0.00000E+00
         0.00000E+00
         0.00000E+00
         0.00000E+00
         0.00000E+00
         0.00000E+00
         0.00000E+00
         0.00000E+00
         0.00000E+00
         0.00000E+00
         0.00000E+00
         0.00000E+00
         0.00000E+00
         0.00000E+00
         0.00000E+00
         0.00000E+00
         0.00000E+00
         0.00000E+00
         0.00000E+00
         0.00000E+00
         0.00000E+00
         0.00000E+00
         0.00000E+00
         0.00000E+00
         0.00000E+00
         0.00000E+00
         0.00000E+00
         0.00000E+00
         0.00000E+00
         0.00000E+00
         0.00000E+00
         0.00000E+00
         0.00000E+00
         0.00000E+00
         0.00000E+00
         0.00000E+00
         0.00000E+00
         0.00000E+00
         0.00000E+00
         0.00000E+00
         0.00000E+00
         0.00000E+00
         0.00000E+00
         0.00000E+00
         0.00000E+00
         0.00000E+00
         0.00000E+00
         0.00000E+00
         0.00000E+00
         0.00000E+00
         0.00000E+00
         0.00000E+00
         0.00000E+00
         0.00000E+00
         0.00000E+00
         0.00000E+00
         0.00000E+00
         0.00000E+00
         0.00000E+00
         0.00000E+00
         0.00000E+00
         0.00000E+00
         0.00000E+00
         0.00000E+00
         0.00000E+00
         0.00000E+00
         0.00000E+00
         0.00000E+00
         0.00000E+00
         0.00000E+00
         0.00000E+00
         0.00000E+00
         0.00000E+00
         0.00000E+00
         0.00000E+00
         0.00000E+00
         0.00000E+00
         0.00000E+00
         0.00000E+00
         0.00000E+00
         0.00000E+00
         0.00000E+00
         0.00000E+00
         0.00000E+00
         0.00000E+00
         0.00000E+00
         0.00000E+00
         0.00000E+00
         0.00000E+00
         0.00000E+00
         0.00000E+00
         0.00000E+00
         0.00000E+00
         0.00000E+00
         0.00000E+00
         0.00000E+00
         0.00000E+00
         0.00000E+00
         0.00000E+00
         0.00000E+00
         0.00000E+00
         0.00000E+00
         0.00000E+00
         0.00000E+00
         0.00000E+00
         0.00000E+00
         0.00000E+00
         0.00000E+00
         0.00000E+00
         0.00000E+00
         0.00000E+00
         0.00000E+00
         0.00000E+00
         0.00000E+00
         0.00000E+00
         0.00000E+00
         0.00000E+00
         0.00000E+00
         0.00000E+00
         0.00000E+00
         0.00000E+00
         0.00000E+00
         0.00000E+00
         0.00000E+00
         0.00000E+00
         0.00000E+00
         0.00000E+00
         0.00000E+00
         0.00000E+00
         0.00000E+00
         0.00000E+00
         0.00000E+00
         0.00000E+00
         0.00000E+00
         0.00000E+00
         0.00000E+00
         0.00000E+00
         0.00000E+00
         0.00000E+00
         0.00000E+00
         0.00000E+00
         0.00000E+00
         0.00000E+00
         0.00000E+00
         0.00000E+00
         0.00000E+00
         0.00000E+00
         0.00000E+00
         0.00000E+00
         0.00000E+00
         0.00000E+00
         0.00000E+00
         0.00000E+00
         0.00000E+00
         0.00000E+00
         0.00000E+00
         0.00000E+00
         0.00000E+00
         0.00000E+00
         0.00000E+00
         0.00000E+00
         0.00000E+00
         0.00000E+00
         0.00000E+00
         0.00000E+00
         0.00000E+00
         0.00000E+00
         0.00000E+00
         0.00000E+00
         0.00000E+00
         0.00000E+00
         0.00000E+00
         0.00000E+00
         0.00000E+00
         0.00000E+00
         0.00000E+00
         0.00000E+00
         0.00000E+00
         0.00000E+00
         0.00000E+00
         0.00000E+00
         0.00000E+00
         0.00000E+00
         0.00000E+00
         0.00000E+00
         0.00000E+00
         0.00000E+00
         0.00000E+00
         0.00000E+00
         0.00000E+00
         0.00000E+00
         0.00000E+00
         0.00000E+00
         0.00000E+00
         0.00000E+00
         0.00000E+00
         0.00000E+00
         0.00000E+00
         0.00000E+00
         0.00000E+00
         0.00000E+00
         0.00000E+00
         0.00000E+00
         0.00000E+00
         0.00000E+00
         0.00000E+00
         0.00000E+00
         0.00000E+00
         0.00000E+00
         0.00000E+00
         0.00000E+00
         0.00000E+00
         0.00000E+00
         0.00000E+00
         0.00000E+00
         0.00000E+00
         0.00000E+00
         0.00000E+00
         0.00000E+00
         0.00000E+00
         0.00000E+00
         0.00000E+00
         0.00000E+00
         0.00000E+00
         0.00000E+00
         0.00000E+00
         0.00000E+00
         0.00000E+00
         0.00000E+00
         0.00000E+00
         0.00000E+00
         0.00000E+00
         0.00000E+00
         0.00000E+00
         0.00000E+00
         0.00000E+00
         0.00000E+00
         0.00000E+00
         0.00000E+00
         0.00000E+00
         0.00000E+00
         0.00000E+00
         0.00000E+00
         0.00000E+00
         0.00000E+00
         0.00000E+00
         0.00000E+00
         0.00000E+00
         0.00000E+00
         0.00000E+00
         0.00000E+00
         0.00000E+00
         0.00000E+00
         0.00000E+00
         0.00000E+00
         0.00000E+00
         0.00000E+00
         0.00000E+00
         0.00000E+00
         0.00000E+00
         0.00000E+00
         0.00000E+00
         0.00000E+00
         0.00000E+00
         0.00000E+00
         0.00000E+00
         0.00000E+00
         0.00000E+00
         0.00000E+00
         0.00000E+00
         0.00000E+00
         0.00000E+00
         0.00000E+00
         0.00000E+00
         0.00000E+00
         0.00000E+00
         0.00000E+00
         0.00000E+00
         0.00000E+00
         0.00000E+00
         0.00000E+00
         0.00000E+00
         0.00000E+00
         0.00000E+00
         0.00000E+00
         0.00000E+00
         0.00000E+00
         0.00000E+00
         0.00000E+00
         0.00000E+00
         0.00000E+00
         0.00000E+00
         0.00000E+00
         0.00000E+00
         0.00000E+00
         0.00000E+00
         0.00000E+00
         0.00000E+00
         0.00000E+00
         0.00000E+00
         0.00000E+00
         0.00000E+00
         0.00000E+00
         0.00000E+00
         0.00000E+00
         0.00000E+00
         0.00000E+00
         0.00000E+00
         0.00000E+00
         0.00000E+00
         0.00000E+00
         0.00000E+00
         0.00000E+00
         0.00000E+00
         0.00000E+00
         0.00000E+00
         0.00000E+00
         0.00000E+00
         0.00000E+00
         0.00000E+00
         0.00000E+00
         0.00000E+00
         0.00000E+00
         0.00000E+00
         0.00000E+00
         0.00000E+00
         0.00000E+00
         0.00000E+00
         0.00000E+00
         0.00000E+00
         0.00000E+00
         0.00000E+00
         0.00000E+00
         0.00000E+00
         0.00000E+00
         0.00000E+00
         0.00000E+00
         0.00000E+00
         0.00000E+00
         0.00000E+00
         0.00000E+00
         0.00000E+00
         0.00000E+00
         0.00000E+00
         0.00000E+00
         0.00000E+00
         0.00000E+00
         0.00000E+00
         0.00000E+00
         0.00000E+00
         0.00000E+00
         0.00000E+00
         0.00000E+00
         0.00000E+00
         0.00000E+00
         0.00000E+00
         0.00000E+00
         0.00000E+00
         0.00000E+00
         0.00000E+00
         0.00000E+00
         0.00000E+00
         0.00000E+00
         0.00000E+00
         0.00000E+00
         0.00000E+00
         0.00000E+00
         0.00000E+00
         0.00000E+00
         0.00000E+00
         0.00000E+00
         0.00000E+00
         0.00000E+00
         0.00000E+00
         0.00000E+00
         0.00000E+00
         0.00000E+00
         0.00000E+00
         0.00000E+00
         0.00000E+00
         0.00000E+00
         0.00000E+00
         0.00000E+00
         0.00000E+00
         0.00000E+00
         0.00000E+00
         0.00000E+00
         0.00000E+00
         0.00000E+00
         0.00000E+00
         0.00000E+00
         0.00000E+00
         0.00000E+00
         0.00000E+00
         0.00000E+00
         0.00000E+00
         0.00000E+00
         0.00000E+00
         0.00000E+00
         0.00000E+00
         0.00000E+00
         0.00000E+00
         0.00000E+00
         0.00000E+00
         0.00000E+00
         0.00000E+00
         0.00000E+00
         0.00000E+00
         0.00000E+00
         0.00000E+00
         0.00000E+00
         0.00000E+00
         0.00000E+00
         0.00000E+00
         0.00000E+00
         0.00000E+00
         0.00000E+00
         0.00000E+00
         0.00000E+00
         0.00000E+00
         0.00000E+00
         0.00000E+00
         0.00000E+00
         0.00000E+00
         0.00000E+00
         0.00000E+00
         0.00000E+00
         0.00000E+00
         0.00000E+00
         0.00000E+00
         0.00000E+00
         0.00000E+00
         0.00000E+00
         0.00000E+00
         0.00000E+00
         0.00000E+00
         0.00000E+00
         0.00000E+00
         0.00000E+00
         0.00000E+00
         0.00000E+00
         0.00000E+00
         0.00000E+00
         0.00000E+00
         0.00000E+00
         0.00000E+00
         0.00000E+00
         0.00000E+00
         0.00000E+00
         0.00000E+00
         0.00000E+00
         0.00000E+00
         0.00000E+00
         0.00000E+00
         0.00000E+00
         0.00000E+00
         0.00000E+00
         0.00000E+00
         0.00000E+00
         0.00000E+00
         0.00000E+00
         0.00000E+00
         0.00000E+00
         0.00000E+00
         0.00000E+00
         0.00000E+00
         0.00000E+00
         0.00000E+00
         0.00000E+00
         0.00000E+00
         0.00000E+00
         0.00000E+00
         0.00000E+00
         0.00000E+00
         0.00000E+00
         0.00000E+00
         0.00000E+00
         0.00000E+00
         0.00000E+00
         0.00000E+00
         0.00000E+00
         0.00000E+00
         0.00000E+00
         0.00000E+00
         0.00000E+00
         0.00000E+00
         0.00000E+00
         0.00000E+00
         0.00000E+00
         0.00000E+00
         0.00000E+00
         0.00000E+00
         0.00000E+00
         0.00000E+00
         0.00000E+00
         0.00000E+00
         0.00000E+00
         0.00000E+00
         0.00000E+00
         0.00000E+00
         0.00000E+00
         0.00000E+00
         0.00000E+00
         0.00000E+00
         0.00000E+00
         0.00000E+00
         0.00000E+00
         0.00000E+00
         0.00000E+00
         0.00000E+00
         0.00000E+00
         0.00000E+00
         0.00000E+00
         0.00000E+00
         0.00000E+00
         0.00000E+00
         0.00000E+00
         0.00000E+00
         0.00000E+00
         0.00000E+00
         0.00000E+00
         0.00000E+00
         0.00000E+00
         0.00000E+00
         0.00000E+00
  
SCALARS                 acceleration_z  double 1
LOOKUP_TABLE default
         0.00000E+00
         0.00000E+00
         0.00000E+00
         0.00000E+00
         0.00000E+00
         0.00000E+00
         0.00000E+00
         0.00000E+00
         0.00000E+00
         0.00000E+00
         0.00000E+00
         0.00000E+00
         0.00000E+00
         0.00000E+00
         0.00000E+00
         0.00000E+00
         0.00000E+00
         0.00000E+00
         0.00000E+00
         0.00000E+00
         0.00000E+00
         0.00000E+00
         0.00000E+00
         0.00000E+00
         0.00000E+00
         0.00000E+00
         0.00000E+00
         0.00000E+00
         0.00000E+00
         0.00000E+00
         0.00000E+00
         0.00000E+00
         0.00000E+00
         0.00000E+00
         0.00000E+00
         0.00000E+00
         0.00000E+00
         0.00000E+00
         0.00000E+00
         0.00000E+00
         0.00000E+00
         0.00000E+00
         0.00000E+00
         0.00000E+00
         0.00000E+00
         0.00000E+00
         0.00000E+00
         0.00000E+00
         0.00000E+00
         0.00000E+00
         0.00000E+00
         0.00000E+00
         0.00000E+00
         0.00000E+00
         0.00000E+00
         0.00000E+00
         0.00000E+00
         0.00000E+00
         0.00000E+00
         0.00000E+00
         0.00000E+00
         0.00000E+00
         0.00000E+00
         0.00000E+00
         0.00000E+00
         0.00000E+00
         0.00000E+00
         0.00000E+00
         0.00000E+00
         0.00000E+00
         0.00000E+00
         0.00000E+00
         0.00000E+00
         0.00000E+00
         0.00000E+00
         0.00000E+00
         0.00000E+00
         0.00000E+00
         0.00000E+00
         0.00000E+00
         0.00000E+00
         0.00000E+00
         0.00000E+00
         0.00000E+00
         0.00000E+00
         0.00000E+00
         0.00000E+00
         0.00000E+00
         0.00000E+00
         0.00000E+00
         0.00000E+00
         0.00000E+00
         0.00000E+00
         0.00000E+00
         0.00000E+00
         0.00000E+00
         0.00000E+00
         0.00000E+00
         0.00000E+00
         0.00000E+00
         0.00000E+00
         0.00000E+00
         0.00000E+00
         0.00000E+00
         0.00000E+00
         0.00000E+00
         0.00000E+00
         0.00000E+00
         0.00000E+00
         0.00000E+00
         0.00000E+00
         0.00000E+00
         0.00000E+00
         0.00000E+00
         0.00000E+00
         0.00000E+00
         0.00000E+00
         0.00000E+00
         0.00000E+00
         0.00000E+00
         0.00000E+00
         0.00000E+00
         0.00000E+00
         0.00000E+00
         0.00000E+00
         0.00000E+00
         0.00000E+00
         0.00000E+00
         0.00000E+00
         0.00000E+00
         0.00000E+00
         0.00000E+00
         0.00000E+00
         0.00000E+00
         0.00000E+00
         0.00000E+00
         0.00000E+00
         0.00000E+00
         0.00000E+00
         0.00000E+00
         0.00000E+00
         0.00000E+00
         0.00000E+00
         0.00000E+00
         0.00000E+00
         0.00000E+00
         0.00000E+00
         0.00000E+00
         0.00000E+00
         0.00000E+00
         0.00000E+00
         0.00000E+00
         0.00000E+00
         0.00000E+00
         0.00000E+00
         0.00000E+00
         0.00000E+00
         0.00000E+00
         0.00000E+00
         0.00000E+00
         0.00000E+00
         0.00000E+00
         0.00000E+00
         0.00000E+00
         0.00000E+00
         0.00000E+00
         0.00000E+00
         0.00000E+00
         0.00000E+00
         0.00000E+00
         0.00000E+00
         0.00000E+00
         0.00000E+00
         0.00000E+00
         0.00000E+00
         0.00000E+00
         0.00000E+00
         0.00000E+00
         0.00000E+00
         0.00000E+00
         0.00000E+00
         0.00000E+00
         0.00000E+00
         0.00000E+00
         0.00000E+00
         0.00000E+00
         0.00000E+00
         0.00000E+00
         0.00000E+00
         0.00000E+00
         0.00000E+00
         0.00000E+00
         0.00000E+00
         0.00000E+00
         0.00000E+00
         0.00000E+00
         0.00000E+00
         0.00000E+00
         0.00000E+00
         0.00000E+00
         0.00000E+00
         0.00000E+00
         0.00000E+00
         0.00000E+00
         0.00000E+00
         0.00000E+00
         0.00000E+00
         0.00000E+00
         0.00000E+00
         0.00000E+00
         0.00000E+00
         0.00000E+00
         0.00000E+00
         0.00000E+00
         0.00000E+00
         0.00000E+00
         0.00000E+00
         0.00000E+00
         0.00000E+00
         0.00000E+00
         0.00000E+00
         0.00000E+00
         0.00000E+00
         0.00000E+00
         0.00000E+00
         0.00000E+00
         0.00000E+00
         0.00000E+00
         0.00000E+00
         0.00000E+00
         0.00000E+00
         0.00000E+00
         0.00000E+00
         0.00000E+00
         0.00000E+00
         0.00000E+00
         0.00000E+00
         0.00000E+00
         0.00000E+00
         0.00000E+00
         0.00000E+00
         0.00000E+00
         0.00000E+00
         0.00000E+00
         0.00000E+00
         0.00000E+00
         0.00000E+00
         0.00000E+00
         0.00000E+00
         0.00000E+00
         0.00000E+00
         0.00000E+00
         0.00000E+00
         0.00000E+00
         0.00000E+00
         0.00000E+00
         0.00000E+00
         0.00000E+00
         0.00000E+00
         0.00000E+00
         0.00000E+00
         0.00000E+00
         0.00000E+00
         0.00000E+00
         0.00000E+00
         0.00000E+00
         0.00000E+00
         0.00000E+00
         0.00000E+00
         0.00000E+00
         0.00000E+00
         0.00000E+00
         0.00000E+00
         0.00000E+00
         0.00000E+00
         0.00000E+00
         0.00000E+00
         0.00000E+00
         0.00000E+00
         0.00000E+00
         0.00000E+00
         0.00000E+00
         0.00000E+00
         0.00000E+00
         0.00000E+00
         0.00000E+00
         0.00000E+00
         0.00000E+00
         0.00000E+00
         0.00000E+00
         0.00000E+00
         0.00000E+00
         0.00000E+00
         0.00000E+00
         0.00000E+00
         0.00000E+00
         0.00000E+00
         0.00000E+00
         0.00000E+00
         0.00000E+00
         0.00000E+00
         0.00000E+00
         0.00000E+00
         0.00000E+00
         0.00000E+00
         0.00000E+00
         0.00000E+00
         0.00000E+00
         0.00000E+00
         0.00000E+00
         0.00000E+00
         0.00000E+00
         0.00000E+00
         0.00000E+00
         0.00000E+00
         0.00000E+00
         0.00000E+00
         0.00000E+00
         0.00000E+00
         0.00000E+00
         0.00000E+00
         0.00000E+00
         0.00000E+00
         0.00000E+00
         0.00000E+00
         0.00000E+00
         0.00000E+00
         0.00000E+00
         0.00000E+00
         0.00000E+00
         0.00000E+00
         0.00000E+00
         0.00000E+00
         0.00000E+00
         0.00000E+00
         0.00000E+00
         0.00000E+00
         0.00000E+00
         0.00000E+00
         0.00000E+00
         0.00000E+00
         0.00000E+00
         0.00000E+00
         0.00000E+00
         0.00000E+00
         0.00000E+00
         0.00000E+00
         0.00000E+00
         0.00000E+00
         0.00000E+00
         0.00000E+00
         0.00000E+00
         0.00000E+00
         0.00000E+00
         0.00000E+00
         0.00000E+00
         0.00000E+00
         0.00000E+00
         0.00000E+00
         0.00000E+00
         0.00000E+00
         0.00000E+00
         0.00000E+00
         0.00000E+00
         0.00000E+00
         0.00000E+00
         0.00000E+00
         0.00000E+00
         0.00000E+00
         0.00000E+00
         0.00000E+00
         0.00000E+00
         0.00000E+00
         0.00000E+00
         0.00000E+00
         0.00000E+00
         0.00000E+00
         0.00000E+00
         0.00000E+00
         0.00000E+00
         0.00000E+00
         0.00000E+00
         0.00000E+00
         0.00000E+00
         0.00000E+00
         0.00000E+00
         0.00000E+00
         0.00000E+00
         0.00000E+00
         0.00000E+00
         0.00000E+00
         0.00000E+00
         0.00000E+00
         0.00000E+00
         0.00000E+00
         0.00000E+00
         0.00000E+00
         0.00000E+00
         0.00000E+00
         0.00000E+00
         0.00000E+00
         0.00000E+00
         0.00000E+00
         0.00000E+00
         0.00000E+00
         0.00000E+00
         0.00000E+00
         0.00000E+00
         0.00000E+00
         0.00000E+00
         0.00000E+00
         0.00000E+00
         0.00000E+00
         0.00000E+00
         0.00000E+00
         0.00000E+00
         0.00000E+00
         0.00000E+00
         0.00000E+00
         0.00000E+00
         0.00000E+00
         0.00000E+00
         0.00000E+00
         0.00000E+00
         0.00000E+00
         0.00000E+00
         0.00000E+00
         0.00000E+00
         0.00000E+00
         0.00000E+00
         0.00000E+00
         0.00000E+00
         0.00000E+00
         0.00000E+00
         0.00000E+00
         0.00000E+00
         0.00000E+00
         0.00000E+00
         0.00000E+00
         0.00000E+00
         0.00000E+00
         0.00000E+00
         0.00000E+00
         0.00000E+00
         0.00000E+00
         0.00000E+00
         0.00000E+00
         0.00000E+00
         0.00000E+00
         0.00000E+00
         0.00000E+00
         0.00000E+00
         0.00000E+00
         0.00000E+00
         0.00000E+00
         0.00000E+00
         0.00000E+00
         0.00000E+00
         0.00000E+00
         0.00000E+00
         0.00000E+00
         0.00000E+00
         0.00000E+00
         0.00000E+00
         0.00000E+00
         0.00000E+00
         0.00000E+00
         0.00000E+00
         0.00000E+00
         0.00000E+00
         0.00000E+00
         0.00000E+00
         0.00000E+00
         0.00000E+00
         0.00000E+00
         0.00000E+00
         0.00000E+00
         0.00000E+00
         0.00000E+00
         0.00000E+00
         0.00000E+00
         0.00000E+00
         0.00000E+00
         0.00000E+00
         0.00000E+00
         0.00000E+00
         0.00000E+00
         0.00000E+00
         0.00000E+00
         0.00000E+00
         0.00000E+00
         0.00000E+00
         0.00000E+00
         0.00000E+00
         0.00000E+00
         0.00000E+00
         0.00000E+00
         0.00000E+00
         0.00000E+00
         0.00000E+00
         0.00000E+00
         0.00000E+00
         0.00000E+00
         0.00000E+00
         0.00000E+00
         0.00000E+00
         0.00000E+00
         0.00000E+00
         0.00000E+00
         0.00000E+00
         0.00000E+00
         0.00000E+00
         0.00000E+00
         0.00000E+00
         0.00000E+00
         0.00000E+00
         0.00000E+00
         0.00000E+00
         0.00000E+00
         0.00000E+00
         0.00000E+00
         0.00000E+00
         0.00000E+00
         0.00000E+00
         0.00000E+00
         0.00000E+00
         0.00000E+00
         0.00000E+00
         0.00000E+00
         0.00000E+00
         0.00000E+00
         0.00000E+00
         0.00000E+00
         0.00000E+00
         0.00000E+00
         0.00000E+00
         0.00000E+00
         0.00000E+00
         0.00000E+00
         0.00000E+00
         0.00000E+00
         0.00000E+00
         0.00000E+00
         0.00000E+00
         0.00000E+00
         0.00000E+00
         0.00000E+00
         0.00000E+00
         0.00000E+00
         0.00000E+00
         0.00000E+00
         0.00000E+00
         0.00000E+00
         0.00000E+00
         0.00000E+00
         0.00000E+00
         0.00000E+00
         0.00000E+00
         0.00000E+00
         0.00000E+00
         0.00000E+00
         0.00000E+00
         0.00000E+00
         0.00000E+00
         0.00000E+00
         0.00000E+00
         0.00000E+00
         0.00000E+00
         0.00000E+00
         0.00000E+00
         0.00000E+00
         0.00000E+00
         0.00000E+00
         0.00000E+00
         0.00000E+00
         0.00000E+00
         0.00000E+00
         0.00000E+00
         0.00000E+00
         0.00000E+00
         0.00000E+00
         0.00000E+00
         0.00000E+00
         0.00000E+00
         0.00000E+00
         0.00000E+00
         0.00000E+00
         0.00000E+00
         0.00000E+00
         0.00000E+00
         0.00000E+00
         0.00000E+00
         0.00000E+00
         0.00000E+00
         0.00000E+00
         0.00000E+00
         0.00000E+00
         0.00000E+00
         0.00000E+00
         0.00000E+00
         0.00000E+00
         0.00000E+00
         0.00000E+00
         0.00000E+00
         0.00000E+00
         0.00000E+00
         0.00000E+00
         0.00000E+00
         0.00000E+00
         0.00000E+00
         0.00000E+00
         0.00000E+00
         0.00000E+00
         0.00000E+00
         0.00000E+00
         0.00000E+00
         0.00000E+00
         0.00000E+00
         0.00000E+00
         0.00000E+00
         0.00000E+00
         0.00000E+00
         0.00000E+00
         0.00000E+00
         0.00000E+00
         0.00000E+00
         0.00000E+00
         0.00000E+00
         0.00000E+00
         0.00000E+00
         0.00000E+00
         0.00000E+00
         0.00000E+00
         0.00000E+00
         0.00000E+00
         0.00000E+00
         0.00000E+00
         0.00000E+00
         0.00000E+00
         0.00000E+00
         0.00000E+00
         0.00000E+00
         0.00000E+00
         0.00000E+00
         0.00000E+00
         0.00000E+00
         0.00000E+00
         0.00000E+00
         0.00000E+00
         0.00000E+00
         0.00000E+00
         0.00000E+00
         0.00000E+00
         0.00000E+00
         0.00000E+00
         0.00000E+00
         0.00000E+00
         0.00000E+00
         0.00000E+00
         0.00000E+00
         0.00000E+00
         0.00000E+00
         0.00000E+00
         0.00000E+00
         0.00000E+00
         0.00000E+00
         0.00000E+00
         0.00000E+00
         0.00000E+00
         0.00000E+00
         0.00000E+00
         0.00000E+00
         0.00000E+00
         0.00000E+00
         0.00000E+00
         0.00000E+00
         0.00000E+00
         0.00000E+00
         0.00000E+00
         0.00000E+00
         0.00000E+00
         0.00000E+00
         0.00000E+00
         0.00000E+00
         0.00000E+00
         0.00000E+00
         0.00000E+00
         0.00000E+00
         0.00000E+00
         0.00000E+00
         0.00000E+00
         0.00000E+00
         0.00000E+00
         0.00000E+00
         0.00000E+00
         0.00000E+00
         0.00000E+00
         0.00000E+00
         0.00000E+00
         0.00000E+00
         0.00000E+00
         0.00000E+00
         0.00000E+00
         0.00000E+00
         0.00000E+00
         0.00000E+00
         0.00000E+00
         0.00000E+00
         0.00000E+00
         0.00000E+00
         0.00000E+00
         0.00000E+00
         0.00000E+00
         0.00000E+00
         0.00000E+00
         0.00000E+00
         0.00000E+00
         0.00000E+00
         0.00000E+00
         0.00000E+00
         0.00000E+00
         0.00000E+00
         0.00000E+00
         0.00000E+00
         0.00000E+00
         0.00000E+00
         0.00000E+00
         0.00000E+00
         0.00000E+00
         0.00000E+00
         0.00000E+00
         0.00000E+00
         0.00000E+00
         0.00000E+00
         0.00000E+00
         0.00000E+00
         0.00000E+00
         0.00000E+00
         0.00000E+00
         0.00000E+00
         0.00000E+00
         0.00000E+00
         0.00000E+00
         0.00000E+00
         0.00000E+00
         0.00000E+00
         0.00000E+00
         0.00000E+00
         0.00000E+00
         0.00000E+00
         0.00000E+00
         0.00000E+00
         0.00000E+00
         0.00000E+00
         0.00000E+00
         0.00000E+00
         0.00000E+00
         0.00000E+00
         0.00000E+00
         0.00000E+00
         0.00000E+00
         0.00000E+00
         0.00000E+00
         0.00000E+00
         0.00000E+00
         0.00000E+00
         0.00000E+00
         0.00000E+00
         0.00000E+00
         0.00000E+00
         0.00000E+00
         0.00000E+00
         0.00000E+00
         0.00000E+00
         0.00000E+00
         0.00000E+00
         0.00000E+00
         0.00000E+00
         0.00000E+00
         0.00000E+00
         0.00000E+00
         0.00000E+00
         0.00000E+00
         0.00000E+00
         0.00000E+00
         0.00000E+00
         0.00000E+00
         0.00000E+00
         0.00000E+00
         0.00000E+00
         0.00000E+00
         0.00000E+00
         0.00000E+00
         0.00000E+00
         0.00000E+00
         0.00000E+00
         0.00000E+00
         0.00000E+00
         0.00000E+00
         0.00000E+00
         0.00000E+00
         0.00000E+00
         0.00000E+00
         0.00000E+00
         0.00000E+00
         0.00000E+00
         0.00000E+00
         0.00000E+00
         0.00000E+00
         0.00000E+00
         0.00000E+00
         0.00000E+00
         0.00000E+00
         0.00000E+00
         0.00000E+00
         0.00000E+00
         0.00000E+00
         0.00000E+00
         0.00000E+00
         0.00000E+00
         0.00000E+00
         0.00000E+00
         0.00000E+00
         0.00000E+00
         0.00000E+00
         0.00000E+00
         0.00000E+00
         0.00000E+00
         0.00000E+00
         0.00000E+00
         0.00000E+00
         0.00000E+00
         0.00000E+00
         0.00000E+00
         0.00000E+00
         0.00000E+00
         0.00000E+00
         0.00000E+00
         0.00000E+00
         0.00000E+00
         0.00000E+00
         0.00000E+00
         0.00000E+00
         0.00000E+00
         0.00000E+00
         0.00000E+00
         0.00000E+00
         0.00000E+00
         0.00000E+00
         0.00000E+00
         0.00000E+00
         0.00000E+00
         0.00000E+00
         0.00000E+00
         0.00000E+00
         0.00000E+00
         0.00000E+00
         0.00000E+00
         0.00000E+00
         0.00000E+00
         0.00000E+00
         0.00000E+00
         0.00000E+00
         0.00000E+00
         0.00000E+00
         0.00000E+00
         0.00000E+00
         0.00000E+00
         0.00000E+00
         0.00000E+00
         0.00000E+00
         0.00000E+00
         0.00000E+00
         0.00000E+00
         0.00000E+00
         0.00000E+00
         0.00000E+00
         0.00000E+00
         0.00000E+00
         0.00000E+00
         0.00000E+00
         0.00000E+00
         0.00000E+00
         0.00000E+00
         0.00000E+00
         0.00000E+00
         0.00000E+00
         0.00000E+00
         0.00000E+00
         0.00000E+00
         0.00000E+00
         0.00000E+00
         0.00000E+00
         0.00000E+00
         0.00000E+00
         0.00000E+00
         0.00000E+00
         0.00000E+00
         0.00000E+00
         0.00000E+00
         0.00000E+00
         0.00000E+00
         0.00000E+00
         0.00000E+00
         0.00000E+00
         0.00000E+00
         0.00000E+00
         0.00000E+00
         0.00000E+00
         0.00000E+00
         0.00000E+00
         0.00000E+00
         0.00000E+00
         0.00000E+00
         0.00000E+00
         0.00000E+00
         0.00000E+00
         0.00000E+00
         0.00000E+00
         0.00000E+00
         0.00000E+00
         0.00000E+00
         0.00000E+00
         0.00000E+00
         0.00000E+00
         0.00000E+00
         0.00000E+00
         0.00000E+00
         0.00000E+00
         0.00000E+00
         0.00000E+00
         0.00000E+00
         0.00000E+00
         0.00000E+00
         0.00000E+00
         0.00000E+00
         0.00000E+00
         0.00000E+00
         0.00000E+00
         0.00000E+00
         0.00000E+00
         0.00000E+00
         0.00000E+00
         0.00000E+00
         0.00000E+00
         0.00000E+00
         0.00000E+00
         0.00000E+00
         0.00000E+00
         0.00000E+00
         0.00000E+00
         0.00000E+00
         0.00000E+00
         0.00000E+00
         0.00000E+00
         0.00000E+00
         0.00000E+00
         0.00000E+00
         0.00000E+00
         0.00000E+00
         0.00000E+00
         0.00000E+00
         0.00000E+00
         0.00000E+00
         0.00000E+00
         0.00000E+00
         0.00000E+00
         0.00000E+00
         0.00000E+00
         0.00000E+00
         0.00000E+00
         0.00000E+00
         0.00000E+00
         0.00000E+00
         0.00000E+00
         0.00000E+00
         0.00000E+00
         0.00000E+00
         0.00000E+00
         0.00000E+00
         0.00000E+00
         0.00000E+00
         0.00000E+00
         0.00000E+00
         0.00000E+00
         0.00000E+00
         0.00000E+00
         0.00000E+00
         0.00000E+00
         0.00000E+00
         0.00000E+00
         0.00000E+00
         0.00000E+00
         0.00000E+00
         0.00000E+00
         0.00000E+00
         0.00000E+00
         0.00000E+00
         0.00000E+00
         0.00000E+00
         0.00000E+00
         0.00000E+00
         0.00000E+00
         0.00000E+00
         0.00000E+00
         0.00000E+00
         0.00000E+00
         0.00000E+00
         0.00000E+00
         0.00000E+00
         0.00000E+00
         0.00000E+00
         0.00000E+00
         0.00000E+00
         0.00000E+00
         0.00000E+00
         0.00000E+00
         0.00000E+00
         0.00000E+00
         0.00000E+00
         0.00000E+00
         0.00000E+00
         0.00000E+00
         0.00000E+00
         0.00000E+00
         0.00000E+00
         0.00000E+00
         0.00000E+00
         0.00000E+00
         0.00000E+00
         0.00000E+00
         0.00000E+00
         0.00000E+00
         0.00000E+00
         0.00000E+00
         0.00000E+00
         0.00000E+00
         0.00000E+00
         0.00000E+00
         0.00000E+00
         0.00000E+00
         0.00000E+00
         0.00000E+00
         0.00000E+00
         0.00000E+00
         0.00000E+00
         0.00000E+00
         0.00000E+00
         0.00000E+00
         0.00000E+00
         0.00000E+00
         0.00000E+00
         0.00000E+00
         0.00000E+00
         0.00000E+00
         0.00000E+00
         0.00000E+00
         0.00000E+00
         0.00000E+00
         0.00000E+00
         0.00000E+00
         0.00000E+00
         0.00000E+00
         0.00000E+00
         0.00000E+00
         0.00000E+00
         0.00000E+00
         0.00000E+00
         0.00000E+00
         0.00000E+00
         0.00000E+00
         0.00000E+00
         0.00000E+00
         0.00000E+00
         0.00000E+00
         0.00000E+00
         0.00000E+00
         0.00000E+00
         0.00000E+00
         0.00000E+00
         0.00000E+00
         0.00000E+00
         0.00000E+00
         0.00000E+00
         0.00000E+00
         0.00000E+00
         0.00000E+00
         0.00000E+00
         0.00000E+00
         0.00000E+00
         0.00000E+00
         0.00000E+00
         0.00000E+00
         0.00000E+00
         0.00000E+00
         0.00000E+00
         0.00000E+00
         0.00000E+00
         0.00000E+00
         0.00000E+00
         0.00000E+00
         0.00000E+00
         0.00000E+00
         0.00000E+00
         0.00000E+00
         0.00000E+00
         0.00000E+00
         0.00000E+00
         0.00000E+00
         0.00000E+00
         0.00000E+00
         0.00000E+00
         0.00000E+00
         0.00000E+00
         0.00000E+00
         0.00000E+00
         0.00000E+00
         0.00000E+00
         0.00000E+00
         0.00000E+00
         0.00000E+00
         0.00000E+00
         0.00000E+00
         0.00000E+00
         0.00000E+00
         0.00000E+00
         0.00000E+00
         0.00000E+00
         0.00000E+00
         0.00000E+00
         0.00000E+00
         0.00000E+00
         0.00000E+00
         0.00000E+00
         0.00000E+00
         0.00000E+00
         0.00000E+00
         0.00000E+00
         0.00000E+00
         0.00000E+00
         0.00000E+00
         0.00000E+00
         0.00000E+00
         0.00000E+00
         0.00000E+00
         0.00000E+00
         0.00000E+00
         0.00000E+00
         0.00000E+00
         0.00000E+00
         0.00000E+00
         0.00000E+00
         0.00000E+00
         0.00000E+00
         0.00000E+00
         0.00000E+00
         0.00000E+00
         0.00000E+00
         0.00000E+00
         0.00000E+00
         0.00000E+00
         0.00000E+00
         0.00000E+00
         0.00000E+00
         0.00000E+00
         0.00000E+00
         0.00000E+00
         0.00000E+00
         0.00000E+00
         0.00000E+00
         0.00000E+00
         0.00000E+00
         0.00000E+00
         0.00000E+00
         0.00000E+00
         0.00000E+00
         0.00000E+00
         0.00000E+00
         0.00000E+00
         0.00000E+00
         0.00000E+00
         0.00000E+00
         0.00000E+00
         0.00000E+00
         0.00000E+00
         0.00000E+00
         0.00000E+00
         0.00000E+00
         0.00000E+00
         0.00000E+00
         0.00000E+00
         0.00000E+00
         0.00000E+00
         0.00000E+00
         0.00000E+00
         0.00000E+00
         0.00000E+00
         0.00000E+00
         0.00000E+00
         0.00000E+00
         0.00000E+00
         0.00000E+00
         0.00000E+00
         0.00000E+00
         0.00000E+00
         0.00000E+00
         0.00000E+00
         0.00000E+00
         0.00000E+00
         0.00000E+00
         0.00000E+00
         0.00000E+00
         0.00000E+00
         0.00000E+00
         0.00000E+00
         0.00000E+00
         0.00000E+00
         0.00000E+00
         0.00000E+00
         0.00000E+00
         0.00000E+00
         0.00000E+00
         0.00000E+00
         0.00000E+00
         0.00000E+00
         0.00000E+00
         0.00000E+00
         0.00000E+00
         0.00000E+00
         0.00000E+00
         0.00000E+00
         0.00000E+00
         0.00000E+00
         0.00000E+00
         0.00000E+00
         0.00000E+00
         0.00000E+00
         0.00000E+00
         0.00000E+00
         0.00000E+00
         0.00000E+00
         0.00000E+00
         0.00000E+00
         0.00000E+00
         0.00000E+00
         0.00000E+00
         0.00000E+00
         0.00000E+00
         0.00000E+00
         0.00000E+00
         0.00000E+00
         0.00000E+00
         0.00000E+00
         0.00000E+00
         0.00000E+00
         0.00000E+00
         0.00000E+00
         0.00000E+00
         0.00000E+00
         0.00000E+00
         0.00000E+00
         0.00000E+00
         0.00000E+00
         0.00000E+00
         0.00000E+00
         0.00000E+00
         0.00000E+00
         0.00000E+00
         0.00000E+00
         0.00000E+00
         0.00000E+00
         0.00000E+00
         0.00000E+00
         0.00000E+00
         0.00000E+00
         0.00000E+00
         0.00000E+00
         0.00000E+00
         0.00000E+00
         0.00000E+00
         0.00000E+00
         0.00000E+00
         0.00000E+00
         0.00000E+00
         0.00000E+00
         0.00000E+00
         0.00000E+00
         0.00000E+00
         0.00000E+00
         0.00000E+00
         0.00000E+00
         0.00000E+00
         0.00000E+00
         0.00000E+00
         0.00000E+00
         0.00000E+00
         0.00000E+00
         0.00000E+00
         0.00000E+00
         0.00000E+00
         0.00000E+00
         0.00000E+00
         0.00000E+00
         0.00000E+00
         0.00000E+00
         0.00000E+00
         0.00000E+00
         0.00000E+00
         0.00000E+00
         0.00000E+00
         0.00000E+00
         0.00000E+00
         0.00000E+00
         0.00000E+00
         0.00000E+00
         0.00000E+00
         0.00000E+00
         0.00000E+00
         0.00000E+00
         0.00000E+00
         0.00000E+00
         0.00000E+00
         0.00000E+00
         0.00000E+00
         0.00000E+00
         0.00000E+00
         0.00000E+00
         0.00000E+00
         0.00000E+00
         0.00000E+00
         0.00000E+00
         0.00000E+00
         0.00000E+00
         0.00000E+00
         0.00000E+00
         0.00000E+00
         0.00000E+00
         0.00000E+00
         0.00000E+00
         0.00000E+00
         0.00000E+00
         0.00000E+00
         0.00000E+00
         0.00000E+00
         0.00000E+00
         0.00000E+00
         0.00000E+00
         0.00000E+00
         0.00000E+00
         0.00000E+00
         0.00000E+00
         0.00000E+00
         0.00000E+00
         0.00000E+00
         0.00000E+00
         0.00000E+00
         0.00000E+00
         0.00000E+00
         0.00000E+00
         0.00000E+00
         0.00000E+00
         0.00000E+00
         0.00000E+00
         0.00000E+00
         0.00000E+00
         0.00000E+00
         0.00000E+00
         0.00000E+00
         0.00000E+00
         0.00000E+00
         0.00000E+00
         0.00000E+00
         0.00000E+00
         0.00000E+00
         0.00000E+00
         0.00000E+00
         0.00000E+00
         0.00000E+00
         0.00000E+00
         0.00000E+00
         0.00000E+00
         0.00000E+00
         0.00000E+00
         0.00000E+00
         0.00000E+00
         0.00000E+00
         0.00000E+00
         0.00000E+00
         0.00000E+00
         0.00000E+00
         0.00000E+00
         0.00000E+00
         0.00000E+00
         0.00000E+00
         0.00000E+00
         0.00000E+00
         0.00000E+00
         0.00000E+00
         0.00000E+00
         0.00000E+00
         0.00000E+00
         0.00000E+00
         0.00000E+00
         0.00000E+00
         0.00000E+00
         0.00000E+00
         0.00000E+00
         0.00000E+00
         0.00000E+00
         0.00000E+00
         0.00000E+00
         0.00000E+00
         0.00000E+00
         0.00000E+00
         0.00000E+00
         0.00000E+00
         0.00000E+00
         0.00000E+00
         0.00000E+00
         0.00000E+00
         0.00000E+00
         0.00000E+00
         0.00000E+00
         0.00000E+00
         0.00000E+00
         0.00000E+00
         0.00000E+00
         0.00000E+00
         0.00000E+00
         0.00000E+00
         0.00000E+00
         0.00000E+00
         0.00000E+00
         0.00000E+00
         0.00000E+00
         0.00000E+00
         0.00000E+00
         0.00000E+00
         0.00000E+00
         0.00000E+00
         0.00000E+00
         0.00000E+00
         0.00000E+00
         0.00000E+00
         0.00000E+00
         0.00000E+00
         0.00000E+00
         0.00000E+00
         0.00000E+00
         0.00000E+00
         0.00000E+00
         0.00000E+00
         0.00000E+00
         0.00000E+00
         0.00000E+00
         0.00000E+00
         0.00000E+00
         0.00000E+00
         0.00000E+00
         0.00000E+00
         0.00000E+00
         0.00000E+00
         0.00000E+00
         0.00000E+00
         0.00000E+00
         0.00000E+00
         0.00000E+00
         0.00000E+00
         0.00000E+00
         0.00000E+00
         0.00000E+00
         0.00000E+00
         0.00000E+00
         0.00000E+00
         0.00000E+00
         0.00000E+00
         0.00000E+00
         0.00000E+00
         0.00000E+00
         0.00000E+00
         0.00000E+00
         0.00000E+00
         0.00000E+00
         0.00000E+00
         0.00000E+00
         0.00000E+00
         0.00000E+00
         0.00000E+00
         0.00000E+00
         0.00000E+00
         0.00000E+00
         0.00000E+00
         0.00000E+00
         0.00000E+00
         0.00000E+00
         0.00000E+00
         0.00000E+00
         0.00000E+00
         0.00000E+00
         0.00000E+00
         0.00000E+00
         0.00000E+00
         0.00000E+00
         0.00000E+00
         0.00000E+00
         0.00000E+00
         0.00000E+00
         0.00000E+00
         0.00000E+00
         0.00000E+00
         0.00000E+00
         0.00000E+00
         0.00000E+00
         0.00000E+00
         0.00000E+00
         0.00000E+00
         0.00000E+00
         0.00000E+00
         0.00000E+00
         0.00000E+00
         0.00000E+00
         0.00000E+00
         0.00000E+00
         0.00000E+00
         0.00000E+00
         0.00000E+00
         0.00000E+00
         0.00000E+00
         0.00000E+00
         0.00000E+00
         0.00000E+00
         0.00000E+00
         0.00000E+00
         0.00000E+00
         0.00000E+00
         0.00000E+00
         0.00000E+00
         0.00000E+00
         0.00000E+00
         0.00000E+00
         0.00000E+00
         0.00000E+00
         0.00000E+00
         0.00000E+00
         0.00000E+00
         0.00000E+00
         0.00000E+00
         0.00000E+00
         0.00000E+00
         0.00000E+00
         0.00000E+00
         0.00000E+00
         0.00000E+00
         0.00000E+00
         0.00000E+00
         0.00000E+00
         0.00000E+00
         0.00000E+00
         0.00000E+00
         0.00000E+00
         0.00000E+00
         0.00000E+00
         0.00000E+00
         0.00000E+00
         0.00000E+00
         0.00000E+00
         0.00000E+00
         0.00000E+00
         0.00000E+00
         0.00000E+00
         0.00000E+00
         0.00000E+00
         0.00000E+00
         0.00000E+00
         0.00000E+00
         0.00000E+00
         0.00000E+00
         0.00000E+00
         0.00000E+00
         0.00000E+00
         0.00000E+00
         0.00000E+00
         0.00000E+00
         0.00000E+00
         0.00000E+00
         0.00000E+00
         0.00000E+00
         0.00000E+00
         0.00000E+00
         0.00000E+00
         0.00000E+00
         0.00000E+00
         0.00000E+00
         0.00000E+00
         0.00000E+00
         0.00000E+00
         0.00000E+00
         0.00000E+00
         0.00000E+00
         0.00000E+00
         0.00000E+00
         0.00000E+00
         0.00000E+00
         0.00000E+00
         0.00000E+00
         0.00000E+00
         0.00000E+00
         0.00000E+00
         0.00000E+00
         0.00000E+00
         0.00000E+00
         0.00000E+00
         0.00000E+00
         0.00000E+00
         0.00000E+00
         0.00000E+00
         0.00000E+00
         0.00000E+00
         0.00000E+00
         0.00000E+00
         0.00000E+00
         0.00000E+00
         0.00000E+00
         0.00000E+00
         0.00000E+00
         0.00000E+00
         0.00000E+00
         0.00000E+00
         0.00000E+00
         0.00000E+00
         0.00000E+00
         0.00000E+00
         0.00000E+00
         0.00000E+00
         0.00000E+00
         0.00000E+00
         0.00000E+00
         0.00000E+00
         0.00000E+00
         0.00000E+00
         0.00000E+00
         0.00000E+00
         0.00000E+00
         0.00000E+00
         0.00000E+00
         0.00000E+00
         0.00000E+00
         0.00000E+00
         0.00000E+00
         0.00000E+00
         0.00000E+00
         0.00000E+00
         0.00000E+00
         0.00000E+00
         0.00000E+00
         0.00000E+00
         0.00000E+00
         0.00000E+00
         0.00000E+00
         0.00000E+00
         0.00000E+00
         0.00000E+00
         0.00000E+00
         0.00000E+00
         0.00000E+00
         0.00000E+00
         0.00000E+00
         0.00000E+00
         0.00000E+00
         0.00000E+00
         0.00000E+00
         0.00000E+00
         0.00000E+00
         0.00000E+00
         0.00000E+00
         0.00000E+00
         0.00000E+00
         0.00000E+00
         0.00000E+00
         0.00000E+00
         0.00000E+00
         0.00000E+00
         0.00000E+00
         0.00000E+00
         0.00000E+00
         0.00000E+00
         0.00000E+00
         0.00000E+00
         0.00000E+00
         0.00000E+00
         0.00000E+00
         0.00000E+00
         0.00000E+00
         0.00000E+00
         0.00000E+00
         0.00000E+00
         0.00000E+00
         0.00000E+00
         0.00000E+00
         0.00000E+00
         0.00000E+00
         0.00000E+00
         0.00000E+00
         0.00000E+00
         0.00000E+00
         0.00000E+00
         0.00000E+00
         0.00000E+00
         0.00000E+00
         0.00000E+00
         0.00000E+00
         0.00000E+00
         0.00000E+00
         0.00000E+00
         0.00000E+00
         0.00000E+00
         0.00000E+00
         0.00000E+00
         0.00000E+00
         0.00000E+00
         0.00000E+00
         0.00000E+00
         0.00000E+00
         0.00000E+00
         0.00000E+00
         0.00000E+00
         0.00000E+00
         0.00000E+00
         0.00000E+00
         0.00000E+00
         0.00000E+00
         0.00000E+00
         0.00000E+00
         0.00000E+00
         0.00000E+00
         0.00000E+00
         0.00000E+00
         0.00000E+00
         0.00000E+00
         0.00000E+00
         0.00000E+00
         0.00000E+00
         0.00000E+00
         0.00000E+00
         0.00000E+00
         0.00000E+00
         0.00000E+00
         0.00000E+00
         0.00000E+00
         0.00000E+00
         0.00000E+00
         0.00000E+00
         0.00000E+00
         0.00000E+00
         0.00000E+00
         0.00000E+00
         0.00000E+00
         0.00000E+00
         0.00000E+00
         0.00000E+00
         0.00000E+00
         0.00000E+00
         0.00000E+00
         0.00000E+00
         0.00000E+00
         0.00000E+00
         0.00000E+00
         0.00000E+00
         0.00000E+00
         0.00000E+00
         0.00000E+00
         0.00000E+00
         0.00000E+00
         0.00000E+00
         0.00000E+00
         0.00000E+00
         0.00000E+00
         0.00000E+00
         0.00000E+00
         0.00000E+00
         0.00000E+00
         0.00000E+00
         0.00000E+00
         0.00000E+00
         0.00000E+00
         0.00000E+00
         0.00000E+00
         0.00000E+00
         0.00000E+00
         0.00000E+00
         0.00000E+00
         0.00000E+00
         0.00000E+00
         0.00000E+00
         0.00000E+00
         0.00000E+00
         0.00000E+00
         0.00000E+00
         0.00000E+00
         0.00000E+00
         0.00000E+00
         0.00000E+00
         0.00000E+00
         0.00000E+00
         0.00000E+00
         0.00000E+00
         0.00000E+00
         0.00000E+00
         0.00000E+00
         0.00000E+00
         0.00000E+00
         0.00000E+00
         0.00000E+00
         0.00000E+00
         0.00000E+00
         0.00000E+00
         0.00000E+00
         0.00000E+00
         0.00000E+00
         0.00000E+00
         0.00000E+00
         0.00000E+00
         0.00000E+00
         0.00000E+00
         0.00000E+00
         0.00000E+00
         0.00000E+00
         0.00000E+00
         0.00000E+00
         0.00000E+00
         0.00000E+00
         0.00000E+00
         0.00000E+00
         0.00000E+00
         0.00000E+00
         0.00000E+00
         0.00000E+00
         0.00000E+00
         0.00000E+00
         0.00000E+00
         0.00000E+00
         0.00000E+00
         0.00000E+00
         0.00000E+00
         0.00000E+00
         0.00000E+00
         0.00000E+00
         0.00000E+00
         0.00000E+00
         0.00000E+00
         0.00000E+00
         0.00000E+00
         0.00000E+00
         0.00000E+00
         0.00000E+00
         0.00000E+00
         0.00000E+00
         0.00000E+00
         0.00000E+00
         0.00000E+00
         0.00000E+00
         0.00000E+00
         0.00000E+00
         0.00000E+00
         0.00000E+00
         0.00000E+00
         0.00000E+00
         0.00000E+00
         0.00000E+00
         0.00000E+00
         0.00000E+00
         0.00000E+00
         0.00000E+00
         0.00000E+00
         0.00000E+00
         0.00000E+00
         0.00000E+00
         0.00000E+00
         0.00000E+00
         0.00000E+00
         0.00000E+00
         0.00000E+00
         0.00000E+00
         0.00000E+00
         0.00000E+00
         0.00000E+00
         0.00000E+00
         0.00000E+00
         0.00000E+00
         0.00000E+00
         0.00000E+00
         0.00000E+00
         0.00000E+00
         0.00000E+00
         0.00000E+00
         0.00000E+00
         0.00000E+00
         0.00000E+00
         0.00000E+00
         0.00000E+00
         0.00000E+00
         0.00000E+00
         0.00000E+00
         0.00000E+00
         0.00000E+00
         0.00000E+00
         0.00000E+00
         0.00000E+00
         0.00000E+00
         0.00000E+00
         0.00000E+00
         0.00000E+00
         0.00000E+00
         0.00000E+00
         0.00000E+00
         0.00000E+00
         0.00000E+00
         0.00000E+00
         0.00000E+00
         0.00000E+00
         0.00000E+00
         0.00000E+00
         0.00000E+00
         0.00000E+00
         0.00000E+00
         0.00000E+00
         0.00000E+00
         0.00000E+00
         0.00000E+00
         0.00000E+00
         0.00000E+00
         0.00000E+00
         0.00000E+00
         0.00000E+00
         0.00000E+00
         0.00000E+00
         0.00000E+00
         0.00000E+00
         0.00000E+00
         0.00000E+00
         0.00000E+00
         0.00000E+00
         0.00000E+00
         0.00000E+00
         0.00000E+00
         0.00000E+00
         0.00000E+00
         0.00000E+00
         0.00000E+00
         0.00000E+00
  
SCALARS                         fint_x  double 1
LOOKUP_TABLE default
         0.00000E+00
         0.00000E+00
         0.00000E+00
         0.00000E+00
         0.00000E+00
         0.00000E+00
         0.00000E+00
         0.00000E+00
         0.00000E+00
         0.00000E+00
         0.00000E+00
         0.00000E+00
         0.00000E+00
         0.00000E+00
         0.00000E+00
         0.00000E+00
         0.00000E+00
         0.00000E+00
         0.00000E+00
         0.00000E+00
         0.00000E+00
         0.00000E+00
         0.00000E+00
         0.00000E+00
         0.00000E+00
         0.00000E+00
         0.00000E+00
         0.00000E+00
         0.00000E+00
         0.00000E+00
         0.00000E+00
         0.00000E+00
         0.00000E+00
         0.00000E+00
         0.00000E+00
         0.00000E+00
         0.00000E+00
         0.00000E+00
         0.00000E+00
         0.00000E+00
         0.00000E+00
         0.00000E+00
         0.00000E+00
         0.00000E+00
         0.00000E+00
         0.00000E+00
         0.00000E+00
         0.00000E+00
         0.00000E+00
         0.00000E+00
         0.00000E+00
         0.00000E+00
         0.00000E+00
         0.00000E+00
         0.00000E+00
         0.00000E+00
         0.00000E+00
         0.00000E+00
         0.00000E+00
         0.00000E+00
         0.00000E+00
         0.00000E+00
         0.00000E+00
         0.00000E+00
         0.00000E+00
         0.00000E+00
         0.00000E+00
         0.00000E+00
         0.00000E+00
         0.00000E+00
         0.00000E+00
         0.00000E+00
         0.00000E+00
         0.00000E+00
         0.00000E+00
         0.00000E+00
         0.00000E+00
         0.00000E+00
         0.00000E+00
         0.00000E+00
         0.00000E+00
         0.00000E+00
         0.00000E+00
         0.00000E+00
         0.00000E+00
         0.00000E+00
         0.00000E+00
         0.00000E+00
         0.00000E+00
         0.00000E+00
         0.00000E+00
         0.00000E+00
         0.00000E+00
         0.00000E+00
         0.00000E+00
         0.00000E+00
         0.00000E+00
         0.00000E+00
         0.00000E+00
         0.00000E+00
         0.00000E+00
         0.00000E+00
         0.00000E+00
         0.00000E+00
         0.00000E+00
         0.00000E+00
         0.00000E+00
         0.00000E+00
         0.00000E+00
         0.00000E+00
         0.00000E+00
         0.00000E+00
         0.00000E+00
         0.00000E+00
         0.00000E+00
         0.00000E+00
         0.00000E+00
         0.00000E+00
         0.00000E+00
         0.00000E+00
         0.00000E+00
         0.00000E+00
         0.00000E+00
         0.00000E+00
         0.00000E+00
         0.00000E+00
         0.00000E+00
         0.00000E+00
         0.00000E+00
         0.00000E+00
         0.00000E+00
         0.00000E+00
         0.00000E+00
         0.00000E+00
         0.00000E+00
         0.00000E+00
         0.00000E+00
         0.00000E+00
         0.00000E+00
         0.00000E+00
         0.00000E+00
         0.00000E+00
         0.00000E+00
         0.00000E+00
         0.00000E+00
         0.00000E+00
         0.00000E+00
         0.00000E+00
         0.00000E+00
         0.00000E+00
         0.00000E+00
         0.00000E+00
         0.00000E+00
         0.00000E+00
         0.00000E+00
         0.00000E+00
         0.00000E+00
         0.00000E+00
         0.00000E+00
         0.00000E+00
         0.00000E+00
         0.00000E+00
         0.00000E+00
         0.00000E+00
         0.00000E+00
         0.00000E+00
         0.00000E+00
         0.00000E+00
         0.00000E+00
         0.00000E+00
         0.00000E+00
         0.00000E+00
         0.00000E+00
         0.00000E+00
         0.00000E+00
         0.00000E+00
         0.00000E+00
         0.00000E+00
         0.00000E+00
         0.00000E+00
         0.00000E+00
         0.00000E+00
         0.00000E+00
         0.00000E+00
         0.00000E+00
         0.00000E+00
         0.00000E+00
         0.00000E+00
         0.00000E+00
         0.00000E+00
         0.00000E+00
         0.00000E+00
         0.00000E+00
         0.00000E+00
         0.00000E+00
         0.00000E+00
         0.00000E+00
         0.00000E+00
         0.00000E+00
         0.00000E+00
         0.00000E+00
         0.00000E+00
         0.00000E+00
         0.00000E+00
         0.00000E+00
         0.00000E+00
         0.00000E+00
         0.00000E+00
         0.00000E+00
         0.00000E+00
         0.00000E+00
         0.00000E+00
         0.00000E+00
         0.00000E+00
         0.00000E+00
         0.00000E+00
         0.00000E+00
         0.00000E+00
         0.00000E+00
         0.00000E+00
         0.00000E+00
         0.00000E+00
         0.00000E+00
         0.00000E+00
         0.00000E+00
         0.00000E+00
         0.00000E+00
         0.00000E+00
         0.00000E+00
         0.00000E+00
         0.00000E+00
         0.00000E+00
         0.00000E+00
         0.00000E+00
         0.00000E+00
         0.00000E+00
         0.00000E+00
         0.00000E+00
         0.00000E+00
         0.00000E+00
         0.00000E+00
         0.00000E+00
         0.00000E+00
         0.00000E+00
         0.00000E+00
         0.00000E+00
         0.00000E+00
         0.00000E+00
         0.00000E+00
         0.00000E+00
         0.00000E+00
         0.00000E+00
         0.00000E+00
         0.00000E+00
         0.00000E+00
         0.00000E+00
         0.00000E+00
         0.00000E+00
         0.00000E+00
         0.00000E+00
         0.00000E+00
         0.00000E+00
         0.00000E+00
         0.00000E+00
         0.00000E+00
         0.00000E+00
         0.00000E+00
         0.00000E+00
         0.00000E+00
         0.00000E+00
         0.00000E+00
         0.00000E+00
         0.00000E+00
         0.00000E+00
         0.00000E+00
         0.00000E+00
         0.00000E+00
         0.00000E+00
         0.00000E+00
         0.00000E+00
         0.00000E+00
         0.00000E+00
         0.00000E+00
         0.00000E+00
         0.00000E+00
         0.00000E+00
         0.00000E+00
         0.00000E+00
         0.00000E+00
         0.00000E+00
         0.00000E+00
         0.00000E+00
         0.00000E+00
         0.00000E+00
         0.00000E+00
         0.00000E+00
         0.00000E+00
         0.00000E+00
         0.00000E+00
         0.00000E+00
         0.00000E+00
         0.00000E+00
         0.00000E+00
         0.00000E+00
         0.00000E+00
         0.00000E+00
         0.00000E+00
         0.00000E+00
         0.00000E+00
         0.00000E+00
         0.00000E+00
         0.00000E+00
         0.00000E+00
         0.00000E+00
         0.00000E+00
         0.00000E+00
         0.00000E+00
         0.00000E+00
         0.00000E+00
         0.00000E+00
         0.00000E+00
         0.00000E+00
         0.00000E+00
         0.00000E+00
         0.00000E+00
         0.00000E+00
         0.00000E+00
         0.00000E+00
         0.00000E+00
         0.00000E+00
         0.00000E+00
         0.00000E+00
         0.00000E+00
         0.00000E+00
         0.00000E+00
         0.00000E+00
         0.00000E+00
         0.00000E+00
         0.00000E+00
         0.00000E+00
         0.00000E+00
         0.00000E+00
         0.00000E+00
         0.00000E+00
         0.00000E+00
         0.00000E+00
         0.00000E+00
         0.00000E+00
         0.00000E+00
         0.00000E+00
         0.00000E+00
         0.00000E+00
         0.00000E+00
         0.00000E+00
         0.00000E+00
         0.00000E+00
         0.00000E+00
         0.00000E+00
         0.00000E+00
         0.00000E+00
         0.00000E+00
         0.00000E+00
         0.00000E+00
         0.00000E+00
         0.00000E+00
         0.00000E+00
         0.00000E+00
         0.00000E+00
         0.00000E+00
         0.00000E+00
         0.00000E+00
         0.00000E+00
         0.00000E+00
         0.00000E+00
         0.00000E+00
         0.00000E+00
         0.00000E+00
         0.00000E+00
         0.00000E+00
         0.00000E+00
         0.00000E+00
         0.00000E+00
         0.00000E+00
         0.00000E+00
         0.00000E+00
         0.00000E+00
         0.00000E+00
         0.00000E+00
         0.00000E+00
         0.00000E+00
         0.00000E+00
         0.00000E+00
         0.00000E+00
         0.00000E+00
         0.00000E+00
         0.00000E+00
         0.00000E+00
         0.00000E+00
         0.00000E+00
         0.00000E+00
         0.00000E+00
         0.00000E+00
         0.00000E+00
         0.00000E+00
         0.00000E+00
         0.00000E+00
         0.00000E+00
         0.00000E+00
         0.00000E+00
         0.00000E+00
         0.00000E+00
         0.00000E+00
         0.00000E+00
         0.00000E+00
         0.00000E+00
         0.00000E+00
         0.00000E+00
         0.00000E+00
         0.00000E+00
         0.00000E+00
         0.00000E+00
         0.00000E+00
         0.00000E+00
         0.00000E+00
         0.00000E+00
         0.00000E+00
         0.00000E+00
         0.00000E+00
         0.00000E+00
         0.00000E+00
         0.00000E+00
         0.00000E+00
         0.00000E+00
         0.00000E+00
         0.00000E+00
         0.00000E+00
         0.00000E+00
         0.00000E+00
         0.00000E+00
         0.00000E+00
         0.00000E+00
         0.00000E+00
         0.00000E+00
         0.00000E+00
         0.00000E+00
         0.00000E+00
         0.00000E+00
         0.00000E+00
         0.00000E+00
         0.00000E+00
         0.00000E+00
         0.00000E+00
         0.00000E+00
         0.00000E+00
         0.00000E+00
         0.00000E+00
         0.00000E+00
         0.00000E+00
         0.00000E+00
         0.00000E+00
         0.00000E+00
         0.00000E+00
         0.00000E+00
         0.00000E+00
         0.00000E+00
         0.00000E+00
         0.00000E+00
         0.00000E+00
         0.00000E+00
         0.00000E+00
         0.00000E+00
         0.00000E+00
         0.00000E+00
         0.00000E+00
         0.00000E+00
         0.00000E+00
         0.00000E+00
         0.00000E+00
         0.00000E+00
         0.00000E+00
         0.00000E+00
         0.00000E+00
         0.00000E+00
         0.00000E+00
         0.00000E+00
         0.00000E+00
         0.00000E+00
         0.00000E+00
         0.00000E+00
         0.00000E+00
         0.00000E+00
         0.00000E+00
         0.00000E+00
         0.00000E+00
         0.00000E+00
         0.00000E+00
         0.00000E+00
         0.00000E+00
         0.00000E+00
         0.00000E+00
         0.00000E+00
         0.00000E+00
         0.00000E+00
         0.00000E+00
         0.00000E+00
         0.00000E+00
         0.00000E+00
         0.00000E+00
         0.00000E+00
         0.00000E+00
         0.00000E+00
         0.00000E+00
         0.00000E+00
         0.00000E+00
         0.00000E+00
         0.00000E+00
         0.00000E+00
         0.00000E+00
         0.00000E+00
         0.00000E+00
         0.00000E+00
         0.00000E+00
         0.00000E+00
         0.00000E+00
         0.00000E+00
         0.00000E+00
         0.00000E+00
         0.00000E+00
         0.00000E+00
         0.00000E+00
         0.00000E+00
         0.00000E+00
         0.00000E+00
         0.00000E+00
         0.00000E+00
         0.00000E+00
         0.00000E+00
         0.00000E+00
         0.00000E+00
         0.00000E+00
         0.00000E+00
         0.00000E+00
         0.00000E+00
         0.00000E+00
         0.00000E+00
         0.00000E+00
         0.00000E+00
         0.00000E+00
         0.00000E+00
         0.00000E+00
         0.00000E+00
         0.00000E+00
         0.00000E+00
         0.00000E+00
         0.00000E+00
         0.00000E+00
         0.00000E+00
         0.00000E+00
         0.00000E+00
         0.00000E+00
         0.00000E+00
         0.00000E+00
         0.00000E+00
         0.00000E+00
         0.00000E+00
         0.00000E+00
         0.00000E+00
         0.00000E+00
         0.00000E+00
         0.00000E+00
         0.00000E+00
         0.00000E+00
         0.00000E+00
         0.00000E+00
         0.00000E+00
         0.00000E+00
         0.00000E+00
         0.00000E+00
         0.00000E+00
         0.00000E+00
         0.00000E+00
         0.00000E+00
         0.00000E+00
         0.00000E+00
         0.00000E+00
         0.00000E+00
         0.00000E+00
         0.00000E+00
         0.00000E+00
         0.00000E+00
         0.00000E+00
         0.00000E+00
         0.00000E+00
         0.00000E+00
         0.00000E+00
         0.00000E+00
         0.00000E+00
         0.00000E+00
         0.00000E+00
         0.00000E+00
         0.00000E+00
         0.00000E+00
         0.00000E+00
         0.00000E+00
         0.00000E+00
         0.00000E+00
         0.00000E+00
         0.00000E+00
         0.00000E+00
         0.00000E+00
         0.00000E+00
         0.00000E+00
         0.00000E+00
         0.00000E+00
         0.00000E+00
         0.00000E+00
         0.00000E+00
         0.00000E+00
         0.00000E+00
         0.00000E+00
         0.00000E+00
         0.00000E+00
         0.00000E+00
         0.00000E+00
         0.00000E+00
         0.00000E+00
         0.00000E+00
         0.00000E+00
         0.00000E+00
         0.00000E+00
         0.00000E+00
         0.00000E+00
         0.00000E+00
         0.00000E+00
         0.00000E+00
         0.00000E+00
         0.00000E+00
         0.00000E+00
         0.00000E+00
         0.00000E+00
         0.00000E+00
         0.00000E+00
         0.00000E+00
         0.00000E+00
         0.00000E+00
         0.00000E+00
         0.00000E+00
         0.00000E+00
         0.00000E+00
         0.00000E+00
         0.00000E+00
         0.00000E+00
         0.00000E+00
         0.00000E+00
         0.00000E+00
         0.00000E+00
         0.00000E+00
         0.00000E+00
         0.00000E+00
         0.00000E+00
         0.00000E+00
         0.00000E+00
         0.00000E+00
         0.00000E+00
         0.00000E+00
         0.00000E+00
         0.00000E+00
         0.00000E+00
         0.00000E+00
         0.00000E+00
         0.00000E+00
         0.00000E+00
         0.00000E+00
         0.00000E+00
         0.00000E+00
         0.00000E+00
         0.00000E+00
         0.00000E+00
         0.00000E+00
         0.00000E+00
         0.00000E+00
         0.00000E+00
         0.00000E+00
         0.00000E+00
         0.00000E+00
         0.00000E+00
         0.00000E+00
         0.00000E+00
         0.00000E+00
         0.00000E+00
         0.00000E+00
         0.00000E+00
         0.00000E+00
         0.00000E+00
         0.00000E+00
         0.00000E+00
         0.00000E+00
         0.00000E+00
         0.00000E+00
         0.00000E+00
         0.00000E+00
         0.00000E+00
         0.00000E+00
         0.00000E+00
         0.00000E+00
         0.00000E+00
         0.00000E+00
         0.00000E+00
         0.00000E+00
         0.00000E+00
         0.00000E+00
         0.00000E+00
         0.00000E+00
         0.00000E+00
         0.00000E+00
         0.00000E+00
         0.00000E+00
         0.00000E+00
         0.00000E+00
         0.00000E+00
         0.00000E+00
         0.00000E+00
         0.00000E+00
         0.00000E+00
         0.00000E+00
         0.00000E+00
         0.00000E+00
         0.00000E+00
         0.00000E+00
         0.00000E+00
         0.00000E+00
         0.00000E+00
         0.00000E+00
         0.00000E+00
         0.00000E+00
         0.00000E+00
         0.00000E+00
         0.00000E+00
         0.00000E+00
         0.00000E+00
         0.00000E+00
         0.00000E+00
         0.00000E+00
         0.00000E+00
         0.00000E+00
         0.00000E+00
         0.00000E+00
         0.00000E+00
         0.00000E+00
         0.00000E+00
         0.00000E+00
         0.00000E+00
         0.00000E+00
         0.00000E+00
         0.00000E+00
         0.00000E+00
         0.00000E+00
         0.00000E+00
         0.00000E+00
         0.00000E+00
         0.00000E+00
         0.00000E+00
         0.00000E+00
         0.00000E+00
         0.00000E+00
         0.00000E+00
         0.00000E+00
         0.00000E+00
         0.00000E+00
         0.00000E+00
         0.00000E+00
         0.00000E+00
         0.00000E+00
         0.00000E+00
         0.00000E+00
         0.00000E+00
         0.00000E+00
         0.00000E+00
         0.00000E+00
         0.00000E+00
         0.00000E+00
         0.00000E+00
         0.00000E+00
         0.00000E+00
         0.00000E+00
         0.00000E+00
         0.00000E+00
         0.00000E+00
         0.00000E+00
         0.00000E+00
         0.00000E+00
         0.00000E+00
         0.00000E+00
         0.00000E+00
         0.00000E+00
         0.00000E+00
         0.00000E+00
         0.00000E+00
         0.00000E+00
         0.00000E+00
         0.00000E+00
         0.00000E+00
         0.00000E+00
         0.00000E+00
         0.00000E+00
         0.00000E+00
         0.00000E+00
         0.00000E+00
         0.00000E+00
         0.00000E+00
         0.00000E+00
         0.00000E+00
         0.00000E+00
         0.00000E+00
         0.00000E+00
         0.00000E+00
         0.00000E+00
         0.00000E+00
         0.00000E+00
         0.00000E+00
         0.00000E+00
         0.00000E+00
         0.00000E+00
         0.00000E+00
         0.00000E+00
         0.00000E+00
         0.00000E+00
         0.00000E+00
         0.00000E+00
         0.00000E+00
         0.00000E+00
         0.00000E+00
         0.00000E+00
         0.00000E+00
         0.00000E+00
         0.00000E+00
         0.00000E+00
         0.00000E+00
         0.00000E+00
         0.00000E+00
         0.00000E+00
         0.00000E+00
         0.00000E+00
         0.00000E+00
         0.00000E+00
         0.00000E+00
         0.00000E+00
         0.00000E+00
         0.00000E+00
         0.00000E+00
         0.00000E+00
         0.00000E+00
         0.00000E+00
         0.00000E+00
         0.00000E+00
         0.00000E+00
         0.00000E+00
         0.00000E+00
         0.00000E+00
         0.00000E+00
         0.00000E+00
         0.00000E+00
         0.00000E+00
         0.00000E+00
         0.00000E+00
         0.00000E+00
         0.00000E+00
         0.00000E+00
         0.00000E+00
         0.00000E+00
         0.00000E+00
         0.00000E+00
         0.00000E+00
         0.00000E+00
         0.00000E+00
         0.00000E+00
         0.00000E+00
         0.00000E+00
         0.00000E+00
         0.00000E+00
         0.00000E+00
         0.00000E+00
         0.00000E+00
         0.00000E+00
         0.00000E+00
         0.00000E+00
         0.00000E+00
         0.00000E+00
         0.00000E+00
         0.00000E+00
         0.00000E+00
         0.00000E+00
         0.00000E+00
         0.00000E+00
         0.00000E+00
         0.00000E+00
         0.00000E+00
         0.00000E+00
         0.00000E+00
         0.00000E+00
         0.00000E+00
         0.00000E+00
         0.00000E+00
         0.00000E+00
         0.00000E+00
         0.00000E+00
         0.00000E+00
         0.00000E+00
         0.00000E+00
         0.00000E+00
         0.00000E+00
         0.00000E+00
         0.00000E+00
         0.00000E+00
         0.00000E+00
         0.00000E+00
         0.00000E+00
         0.00000E+00
         0.00000E+00
         0.00000E+00
         0.00000E+00
         0.00000E+00
         0.00000E+00
         0.00000E+00
         0.00000E+00
         0.00000E+00
         0.00000E+00
         0.00000E+00
         0.00000E+00
         0.00000E+00
         0.00000E+00
         0.00000E+00
         0.00000E+00
         0.00000E+00
         0.00000E+00
         0.00000E+00
         0.00000E+00
         0.00000E+00
         0.00000E+00
         0.00000E+00
         0.00000E+00
         0.00000E+00
         0.00000E+00
         0.00000E+00
         0.00000E+00
         0.00000E+00
         0.00000E+00
         0.00000E+00
         0.00000E+00
         0.00000E+00
         0.00000E+00
         0.00000E+00
         0.00000E+00
         0.00000E+00
         0.00000E+00
         0.00000E+00
         0.00000E+00
         0.00000E+00
         0.00000E+00
         0.00000E+00
         0.00000E+00
         0.00000E+00
         0.00000E+00
         0.00000E+00
         0.00000E+00
         0.00000E+00
         0.00000E+00
         0.00000E+00
         0.00000E+00
         0.00000E+00
         0.00000E+00
         0.00000E+00
         0.00000E+00
         0.00000E+00
         0.00000E+00
         0.00000E+00
         0.00000E+00
         0.00000E+00
         0.00000E+00
         0.00000E+00
         0.00000E+00
         0.00000E+00
         0.00000E+00
         0.00000E+00
         0.00000E+00
         0.00000E+00
         0.00000E+00
         0.00000E+00
         0.00000E+00
         0.00000E+00
         0.00000E+00
         0.00000E+00
         0.00000E+00
         0.00000E+00
         0.00000E+00
         0.00000E+00
         0.00000E+00
         0.00000E+00
         0.00000E+00
         0.00000E+00
         0.00000E+00
         0.00000E+00
         0.00000E+00
         0.00000E+00
         0.00000E+00
         0.00000E+00
         0.00000E+00
         0.00000E+00
         0.00000E+00
         0.00000E+00
         0.00000E+00
         0.00000E+00
         0.00000E+00
         0.00000E+00
         0.00000E+00
         0.00000E+00
         0.00000E+00
         0.00000E+00
         0.00000E+00
         0.00000E+00
         0.00000E+00
         0.00000E+00
         0.00000E+00
         0.00000E+00
         0.00000E+00
         0.00000E+00
         0.00000E+00
         0.00000E+00
         0.00000E+00
         0.00000E+00
         0.00000E+00
         0.00000E+00
         0.00000E+00
         0.00000E+00
         0.00000E+00
         0.00000E+00
         0.00000E+00
         0.00000E+00
         0.00000E+00
         0.00000E+00
         0.00000E+00
         0.00000E+00
         0.00000E+00
         0.00000E+00
         0.00000E+00
         0.00000E+00
         0.00000E+00
         0.00000E+00
         0.00000E+00
         0.00000E+00
         0.00000E+00
         0.00000E+00
         0.00000E+00
         0.00000E+00
         0.00000E+00
         0.00000E+00
         0.00000E+00
         0.00000E+00
         0.00000E+00
         0.00000E+00
         0.00000E+00
         0.00000E+00
         0.00000E+00
         0.00000E+00
         0.00000E+00
         0.00000E+00
         0.00000E+00
         0.00000E+00
         0.00000E+00
         0.00000E+00
         0.00000E+00
         0.00000E+00
         0.00000E+00
         0.00000E+00
         0.00000E+00
         0.00000E+00
         0.00000E+00
         0.00000E+00
         0.00000E+00
         0.00000E+00
         0.00000E+00
         0.00000E+00
         0.00000E+00
         0.00000E+00
         0.00000E+00
         0.00000E+00
         0.00000E+00
         0.00000E+00
         0.00000E+00
         0.00000E+00
         0.00000E+00
         0.00000E+00
         0.00000E+00
         0.00000E+00
         0.00000E+00
         0.00000E+00
         0.00000E+00
         0.00000E+00
         0.00000E+00
         0.00000E+00
         0.00000E+00
         0.00000E+00
         0.00000E+00
         0.00000E+00
         0.00000E+00
         0.00000E+00
         0.00000E+00
         0.00000E+00
         0.00000E+00
         0.00000E+00
         0.00000E+00
         0.00000E+00
         0.00000E+00
         0.00000E+00
         0.00000E+00
         0.00000E+00
         0.00000E+00
         0.00000E+00
         0.00000E+00
         0.00000E+00
         0.00000E+00
         0.00000E+00
         0.00000E+00
         0.00000E+00
         0.00000E+00
         0.00000E+00
         0.00000E+00
         0.00000E+00
         0.00000E+00
         0.00000E+00
         0.00000E+00
         0.00000E+00
         0.00000E+00
         0.00000E+00
         0.00000E+00
         0.00000E+00
         0.00000E+00
         0.00000E+00
         0.00000E+00
         0.00000E+00
         0.00000E+00
         0.00000E+00
         0.00000E+00
         0.00000E+00
         0.00000E+00
         0.00000E+00
         0.00000E+00
         0.00000E+00
         0.00000E+00
         0.00000E+00
         0.00000E+00
         0.00000E+00
         0.00000E+00
         0.00000E+00
         0.00000E+00
         0.00000E+00
         0.00000E+00
         0.00000E+00
         0.00000E+00
         0.00000E+00
         0.00000E+00
         0.00000E+00
         0.00000E+00
         0.00000E+00
         0.00000E+00
         0.00000E+00
         0.00000E+00
         0.00000E+00
         0.00000E+00
         0.00000E+00
         0.00000E+00
         0.00000E+00
         0.00000E+00
         0.00000E+00
         0.00000E+00
         0.00000E+00
         0.00000E+00
         0.00000E+00
         0.00000E+00
         0.00000E+00
         0.00000E+00
         0.00000E+00
         0.00000E+00
         0.00000E+00
         0.00000E+00
         0.00000E+00
         0.00000E+00
         0.00000E+00
         0.00000E+00
         0.00000E+00
         0.00000E+00
         0.00000E+00
         0.00000E+00
         0.00000E+00
         0.00000E+00
         0.00000E+00
         0.00000E+00
         0.00000E+00
         0.00000E+00
         0.00000E+00
         0.00000E+00
         0.00000E+00
         0.00000E+00
         0.00000E+00
         0.00000E+00
         0.00000E+00
         0.00000E+00
         0.00000E+00
         0.00000E+00
         0.00000E+00
         0.00000E+00
         0.00000E+00
         0.00000E+00
         0.00000E+00
         0.00000E+00
         0.00000E+00
         0.00000E+00
         0.00000E+00
         0.00000E+00
         0.00000E+00
         0.00000E+00
         0.00000E+00
         0.00000E+00
         0.00000E+00
         0.00000E+00
         0.00000E+00
         0.00000E+00
         0.00000E+00
         0.00000E+00
         0.00000E+00
         0.00000E+00
         0.00000E+00
         0.00000E+00
         0.00000E+00
         0.00000E+00
         0.00000E+00
         0.00000E+00
         0.00000E+00
         0.00000E+00
         0.00000E+00
         0.00000E+00
         0.00000E+00
         0.00000E+00
         0.00000E+00
         0.00000E+00
         0.00000E+00
         0.00000E+00
         0.00000E+00
         0.00000E+00
         0.00000E+00
         0.00000E+00
         0.00000E+00
         0.00000E+00
         0.00000E+00
         0.00000E+00
         0.00000E+00
         0.00000E+00
         0.00000E+00
         0.00000E+00
         0.00000E+00
         0.00000E+00
         0.00000E+00
         0.00000E+00
         0.00000E+00
         0.00000E+00
         0.00000E+00
         0.00000E+00
         0.00000E+00
         0.00000E+00
         0.00000E+00
         0.00000E+00
         0.00000E+00
         0.00000E+00
         0.00000E+00
         0.00000E+00
         0.00000E+00
         0.00000E+00
         0.00000E+00
         0.00000E+00
         0.00000E+00
         0.00000E+00
         0.00000E+00
         0.00000E+00
         0.00000E+00
         0.00000E+00
         0.00000E+00
         0.00000E+00
         0.00000E+00
         0.00000E+00
         0.00000E+00
         0.00000E+00
         0.00000E+00
         0.00000E+00
         0.00000E+00
         0.00000E+00
         0.00000E+00
         0.00000E+00
         0.00000E+00
         0.00000E+00
         0.00000E+00
         0.00000E+00
         0.00000E+00
         0.00000E+00
         0.00000E+00
         0.00000E+00
         0.00000E+00
         0.00000E+00
         0.00000E+00
         0.00000E+00
         0.00000E+00
         0.00000E+00
         0.00000E+00
         0.00000E+00
         0.00000E+00
         0.00000E+00
         0.00000E+00
         0.00000E+00
         0.00000E+00
         0.00000E+00
         0.00000E+00
         0.00000E+00
         0.00000E+00
         0.00000E+00
         0.00000E+00
         0.00000E+00
         0.00000E+00
         0.00000E+00
         0.00000E+00
         0.00000E+00
         0.00000E+00
         0.00000E+00
         0.00000E+00
         0.00000E+00
         0.00000E+00
         0.00000E+00
         0.00000E+00
         0.00000E+00
         0.00000E+00
         0.00000E+00
         0.00000E+00
         0.00000E+00
         0.00000E+00
         0.00000E+00
         0.00000E+00
         0.00000E+00
         0.00000E+00
         0.00000E+00
         0.00000E+00
         0.00000E+00
         0.00000E+00
         0.00000E+00
         0.00000E+00
         0.00000E+00
         0.00000E+00
         0.00000E+00
         0.00000E+00
         0.00000E+00
         0.00000E+00
         0.00000E+00
         0.00000E+00
         0.00000E+00
         0.00000E+00
         0.00000E+00
         0.00000E+00
         0.00000E+00
         0.00000E+00
         0.00000E+00
         0.00000E+00
         0.00000E+00
         0.00000E+00
         0.00000E+00
         0.00000E+00
         0.00000E+00
         0.00000E+00
         0.00000E+00
         0.00000E+00
         0.00000E+00
         0.00000E+00
         0.00000E+00
         0.00000E+00
         0.00000E+00
         0.00000E+00
         0.00000E+00
         0.00000E+00
         0.00000E+00
         0.00000E+00
         0.00000E+00
         0.00000E+00
         0.00000E+00
         0.00000E+00
         0.00000E+00
         0.00000E+00
         0.00000E+00
         0.00000E+00
         0.00000E+00
         0.00000E+00
         0.00000E+00
         0.00000E+00
         0.00000E+00
         0.00000E+00
         0.00000E+00
         0.00000E+00
         0.00000E+00
         0.00000E+00
         0.00000E+00
         0.00000E+00
         0.00000E+00
         0.00000E+00
         0.00000E+00
         0.00000E+00
         0.00000E+00
         0.00000E+00
         0.00000E+00
         0.00000E+00
         0.00000E+00
         0.00000E+00
         0.00000E+00
         0.00000E+00
         0.00000E+00
         0.00000E+00
         0.00000E+00
         0.00000E+00
         0.00000E+00
         0.00000E+00
         0.00000E+00
         0.00000E+00
         0.00000E+00
         0.00000E+00
         0.00000E+00
         0.00000E+00
         0.00000E+00
         0.00000E+00
         0.00000E+00
         0.00000E+00
         0.00000E+00
         0.00000E+00
         0.00000E+00
         0.00000E+00
         0.00000E+00
         0.00000E+00
         0.00000E+00
         0.00000E+00
         0.00000E+00
         0.00000E+00
         0.00000E+00
         0.00000E+00
         0.00000E+00
         0.00000E+00
         0.00000E+00
         0.00000E+00
         0.00000E+00
         0.00000E+00
         0.00000E+00
         0.00000E+00
         0.00000E+00
         0.00000E+00
         0.00000E+00
         0.00000E+00
         0.00000E+00
         0.00000E+00
         0.00000E+00
         0.00000E+00
         0.00000E+00
         0.00000E+00
         0.00000E+00
         0.00000E+00
         0.00000E+00
         0.00000E+00
         0.00000E+00
         0.00000E+00
         0.00000E+00
         0.00000E+00
         0.00000E+00
         0.00000E+00
         0.00000E+00
         0.00000E+00
         0.00000E+00
         0.00000E+00
         0.00000E+00
         0.00000E+00
         0.00000E+00
         0.00000E+00
         0.00000E+00
         0.00000E+00
         0.00000E+00
         0.00000E+00
         0.00000E+00
         0.00000E+00
         0.00000E+00
         0.00000E+00
         0.00000E+00
         0.00000E+00
         0.00000E+00
         0.00000E+00
         0.00000E+00
         0.00000E+00
         0.00000E+00
         0.00000E+00
         0.00000E+00
         0.00000E+00
         0.00000E+00
         0.00000E+00
         0.00000E+00
         0.00000E+00
         0.00000E+00
         0.00000E+00
         0.00000E+00
         0.00000E+00
         0.00000E+00
         0.00000E+00
         0.00000E+00
         0.00000E+00
         0.00000E+00
         0.00000E+00
         0.00000E+00
         0.00000E+00
         0.00000E+00
         0.00000E+00
         0.00000E+00
         0.00000E+00
         0.00000E+00
         0.00000E+00
         0.00000E+00
         0.00000E+00
         0.00000E+00
         0.00000E+00
         0.00000E+00
         0.00000E+00
         0.00000E+00
         0.00000E+00
         0.00000E+00
         0.00000E+00
         0.00000E+00
         0.00000E+00
         0.00000E+00
         0.00000E+00
         0.00000E+00
         0.00000E+00
         0.00000E+00
         0.00000E+00
         0.00000E+00
         0.00000E+00
         0.00000E+00
         0.00000E+00
         0.00000E+00
         0.00000E+00
         0.00000E+00
         0.00000E+00
         0.00000E+00
         0.00000E+00
         0.00000E+00
         0.00000E+00
         0.00000E+00
         0.00000E+00
         0.00000E+00
         0.00000E+00
         0.00000E+00
         0.00000E+00
         0.00000E+00
         0.00000E+00
         0.00000E+00
         0.00000E+00
         0.00000E+00
         0.00000E+00
         0.00000E+00
         0.00000E+00
         0.00000E+00
         0.00000E+00
         0.00000E+00
         0.00000E+00
         0.00000E+00
         0.00000E+00
         0.00000E+00
         0.00000E+00
         0.00000E+00
         0.00000E+00
         0.00000E+00
         0.00000E+00
         0.00000E+00
         0.00000E+00
         0.00000E+00
         0.00000E+00
         0.00000E+00
         0.00000E+00
         0.00000E+00
         0.00000E+00
         0.00000E+00
         0.00000E+00
         0.00000E+00
         0.00000E+00
         0.00000E+00
         0.00000E+00
         0.00000E+00
         0.00000E+00
         0.00000E+00
         0.00000E+00
         0.00000E+00
         0.00000E+00
         0.00000E+00
         0.00000E+00
         0.00000E+00
         0.00000E+00
         0.00000E+00
         0.00000E+00
         0.00000E+00
         0.00000E+00
         0.00000E+00
         0.00000E+00
         0.00000E+00
         0.00000E+00
         0.00000E+00
         0.00000E+00
         0.00000E+00
         0.00000E+00
         0.00000E+00
         0.00000E+00
         0.00000E+00
         0.00000E+00
         0.00000E+00
         0.00000E+00
         0.00000E+00
         0.00000E+00
         0.00000E+00
         0.00000E+00
         0.00000E+00
         0.00000E+00
         0.00000E+00
         0.00000E+00
         0.00000E+00
         0.00000E+00
         0.00000E+00
         0.00000E+00
         0.00000E+00
         0.00000E+00
         0.00000E+00
         0.00000E+00
         0.00000E+00
         0.00000E+00
         0.00000E+00
         0.00000E+00
         0.00000E+00
         0.00000E+00
         0.00000E+00
         0.00000E+00
         0.00000E+00
         0.00000E+00
         0.00000E+00
         0.00000E+00
         0.00000E+00
         0.00000E+00
         0.00000E+00
         0.00000E+00
         0.00000E+00
         0.00000E+00
         0.00000E+00
         0.00000E+00
         0.00000E+00
         0.00000E+00
         0.00000E+00
         0.00000E+00
         0.00000E+00
         0.00000E+00
         0.00000E+00
         0.00000E+00
         0.00000E+00
         0.00000E+00
         0.00000E+00
         0.00000E+00
         0.00000E+00
         0.00000E+00
         0.00000E+00
         0.00000E+00
         0.00000E+00
         0.00000E+00
         0.00000E+00
         0.00000E+00
         0.00000E+00
         0.00000E+00
         0.00000E+00
         0.00000E+00
         0.00000E+00
         0.00000E+00
         0.00000E+00
         0.00000E+00
         0.00000E+00
         0.00000E+00
         0.00000E+00
         0.00000E+00
         0.00000E+00
         0.00000E+00
         0.00000E+00
         0.00000E+00
         0.00000E+00
         0.00000E+00
         0.00000E+00
         0.00000E+00
         0.00000E+00
         0.00000E+00
         0.00000E+00
         0.00000E+00
         0.00000E+00
         0.00000E+00
         0.00000E+00
         0.00000E+00
         0.00000E+00
         0.00000E+00
         0.00000E+00
         0.00000E+00
         0.00000E+00
         0.00000E+00
         0.00000E+00
         0.00000E+00
         0.00000E+00
         0.00000E+00
         0.00000E+00
         0.00000E+00
         0.00000E+00
         0.00000E+00
         0.00000E+00
         0.00000E+00
         0.00000E+00
         0.00000E+00
         0.00000E+00
         0.00000E+00
         0.00000E+00
         0.00000E+00
         0.00000E+00
         0.00000E+00
         0.00000E+00
         0.00000E+00
         0.00000E+00
         0.00000E+00
         0.00000E+00
         0.00000E+00
         0.00000E+00
         0.00000E+00
         0.00000E+00
         0.00000E+00
         0.00000E+00
         0.00000E+00
         0.00000E+00
         0.00000E+00
         0.00000E+00
         0.00000E+00
         0.00000E+00
         0.00000E+00
         0.00000E+00
         0.00000E+00
         0.00000E+00
         0.00000E+00
         0.00000E+00
         0.00000E+00
         0.00000E+00
         0.00000E+00
         0.00000E+00
         0.00000E+00
         0.00000E+00
         0.00000E+00
         0.00000E+00
         0.00000E+00
         0.00000E+00
         0.00000E+00
         0.00000E+00
         0.00000E+00
         0.00000E+00
         0.00000E+00
         0.00000E+00
         0.00000E+00
         0.00000E+00
         0.00000E+00
         0.00000E+00
         0.00000E+00
         0.00000E+00
         0.00000E+00
         0.00000E+00
         0.00000E+00
         0.00000E+00
         0.00000E+00
         0.00000E+00
         0.00000E+00
         0.00000E+00
         0.00000E+00
         0.00000E+00
         0.00000E+00
         0.00000E+00
         0.00000E+00
         0.00000E+00
         0.00000E+00
         0.00000E+00
         0.00000E+00
         0.00000E+00
         0.00000E+00
         0.00000E+00
         0.00000E+00
         0.00000E+00
         0.00000E+00
         0.00000E+00
         0.00000E+00
         0.00000E+00
         0.00000E+00
         0.00000E+00
         0.00000E+00
         0.00000E+00
         0.00000E+00
         0.00000E+00
         0.00000E+00
         0.00000E+00
         0.00000E+00
         0.00000E+00
         0.00000E+00
         0.00000E+00
         0.00000E+00
         0.00000E+00
         0.00000E+00
         0.00000E+00
         0.00000E+00
         0.00000E+00
         0.00000E+00
         0.00000E+00
         0.00000E+00
         0.00000E+00
         0.00000E+00
         0.00000E+00
         0.00000E+00
         0.00000E+00
         0.00000E+00
         0.00000E+00
         0.00000E+00
         0.00000E+00
         0.00000E+00
         0.00000E+00
         0.00000E+00
         0.00000E+00
         0.00000E+00
         0.00000E+00
         0.00000E+00
         0.00000E+00
         0.00000E+00
         0.00000E+00
         0.00000E+00
         0.00000E+00
         0.00000E+00
         0.00000E+00
         0.00000E+00
         0.00000E+00
         0.00000E+00
         0.00000E+00
         0.00000E+00
         0.00000E+00
         0.00000E+00
         0.00000E+00
         0.00000E+00
         0.00000E+00
         0.00000E+00
         0.00000E+00
         0.00000E+00
         0.00000E+00
         0.00000E+00
         0.00000E+00
         0.00000E+00
         0.00000E+00
         0.00000E+00
         0.00000E+00
         0.00000E+00
         0.00000E+00
         0.00000E+00
         0.00000E+00
         0.00000E+00
         0.00000E+00
         0.00000E+00
         0.00000E+00
         0.00000E+00
         0.00000E+00
         0.00000E+00
         0.00000E+00
         0.00000E+00
         0.00000E+00
         0.00000E+00
         0.00000E+00
         0.00000E+00
         0.00000E+00
         0.00000E+00
         0.00000E+00
         0.00000E+00
         0.00000E+00
         0.00000E+00
         0.00000E+00
         0.00000E+00
         0.00000E+00
         0.00000E+00
         0.00000E+00
         0.00000E+00
         0.00000E+00
         0.00000E+00
         0.00000E+00
         0.00000E+00
         0.00000E+00
         0.00000E+00
         0.00000E+00
         0.00000E+00
         0.00000E+00
         0.00000E+00
         0.00000E+00
         0.00000E+00
         0.00000E+00
         0.00000E+00
         0.00000E+00
         0.00000E+00
         0.00000E+00
         0.00000E+00
         0.00000E+00
         0.00000E+00
         0.00000E+00
         0.00000E+00
         0.00000E+00
         0.00000E+00
         0.00000E+00
         0.00000E+00
         0.00000E+00
         0.00000E+00
         0.00000E+00
         0.00000E+00
         0.00000E+00
         0.00000E+00
         0.00000E+00
         0.00000E+00
         0.00000E+00
         0.00000E+00
         0.00000E+00
         0.00000E+00
         0.00000E+00
         0.00000E+00
         0.00000E+00
         0.00000E+00
         0.00000E+00
         0.00000E+00
         0.00000E+00
         0.00000E+00
         0.00000E+00
         0.00000E+00
         0.00000E+00
         0.00000E+00
         0.00000E+00
         0.00000E+00
         0.00000E+00
         0.00000E+00
         0.00000E+00
         0.00000E+00
         0.00000E+00
         0.00000E+00
  
SCALARS                         fint_y  double 1
LOOKUP_TABLE default
         0.00000E+00
         0.00000E+00
         0.00000E+00
         0.00000E+00
         0.00000E+00
         0.00000E+00
         0.00000E+00
         0.00000E+00
         0.00000E+00
         0.00000E+00
         0.00000E+00
         0.00000E+00
         0.00000E+00
         0.00000E+00
         0.00000E+00
         0.00000E+00
         0.00000E+00
         0.00000E+00
         0.00000E+00
         0.00000E+00
         0.00000E+00
         0.00000E+00
         0.00000E+00
         0.00000E+00
         0.00000E+00
         0.00000E+00
         0.00000E+00
         0.00000E+00
         0.00000E+00
         0.00000E+00
         0.00000E+00
         0.00000E+00
         0.00000E+00
         0.00000E+00
         0.00000E+00
         0.00000E+00
         0.00000E+00
         0.00000E+00
         0.00000E+00
         0.00000E+00
         0.00000E+00
         0.00000E+00
         0.00000E+00
         0.00000E+00
         0.00000E+00
         0.00000E+00
         0.00000E+00
         0.00000E+00
         0.00000E+00
         0.00000E+00
         0.00000E+00
         0.00000E+00
         0.00000E+00
         0.00000E+00
         0.00000E+00
         0.00000E+00
         0.00000E+00
         0.00000E+00
         0.00000E+00
         0.00000E+00
         0.00000E+00
         0.00000E+00
         0.00000E+00
         0.00000E+00
         0.00000E+00
         0.00000E+00
         0.00000E+00
         0.00000E+00
         0.00000E+00
         0.00000E+00
         0.00000E+00
         0.00000E+00
         0.00000E+00
         0.00000E+00
         0.00000E+00
         0.00000E+00
         0.00000E+00
         0.00000E+00
         0.00000E+00
         0.00000E+00
         0.00000E+00
         0.00000E+00
         0.00000E+00
         0.00000E+00
         0.00000E+00
         0.00000E+00
         0.00000E+00
         0.00000E+00
         0.00000E+00
         0.00000E+00
         0.00000E+00
         0.00000E+00
         0.00000E+00
         0.00000E+00
         0.00000E+00
         0.00000E+00
         0.00000E+00
         0.00000E+00
         0.00000E+00
         0.00000E+00
         0.00000E+00
         0.00000E+00
         0.00000E+00
         0.00000E+00
         0.00000E+00
         0.00000E+00
         0.00000E+00
         0.00000E+00
         0.00000E+00
         0.00000E+00
         0.00000E+00
         0.00000E+00
         0.00000E+00
         0.00000E+00
         0.00000E+00
         0.00000E+00
         0.00000E+00
         0.00000E+00
         0.00000E+00
         0.00000E+00
         0.00000E+00
         0.00000E+00
         0.00000E+00
         0.00000E+00
         0.00000E+00
         0.00000E+00
         0.00000E+00
         0.00000E+00
         0.00000E+00
         0.00000E+00
         0.00000E+00
         0.00000E+00
         0.00000E+00
         0.00000E+00
         0.00000E+00
         0.00000E+00
         0.00000E+00
         0.00000E+00
         0.00000E+00
         0.00000E+00
         0.00000E+00
         0.00000E+00
         0.00000E+00
         0.00000E+00
         0.00000E+00
         0.00000E+00
         0.00000E+00
         0.00000E+00
         0.00000E+00
         0.00000E+00
         0.00000E+00
         0.00000E+00
         0.00000E+00
         0.00000E+00
         0.00000E+00
         0.00000E+00
         0.00000E+00
         0.00000E+00
         0.00000E+00
         0.00000E+00
         0.00000E+00
         0.00000E+00
         0.00000E+00
         0.00000E+00
         0.00000E+00
         0.00000E+00
         0.00000E+00
         0.00000E+00
         0.00000E+00
         0.00000E+00
         0.00000E+00
         0.00000E+00
         0.00000E+00
         0.00000E+00
         0.00000E+00
         0.00000E+00
         0.00000E+00
         0.00000E+00
         0.00000E+00
         0.00000E+00
         0.00000E+00
         0.00000E+00
         0.00000E+00
         0.00000E+00
         0.00000E+00
         0.00000E+00
         0.00000E+00
         0.00000E+00
         0.00000E+00
         0.00000E+00
         0.00000E+00
         0.00000E+00
         0.00000E+00
         0.00000E+00
         0.00000E+00
         0.00000E+00
         0.00000E+00
         0.00000E+00
         0.00000E+00
         0.00000E+00
         0.00000E+00
         0.00000E+00
         0.00000E+00
         0.00000E+00
         0.00000E+00
         0.00000E+00
         0.00000E+00
         0.00000E+00
         0.00000E+00
         0.00000E+00
         0.00000E+00
         0.00000E+00
         0.00000E+00
         0.00000E+00
         0.00000E+00
         0.00000E+00
         0.00000E+00
         0.00000E+00
         0.00000E+00
         0.00000E+00
         0.00000E+00
         0.00000E+00
         0.00000E+00
         0.00000E+00
         0.00000E+00
         0.00000E+00
         0.00000E+00
         0.00000E+00
         0.00000E+00
         0.00000E+00
         0.00000E+00
         0.00000E+00
         0.00000E+00
         0.00000E+00
         0.00000E+00
         0.00000E+00
         0.00000E+00
         0.00000E+00
         0.00000E+00
         0.00000E+00
         0.00000E+00
         0.00000E+00
         0.00000E+00
         0.00000E+00
         0.00000E+00
         0.00000E+00
         0.00000E+00
         0.00000E+00
         0.00000E+00
         0.00000E+00
         0.00000E+00
         0.00000E+00
         0.00000E+00
         0.00000E+00
         0.00000E+00
         0.00000E+00
         0.00000E+00
         0.00000E+00
         0.00000E+00
         0.00000E+00
         0.00000E+00
         0.00000E+00
         0.00000E+00
         0.00000E+00
         0.00000E+00
         0.00000E+00
         0.00000E+00
         0.00000E+00
         0.00000E+00
         0.00000E+00
         0.00000E+00
         0.00000E+00
         0.00000E+00
         0.00000E+00
         0.00000E+00
         0.00000E+00
         0.00000E+00
         0.00000E+00
         0.00000E+00
         0.00000E+00
         0.00000E+00
         0.00000E+00
         0.00000E+00
         0.00000E+00
         0.00000E+00
         0.00000E+00
         0.00000E+00
         0.00000E+00
         0.00000E+00
         0.00000E+00
         0.00000E+00
         0.00000E+00
         0.00000E+00
         0.00000E+00
         0.00000E+00
         0.00000E+00
         0.00000E+00
         0.00000E+00
         0.00000E+00
         0.00000E+00
         0.00000E+00
         0.00000E+00
         0.00000E+00
         0.00000E+00
         0.00000E+00
         0.00000E+00
         0.00000E+00
         0.00000E+00
         0.00000E+00
         0.00000E+00
         0.00000E+00
         0.00000E+00
         0.00000E+00
         0.00000E+00
         0.00000E+00
         0.00000E+00
         0.00000E+00
         0.00000E+00
         0.00000E+00
         0.00000E+00
         0.00000E+00
         0.00000E+00
         0.00000E+00
         0.00000E+00
         0.00000E+00
         0.00000E+00
         0.00000E+00
         0.00000E+00
         0.00000E+00
         0.00000E+00
         0.00000E+00
         0.00000E+00
         0.00000E+00
         0.00000E+00
         0.00000E+00
         0.00000E+00
         0.00000E+00
         0.00000E+00
         0.00000E+00
         0.00000E+00
         0.00000E+00
         0.00000E+00
         0.00000E+00
         0.00000E+00
         0.00000E+00
         0.00000E+00
         0.00000E+00
         0.00000E+00
         0.00000E+00
         0.00000E+00
         0.00000E+00
         0.00000E+00
         0.00000E+00
         0.00000E+00
         0.00000E+00
         0.00000E+00
         0.00000E+00
         0.00000E+00
         0.00000E+00
         0.00000E+00
         0.00000E+00
         0.00000E+00
         0.00000E+00
         0.00000E+00
         0.00000E+00
         0.00000E+00
         0.00000E+00
         0.00000E+00
         0.00000E+00
         0.00000E+00
         0.00000E+00
         0.00000E+00
         0.00000E+00
         0.00000E+00
         0.00000E+00
         0.00000E+00
         0.00000E+00
         0.00000E+00
         0.00000E+00
         0.00000E+00
         0.00000E+00
         0.00000E+00
         0.00000E+00
         0.00000E+00
         0.00000E+00
         0.00000E+00
         0.00000E+00
         0.00000E+00
         0.00000E+00
         0.00000E+00
         0.00000E+00
         0.00000E+00
         0.00000E+00
         0.00000E+00
         0.00000E+00
         0.00000E+00
         0.00000E+00
         0.00000E+00
         0.00000E+00
         0.00000E+00
         0.00000E+00
         0.00000E+00
         0.00000E+00
         0.00000E+00
         0.00000E+00
         0.00000E+00
         0.00000E+00
         0.00000E+00
         0.00000E+00
         0.00000E+00
         0.00000E+00
         0.00000E+00
         0.00000E+00
         0.00000E+00
         0.00000E+00
         0.00000E+00
         0.00000E+00
         0.00000E+00
         0.00000E+00
         0.00000E+00
         0.00000E+00
         0.00000E+00
         0.00000E+00
         0.00000E+00
         0.00000E+00
         0.00000E+00
         0.00000E+00
         0.00000E+00
         0.00000E+00
         0.00000E+00
         0.00000E+00
         0.00000E+00
         0.00000E+00
         0.00000E+00
         0.00000E+00
         0.00000E+00
         0.00000E+00
         0.00000E+00
         0.00000E+00
         0.00000E+00
         0.00000E+00
         0.00000E+00
         0.00000E+00
         0.00000E+00
         0.00000E+00
         0.00000E+00
         0.00000E+00
         0.00000E+00
         0.00000E+00
         0.00000E+00
         0.00000E+00
         0.00000E+00
         0.00000E+00
         0.00000E+00
         0.00000E+00
         0.00000E+00
         0.00000E+00
         0.00000E+00
         0.00000E+00
         0.00000E+00
         0.00000E+00
         0.00000E+00
         0.00000E+00
         0.00000E+00
         0.00000E+00
         0.00000E+00
         0.00000E+00
         0.00000E+00
         0.00000E+00
         0.00000E+00
         0.00000E+00
         0.00000E+00
         0.00000E+00
         0.00000E+00
         0.00000E+00
         0.00000E+00
         0.00000E+00
         0.00000E+00
         0.00000E+00
         0.00000E+00
         0.00000E+00
         0.00000E+00
         0.00000E+00
         0.00000E+00
         0.00000E+00
         0.00000E+00
         0.00000E+00
         0.00000E+00
         0.00000E+00
         0.00000E+00
         0.00000E+00
         0.00000E+00
         0.00000E+00
         0.00000E+00
         0.00000E+00
         0.00000E+00
         0.00000E+00
         0.00000E+00
         0.00000E+00
         0.00000E+00
         0.00000E+00
         0.00000E+00
         0.00000E+00
         0.00000E+00
         0.00000E+00
         0.00000E+00
         0.00000E+00
         0.00000E+00
         0.00000E+00
         0.00000E+00
         0.00000E+00
         0.00000E+00
         0.00000E+00
         0.00000E+00
         0.00000E+00
         0.00000E+00
         0.00000E+00
         0.00000E+00
         0.00000E+00
         0.00000E+00
         0.00000E+00
         0.00000E+00
         0.00000E+00
         0.00000E+00
         0.00000E+00
         0.00000E+00
         0.00000E+00
         0.00000E+00
         0.00000E+00
         0.00000E+00
         0.00000E+00
         0.00000E+00
         0.00000E+00
         0.00000E+00
         0.00000E+00
         0.00000E+00
         0.00000E+00
         0.00000E+00
         0.00000E+00
         0.00000E+00
         0.00000E+00
         0.00000E+00
         0.00000E+00
         0.00000E+00
         0.00000E+00
         0.00000E+00
         0.00000E+00
         0.00000E+00
         0.00000E+00
         0.00000E+00
         0.00000E+00
         0.00000E+00
         0.00000E+00
         0.00000E+00
         0.00000E+00
         0.00000E+00
         0.00000E+00
         0.00000E+00
         0.00000E+00
         0.00000E+00
         0.00000E+00
         0.00000E+00
         0.00000E+00
         0.00000E+00
         0.00000E+00
         0.00000E+00
         0.00000E+00
         0.00000E+00
         0.00000E+00
         0.00000E+00
         0.00000E+00
         0.00000E+00
         0.00000E+00
         0.00000E+00
         0.00000E+00
         0.00000E+00
         0.00000E+00
         0.00000E+00
         0.00000E+00
         0.00000E+00
         0.00000E+00
         0.00000E+00
         0.00000E+00
         0.00000E+00
         0.00000E+00
         0.00000E+00
         0.00000E+00
         0.00000E+00
         0.00000E+00
         0.00000E+00
         0.00000E+00
         0.00000E+00
         0.00000E+00
         0.00000E+00
         0.00000E+00
         0.00000E+00
         0.00000E+00
         0.00000E+00
         0.00000E+00
         0.00000E+00
         0.00000E+00
         0.00000E+00
         0.00000E+00
         0.00000E+00
         0.00000E+00
         0.00000E+00
         0.00000E+00
         0.00000E+00
         0.00000E+00
         0.00000E+00
         0.00000E+00
         0.00000E+00
         0.00000E+00
         0.00000E+00
         0.00000E+00
         0.00000E+00
         0.00000E+00
         0.00000E+00
         0.00000E+00
         0.00000E+00
         0.00000E+00
         0.00000E+00
         0.00000E+00
         0.00000E+00
         0.00000E+00
         0.00000E+00
         0.00000E+00
         0.00000E+00
         0.00000E+00
         0.00000E+00
         0.00000E+00
         0.00000E+00
         0.00000E+00
         0.00000E+00
         0.00000E+00
         0.00000E+00
         0.00000E+00
         0.00000E+00
         0.00000E+00
         0.00000E+00
         0.00000E+00
         0.00000E+00
         0.00000E+00
         0.00000E+00
         0.00000E+00
         0.00000E+00
         0.00000E+00
         0.00000E+00
         0.00000E+00
         0.00000E+00
         0.00000E+00
         0.00000E+00
         0.00000E+00
         0.00000E+00
         0.00000E+00
         0.00000E+00
         0.00000E+00
         0.00000E+00
         0.00000E+00
         0.00000E+00
         0.00000E+00
         0.00000E+00
         0.00000E+00
         0.00000E+00
         0.00000E+00
         0.00000E+00
         0.00000E+00
         0.00000E+00
         0.00000E+00
         0.00000E+00
         0.00000E+00
         0.00000E+00
         0.00000E+00
         0.00000E+00
         0.00000E+00
         0.00000E+00
         0.00000E+00
         0.00000E+00
         0.00000E+00
         0.00000E+00
         0.00000E+00
         0.00000E+00
         0.00000E+00
         0.00000E+00
         0.00000E+00
         0.00000E+00
         0.00000E+00
         0.00000E+00
         0.00000E+00
         0.00000E+00
         0.00000E+00
         0.00000E+00
         0.00000E+00
         0.00000E+00
         0.00000E+00
         0.00000E+00
         0.00000E+00
         0.00000E+00
         0.00000E+00
         0.00000E+00
         0.00000E+00
         0.00000E+00
         0.00000E+00
         0.00000E+00
         0.00000E+00
         0.00000E+00
         0.00000E+00
         0.00000E+00
         0.00000E+00
         0.00000E+00
         0.00000E+00
         0.00000E+00
         0.00000E+00
         0.00000E+00
         0.00000E+00
         0.00000E+00
         0.00000E+00
         0.00000E+00
         0.00000E+00
         0.00000E+00
         0.00000E+00
         0.00000E+00
         0.00000E+00
         0.00000E+00
         0.00000E+00
         0.00000E+00
         0.00000E+00
         0.00000E+00
         0.00000E+00
         0.00000E+00
         0.00000E+00
         0.00000E+00
         0.00000E+00
         0.00000E+00
         0.00000E+00
         0.00000E+00
         0.00000E+00
         0.00000E+00
         0.00000E+00
         0.00000E+00
         0.00000E+00
         0.00000E+00
         0.00000E+00
         0.00000E+00
         0.00000E+00
         0.00000E+00
         0.00000E+00
         0.00000E+00
         0.00000E+00
         0.00000E+00
         0.00000E+00
         0.00000E+00
         0.00000E+00
         0.00000E+00
         0.00000E+00
         0.00000E+00
         0.00000E+00
         0.00000E+00
         0.00000E+00
         0.00000E+00
         0.00000E+00
         0.00000E+00
         0.00000E+00
         0.00000E+00
         0.00000E+00
         0.00000E+00
         0.00000E+00
         0.00000E+00
         0.00000E+00
         0.00000E+00
         0.00000E+00
         0.00000E+00
         0.00000E+00
         0.00000E+00
         0.00000E+00
         0.00000E+00
         0.00000E+00
         0.00000E+00
         0.00000E+00
         0.00000E+00
         0.00000E+00
         0.00000E+00
         0.00000E+00
         0.00000E+00
         0.00000E+00
         0.00000E+00
         0.00000E+00
         0.00000E+00
         0.00000E+00
         0.00000E+00
         0.00000E+00
         0.00000E+00
         0.00000E+00
         0.00000E+00
         0.00000E+00
         0.00000E+00
         0.00000E+00
         0.00000E+00
         0.00000E+00
         0.00000E+00
         0.00000E+00
         0.00000E+00
         0.00000E+00
         0.00000E+00
         0.00000E+00
         0.00000E+00
         0.00000E+00
         0.00000E+00
         0.00000E+00
         0.00000E+00
         0.00000E+00
         0.00000E+00
         0.00000E+00
         0.00000E+00
         0.00000E+00
         0.00000E+00
         0.00000E+00
         0.00000E+00
         0.00000E+00
         0.00000E+00
         0.00000E+00
         0.00000E+00
         0.00000E+00
         0.00000E+00
         0.00000E+00
         0.00000E+00
         0.00000E+00
         0.00000E+00
         0.00000E+00
         0.00000E+00
         0.00000E+00
         0.00000E+00
         0.00000E+00
         0.00000E+00
         0.00000E+00
         0.00000E+00
         0.00000E+00
         0.00000E+00
         0.00000E+00
         0.00000E+00
         0.00000E+00
         0.00000E+00
         0.00000E+00
         0.00000E+00
         0.00000E+00
         0.00000E+00
         0.00000E+00
         0.00000E+00
         0.00000E+00
         0.00000E+00
         0.00000E+00
         0.00000E+00
         0.00000E+00
         0.00000E+00
         0.00000E+00
         0.00000E+00
         0.00000E+00
         0.00000E+00
         0.00000E+00
         0.00000E+00
         0.00000E+00
         0.00000E+00
         0.00000E+00
         0.00000E+00
         0.00000E+00
         0.00000E+00
         0.00000E+00
         0.00000E+00
         0.00000E+00
         0.00000E+00
         0.00000E+00
         0.00000E+00
         0.00000E+00
         0.00000E+00
         0.00000E+00
         0.00000E+00
         0.00000E+00
         0.00000E+00
         0.00000E+00
         0.00000E+00
         0.00000E+00
         0.00000E+00
         0.00000E+00
         0.00000E+00
         0.00000E+00
         0.00000E+00
         0.00000E+00
         0.00000E+00
         0.00000E+00
         0.00000E+00
         0.00000E+00
         0.00000E+00
         0.00000E+00
         0.00000E+00
         0.00000E+00
         0.00000E+00
         0.00000E+00
         0.00000E+00
         0.00000E+00
         0.00000E+00
         0.00000E+00
         0.00000E+00
         0.00000E+00
         0.00000E+00
         0.00000E+00
         0.00000E+00
         0.00000E+00
         0.00000E+00
         0.00000E+00
         0.00000E+00
         0.00000E+00
         0.00000E+00
         0.00000E+00
         0.00000E+00
         0.00000E+00
         0.00000E+00
         0.00000E+00
         0.00000E+00
         0.00000E+00
         0.00000E+00
         0.00000E+00
         0.00000E+00
         0.00000E+00
         0.00000E+00
         0.00000E+00
         0.00000E+00
         0.00000E+00
         0.00000E+00
         0.00000E+00
         0.00000E+00
         0.00000E+00
         0.00000E+00
         0.00000E+00
         0.00000E+00
         0.00000E+00
         0.00000E+00
         0.00000E+00
         0.00000E+00
         0.00000E+00
         0.00000E+00
         0.00000E+00
         0.00000E+00
         0.00000E+00
         0.00000E+00
         0.00000E+00
         0.00000E+00
         0.00000E+00
         0.00000E+00
         0.00000E+00
         0.00000E+00
         0.00000E+00
         0.00000E+00
         0.00000E+00
         0.00000E+00
         0.00000E+00
         0.00000E+00
         0.00000E+00
         0.00000E+00
         0.00000E+00
         0.00000E+00
         0.00000E+00
         0.00000E+00
         0.00000E+00
         0.00000E+00
         0.00000E+00
         0.00000E+00
         0.00000E+00
         0.00000E+00
         0.00000E+00
         0.00000E+00
         0.00000E+00
         0.00000E+00
         0.00000E+00
         0.00000E+00
         0.00000E+00
         0.00000E+00
         0.00000E+00
         0.00000E+00
         0.00000E+00
         0.00000E+00
         0.00000E+00
         0.00000E+00
         0.00000E+00
         0.00000E+00
         0.00000E+00
         0.00000E+00
         0.00000E+00
         0.00000E+00
         0.00000E+00
         0.00000E+00
         0.00000E+00
         0.00000E+00
         0.00000E+00
         0.00000E+00
         0.00000E+00
         0.00000E+00
         0.00000E+00
         0.00000E+00
         0.00000E+00
         0.00000E+00
         0.00000E+00
         0.00000E+00
         0.00000E+00
         0.00000E+00
         0.00000E+00
         0.00000E+00
         0.00000E+00
         0.00000E+00
         0.00000E+00
         0.00000E+00
         0.00000E+00
         0.00000E+00
         0.00000E+00
         0.00000E+00
         0.00000E+00
         0.00000E+00
         0.00000E+00
         0.00000E+00
         0.00000E+00
         0.00000E+00
         0.00000E+00
         0.00000E+00
         0.00000E+00
         0.00000E+00
         0.00000E+00
         0.00000E+00
         0.00000E+00
         0.00000E+00
         0.00000E+00
         0.00000E+00
         0.00000E+00
         0.00000E+00
         0.00000E+00
         0.00000E+00
         0.00000E+00
         0.00000E+00
         0.00000E+00
         0.00000E+00
         0.00000E+00
         0.00000E+00
         0.00000E+00
         0.00000E+00
         0.00000E+00
         0.00000E+00
         0.00000E+00
         0.00000E+00
         0.00000E+00
         0.00000E+00
         0.00000E+00
         0.00000E+00
         0.00000E+00
         0.00000E+00
         0.00000E+00
         0.00000E+00
         0.00000E+00
         0.00000E+00
         0.00000E+00
         0.00000E+00
         0.00000E+00
         0.00000E+00
         0.00000E+00
         0.00000E+00
         0.00000E+00
         0.00000E+00
         0.00000E+00
         0.00000E+00
         0.00000E+00
         0.00000E+00
         0.00000E+00
         0.00000E+00
         0.00000E+00
         0.00000E+00
         0.00000E+00
         0.00000E+00
         0.00000E+00
         0.00000E+00
         0.00000E+00
         0.00000E+00
         0.00000E+00
         0.00000E+00
         0.00000E+00
         0.00000E+00
         0.00000E+00
         0.00000E+00
         0.00000E+00
         0.00000E+00
         0.00000E+00
         0.00000E+00
         0.00000E+00
         0.00000E+00
         0.00000E+00
         0.00000E+00
         0.00000E+00
         0.00000E+00
         0.00000E+00
         0.00000E+00
         0.00000E+00
         0.00000E+00
         0.00000E+00
         0.00000E+00
         0.00000E+00
         0.00000E+00
         0.00000E+00
         0.00000E+00
         0.00000E+00
         0.00000E+00
         0.00000E+00
         0.00000E+00
         0.00000E+00
         0.00000E+00
         0.00000E+00
         0.00000E+00
         0.00000E+00
         0.00000E+00
         0.00000E+00
         0.00000E+00
         0.00000E+00
         0.00000E+00
         0.00000E+00
         0.00000E+00
         0.00000E+00
         0.00000E+00
         0.00000E+00
         0.00000E+00
         0.00000E+00
         0.00000E+00
         0.00000E+00
         0.00000E+00
         0.00000E+00
         0.00000E+00
         0.00000E+00
         0.00000E+00
         0.00000E+00
         0.00000E+00
         0.00000E+00
         0.00000E+00
         0.00000E+00
         0.00000E+00
         0.00000E+00
         0.00000E+00
         0.00000E+00
         0.00000E+00
         0.00000E+00
         0.00000E+00
         0.00000E+00
         0.00000E+00
         0.00000E+00
         0.00000E+00
         0.00000E+00
         0.00000E+00
         0.00000E+00
         0.00000E+00
         0.00000E+00
         0.00000E+00
         0.00000E+00
         0.00000E+00
         0.00000E+00
         0.00000E+00
         0.00000E+00
         0.00000E+00
         0.00000E+00
         0.00000E+00
         0.00000E+00
         0.00000E+00
         0.00000E+00
         0.00000E+00
         0.00000E+00
         0.00000E+00
         0.00000E+00
         0.00000E+00
         0.00000E+00
         0.00000E+00
         0.00000E+00
         0.00000E+00
         0.00000E+00
         0.00000E+00
         0.00000E+00
         0.00000E+00
         0.00000E+00
         0.00000E+00
         0.00000E+00
         0.00000E+00
         0.00000E+00
         0.00000E+00
         0.00000E+00
         0.00000E+00
         0.00000E+00
         0.00000E+00
         0.00000E+00
         0.00000E+00
         0.00000E+00
         0.00000E+00
         0.00000E+00
         0.00000E+00
         0.00000E+00
         0.00000E+00
         0.00000E+00
         0.00000E+00
         0.00000E+00
         0.00000E+00
         0.00000E+00
         0.00000E+00
         0.00000E+00
         0.00000E+00
         0.00000E+00
         0.00000E+00
         0.00000E+00
         0.00000E+00
         0.00000E+00
         0.00000E+00
         0.00000E+00
         0.00000E+00
         0.00000E+00
         0.00000E+00
         0.00000E+00
         0.00000E+00
         0.00000E+00
         0.00000E+00
         0.00000E+00
         0.00000E+00
         0.00000E+00
         0.00000E+00
         0.00000E+00
         0.00000E+00
         0.00000E+00
         0.00000E+00
         0.00000E+00
         0.00000E+00
         0.00000E+00
         0.00000E+00
         0.00000E+00
         0.00000E+00
         0.00000E+00
         0.00000E+00
         0.00000E+00
         0.00000E+00
         0.00000E+00
         0.00000E+00
         0.00000E+00
         0.00000E+00
         0.00000E+00
         0.00000E+00
         0.00000E+00
         0.00000E+00
         0.00000E+00
         0.00000E+00
         0.00000E+00
         0.00000E+00
         0.00000E+00
         0.00000E+00
         0.00000E+00
         0.00000E+00
         0.00000E+00
         0.00000E+00
         0.00000E+00
         0.00000E+00
         0.00000E+00
         0.00000E+00
         0.00000E+00
         0.00000E+00
         0.00000E+00
         0.00000E+00
         0.00000E+00
         0.00000E+00
         0.00000E+00
         0.00000E+00
         0.00000E+00
         0.00000E+00
         0.00000E+00
         0.00000E+00
         0.00000E+00
         0.00000E+00
         0.00000E+00
         0.00000E+00
         0.00000E+00
         0.00000E+00
         0.00000E+00
         0.00000E+00
         0.00000E+00
         0.00000E+00
         0.00000E+00
         0.00000E+00
         0.00000E+00
         0.00000E+00
         0.00000E+00
         0.00000E+00
         0.00000E+00
         0.00000E+00
         0.00000E+00
         0.00000E+00
         0.00000E+00
         0.00000E+00
         0.00000E+00
         0.00000E+00
         0.00000E+00
         0.00000E+00
         0.00000E+00
         0.00000E+00
         0.00000E+00
         0.00000E+00
         0.00000E+00
         0.00000E+00
         0.00000E+00
         0.00000E+00
         0.00000E+00
         0.00000E+00
         0.00000E+00
         0.00000E+00
         0.00000E+00
         0.00000E+00
         0.00000E+00
         0.00000E+00
         0.00000E+00
         0.00000E+00
         0.00000E+00
         0.00000E+00
         0.00000E+00
         0.00000E+00
         0.00000E+00
         0.00000E+00
         0.00000E+00
         0.00000E+00
         0.00000E+00
         0.00000E+00
         0.00000E+00
         0.00000E+00
         0.00000E+00
         0.00000E+00
         0.00000E+00
         0.00000E+00
         0.00000E+00
         0.00000E+00
         0.00000E+00
         0.00000E+00
         0.00000E+00
         0.00000E+00
         0.00000E+00
         0.00000E+00
         0.00000E+00
         0.00000E+00
         0.00000E+00
         0.00000E+00
         0.00000E+00
         0.00000E+00
         0.00000E+00
         0.00000E+00
         0.00000E+00
         0.00000E+00
         0.00000E+00
         0.00000E+00
         0.00000E+00
         0.00000E+00
         0.00000E+00
         0.00000E+00
         0.00000E+00
         0.00000E+00
         0.00000E+00
         0.00000E+00
         0.00000E+00
         0.00000E+00
         0.00000E+00
         0.00000E+00
         0.00000E+00
         0.00000E+00
         0.00000E+00
         0.00000E+00
         0.00000E+00
         0.00000E+00
         0.00000E+00
         0.00000E+00
         0.00000E+00
         0.00000E+00
         0.00000E+00
         0.00000E+00
         0.00000E+00
         0.00000E+00
         0.00000E+00
         0.00000E+00
         0.00000E+00
         0.00000E+00
         0.00000E+00
         0.00000E+00
         0.00000E+00
         0.00000E+00
         0.00000E+00
         0.00000E+00
         0.00000E+00
         0.00000E+00
         0.00000E+00
         0.00000E+00
         0.00000E+00
         0.00000E+00
         0.00000E+00
         0.00000E+00
         0.00000E+00
         0.00000E+00
         0.00000E+00
         0.00000E+00
         0.00000E+00
         0.00000E+00
         0.00000E+00
         0.00000E+00
         0.00000E+00
         0.00000E+00
         0.00000E+00
         0.00000E+00
         0.00000E+00
         0.00000E+00
         0.00000E+00
         0.00000E+00
         0.00000E+00
         0.00000E+00
         0.00000E+00
         0.00000E+00
         0.00000E+00
         0.00000E+00
         0.00000E+00
         0.00000E+00
         0.00000E+00
         0.00000E+00
         0.00000E+00
         0.00000E+00
         0.00000E+00
         0.00000E+00
         0.00000E+00
         0.00000E+00
         0.00000E+00
         0.00000E+00
         0.00000E+00
         0.00000E+00
         0.00000E+00
         0.00000E+00
         0.00000E+00
         0.00000E+00
         0.00000E+00
         0.00000E+00
         0.00000E+00
         0.00000E+00
         0.00000E+00
         0.00000E+00
         0.00000E+00
         0.00000E+00
         0.00000E+00
         0.00000E+00
         0.00000E+00
         0.00000E+00
         0.00000E+00
         0.00000E+00
         0.00000E+00
         0.00000E+00
         0.00000E+00
         0.00000E+00
         0.00000E+00
         0.00000E+00
         0.00000E+00
         0.00000E+00
         0.00000E+00
         0.00000E+00
         0.00000E+00
         0.00000E+00
         0.00000E+00
         0.00000E+00
         0.00000E+00
         0.00000E+00
         0.00000E+00
         0.00000E+00
         0.00000E+00
         0.00000E+00
         0.00000E+00
         0.00000E+00
         0.00000E+00
         0.00000E+00
         0.00000E+00
         0.00000E+00
         0.00000E+00
         0.00000E+00
         0.00000E+00
         0.00000E+00
         0.00000E+00
         0.00000E+00
         0.00000E+00
         0.00000E+00
         0.00000E+00
         0.00000E+00
         0.00000E+00
         0.00000E+00
         0.00000E+00
         0.00000E+00
         0.00000E+00
         0.00000E+00
         0.00000E+00
         0.00000E+00
         0.00000E+00
         0.00000E+00
         0.00000E+00
         0.00000E+00
         0.00000E+00
         0.00000E+00
         0.00000E+00
         0.00000E+00
         0.00000E+00
         0.00000E+00
         0.00000E+00
         0.00000E+00
         0.00000E+00
         0.00000E+00
         0.00000E+00
         0.00000E+00
         0.00000E+00
         0.00000E+00
         0.00000E+00
         0.00000E+00
         0.00000E+00
         0.00000E+00
         0.00000E+00
         0.00000E+00
         0.00000E+00
         0.00000E+00
         0.00000E+00
         0.00000E+00
         0.00000E+00
         0.00000E+00
         0.00000E+00
         0.00000E+00
         0.00000E+00
         0.00000E+00
         0.00000E+00
         0.00000E+00
         0.00000E+00
         0.00000E+00
         0.00000E+00
         0.00000E+00
         0.00000E+00
         0.00000E+00
         0.00000E+00
         0.00000E+00
         0.00000E+00
         0.00000E+00
         0.00000E+00
         0.00000E+00
         0.00000E+00
         0.00000E+00
         0.00000E+00
         0.00000E+00
         0.00000E+00
         0.00000E+00
         0.00000E+00
         0.00000E+00
         0.00000E+00
         0.00000E+00
         0.00000E+00
         0.00000E+00
         0.00000E+00
         0.00000E+00
         0.00000E+00
         0.00000E+00
         0.00000E+00
         0.00000E+00
         0.00000E+00
         0.00000E+00
         0.00000E+00
         0.00000E+00
         0.00000E+00
         0.00000E+00
         0.00000E+00
         0.00000E+00
         0.00000E+00
         0.00000E+00
         0.00000E+00
         0.00000E+00
         0.00000E+00
         0.00000E+00
         0.00000E+00
         0.00000E+00
         0.00000E+00
         0.00000E+00
         0.00000E+00
         0.00000E+00
         0.00000E+00
         0.00000E+00
         0.00000E+00
         0.00000E+00
         0.00000E+00
         0.00000E+00
         0.00000E+00
         0.00000E+00
         0.00000E+00
         0.00000E+00
         0.00000E+00
         0.00000E+00
         0.00000E+00
         0.00000E+00
         0.00000E+00
         0.00000E+00
         0.00000E+00
         0.00000E+00
         0.00000E+00
         0.00000E+00
         0.00000E+00
         0.00000E+00
         0.00000E+00
         0.00000E+00
         0.00000E+00
         0.00000E+00
         0.00000E+00
         0.00000E+00
         0.00000E+00
         0.00000E+00
         0.00000E+00
         0.00000E+00
         0.00000E+00
         0.00000E+00
         0.00000E+00
         0.00000E+00
         0.00000E+00
         0.00000E+00
         0.00000E+00
         0.00000E+00
         0.00000E+00
         0.00000E+00
         0.00000E+00
         0.00000E+00
         0.00000E+00
         0.00000E+00
         0.00000E+00
         0.00000E+00
         0.00000E+00
         0.00000E+00
         0.00000E+00
         0.00000E+00
         0.00000E+00
         0.00000E+00
         0.00000E+00
         0.00000E+00
         0.00000E+00
         0.00000E+00
         0.00000E+00
         0.00000E+00
         0.00000E+00
         0.00000E+00
         0.00000E+00
         0.00000E+00
         0.00000E+00
         0.00000E+00
         0.00000E+00
         0.00000E+00
         0.00000E+00
         0.00000E+00
         0.00000E+00
         0.00000E+00
         0.00000E+00
         0.00000E+00
         0.00000E+00
         0.00000E+00
         0.00000E+00
         0.00000E+00
         0.00000E+00
         0.00000E+00
         0.00000E+00
         0.00000E+00
         0.00000E+00
         0.00000E+00
         0.00000E+00
         0.00000E+00
         0.00000E+00
         0.00000E+00
         0.00000E+00
         0.00000E+00
         0.00000E+00
         0.00000E+00
         0.00000E+00
         0.00000E+00
         0.00000E+00
         0.00000E+00
         0.00000E+00
         0.00000E+00
         0.00000E+00
         0.00000E+00
         0.00000E+00
         0.00000E+00
         0.00000E+00
         0.00000E+00
         0.00000E+00
         0.00000E+00
         0.00000E+00
         0.00000E+00
         0.00000E+00
         0.00000E+00
         0.00000E+00
         0.00000E+00
         0.00000E+00
         0.00000E+00
         0.00000E+00
         0.00000E+00
         0.00000E+00
         0.00000E+00
         0.00000E+00
         0.00000E+00
         0.00000E+00
         0.00000E+00
         0.00000E+00
         0.00000E+00
         0.00000E+00
         0.00000E+00
         0.00000E+00
         0.00000E+00
         0.00000E+00
         0.00000E+00
         0.00000E+00
         0.00000E+00
         0.00000E+00
         0.00000E+00
         0.00000E+00
         0.00000E+00
         0.00000E+00
         0.00000E+00
         0.00000E+00
         0.00000E+00
         0.00000E+00
         0.00000E+00
         0.00000E+00
         0.00000E+00
         0.00000E+00
         0.00000E+00
         0.00000E+00
         0.00000E+00
         0.00000E+00
         0.00000E+00
         0.00000E+00
         0.00000E+00
         0.00000E+00
         0.00000E+00
         0.00000E+00
         0.00000E+00
         0.00000E+00
         0.00000E+00
         0.00000E+00
         0.00000E+00
         0.00000E+00
         0.00000E+00
         0.00000E+00
         0.00000E+00
         0.00000E+00
         0.00000E+00
         0.00000E+00
         0.00000E+00
         0.00000E+00
         0.00000E+00
         0.00000E+00
         0.00000E+00
         0.00000E+00
         0.00000E+00
         0.00000E+00
         0.00000E+00
         0.00000E+00
         0.00000E+00
         0.00000E+00
         0.00000E+00
         0.00000E+00
         0.00000E+00
         0.00000E+00
         0.00000E+00
         0.00000E+00
         0.00000E+00
         0.00000E+00
         0.00000E+00
         0.00000E+00
         0.00000E+00
         0.00000E+00
         0.00000E+00
         0.00000E+00
         0.00000E+00
         0.00000E+00
         0.00000E+00
         0.00000E+00
         0.00000E+00
         0.00000E+00
         0.00000E+00
         0.00000E+00
         0.00000E+00
         0.00000E+00
         0.00000E+00
         0.00000E+00
         0.00000E+00
         0.00000E+00
         0.00000E+00
         0.00000E+00
         0.00000E+00
         0.00000E+00
         0.00000E+00
         0.00000E+00
         0.00000E+00
         0.00000E+00
         0.00000E+00
         0.00000E+00
         0.00000E+00
         0.00000E+00
         0.00000E+00
         0.00000E+00
         0.00000E+00
         0.00000E+00
         0.00000E+00
         0.00000E+00
         0.00000E+00
         0.00000E+00
         0.00000E+00
         0.00000E+00
         0.00000E+00
         0.00000E+00
         0.00000E+00
         0.00000E+00
         0.00000E+00
         0.00000E+00
         0.00000E+00
         0.00000E+00
         0.00000E+00
         0.00000E+00
         0.00000E+00
         0.00000E+00
         0.00000E+00
         0.00000E+00
         0.00000E+00
         0.00000E+00
         0.00000E+00
         0.00000E+00
         0.00000E+00
         0.00000E+00
         0.00000E+00
         0.00000E+00
         0.00000E+00
         0.00000E+00
         0.00000E+00
         0.00000E+00
         0.00000E+00
         0.00000E+00
         0.00000E+00
         0.00000E+00
         0.00000E+00
         0.00000E+00
         0.00000E+00
         0.00000E+00
         0.00000E+00
         0.00000E+00
         0.00000E+00
         0.00000E+00
         0.00000E+00
         0.00000E+00
         0.00000E+00
         0.00000E+00
         0.00000E+00
         0.00000E+00
         0.00000E+00
         0.00000E+00
         0.00000E+00
         0.00000E+00
         0.00000E+00
         0.00000E+00
         0.00000E+00
         0.00000E+00
         0.00000E+00
         0.00000E+00
         0.00000E+00
         0.00000E+00
         0.00000E+00
         0.00000E+00
         0.00000E+00
         0.00000E+00
         0.00000E+00
         0.00000E+00
         0.00000E+00
         0.00000E+00
         0.00000E+00
         0.00000E+00
         0.00000E+00
         0.00000E+00
         0.00000E+00
         0.00000E+00
         0.00000E+00
         0.00000E+00
         0.00000E+00
         0.00000E+00
         0.00000E+00
         0.00000E+00
         0.00000E+00
         0.00000E+00
         0.00000E+00
         0.00000E+00
         0.00000E+00
         0.00000E+00
         0.00000E+00
         0.00000E+00
         0.00000E+00
         0.00000E+00
         0.00000E+00
         0.00000E+00
         0.00000E+00
         0.00000E+00
         0.00000E+00
         0.00000E+00
         0.00000E+00
         0.00000E+00
         0.00000E+00
         0.00000E+00
         0.00000E+00
         0.00000E+00
         0.00000E+00
         0.00000E+00
         0.00000E+00
         0.00000E+00
         0.00000E+00
         0.00000E+00
         0.00000E+00
         0.00000E+00
         0.00000E+00
         0.00000E+00
         0.00000E+00
         0.00000E+00
         0.00000E+00
         0.00000E+00
         0.00000E+00
         0.00000E+00
         0.00000E+00
         0.00000E+00
         0.00000E+00
         0.00000E+00
         0.00000E+00
         0.00000E+00
         0.00000E+00
         0.00000E+00
         0.00000E+00
         0.00000E+00
         0.00000E+00
         0.00000E+00
         0.00000E+00
         0.00000E+00
         0.00000E+00
         0.00000E+00
         0.00000E+00
         0.00000E+00
         0.00000E+00
         0.00000E+00
         0.00000E+00
         0.00000E+00
         0.00000E+00
         0.00000E+00
         0.00000E+00
         0.00000E+00
         0.00000E+00
         0.00000E+00
         0.00000E+00
  
SCALARS                         fint_z  double 1
LOOKUP_TABLE default
         0.00000E+00
         0.00000E+00
         0.00000E+00
         0.00000E+00
         0.00000E+00
         0.00000E+00
         0.00000E+00
         0.00000E+00
         0.00000E+00
         0.00000E+00
         0.00000E+00
         0.00000E+00
         0.00000E+00
         0.00000E+00
         0.00000E+00
         0.00000E+00
         0.00000E+00
         0.00000E+00
         0.00000E+00
         0.00000E+00
         0.00000E+00
         0.00000E+00
         0.00000E+00
         0.00000E+00
         0.00000E+00
         0.00000E+00
         0.00000E+00
         0.00000E+00
         0.00000E+00
         0.00000E+00
         0.00000E+00
         0.00000E+00
         0.00000E+00
         0.00000E+00
         0.00000E+00
         0.00000E+00
         0.00000E+00
         0.00000E+00
         0.00000E+00
         0.00000E+00
         0.00000E+00
         0.00000E+00
         0.00000E+00
         0.00000E+00
         0.00000E+00
         0.00000E+00
         0.00000E+00
         0.00000E+00
         0.00000E+00
         0.00000E+00
         0.00000E+00
         0.00000E+00
         0.00000E+00
         0.00000E+00
         0.00000E+00
         0.00000E+00
         0.00000E+00
         0.00000E+00
         0.00000E+00
         0.00000E+00
         0.00000E+00
         0.00000E+00
         0.00000E+00
         0.00000E+00
         0.00000E+00
         0.00000E+00
         0.00000E+00
         0.00000E+00
         0.00000E+00
         0.00000E+00
         0.00000E+00
         0.00000E+00
         0.00000E+00
         0.00000E+00
         0.00000E+00
         0.00000E+00
         0.00000E+00
         0.00000E+00
         0.00000E+00
         0.00000E+00
         0.00000E+00
         0.00000E+00
         0.00000E+00
         0.00000E+00
         0.00000E+00
         0.00000E+00
         0.00000E+00
         0.00000E+00
         0.00000E+00
         0.00000E+00
         0.00000E+00
         0.00000E+00
         0.00000E+00
         0.00000E+00
         0.00000E+00
         0.00000E+00
         0.00000E+00
         0.00000E+00
         0.00000E+00
         0.00000E+00
         0.00000E+00
         0.00000E+00
         0.00000E+00
         0.00000E+00
         0.00000E+00
         0.00000E+00
         0.00000E+00
         0.00000E+00
         0.00000E+00
         0.00000E+00
         0.00000E+00
         0.00000E+00
         0.00000E+00
         0.00000E+00
         0.00000E+00
         0.00000E+00
         0.00000E+00
         0.00000E+00
         0.00000E+00
         0.00000E+00
         0.00000E+00
         0.00000E+00
         0.00000E+00
         0.00000E+00
         0.00000E+00
         0.00000E+00
         0.00000E+00
         0.00000E+00
         0.00000E+00
         0.00000E+00
         0.00000E+00
         0.00000E+00
         0.00000E+00
         0.00000E+00
         0.00000E+00
         0.00000E+00
         0.00000E+00
         0.00000E+00
         0.00000E+00
         0.00000E+00
         0.00000E+00
         0.00000E+00
         0.00000E+00
         0.00000E+00
         0.00000E+00
         0.00000E+00
         0.00000E+00
         0.00000E+00
         0.00000E+00
         0.00000E+00
         0.00000E+00
         0.00000E+00
         0.00000E+00
         0.00000E+00
         0.00000E+00
         0.00000E+00
         0.00000E+00
         0.00000E+00
         0.00000E+00
         0.00000E+00
         0.00000E+00
         0.00000E+00
         0.00000E+00
         0.00000E+00
         0.00000E+00
         0.00000E+00
         0.00000E+00
         0.00000E+00
         0.00000E+00
         0.00000E+00
         0.00000E+00
         0.00000E+00
         0.00000E+00
         0.00000E+00
         0.00000E+00
         0.00000E+00
         0.00000E+00
         0.00000E+00
         0.00000E+00
         0.00000E+00
         0.00000E+00
         0.00000E+00
         0.00000E+00
         0.00000E+00
         0.00000E+00
         0.00000E+00
         0.00000E+00
         0.00000E+00
         0.00000E+00
         0.00000E+00
         0.00000E+00
         0.00000E+00
         0.00000E+00
         0.00000E+00
         0.00000E+00
         0.00000E+00
         0.00000E+00
         0.00000E+00
         0.00000E+00
         0.00000E+00
         0.00000E+00
         0.00000E+00
         0.00000E+00
         0.00000E+00
         0.00000E+00
         0.00000E+00
         0.00000E+00
         0.00000E+00
         0.00000E+00
         0.00000E+00
         0.00000E+00
         0.00000E+00
         0.00000E+00
         0.00000E+00
         0.00000E+00
         0.00000E+00
         0.00000E+00
         0.00000E+00
         0.00000E+00
         0.00000E+00
         0.00000E+00
         0.00000E+00
         0.00000E+00
         0.00000E+00
         0.00000E+00
         0.00000E+00
         0.00000E+00
         0.00000E+00
         0.00000E+00
         0.00000E+00
         0.00000E+00
         0.00000E+00
         0.00000E+00
         0.00000E+00
         0.00000E+00
         0.00000E+00
         0.00000E+00
         0.00000E+00
         0.00000E+00
         0.00000E+00
         0.00000E+00
         0.00000E+00
         0.00000E+00
         0.00000E+00
         0.00000E+00
         0.00000E+00
         0.00000E+00
         0.00000E+00
         0.00000E+00
         0.00000E+00
         0.00000E+00
         0.00000E+00
         0.00000E+00
         0.00000E+00
         0.00000E+00
         0.00000E+00
         0.00000E+00
         0.00000E+00
         0.00000E+00
         0.00000E+00
         0.00000E+00
         0.00000E+00
         0.00000E+00
         0.00000E+00
         0.00000E+00
         0.00000E+00
         0.00000E+00
         0.00000E+00
         0.00000E+00
         0.00000E+00
         0.00000E+00
         0.00000E+00
         0.00000E+00
         0.00000E+00
         0.00000E+00
         0.00000E+00
         0.00000E+00
         0.00000E+00
         0.00000E+00
         0.00000E+00
         0.00000E+00
         0.00000E+00
         0.00000E+00
         0.00000E+00
         0.00000E+00
         0.00000E+00
         0.00000E+00
         0.00000E+00
         0.00000E+00
         0.00000E+00
         0.00000E+00
         0.00000E+00
         0.00000E+00
         0.00000E+00
         0.00000E+00
         0.00000E+00
         0.00000E+00
         0.00000E+00
         0.00000E+00
         0.00000E+00
         0.00000E+00
         0.00000E+00
         0.00000E+00
         0.00000E+00
         0.00000E+00
         0.00000E+00
         0.00000E+00
         0.00000E+00
         0.00000E+00
         0.00000E+00
         0.00000E+00
         0.00000E+00
         0.00000E+00
         0.00000E+00
         0.00000E+00
         0.00000E+00
         0.00000E+00
         0.00000E+00
         0.00000E+00
         0.00000E+00
         0.00000E+00
         0.00000E+00
         0.00000E+00
         0.00000E+00
         0.00000E+00
         0.00000E+00
         0.00000E+00
         0.00000E+00
         0.00000E+00
         0.00000E+00
         0.00000E+00
         0.00000E+00
         0.00000E+00
         0.00000E+00
         0.00000E+00
         0.00000E+00
         0.00000E+00
         0.00000E+00
         0.00000E+00
         0.00000E+00
         0.00000E+00
         0.00000E+00
         0.00000E+00
         0.00000E+00
         0.00000E+00
         0.00000E+00
         0.00000E+00
         0.00000E+00
         0.00000E+00
         0.00000E+00
         0.00000E+00
         0.00000E+00
         0.00000E+00
         0.00000E+00
         0.00000E+00
         0.00000E+00
         0.00000E+00
         0.00000E+00
         0.00000E+00
         0.00000E+00
         0.00000E+00
         0.00000E+00
         0.00000E+00
         0.00000E+00
         0.00000E+00
         0.00000E+00
         0.00000E+00
         0.00000E+00
         0.00000E+00
         0.00000E+00
         0.00000E+00
         0.00000E+00
         0.00000E+00
         0.00000E+00
         0.00000E+00
         0.00000E+00
         0.00000E+00
         0.00000E+00
         0.00000E+00
         0.00000E+00
         0.00000E+00
         0.00000E+00
         0.00000E+00
         0.00000E+00
         0.00000E+00
         0.00000E+00
         0.00000E+00
         0.00000E+00
         0.00000E+00
         0.00000E+00
         0.00000E+00
         0.00000E+00
         0.00000E+00
         0.00000E+00
         0.00000E+00
         0.00000E+00
         0.00000E+00
         0.00000E+00
         0.00000E+00
         0.00000E+00
         0.00000E+00
         0.00000E+00
         0.00000E+00
         0.00000E+00
         0.00000E+00
         0.00000E+00
         0.00000E+00
         0.00000E+00
         0.00000E+00
         0.00000E+00
         0.00000E+00
         0.00000E+00
         0.00000E+00
         0.00000E+00
         0.00000E+00
         0.00000E+00
         0.00000E+00
         0.00000E+00
         0.00000E+00
         0.00000E+00
         0.00000E+00
         0.00000E+00
         0.00000E+00
         0.00000E+00
         0.00000E+00
         0.00000E+00
         0.00000E+00
         0.00000E+00
         0.00000E+00
         0.00000E+00
         0.00000E+00
         0.00000E+00
         0.00000E+00
         0.00000E+00
         0.00000E+00
         0.00000E+00
         0.00000E+00
         0.00000E+00
         0.00000E+00
         0.00000E+00
         0.00000E+00
         0.00000E+00
         0.00000E+00
         0.00000E+00
         0.00000E+00
         0.00000E+00
         0.00000E+00
         0.00000E+00
         0.00000E+00
         0.00000E+00
         0.00000E+00
         0.00000E+00
         0.00000E+00
         0.00000E+00
         0.00000E+00
         0.00000E+00
         0.00000E+00
         0.00000E+00
         0.00000E+00
         0.00000E+00
         0.00000E+00
         0.00000E+00
         0.00000E+00
         0.00000E+00
         0.00000E+00
         0.00000E+00
         0.00000E+00
         0.00000E+00
         0.00000E+00
         0.00000E+00
         0.00000E+00
         0.00000E+00
         0.00000E+00
         0.00000E+00
         0.00000E+00
         0.00000E+00
         0.00000E+00
         0.00000E+00
         0.00000E+00
         0.00000E+00
         0.00000E+00
         0.00000E+00
         0.00000E+00
         0.00000E+00
         0.00000E+00
         0.00000E+00
         0.00000E+00
         0.00000E+00
         0.00000E+00
         0.00000E+00
         0.00000E+00
         0.00000E+00
         0.00000E+00
         0.00000E+00
         0.00000E+00
         0.00000E+00
         0.00000E+00
         0.00000E+00
         0.00000E+00
         0.00000E+00
         0.00000E+00
         0.00000E+00
         0.00000E+00
         0.00000E+00
         0.00000E+00
         0.00000E+00
         0.00000E+00
         0.00000E+00
         0.00000E+00
         0.00000E+00
         0.00000E+00
         0.00000E+00
         0.00000E+00
         0.00000E+00
         0.00000E+00
         0.00000E+00
         0.00000E+00
         0.00000E+00
         0.00000E+00
         0.00000E+00
         0.00000E+00
         0.00000E+00
         0.00000E+00
         0.00000E+00
         0.00000E+00
         0.00000E+00
         0.00000E+00
         0.00000E+00
         0.00000E+00
         0.00000E+00
         0.00000E+00
         0.00000E+00
         0.00000E+00
         0.00000E+00
         0.00000E+00
         0.00000E+00
         0.00000E+00
         0.00000E+00
         0.00000E+00
         0.00000E+00
         0.00000E+00
         0.00000E+00
         0.00000E+00
         0.00000E+00
         0.00000E+00
         0.00000E+00
         0.00000E+00
         0.00000E+00
         0.00000E+00
         0.00000E+00
         0.00000E+00
         0.00000E+00
         0.00000E+00
         0.00000E+00
         0.00000E+00
         0.00000E+00
         0.00000E+00
         0.00000E+00
         0.00000E+00
         0.00000E+00
         0.00000E+00
         0.00000E+00
         0.00000E+00
         0.00000E+00
         0.00000E+00
         0.00000E+00
         0.00000E+00
         0.00000E+00
         0.00000E+00
         0.00000E+00
         0.00000E+00
         0.00000E+00
         0.00000E+00
         0.00000E+00
         0.00000E+00
         0.00000E+00
         0.00000E+00
         0.00000E+00
         0.00000E+00
         0.00000E+00
         0.00000E+00
         0.00000E+00
         0.00000E+00
         0.00000E+00
         0.00000E+00
         0.00000E+00
         0.00000E+00
         0.00000E+00
         0.00000E+00
         0.00000E+00
         0.00000E+00
         0.00000E+00
         0.00000E+00
         0.00000E+00
         0.00000E+00
         0.00000E+00
         0.00000E+00
         0.00000E+00
         0.00000E+00
         0.00000E+00
         0.00000E+00
         0.00000E+00
         0.00000E+00
         0.00000E+00
         0.00000E+00
         0.00000E+00
         0.00000E+00
         0.00000E+00
         0.00000E+00
         0.00000E+00
         0.00000E+00
         0.00000E+00
         0.00000E+00
         0.00000E+00
         0.00000E+00
         0.00000E+00
         0.00000E+00
         0.00000E+00
         0.00000E+00
         0.00000E+00
         0.00000E+00
         0.00000E+00
         0.00000E+00
         0.00000E+00
         0.00000E+00
         0.00000E+00
         0.00000E+00
         0.00000E+00
         0.00000E+00
         0.00000E+00
         0.00000E+00
         0.00000E+00
         0.00000E+00
         0.00000E+00
         0.00000E+00
         0.00000E+00
         0.00000E+00
         0.00000E+00
         0.00000E+00
         0.00000E+00
         0.00000E+00
         0.00000E+00
         0.00000E+00
         0.00000E+00
         0.00000E+00
         0.00000E+00
         0.00000E+00
         0.00000E+00
         0.00000E+00
         0.00000E+00
         0.00000E+00
         0.00000E+00
         0.00000E+00
         0.00000E+00
         0.00000E+00
         0.00000E+00
         0.00000E+00
         0.00000E+00
         0.00000E+00
         0.00000E+00
         0.00000E+00
         0.00000E+00
         0.00000E+00
         0.00000E+00
         0.00000E+00
         0.00000E+00
         0.00000E+00
         0.00000E+00
         0.00000E+00
         0.00000E+00
         0.00000E+00
         0.00000E+00
         0.00000E+00
         0.00000E+00
         0.00000E+00
         0.00000E+00
         0.00000E+00
         0.00000E+00
         0.00000E+00
         0.00000E+00
         0.00000E+00
         0.00000E+00
         0.00000E+00
         0.00000E+00
         0.00000E+00
         0.00000E+00
         0.00000E+00
         0.00000E+00
         0.00000E+00
         0.00000E+00
         0.00000E+00
         0.00000E+00
         0.00000E+00
         0.00000E+00
         0.00000E+00
         0.00000E+00
         0.00000E+00
         0.00000E+00
         0.00000E+00
         0.00000E+00
         0.00000E+00
         0.00000E+00
         0.00000E+00
         0.00000E+00
         0.00000E+00
         0.00000E+00
         0.00000E+00
         0.00000E+00
         0.00000E+00
         0.00000E+00
         0.00000E+00
         0.00000E+00
         0.00000E+00
         0.00000E+00
         0.00000E+00
         0.00000E+00
         0.00000E+00
         0.00000E+00
         0.00000E+00
         0.00000E+00
         0.00000E+00
         0.00000E+00
         0.00000E+00
         0.00000E+00
         0.00000E+00
         0.00000E+00
         0.00000E+00
         0.00000E+00
         0.00000E+00
         0.00000E+00
         0.00000E+00
         0.00000E+00
         0.00000E+00
         0.00000E+00
         0.00000E+00
         0.00000E+00
         0.00000E+00
         0.00000E+00
         0.00000E+00
         0.00000E+00
         0.00000E+00
         0.00000E+00
         0.00000E+00
         0.00000E+00
         0.00000E+00
         0.00000E+00
         0.00000E+00
         0.00000E+00
         0.00000E+00
         0.00000E+00
         0.00000E+00
         0.00000E+00
         0.00000E+00
         0.00000E+00
         0.00000E+00
         0.00000E+00
         0.00000E+00
         0.00000E+00
         0.00000E+00
         0.00000E+00
         0.00000E+00
         0.00000E+00
         0.00000E+00
         0.00000E+00
         0.00000E+00
         0.00000E+00
         0.00000E+00
         0.00000E+00
         0.00000E+00
         0.00000E+00
         0.00000E+00
         0.00000E+00
         0.00000E+00
         0.00000E+00
         0.00000E+00
         0.00000E+00
         0.00000E+00
         0.00000E+00
         0.00000E+00
         0.00000E+00
         0.00000E+00
         0.00000E+00
         0.00000E+00
         0.00000E+00
         0.00000E+00
         0.00000E+00
         0.00000E+00
         0.00000E+00
         0.00000E+00
         0.00000E+00
         0.00000E+00
         0.00000E+00
         0.00000E+00
         0.00000E+00
         0.00000E+00
         0.00000E+00
         0.00000E+00
         0.00000E+00
         0.00000E+00
         0.00000E+00
         0.00000E+00
         0.00000E+00
         0.00000E+00
         0.00000E+00
         0.00000E+00
         0.00000E+00
         0.00000E+00
         0.00000E+00
         0.00000E+00
         0.00000E+00
         0.00000E+00
         0.00000E+00
         0.00000E+00
         0.00000E+00
         0.00000E+00
         0.00000E+00
         0.00000E+00
         0.00000E+00
         0.00000E+00
         0.00000E+00
         0.00000E+00
         0.00000E+00
         0.00000E+00
         0.00000E+00
         0.00000E+00
         0.00000E+00
         0.00000E+00
         0.00000E+00
         0.00000E+00
         0.00000E+00
         0.00000E+00
         0.00000E+00
         0.00000E+00
         0.00000E+00
         0.00000E+00
         0.00000E+00
         0.00000E+00
         0.00000E+00
         0.00000E+00
         0.00000E+00
         0.00000E+00
         0.00000E+00
         0.00000E+00
         0.00000E+00
         0.00000E+00
         0.00000E+00
         0.00000E+00
         0.00000E+00
         0.00000E+00
         0.00000E+00
         0.00000E+00
         0.00000E+00
         0.00000E+00
         0.00000E+00
         0.00000E+00
         0.00000E+00
         0.00000E+00
         0.00000E+00
         0.00000E+00
         0.00000E+00
         0.00000E+00
         0.00000E+00
         0.00000E+00
         0.00000E+00
         0.00000E+00
         0.00000E+00
         0.00000E+00
         0.00000E+00
         0.00000E+00
         0.00000E+00
         0.00000E+00
         0.00000E+00
         0.00000E+00
         0.00000E+00
         0.00000E+00
         0.00000E+00
         0.00000E+00
         0.00000E+00
         0.00000E+00
         0.00000E+00
         0.00000E+00
         0.00000E+00
         0.00000E+00
         0.00000E+00
         0.00000E+00
         0.00000E+00
         0.00000E+00
         0.00000E+00
         0.00000E+00
         0.00000E+00
         0.00000E+00
         0.00000E+00
         0.00000E+00
         0.00000E+00
         0.00000E+00
         0.00000E+00
         0.00000E+00
         0.00000E+00
         0.00000E+00
         0.00000E+00
         0.00000E+00
         0.00000E+00
         0.00000E+00
         0.00000E+00
         0.00000E+00
         0.00000E+00
         0.00000E+00
         0.00000E+00
         0.00000E+00
         0.00000E+00
         0.00000E+00
         0.00000E+00
         0.00000E+00
         0.00000E+00
         0.00000E+00
         0.00000E+00
         0.00000E+00
         0.00000E+00
         0.00000E+00
         0.00000E+00
         0.00000E+00
         0.00000E+00
         0.00000E+00
         0.00000E+00
         0.00000E+00
         0.00000E+00
         0.00000E+00
         0.00000E+00
         0.00000E+00
         0.00000E+00
         0.00000E+00
         0.00000E+00
         0.00000E+00
         0.00000E+00
         0.00000E+00
         0.00000E+00
         0.00000E+00
         0.00000E+00
         0.00000E+00
         0.00000E+00
         0.00000E+00
         0.00000E+00
         0.00000E+00
         0.00000E+00
         0.00000E+00
         0.00000E+00
         0.00000E+00
         0.00000E+00
         0.00000E+00
         0.00000E+00
         0.00000E+00
         0.00000E+00
         0.00000E+00
         0.00000E+00
         0.00000E+00
         0.00000E+00
         0.00000E+00
         0.00000E+00
         0.00000E+00
         0.00000E+00
         0.00000E+00
         0.00000E+00
         0.00000E+00
         0.00000E+00
         0.00000E+00
         0.00000E+00
         0.00000E+00
         0.00000E+00
         0.00000E+00
         0.00000E+00
         0.00000E+00
         0.00000E+00
         0.00000E+00
         0.00000E+00
         0.00000E+00
         0.00000E+00
         0.00000E+00
         0.00000E+00
         0.00000E+00
         0.00000E+00
         0.00000E+00
         0.00000E+00
         0.00000E+00
         0.00000E+00
         0.00000E+00
         0.00000E+00
         0.00000E+00
         0.00000E+00
         0.00000E+00
         0.00000E+00
         0.00000E+00
         0.00000E+00
         0.00000E+00
         0.00000E+00
         0.00000E+00
         0.00000E+00
         0.00000E+00
         0.00000E+00
         0.00000E+00
         0.00000E+00
         0.00000E+00
         0.00000E+00
         0.00000E+00
         0.00000E+00
         0.00000E+00
         0.00000E+00
         0.00000E+00
         0.00000E+00
         0.00000E+00
         0.00000E+00
         0.00000E+00
         0.00000E+00
         0.00000E+00
         0.00000E+00
         0.00000E+00
         0.00000E+00
         0.00000E+00
         0.00000E+00
         0.00000E+00
         0.00000E+00
         0.00000E+00
         0.00000E+00
         0.00000E+00
         0.00000E+00
         0.00000E+00
         0.00000E+00
         0.00000E+00
         0.00000E+00
         0.00000E+00
         0.00000E+00
         0.00000E+00
         0.00000E+00
         0.00000E+00
         0.00000E+00
         0.00000E+00
         0.00000E+00
         0.00000E+00
         0.00000E+00
         0.00000E+00
         0.00000E+00
         0.00000E+00
         0.00000E+00
         0.00000E+00
         0.00000E+00
         0.00000E+00
         0.00000E+00
         0.00000E+00
         0.00000E+00
         0.00000E+00
         0.00000E+00
         0.00000E+00
         0.00000E+00
         0.00000E+00
         0.00000E+00
         0.00000E+00
         0.00000E+00
         0.00000E+00
         0.00000E+00
         0.00000E+00
         0.00000E+00
         0.00000E+00
         0.00000E+00
         0.00000E+00
         0.00000E+00
         0.00000E+00
         0.00000E+00
         0.00000E+00
         0.00000E+00
         0.00000E+00
         0.00000E+00
         0.00000E+00
         0.00000E+00
         0.00000E+00
         0.00000E+00
         0.00000E+00
         0.00000E+00
         0.00000E+00
         0.00000E+00
         0.00000E+00
         0.00000E+00
         0.00000E+00
         0.00000E+00
         0.00000E+00
         0.00000E+00
         0.00000E+00
         0.00000E+00
         0.00000E+00
         0.00000E+00
         0.00000E+00
         0.00000E+00
         0.00000E+00
         0.00000E+00
         0.00000E+00
         0.00000E+00
         0.00000E+00
         0.00000E+00
         0.00000E+00
         0.00000E+00
         0.00000E+00
         0.00000E+00
         0.00000E+00
         0.00000E+00
         0.00000E+00
         0.00000E+00
         0.00000E+00
         0.00000E+00
         0.00000E+00
         0.00000E+00
         0.00000E+00
         0.00000E+00
         0.00000E+00
         0.00000E+00
         0.00000E+00
         0.00000E+00
         0.00000E+00
         0.00000E+00
         0.00000E+00
         0.00000E+00
         0.00000E+00
         0.00000E+00
         0.00000E+00
         0.00000E+00
         0.00000E+00
         0.00000E+00
         0.00000E+00
         0.00000E+00
         0.00000E+00
         0.00000E+00
         0.00000E+00
         0.00000E+00
         0.00000E+00
         0.00000E+00
         0.00000E+00
         0.00000E+00
         0.00000E+00
         0.00000E+00
         0.00000E+00
         0.00000E+00
         0.00000E+00
         0.00000E+00
         0.00000E+00
         0.00000E+00
         0.00000E+00
         0.00000E+00
         0.00000E+00
         0.00000E+00
         0.00000E+00
         0.00000E+00
         0.00000E+00
         0.00000E+00
         0.00000E+00
         0.00000E+00
         0.00000E+00
         0.00000E+00
         0.00000E+00
         0.00000E+00
         0.00000E+00
         0.00000E+00
         0.00000E+00
         0.00000E+00
         0.00000E+00
         0.00000E+00
         0.00000E+00
         0.00000E+00
         0.00000E+00
         0.00000E+00
         0.00000E+00
         0.00000E+00
         0.00000E+00
         0.00000E+00
         0.00000E+00
         0.00000E+00
         0.00000E+00
         0.00000E+00
         0.00000E+00
         0.00000E+00
         0.00000E+00
         0.00000E+00
         0.00000E+00
         0.00000E+00
         0.00000E+00
         0.00000E+00
         0.00000E+00
         0.00000E+00
         0.00000E+00
         0.00000E+00
         0.00000E+00
         0.00000E+00
         0.00000E+00
         0.00000E+00
         0.00000E+00
         0.00000E+00
         0.00000E+00
         0.00000E+00
         0.00000E+00
         0.00000E+00
         0.00000E+00
         0.00000E+00
         0.00000E+00
         0.00000E+00
         0.00000E+00
         0.00000E+00
         0.00000E+00
         0.00000E+00
         0.00000E+00
         0.00000E+00
         0.00000E+00
         0.00000E+00
         0.00000E+00
         0.00000E+00
         0.00000E+00
         0.00000E+00
         0.00000E+00
         0.00000E+00
         0.00000E+00
         0.00000E+00
         0.00000E+00
         0.00000E+00
         0.00000E+00
         0.00000E+00
         0.00000E+00
         0.00000E+00
         0.00000E+00
         0.00000E+00
         0.00000E+00
         0.00000E+00
         0.00000E+00
         0.00000E+00
         0.00000E+00
         0.00000E+00
         0.00000E+00
         0.00000E+00
         0.00000E+00
         0.00000E+00
         0.00000E+00
         0.00000E+00
         0.00000E+00
         0.00000E+00
         0.00000E+00
         0.00000E+00
         0.00000E+00
         0.00000E+00
         0.00000E+00
         0.00000E+00
         0.00000E+00
         0.00000E+00
         0.00000E+00
         0.00000E+00
         0.00000E+00
         0.00000E+00
         0.00000E+00
         0.00000E+00
         0.00000E+00
         0.00000E+00
         0.00000E+00
         0.00000E+00
         0.00000E+00
         0.00000E+00
         0.00000E+00
         0.00000E+00
         0.00000E+00
         0.00000E+00
         0.00000E+00
         0.00000E+00
         0.00000E+00
         0.00000E+00
         0.00000E+00
         0.00000E+00
         0.00000E+00
         0.00000E+00
         0.00000E+00
         0.00000E+00
         0.00000E+00
         0.00000E+00
         0.00000E+00
         0.00000E+00
         0.00000E+00
         0.00000E+00
         0.00000E+00
         0.00000E+00
         0.00000E+00
         0.00000E+00
         0.00000E+00
         0.00000E+00
         0.00000E+00
         0.00000E+00
         0.00000E+00
         0.00000E+00
         0.00000E+00
         0.00000E+00
         0.00000E+00
         0.00000E+00
         0.00000E+00
         0.00000E+00
         0.00000E+00
         0.00000E+00
         0.00000E+00
         0.00000E+00
         0.00000E+00
         0.00000E+00
         0.00000E+00
         0.00000E+00
         0.00000E+00
         0.00000E+00
         0.00000E+00
         0.00000E+00
         0.00000E+00
         0.00000E+00
         0.00000E+00
         0.00000E+00
         0.00000E+00
         0.00000E+00
         0.00000E+00
         0.00000E+00
         0.00000E+00
         0.00000E+00
         0.00000E+00
         0.00000E+00
         0.00000E+00
         0.00000E+00
         0.00000E+00
         0.00000E+00
         0.00000E+00
         0.00000E+00
         0.00000E+00
         0.00000E+00
         0.00000E+00
         0.00000E+00
         0.00000E+00
         0.00000E+00
         0.00000E+00
         0.00000E+00
         0.00000E+00
         0.00000E+00
         0.00000E+00
         0.00000E+00
         0.00000E+00
         0.00000E+00
         0.00000E+00
         0.00000E+00
         0.00000E+00
         0.00000E+00
         0.00000E+00
         0.00000E+00
         0.00000E+00
         0.00000E+00
         0.00000E+00
         0.00000E+00
         0.00000E+00
         0.00000E+00
         0.00000E+00
         0.00000E+00
         0.00000E+00
         0.00000E+00
         0.00000E+00
         0.00000E+00
         0.00000E+00
         0.00000E+00
         0.00000E+00
         0.00000E+00
         0.00000E+00
         0.00000E+00
         0.00000E+00
         0.00000E+00
         0.00000E+00
         0.00000E+00
         0.00000E+00
         0.00000E+00
         0.00000E+00
         0.00000E+00
         0.00000E+00
         0.00000E+00
         0.00000E+00
         0.00000E+00
         0.00000E+00
         0.00000E+00
         0.00000E+00
         0.00000E+00
         0.00000E+00
         0.00000E+00
         0.00000E+00
         0.00000E+00
         0.00000E+00
         0.00000E+00
         0.00000E+00
         0.00000E+00
         0.00000E+00
         0.00000E+00
         0.00000E+00
         0.00000E+00
         0.00000E+00
         0.00000E+00
         0.00000E+00
         0.00000E+00
         0.00000E+00
         0.00000E+00
         0.00000E+00
         0.00000E+00
         0.00000E+00
         0.00000E+00
         0.00000E+00
         0.00000E+00
         0.00000E+00
         0.00000E+00
         0.00000E+00
         0.00000E+00
         0.00000E+00
         0.00000E+00
         0.00000E+00
         0.00000E+00
         0.00000E+00
         0.00000E+00
         0.00000E+00
         0.00000E+00
         0.00000E+00
         0.00000E+00
         0.00000E+00
         0.00000E+00
         0.00000E+00
         0.00000E+00
         0.00000E+00
         0.00000E+00
         0.00000E+00
         0.00000E+00
         0.00000E+00
         0.00000E+00
         0.00000E+00
         0.00000E+00
         0.00000E+00
         0.00000E+00
         0.00000E+00
         0.00000E+00
         0.00000E+00
         0.00000E+00
         0.00000E+00
         0.00000E+00
         0.00000E+00
         0.00000E+00
         0.00000E+00
         0.00000E+00
         0.00000E+00
         0.00000E+00
         0.00000E+00
         0.00000E+00
         0.00000E+00
         0.00000E+00
         0.00000E+00
         0.00000E+00
         0.00000E+00
         0.00000E+00
         0.00000E+00
         0.00000E+00
         0.00000E+00
         0.00000E+00
         0.00000E+00
         0.00000E+00
         0.00000E+00
         0.00000E+00
         0.00000E+00
         0.00000E+00
         0.00000E+00
         0.00000E+00
         0.00000E+00
         0.00000E+00
         0.00000E+00
         0.00000E+00
         0.00000E+00
         0.00000E+00
         0.00000E+00
         0.00000E+00
         0.00000E+00
         0.00000E+00
         0.00000E+00
         0.00000E+00
         0.00000E+00
         0.00000E+00
         0.00000E+00
         0.00000E+00
         0.00000E+00
         0.00000E+00
         0.00000E+00
         0.00000E+00
         0.00000E+00
         0.00000E+00
         0.00000E+00
         0.00000E+00
         0.00000E+00
         0.00000E+00
         0.00000E+00
         0.00000E+00
         0.00000E+00
         0.00000E+00
         0.00000E+00
         0.00000E+00
         0.00000E+00
         0.00000E+00
         0.00000E+00
         0.00000E+00
         0.00000E+00
         0.00000E+00
         0.00000E+00
         0.00000E+00
         0.00000E+00
         0.00000E+00
         0.00000E+00
         0.00000E+00
         0.00000E+00
         0.00000E+00
         0.00000E+00
         0.00000E+00
         0.00000E+00
         0.00000E+00
         0.00000E+00
         0.00000E+00
         0.00000E+00
         0.00000E+00
         0.00000E+00
         0.00000E+00
         0.00000E+00
         0.00000E+00
         0.00000E+00
         0.00000E+00
         0.00000E+00
         0.00000E+00
         0.00000E+00
         0.00000E+00
         0.00000E+00
         0.00000E+00
         0.00000E+00
         0.00000E+00
         0.00000E+00
         0.00000E+00
         0.00000E+00
         0.00000E+00
         0.00000E+00
         0.00000E+00
         0.00000E+00
         0.00000E+00
         0.00000E+00
         0.00000E+00
         0.00000E+00
         0.00000E+00
         0.00000E+00
         0.00000E+00
         0.00000E+00
         0.00000E+00
         0.00000E+00
         0.00000E+00
         0.00000E+00
         0.00000E+00
         0.00000E+00
         0.00000E+00
         0.00000E+00
         0.00000E+00
         0.00000E+00
         0.00000E+00
         0.00000E+00
         0.00000E+00
         0.00000E+00
         0.00000E+00
         0.00000E+00
         0.00000E+00
         0.00000E+00
         0.00000E+00
         0.00000E+00
         0.00000E+00
         0.00000E+00
         0.00000E+00
         0.00000E+00
         0.00000E+00
         0.00000E+00
         0.00000E+00
         0.00000E+00
         0.00000E+00
         0.00000E+00
         0.00000E+00
         0.00000E+00
         0.00000E+00
         0.00000E+00
         0.00000E+00
         0.00000E+00
         0.00000E+00
         0.00000E+00
         0.00000E+00
         0.00000E+00
         0.00000E+00
         0.00000E+00
         0.00000E+00
         0.00000E+00
         0.00000E+00
         0.00000E+00
         0.00000E+00
         0.00000E+00
         0.00000E+00
         0.00000E+00
         0.00000E+00
         0.00000E+00
         0.00000E+00
         0.00000E+00
         0.00000E+00
         0.00000E+00
         0.00000E+00
         0.00000E+00
         0.00000E+00
         0.00000E+00
         0.00000E+00
         0.00000E+00
         0.00000E+00
         0.00000E+00
         0.00000E+00
         0.00000E+00
         0.00000E+00
         0.00000E+00
         0.00000E+00
         0.00000E+00
         0.00000E+00
         0.00000E+00
         0.00000E+00
         0.00000E+00
         0.00000E+00
         0.00000E+00
         0.00000E+00
         0.00000E+00
         0.00000E+00
         0.00000E+00
         0.00000E+00
         0.00000E+00
         0.00000E+00
         0.00000E+00
         0.00000E+00
         0.00000E+00
         0.00000E+00
         0.00000E+00
         0.00000E+00
         0.00000E+00
         0.00000E+00
         0.00000E+00
         0.00000E+00
         0.00000E+00
         0.00000E+00
         0.00000E+00
         0.00000E+00
         0.00000E+00
         0.00000E+00
         0.00000E+00
         0.00000E+00
         0.00000E+00
         0.00000E+00
         0.00000E+00
         0.00000E+00
         0.00000E+00
         0.00000E+00
         0.00000E+00
         0.00000E+00
         0.00000E+00
         0.00000E+00
         0.00000E+00
         0.00000E+00
         0.00000E+00
         0.00000E+00
         0.00000E+00
         0.00000E+00
         0.00000E+00
         0.00000E+00
         0.00000E+00
         0.00000E+00
         0.00000E+00
         0.00000E+00
         0.00000E+00
         0.00000E+00
         0.00000E+00
         0.00000E+00
         0.00000E+00
         0.00000E+00
         0.00000E+00
         0.00000E+00
         0.00000E+00
         0.00000E+00
         0.00000E+00
         0.00000E+00
         0.00000E+00
         0.00000E+00
         0.00000E+00
         0.00000E+00
         0.00000E+00
         0.00000E+00
         0.00000E+00
         0.00000E+00
         0.00000E+00
         0.00000E+00
         0.00000E+00
         0.00000E+00
         0.00000E+00
         0.00000E+00
         0.00000E+00
         0.00000E+00
         0.00000E+00
         0.00000E+00
         0.00000E+00
         0.00000E+00
         0.00000E+00
         0.00000E+00
         0.00000E+00
         0.00000E+00
         0.00000E+00
         0.00000E+00
         0.00000E+00
         0.00000E+00
         0.00000E+00
         0.00000E+00
         0.00000E+00
         0.00000E+00
         0.00000E+00
         0.00000E+00
         0.00000E+00
         0.00000E+00
         0.00000E+00
         0.00000E+00
         0.00000E+00
         0.00000E+00
         0.00000E+00
         0.00000E+00
         0.00000E+00
         0.00000E+00
         0.00000E+00
         0.00000E+00
         0.00000E+00
         0.00000E+00
         0.00000E+00
         0.00000E+00
         0.00000E+00
         0.00000E+00
         0.00000E+00
         0.00000E+00
         0.00000E+00
         0.00000E+00
         0.00000E+00
         0.00000E+00
         0.00000E+00
         0.00000E+00
         0.00000E+00
         0.00000E+00
         0.00000E+00
         0.00000E+00
         0.00000E+00
         0.00000E+00
         0.00000E+00
         0.00000E+00
         0.00000E+00
         0.00000E+00
         0.00000E+00
         0.00000E+00
         0.00000E+00
         0.00000E+00
         0.00000E+00
         0.00000E+00
         0.00000E+00
         0.00000E+00
         0.00000E+00
         0.00000E+00
         0.00000E+00
         0.00000E+00
         0.00000E+00
         0.00000E+00
         0.00000E+00
         0.00000E+00
         0.00000E+00
         0.00000E+00
         0.00000E+00
         0.00000E+00
         0.00000E+00
         0.00000E+00
         0.00000E+00
         0.00000E+00
         0.00000E+00
         0.00000E+00
         0.00000E+00
         0.00000E+00
         0.00000E+00
         0.00000E+00
         0.00000E+00
         0.00000E+00
         0.00000E+00
         0.00000E+00
         0.00000E+00
         0.00000E+00
         0.00000E+00
         0.00000E+00
         0.00000E+00
         0.00000E+00
         0.00000E+00
         0.00000E+00
         0.00000E+00
         0.00000E+00
         0.00000E+00
         0.00000E+00
         0.00000E+00
         0.00000E+00
         0.00000E+00
         0.00000E+00
         0.00000E+00
         0.00000E+00
         0.00000E+00
         0.00000E+00
         0.00000E+00
         0.00000E+00
         0.00000E+00
         0.00000E+00
         0.00000E+00
         0.00000E+00
         0.00000E+00
         0.00000E+00
         0.00000E+00
         0.00000E+00
         0.00000E+00
         0.00000E+00
         0.00000E+00
         0.00000E+00
         0.00000E+00
         0.00000E+00
         0.00000E+00
         0.00000E+00
         0.00000E+00
         0.00000E+00
         0.00000E+00
         0.00000E+00
         0.00000E+00
         0.00000E+00
         0.00000E+00
         0.00000E+00
         0.00000E+00
         0.00000E+00
         0.00000E+00
         0.00000E+00
         0.00000E+00
         0.00000E+00
         0.00000E+00
         0.00000E+00
         0.00000E+00
         0.00000E+00
         0.00000E+00
         0.00000E+00
         0.00000E+00
         0.00000E+00
         0.00000E+00
         0.00000E+00
         0.00000E+00
         0.00000E+00
         0.00000E+00
         0.00000E+00
         0.00000E+00
         0.00000E+00
         0.00000E+00
         0.00000E+00
         0.00000E+00
         0.00000E+00
         0.00000E+00
         0.00000E+00
         0.00000E+00
         0.00000E+00
         0.00000E+00
         0.00000E+00
         0.00000E+00
         0.00000E+00
         0.00000E+00
         0.00000E+00
         0.00000E+00
         0.00000E+00
         0.00000E+00
         0.00000E+00
         0.00000E+00
         0.00000E+00
         0.00000E+00
         0.00000E+00
         0.00000E+00
         0.00000E+00
         0.00000E+00
         0.00000E+00
         0.00000E+00
         0.00000E+00
         0.00000E+00
         0.00000E+00
         0.00000E+00
         0.00000E+00
         0.00000E+00
         0.00000E+00
         0.00000E+00
         0.00000E+00
         0.00000E+00
         0.00000E+00
         0.00000E+00
         0.00000E+00
         0.00000E+00
         0.00000E+00
         0.00000E+00
         0.00000E+00
         0.00000E+00
         0.00000E+00
         0.00000E+00
         0.00000E+00
         0.00000E+00
         0.00000E+00
         0.00000E+00
         0.00000E+00
         0.00000E+00
         0.00000E+00
         0.00000E+00
         0.00000E+00
         0.00000E+00
         0.00000E+00
         0.00000E+00
         0.00000E+00
         0.00000E+00
         0.00000E+00
         0.00000E+00
         0.00000E+00
         0.00000E+00
         0.00000E+00
         0.00000E+00
         0.00000E+00
         0.00000E+00
         0.00000E+00
         0.00000E+00
         0.00000E+00
         0.00000E+00
         0.00000E+00
         0.00000E+00
         0.00000E+00
         0.00000E+00
         0.00000E+00
         0.00000E+00
         0.00000E+00
         0.00000E+00
         0.00000E+00
         0.00000E+00
         0.00000E+00
         0.00000E+00
         0.00000E+00
         0.00000E+00
         0.00000E+00
         0.00000E+00
         0.00000E+00
         0.00000E+00
         0.00000E+00
         0.00000E+00
         0.00000E+00
         0.00000E+00
         0.00000E+00
         0.00000E+00
         0.00000E+00
  
SCALARS        characteristic_distance  double 1
LOOKUP_TABLE default
         0.00000E+00
         0.00000E+00
         0.00000E+00
         0.00000E+00
         0.00000E+00
         0.00000E+00
         0.00000E+00
         0.00000E+00
         0.00000E+00
         0.00000E+00
         0.00000E+00
         0.00000E+00
         0.00000E+00
         0.00000E+00
         0.00000E+00
         0.00000E+00
         0.00000E+00
         0.00000E+00
         0.00000E+00
         0.00000E+00
         0.00000E+00
         0.00000E+00
         0.00000E+00
         0.00000E+00
         0.00000E+00
         0.00000E+00
         0.00000E+00
         0.00000E+00
         0.00000E+00
         0.00000E+00
         0.00000E+00
         0.00000E+00
         0.00000E+00
         0.00000E+00
         0.00000E+00
         0.00000E+00
         0.00000E+00
         0.00000E+00
         0.00000E+00
         0.00000E+00
         0.00000E+00
         0.00000E+00
         0.00000E+00
         0.00000E+00
         0.00000E+00
         0.00000E+00
         0.00000E+00
         0.00000E+00
         0.00000E+00
         0.00000E+00
         0.00000E+00
         0.00000E+00
         0.00000E+00
         0.00000E+00
         0.00000E+00
         0.00000E+00
         0.00000E+00
         0.00000E+00
         0.00000E+00
         0.00000E+00
         0.00000E+00
         0.00000E+00
         0.00000E+00
         0.00000E+00
         0.00000E+00
         0.00000E+00
         0.00000E+00
         0.00000E+00
         0.00000E+00
         0.00000E+00
         0.00000E+00
         0.00000E+00
         0.00000E+00
         0.00000E+00
         0.00000E+00
         0.00000E+00
         0.00000E+00
         0.00000E+00
         0.00000E+00
         0.00000E+00
         0.00000E+00
         0.00000E+00
         0.00000E+00
         0.00000E+00
         0.00000E+00
         0.00000E+00
         0.00000E+00
         0.00000E+00
         0.00000E+00
         0.00000E+00
         0.00000E+00
         0.00000E+00
         0.00000E+00
         0.00000E+00
         0.00000E+00
         0.00000E+00
         0.00000E+00
         0.00000E+00
         0.00000E+00
         0.00000E+00
         0.00000E+00
         0.00000E+00
         0.00000E+00
         0.00000E+00
         0.00000E+00
         0.00000E+00
         0.00000E+00
         0.00000E+00
         0.00000E+00
         0.00000E+00
         0.00000E+00
         0.00000E+00
         0.00000E+00
         0.00000E+00
         0.00000E+00
         0.00000E+00
         0.00000E+00
         0.00000E+00
         0.00000E+00
         0.00000E+00
         0.00000E+00
         0.00000E+00
         0.00000E+00
         0.00000E+00
         0.00000E+00
         0.00000E+00
         0.00000E+00
         0.00000E+00
         0.00000E+00
         0.00000E+00
         0.00000E+00
         0.00000E+00
         0.00000E+00
         0.00000E+00
         0.00000E+00
         0.00000E+00
         0.00000E+00
         0.00000E+00
         0.00000E+00
         0.00000E+00
         0.00000E+00
         0.00000E+00
         0.00000E+00
         0.00000E+00
         0.00000E+00
         0.00000E+00
         0.00000E+00
         0.00000E+00
         0.00000E+00
         0.00000E+00
         0.00000E+00
         0.00000E+00
         0.00000E+00
         0.00000E+00
         0.00000E+00
         0.00000E+00
         0.00000E+00
         0.00000E+00
         0.00000E+00
         0.00000E+00
         0.00000E+00
         0.00000E+00
         0.00000E+00
         0.00000E+00
         0.00000E+00
         0.00000E+00
         0.00000E+00
         0.00000E+00
         0.00000E+00
         0.00000E+00
         0.00000E+00
         0.00000E+00
         0.00000E+00
         0.00000E+00
         0.00000E+00
         0.00000E+00
         0.00000E+00
         0.00000E+00
         0.00000E+00
         0.00000E+00
         0.00000E+00
         0.00000E+00
         0.00000E+00
         0.00000E+00
         0.00000E+00
         0.00000E+00
         0.00000E+00
         0.00000E+00
         0.00000E+00
         0.00000E+00
         0.00000E+00
         0.00000E+00
         0.00000E+00
         0.00000E+00
         0.00000E+00
         0.00000E+00
         0.00000E+00
         0.00000E+00
         0.00000E+00
         0.00000E+00
         0.00000E+00
         0.00000E+00
         0.00000E+00
         0.00000E+00
         0.00000E+00
         0.00000E+00
         0.00000E+00
         0.00000E+00
         0.00000E+00
         0.00000E+00
         0.00000E+00
         0.00000E+00
         0.00000E+00
         0.00000E+00
         0.00000E+00
         0.00000E+00
         0.00000E+00
         0.00000E+00
         0.00000E+00
         0.00000E+00
         0.00000E+00
         0.00000E+00
         0.00000E+00
         0.00000E+00
         0.00000E+00
         0.00000E+00
         0.00000E+00
         0.00000E+00
         0.00000E+00
         0.00000E+00
         0.00000E+00
         0.00000E+00
         0.00000E+00
         0.00000E+00
         0.00000E+00
         0.00000E+00
         0.00000E+00
         0.00000E+00
         0.00000E+00
         0.00000E+00
         0.00000E+00
         0.00000E+00
         0.00000E+00
         0.00000E+00
         0.00000E+00
         0.00000E+00
         0.00000E+00
         0.00000E+00
         0.00000E+00
         0.00000E+00
         0.00000E+00
         0.00000E+00
         0.00000E+00
         0.00000E+00
         0.00000E+00
         0.00000E+00
         0.00000E+00
         0.00000E+00
         0.00000E+00
         0.00000E+00
         0.00000E+00
         0.00000E+00
         0.00000E+00
         0.00000E+00
         0.00000E+00
         0.00000E+00
         0.00000E+00
         0.00000E+00
         0.00000E+00
         0.00000E+00
         0.00000E+00
         0.00000E+00
         0.00000E+00
         0.00000E+00
         0.00000E+00
         0.00000E+00
         0.00000E+00
         0.00000E+00
         0.00000E+00
         0.00000E+00
         0.00000E+00
         0.00000E+00
         0.00000E+00
         0.00000E+00
         0.00000E+00
         0.00000E+00
         0.00000E+00
         0.00000E+00
         0.00000E+00
         0.00000E+00
         0.00000E+00
         0.00000E+00
         0.00000E+00
         0.00000E+00
         0.00000E+00
         0.00000E+00
         0.00000E+00
         0.00000E+00
         0.00000E+00
         0.00000E+00
         0.00000E+00
         0.00000E+00
         0.00000E+00
         0.00000E+00
         0.00000E+00
         0.00000E+00
         0.00000E+00
         0.00000E+00
         0.00000E+00
         0.00000E+00
         0.00000E+00
         0.00000E+00
         0.00000E+00
         0.00000E+00
         0.00000E+00
         0.00000E+00
         0.00000E+00
         0.00000E+00
         0.00000E+00
         0.00000E+00
         0.00000E+00
         0.00000E+00
         0.00000E+00
         0.00000E+00
         0.00000E+00
         0.00000E+00
         0.00000E+00
         0.00000E+00
         0.00000E+00
         0.00000E+00
         0.00000E+00
         0.00000E+00
         0.00000E+00
         0.00000E+00
         0.00000E+00
         0.00000E+00
         0.00000E+00
         0.00000E+00
         0.00000E+00
         0.00000E+00
         0.00000E+00
         0.00000E+00
         0.00000E+00
         0.00000E+00
         0.00000E+00
         0.00000E+00
         0.00000E+00
         0.00000E+00
         0.00000E+00
         0.00000E+00
         0.00000E+00
         0.00000E+00
         0.00000E+00
         0.00000E+00
         0.00000E+00
         0.00000E+00
         0.00000E+00
         0.00000E+00
         0.00000E+00
         0.00000E+00
         0.00000E+00
         0.00000E+00
         0.00000E+00
         0.00000E+00
         0.00000E+00
         0.00000E+00
         0.00000E+00
         0.00000E+00
         0.00000E+00
         0.00000E+00
         0.00000E+00
         0.00000E+00
         0.00000E+00
         0.00000E+00
         0.00000E+00
         0.00000E+00
         0.00000E+00
         0.00000E+00
         0.00000E+00
         0.00000E+00
         0.00000E+00
         0.00000E+00
         0.00000E+00
         0.00000E+00
         0.00000E+00
         0.00000E+00
         0.00000E+00
         0.00000E+00
         0.00000E+00
         0.00000E+00
         0.00000E+00
         0.00000E+00
         0.00000E+00
         0.00000E+00
         0.00000E+00
         0.00000E+00
         0.00000E+00
         0.00000E+00
         0.00000E+00
         0.00000E+00
         0.00000E+00
         0.00000E+00
         0.00000E+00
         0.00000E+00
         0.00000E+00
         0.00000E+00
         0.00000E+00
         0.00000E+00
         0.00000E+00
         0.00000E+00
         0.00000E+00
         0.00000E+00
         0.00000E+00
         0.00000E+00
         0.00000E+00
         0.00000E+00
         0.00000E+00
         0.00000E+00
         0.00000E+00
         0.00000E+00
         0.00000E+00
         0.00000E+00
         0.00000E+00
         0.00000E+00
         0.00000E+00
         0.00000E+00
         0.00000E+00
         0.00000E+00
         0.00000E+00
         0.00000E+00
         0.00000E+00
         0.00000E+00
         0.00000E+00
         0.00000E+00
         0.00000E+00
         0.00000E+00
         0.00000E+00
         0.00000E+00
         0.00000E+00
         0.00000E+00
         0.00000E+00
         0.00000E+00
         0.00000E+00
         0.00000E+00
         0.00000E+00
         0.00000E+00
         0.00000E+00
         0.00000E+00
         0.00000E+00
         0.00000E+00
         0.00000E+00
         0.00000E+00
         0.00000E+00
         0.00000E+00
         0.00000E+00
         0.00000E+00
         0.00000E+00
         0.00000E+00
         0.00000E+00
         0.00000E+00
         0.00000E+00
         0.00000E+00
         0.00000E+00
         0.00000E+00
         0.00000E+00
         0.00000E+00
         0.00000E+00
         0.00000E+00
         0.00000E+00
         0.00000E+00
         0.00000E+00
         0.00000E+00
         0.00000E+00
         0.00000E+00
         0.00000E+00
         0.00000E+00
         0.00000E+00
         0.00000E+00
         0.00000E+00
         0.00000E+00
         0.00000E+00
         0.00000E+00
         0.00000E+00
         0.00000E+00
         0.00000E+00
         0.00000E+00
         0.00000E+00
         0.00000E+00
         0.00000E+00
         0.00000E+00
         0.00000E+00
         0.00000E+00
         0.00000E+00
         0.00000E+00
         0.00000E+00
         0.00000E+00
         0.00000E+00
         0.00000E+00
         0.00000E+00
         0.00000E+00
         0.00000E+00
         0.00000E+00
         0.00000E+00
         0.00000E+00
         0.00000E+00
         0.00000E+00
         0.00000E+00
         0.00000E+00
         0.00000E+00
         0.00000E+00
         0.00000E+00
         0.00000E+00
         0.00000E+00
         0.00000E+00
         0.00000E+00
         0.00000E+00
         0.00000E+00
         0.00000E+00
         0.00000E+00
         0.00000E+00
         0.00000E+00
         0.00000E+00
         0.00000E+00
         0.00000E+00
         0.00000E+00
         0.00000E+00
         0.00000E+00
         0.00000E+00
         0.00000E+00
         0.00000E+00
         0.00000E+00
         0.00000E+00
         0.00000E+00
         0.00000E+00
         0.00000E+00
         0.00000E+00
         0.00000E+00
         0.00000E+00
         0.00000E+00
         0.00000E+00
         0.00000E+00
         0.00000E+00
         0.00000E+00
         0.00000E+00
         0.00000E+00
         0.00000E+00
         0.00000E+00
         0.00000E+00
         0.00000E+00
         0.00000E+00
         0.00000E+00
         0.00000E+00
         0.00000E+00
         0.00000E+00
         0.00000E+00
         0.00000E+00
         0.00000E+00
         0.00000E+00
         0.00000E+00
         0.00000E+00
         0.00000E+00
         0.00000E+00
         0.00000E+00
         0.00000E+00
         0.00000E+00
         0.00000E+00
         0.00000E+00
         0.00000E+00
         0.00000E+00
         0.00000E+00
         0.00000E+00
         0.00000E+00
         0.00000E+00
         0.00000E+00
         0.00000E+00
         0.00000E+00
         0.00000E+00
         0.00000E+00
         0.00000E+00
         0.00000E+00
         0.00000E+00
         0.00000E+00
         0.00000E+00
         0.00000E+00
         0.00000E+00
         0.00000E+00
         0.00000E+00
         0.00000E+00
         0.00000E+00
         0.00000E+00
         0.00000E+00
         0.00000E+00
         0.00000E+00
         0.00000E+00
         0.00000E+00
         0.00000E+00
         0.00000E+00
         0.00000E+00
         0.00000E+00
         0.00000E+00
         0.00000E+00
         0.00000E+00
         0.00000E+00
         0.00000E+00
         0.00000E+00
         0.00000E+00
         0.00000E+00
         0.00000E+00
         0.00000E+00
         0.00000E+00
         0.00000E+00
         0.00000E+00
         0.00000E+00
         0.00000E+00
         0.00000E+00
         0.00000E+00
         0.00000E+00
         0.00000E+00
         0.00000E+00
         0.00000E+00
         0.00000E+00
         0.00000E+00
         0.00000E+00
         0.00000E+00
         0.00000E+00
         0.00000E+00
         0.00000E+00
         0.00000E+00
         0.00000E+00
         0.00000E+00
         0.00000E+00
         0.00000E+00
         0.00000E+00
         0.00000E+00
         0.00000E+00
         0.00000E+00
         0.00000E+00
         0.00000E+00
         0.00000E+00
         0.00000E+00
         0.00000E+00
         0.00000E+00
         0.00000E+00
         0.00000E+00
         0.00000E+00
         0.00000E+00
         0.00000E+00
         0.00000E+00
         0.00000E+00
         0.00000E+00
         0.00000E+00
         0.00000E+00
         0.00000E+00
         0.00000E+00
         0.00000E+00
         0.00000E+00
         0.00000E+00
         0.00000E+00
         0.00000E+00
         0.00000E+00
         0.00000E+00
         0.00000E+00
         0.00000E+00
         0.00000E+00
         0.00000E+00
         0.00000E+00
         0.00000E+00
         0.00000E+00
         0.00000E+00
         0.00000E+00
         0.00000E+00
         0.00000E+00
         0.00000E+00
         0.00000E+00
         0.00000E+00
         0.00000E+00
         0.00000E+00
         0.00000E+00
         0.00000E+00
         0.00000E+00
         0.00000E+00
         0.00000E+00
         0.00000E+00
         0.00000E+00
         0.00000E+00
         0.00000E+00
         0.00000E+00
         0.00000E+00
         0.00000E+00
         0.00000E+00
         0.00000E+00
         0.00000E+00
         0.00000E+00
         0.00000E+00
         0.00000E+00
         0.00000E+00
         0.00000E+00
         0.00000E+00
         0.00000E+00
         0.00000E+00
         0.00000E+00
         0.00000E+00
         0.00000E+00
         0.00000E+00
         0.00000E+00
         0.00000E+00
         0.00000E+00
         0.00000E+00
         0.00000E+00
         0.00000E+00
         0.00000E+00
         0.00000E+00
         0.00000E+00
         0.00000E+00
         0.00000E+00
         0.00000E+00
         0.00000E+00
         0.00000E+00
         0.00000E+00
         0.00000E+00
         0.00000E+00
         0.00000E+00
         0.00000E+00
         0.00000E+00
         0.00000E+00
         0.00000E+00
         0.00000E+00
         0.00000E+00
         0.00000E+00
         0.00000E+00
         0.00000E+00
         0.00000E+00
         0.00000E+00
         0.00000E+00
         0.00000E+00
         0.00000E+00
         0.00000E+00
         0.00000E+00
         0.00000E+00
         0.00000E+00
         0.00000E+00
         0.00000E+00
         0.00000E+00
         0.00000E+00
         0.00000E+00
         0.00000E+00
         0.00000E+00
         0.00000E+00
         0.00000E+00
         0.00000E+00
         0.00000E+00
         0.00000E+00
         0.00000E+00
         0.00000E+00
         0.00000E+00
         0.00000E+00
         0.00000E+00
         0.00000E+00
         0.00000E+00
         0.00000E+00
         0.00000E+00
         0.00000E+00
         0.00000E+00
         0.00000E+00
         0.00000E+00
         0.00000E+00
         0.00000E+00
         0.00000E+00
         0.00000E+00
         0.00000E+00
         0.00000E+00
         0.00000E+00
         0.00000E+00
         0.00000E+00
         0.00000E+00
         0.00000E+00
         0.00000E+00
         0.00000E+00
         0.00000E+00
         0.00000E+00
         0.00000E+00
         0.00000E+00
         0.00000E+00
         0.00000E+00
         0.00000E+00
         0.00000E+00
         0.00000E+00
         0.00000E+00
         0.00000E+00
         0.00000E+00
         0.00000E+00
         0.00000E+00
         0.00000E+00
         0.00000E+00
         0.00000E+00
         0.00000E+00
         0.00000E+00
         0.00000E+00
         0.00000E+00
         0.00000E+00
         0.00000E+00
         0.00000E+00
         0.00000E+00
         0.00000E+00
         0.00000E+00
         0.00000E+00
         0.00000E+00
         0.00000E+00
         0.00000E+00
         0.00000E+00
         0.00000E+00
         0.00000E+00
         0.00000E+00
         0.00000E+00
         0.00000E+00
         0.00000E+00
         0.00000E+00
         0.00000E+00
         0.00000E+00
         0.00000E+00
         0.00000E+00
         0.00000E+00
         0.00000E+00
         0.00000E+00
         0.00000E+00
         0.00000E+00
         0.00000E+00
         0.00000E+00
         0.00000E+00
         0.00000E+00
         0.00000E+00
         0.00000E+00
         0.00000E+00
         0.00000E+00
         0.00000E+00
         0.00000E+00
         0.00000E+00
         0.00000E+00
         0.00000E+00
         0.00000E+00
         0.00000E+00
         0.00000E+00
         0.00000E+00
         0.00000E+00
         0.00000E+00
         0.00000E+00
         0.00000E+00
         0.00000E+00
         0.00000E+00
         0.00000E+00
         0.00000E+00
         0.00000E+00
         0.00000E+00
         0.00000E+00
         0.00000E+00
         0.00000E+00
         0.00000E+00
         0.00000E+00
         0.00000E+00
         0.00000E+00
         0.00000E+00
         0.00000E+00
         0.00000E+00
         0.00000E+00
         0.00000E+00
         0.00000E+00
         0.00000E+00
         0.00000E+00
         0.00000E+00
         0.00000E+00
         0.00000E+00
         0.00000E+00
         0.00000E+00
         0.00000E+00
         0.00000E+00
         0.00000E+00
         0.00000E+00
         0.00000E+00
         0.00000E+00
         0.00000E+00
         0.00000E+00
         0.00000E+00
         0.00000E+00
         0.00000E+00
         0.00000E+00
         0.00000E+00
         0.00000E+00
         0.00000E+00
         0.00000E+00
         0.00000E+00
         0.00000E+00
         0.00000E+00
         0.00000E+00
         0.00000E+00
         0.00000E+00
         0.00000E+00
         0.00000E+00
         0.00000E+00
         0.00000E+00
         0.00000E+00
         0.00000E+00
         0.00000E+00
         0.00000E+00
         0.00000E+00
         0.00000E+00
         0.00000E+00
         0.00000E+00
         0.00000E+00
         0.00000E+00
         0.00000E+00
         0.00000E+00
         0.00000E+00
         0.00000E+00
         0.00000E+00
         0.00000E+00
         0.00000E+00
         0.00000E+00
         0.00000E+00
         0.00000E+00
         0.00000E+00
         0.00000E+00
         0.00000E+00
         0.00000E+00
         0.00000E+00
         0.00000E+00
         0.00000E+00
         0.00000E+00
         0.00000E+00
         0.00000E+00
         0.00000E+00
         0.00000E+00
         0.00000E+00
         0.00000E+00
         0.00000E+00
         0.00000E+00
         0.00000E+00
         0.00000E+00
         0.00000E+00
         0.00000E+00
         0.00000E+00
         0.00000E+00
         0.00000E+00
         0.00000E+00
         0.00000E+00
         0.00000E+00
         0.00000E+00
         0.00000E+00
         0.00000E+00
         0.00000E+00
         0.00000E+00
         0.00000E+00
         0.00000E+00
         0.00000E+00
         0.00000E+00
         0.00000E+00
         0.00000E+00
         0.00000E+00
         0.00000E+00
         0.00000E+00
         0.00000E+00
         0.00000E+00
         0.00000E+00
         0.00000E+00
         0.00000E+00
         0.00000E+00
         0.00000E+00
         0.00000E+00
         0.00000E+00
         0.00000E+00
         0.00000E+00
         0.00000E+00
         0.00000E+00
         0.00000E+00
         0.00000E+00
         0.00000E+00
         0.00000E+00
         0.00000E+00
         0.00000E+00
         0.00000E+00
         0.00000E+00
         0.00000E+00
         0.00000E+00
         0.00000E+00
         0.00000E+00
         0.00000E+00
         0.00000E+00
         0.00000E+00
         0.00000E+00
         0.00000E+00
         0.00000E+00
         0.00000E+00
         0.00000E+00
         0.00000E+00
         0.00000E+00
         0.00000E+00
         0.00000E+00
         0.00000E+00
         0.00000E+00
         0.00000E+00
         0.00000E+00
         0.00000E+00
         0.00000E+00
         0.00000E+00
         0.00000E+00
         0.00000E+00
         0.00000E+00
         0.00000E+00
         0.00000E+00
         0.00000E+00
         0.00000E+00
         0.00000E+00
         0.00000E+00
         0.00000E+00
         0.00000E+00
         0.00000E+00
         0.00000E+00
         0.00000E+00
         0.00000E+00
         0.00000E+00
         0.00000E+00
         0.00000E+00
         0.00000E+00
         0.00000E+00
         0.00000E+00
         0.00000E+00
         0.00000E+00
         0.00000E+00
         0.00000E+00
         0.00000E+00
         0.00000E+00
         0.00000E+00
         0.00000E+00
         0.00000E+00
         0.00000E+00
         0.00000E+00
         0.00000E+00
         0.00000E+00
         0.00000E+00
         0.00000E+00
         0.00000E+00
         0.00000E+00
         0.00000E+00
         0.00000E+00
         0.00000E+00
         0.00000E+00
         0.00000E+00
         0.00000E+00
         0.00000E+00
         0.00000E+00
         0.00000E+00
         0.00000E+00
         0.00000E+00
         0.00000E+00
         0.00000E+00
         0.00000E+00
         0.00000E+00
         0.00000E+00
         0.00000E+00
         0.00000E+00
         0.00000E+00
         0.00000E+00
         0.00000E+00
         0.00000E+00
         0.00000E+00
         0.00000E+00
         0.00000E+00
         0.00000E+00
         0.00000E+00
         0.00000E+00
         0.00000E+00
         0.00000E+00
         0.00000E+00
         0.00000E+00
         0.00000E+00
         0.00000E+00
         0.00000E+00
         0.00000E+00
         0.00000E+00
         0.00000E+00
         0.00000E+00
         0.00000E+00
         0.00000E+00
         0.00000E+00
         0.00000E+00
         0.00000E+00
         0.00000E+00
         0.00000E+00
         0.00000E+00
         0.00000E+00
         0.00000E+00
         0.00000E+00
         0.00000E+00
         0.00000E+00
         0.00000E+00
         0.00000E+00
         0.00000E+00
         0.00000E+00
         0.00000E+00
         0.00000E+00
         0.00000E+00
         0.00000E+00
         0.00000E+00
         0.00000E+00
         0.00000E+00
         0.00000E+00
         0.00000E+00
         0.00000E+00
         0.00000E+00
         0.00000E+00
         0.00000E+00
         0.00000E+00
         0.00000E+00
         0.00000E+00
         0.00000E+00
         0.00000E+00
         0.00000E+00
         0.00000E+00
         0.00000E+00
         0.00000E+00
         0.00000E+00
         0.00000E+00
         0.00000E+00
         0.00000E+00
         0.00000E+00
         0.00000E+00
         0.00000E+00
         0.00000E+00
         0.00000E+00
         0.00000E+00
         0.00000E+00
         0.00000E+00
         0.00000E+00
         0.00000E+00
         0.00000E+00
         0.00000E+00
         0.00000E+00
         0.00000E+00
         0.00000E+00
         0.00000E+00
         0.00000E+00
         0.00000E+00
         0.00000E+00
         0.00000E+00
         0.00000E+00
         0.00000E+00
         0.00000E+00
         0.00000E+00
         0.00000E+00
         0.00000E+00
         0.00000E+00
         0.00000E+00
         0.00000E+00
         0.00000E+00
         0.00000E+00
         0.00000E+00
         0.00000E+00
         0.00000E+00
         0.00000E+00
         0.00000E+00
         0.00000E+00
         0.00000E+00
         0.00000E+00
         0.00000E+00
         0.00000E+00
         0.00000E+00
         0.00000E+00
         0.00000E+00
         0.00000E+00
         0.00000E+00
         0.00000E+00
         0.00000E+00
         0.00000E+00
         0.00000E+00
         0.00000E+00
         0.00000E+00
         0.00000E+00
         0.00000E+00
         0.00000E+00
         0.00000E+00
         0.00000E+00
         0.00000E+00
         0.00000E+00
         0.00000E+00
         0.00000E+00
         0.00000E+00
         0.00000E+00
         0.00000E+00
         0.00000E+00
         0.00000E+00
         0.00000E+00
         0.00000E+00
         0.00000E+00
         0.00000E+00
         0.00000E+00
         0.00000E+00
         0.00000E+00
         0.00000E+00
         0.00000E+00
         0.00000E+00
         0.00000E+00
         0.00000E+00
         0.00000E+00
         0.00000E+00
         0.00000E+00
         0.00000E+00
         0.00000E+00
         0.00000E+00
         0.00000E+00
         0.00000E+00
         0.00000E+00
         0.00000E+00
         0.00000E+00
         0.00000E+00
         0.00000E+00
         0.00000E+00
         0.00000E+00
         0.00000E+00
         0.00000E+00
         0.00000E+00
         0.00000E+00
         0.00000E+00
         0.00000E+00
         0.00000E+00
         0.00000E+00
         0.00000E+00
         0.00000E+00
         0.00000E+00
         0.00000E+00
         0.00000E+00
         0.00000E+00
         0.00000E+00
         0.00000E+00
         0.00000E+00
         0.00000E+00
         0.00000E+00
         0.00000E+00
         0.00000E+00
         0.00000E+00
         0.00000E+00
         0.00000E+00
         0.00000E+00
         0.00000E+00
         0.00000E+00
         0.00000E+00
         0.00000E+00
         0.00000E+00
         0.00000E+00
         0.00000E+00
         0.00000E+00
         0.00000E+00
         0.00000E+00
         0.00000E+00
         0.00000E+00
         0.00000E+00
         0.00000E+00
         0.00000E+00
         0.00000E+00
         0.00000E+00
         0.00000E+00
         0.00000E+00
         0.00000E+00
         0.00000E+00
         0.00000E+00
         0.00000E+00
         0.00000E+00
         0.00000E+00
         0.00000E+00
         0.00000E+00
         0.00000E+00
         0.00000E+00
         0.00000E+00
         0.00000E+00
         0.00000E+00
         0.00000E+00
         0.00000E+00
         0.00000E+00
         0.00000E+00
         0.00000E+00
         0.00000E+00
         0.00000E+00
         0.00000E+00
         0.00000E+00
         0.00000E+00
         0.00000E+00
         0.00000E+00
         0.00000E+00
         0.00000E+00
         0.00000E+00
         0.00000E+00
         0.00000E+00
         0.00000E+00
         0.00000E+00
         0.00000E+00
         0.00000E+00
         0.00000E+00
         0.00000E+00
         0.00000E+00
         0.00000E+00
         0.00000E+00
         0.00000E+00
         0.00000E+00
         0.00000E+00
         0.00000E+00
         0.00000E+00
         0.00000E+00
         0.00000E+00
         0.00000E+00
         0.00000E+00
         0.00000E+00
         0.00000E+00
         0.00000E+00
         0.00000E+00
         0.00000E+00
         0.00000E+00
         0.00000E+00
         0.00000E+00
         0.00000E+00
         0.00000E+00
         0.00000E+00
         0.00000E+00
         0.00000E+00
         0.00000E+00
         0.00000E+00
         0.00000E+00
         0.00000E+00
         0.00000E+00
         0.00000E+00
         0.00000E+00
         0.00000E+00
         0.00000E+00
         0.00000E+00
         0.00000E+00
         0.00000E+00
         0.00000E+00
         0.00000E+00
         0.00000E+00
         0.00000E+00
         0.00000E+00
         0.00000E+00
         0.00000E+00
         0.00000E+00
         0.00000E+00
         0.00000E+00
         0.00000E+00
         0.00000E+00
         0.00000E+00
         0.00000E+00
         0.00000E+00
         0.00000E+00
         0.00000E+00
         0.00000E+00
         0.00000E+00
         0.00000E+00
         0.00000E+00
         0.00000E+00
         0.00000E+00
         0.00000E+00
         0.00000E+00
         0.00000E+00
         0.00000E+00
         0.00000E+00
         0.00000E+00
         0.00000E+00
         0.00000E+00
         0.00000E+00
         0.00000E+00
         0.00000E+00
         0.00000E+00
         0.00000E+00
         0.00000E+00
         0.00000E+00
         0.00000E+00
         0.00000E+00
         0.00000E+00
         0.00000E+00
         0.00000E+00
         0.00000E+00
         0.00000E+00
         0.00000E+00
         0.00000E+00
         0.00000E+00
         0.00000E+00
         0.00000E+00
         0.00000E+00
         0.00000E+00
         0.00000E+00
         0.00000E+00
         0.00000E+00
         0.00000E+00
         0.00000E+00
         0.00000E+00
         0.00000E+00
         0.00000E+00
         0.00000E+00
         0.00000E+00
         0.00000E+00
         0.00000E+00
         0.00000E+00
         0.00000E+00
         0.00000E+00
         0.00000E+00
         0.00000E+00
         0.00000E+00
         0.00000E+00
         0.00000E+00
         0.00000E+00
         0.00000E+00
         0.00000E+00
         0.00000E+00
         0.00000E+00
         0.00000E+00
         0.00000E+00
         0.00000E+00
         0.00000E+00
         0.00000E+00
         0.00000E+00
         0.00000E+00
         0.00000E+00
         0.00000E+00
         0.00000E+00
         0.00000E+00
         0.00000E+00
         0.00000E+00
         0.00000E+00
         0.00000E+00
         0.00000E+00
         0.00000E+00
         0.00000E+00
         0.00000E+00
         0.00000E+00
         0.00000E+00
         0.00000E+00
         0.00000E+00
         0.00000E+00
         0.00000E+00
         0.00000E+00
         0.00000E+00
         0.00000E+00
         0.00000E+00
         0.00000E+00
         0.00000E+00
         0.00000E+00
         0.00000E+00
         0.00000E+00
         0.00000E+00
         0.00000E+00
         0.00000E+00
         0.00000E+00
         0.00000E+00
         0.00000E+00
         0.00000E+00
         0.00000E+00
         0.00000E+00
         0.00000E+00
         0.00000E+00
         0.00000E+00
         0.00000E+00
         0.00000E+00
         0.00000E+00
         0.00000E+00
         0.00000E+00
         0.00000E+00
         0.00000E+00
         0.00000E+00
         0.00000E+00
         0.00000E+00
         0.00000E+00
         0.00000E+00
         0.00000E+00
         0.00000E+00
         0.00000E+00
         0.00000E+00
         0.00000E+00
         0.00000E+00
         0.00000E+00
         0.00000E+00
         0.00000E+00
         0.00000E+00
         0.00000E+00
         0.00000E+00
         0.00000E+00
         0.00000E+00
         0.00000E+00
         0.00000E+00
         0.00000E+00
         0.00000E+00
         0.00000E+00
         0.00000E+00
         0.00000E+00
         0.00000E+00
         0.00000E+00
         0.00000E+00
         0.00000E+00
         0.00000E+00
         0.00000E+00
         0.00000E+00
         0.00000E+00
         0.00000E+00
         0.00000E+00
         0.00000E+00
         0.00000E+00
         0.00000E+00
         0.00000E+00
         0.00000E+00
         0.00000E+00
         0.00000E+00
         0.00000E+00
         0.00000E+00
         0.00000E+00
         0.00000E+00
         0.00000E+00
         0.00000E+00
         0.00000E+00
         0.00000E+00
         0.00000E+00
         0.00000E+00
         0.00000E+00
         0.00000E+00
         0.00000E+00
         0.00000E+00
         0.00000E+00
         0.00000E+00
         0.00000E+00
         0.00000E+00
         0.00000E+00
         0.00000E+00
         0.00000E+00
         0.00000E+00
         0.00000E+00
         0.00000E+00
         0.00000E+00
         0.00000E+00
         0.00000E+00
         0.00000E+00
         0.00000E+00
         0.00000E+00
         0.00000E+00
         0.00000E+00
         0.00000E+00
         0.00000E+00
         0.00000E+00
         0.00000E+00
         0.00000E+00
         0.00000E+00
         0.00000E+00
         0.00000E+00
         0.00000E+00
         0.00000E+00
         0.00000E+00
         0.00000E+00
         0.00000E+00
         0.00000E+00
         0.00000E+00
         0.00000E+00
         0.00000E+00
         0.00000E+00
         0.00000E+00
         0.00000E+00
         0.00000E+00
         0.00000E+00
         0.00000E+00
         0.00000E+00
         0.00000E+00
         0.00000E+00
         0.00000E+00
         0.00000E+00
         0.00000E+00
         0.00000E+00
         0.00000E+00
         0.00000E+00
         0.00000E+00
         0.00000E+00
         0.00000E+00
         0.00000E+00
         0.00000E+00
         0.00000E+00
         0.00000E+00
         0.00000E+00
         0.00000E+00
         0.00000E+00
         0.00000E+00
         0.00000E+00
         0.00000E+00
         0.00000E+00
         0.00000E+00
         0.00000E+00
         0.00000E+00
         0.00000E+00
         0.00000E+00
         0.00000E+00
         0.00000E+00
         0.00000E+00
         0.00000E+00
         0.00000E+00
         0.00000E+00
         0.00000E+00
         0.00000E+00
         0.00000E+00
         0.00000E+00
         0.00000E+00
         0.00000E+00
         0.00000E+00
         0.00000E+00
         0.00000E+00
         0.00000E+00
         0.00000E+00
         0.00000E+00
         0.00000E+00
         0.00000E+00
         0.00000E+00
         0.00000E+00
         0.00000E+00
         0.00000E+00
         0.00000E+00
         0.00000E+00
         0.00000E+00
         0.00000E+00
         0.00000E+00
         0.00000E+00
         0.00000E+00
         0.00000E+00
         0.00000E+00
         0.00000E+00
         0.00000E+00
         0.00000E+00
         0.00000E+00
         0.00000E+00
         0.00000E+00
         0.00000E+00
         0.00000E+00
         0.00000E+00
         0.00000E+00
         0.00000E+00
         0.00000E+00
         0.00000E+00
         0.00000E+00
         0.00000E+00
         0.00000E+00
         0.00000E+00
         0.00000E+00
         0.00000E+00
         0.00000E+00
         0.00000E+00
         0.00000E+00
         0.00000E+00
         0.00000E+00
         0.00000E+00
         0.00000E+00
         0.00000E+00
         0.00000E+00
         0.00000E+00
         0.00000E+00
         0.00000E+00
         0.00000E+00
         0.00000E+00
         0.00000E+00
         0.00000E+00
         0.00000E+00
         0.00000E+00
         0.00000E+00
         0.00000E+00
         0.00000E+00
         0.00000E+00
         0.00000E+00
         0.00000E+00
         0.00000E+00
         0.00000E+00
         0.00000E+00
         0.00000E+00
         0.00000E+00
         0.00000E+00
         0.00000E+00
         0.00000E+00
         0.00000E+00
         0.00000E+00
         0.00000E+00
         0.00000E+00
         0.00000E+00
         0.00000E+00
         0.00000E+00
         0.00000E+00
         0.00000E+00
         0.00000E+00
         0.00000E+00
         0.00000E+00
         0.00000E+00
         0.00000E+00
         0.00000E+00
         0.00000E+00
         0.00000E+00
         0.00000E+00
         0.00000E+00
         0.00000E+00
         0.00000E+00
         0.00000E+00
         0.00000E+00
         0.00000E+00
         0.00000E+00
         0.00000E+00
         0.00000E+00
         0.00000E+00
         0.00000E+00
         0.00000E+00
         0.00000E+00
         0.00000E+00
         0.00000E+00
         0.00000E+00
         0.00000E+00
         0.00000E+00
         0.00000E+00
         0.00000E+00
         0.00000E+00
         0.00000E+00
         0.00000E+00
         0.00000E+00
         0.00000E+00
         0.00000E+00
         0.00000E+00
         0.00000E+00
         0.00000E+00
         0.00000E+00
         0.00000E+00
         0.00000E+00
         0.00000E+00
         0.00000E+00
         0.00000E+00
         0.00000E+00
         0.00000E+00
         0.00000E+00
         0.00000E+00
         0.00000E+00
         0.00000E+00
         0.00000E+00
         0.00000E+00
         0.00000E+00
         0.00000E+00
         0.00000E+00
         0.00000E+00
         0.00000E+00
         0.00000E+00
         0.00000E+00
         0.00000E+00
         0.00000E+00
         0.00000E+00
         0.00000E+00
         0.00000E+00
         0.00000E+00
         0.00000E+00
         0.00000E+00
         0.00000E+00
         0.00000E+00
         0.00000E+00
         0.00000E+00
         0.00000E+00
         0.00000E+00
         0.00000E+00
         0.00000E+00
         0.00000E+00
         0.00000E+00
         0.00000E+00
         0.00000E+00
         0.00000E+00
         0.00000E+00
         0.00000E+00
         0.00000E+00
         0.00000E+00
         0.00000E+00
         0.00000E+00
         0.00000E+00
         0.00000E+00
         0.00000E+00
         0.00000E+00
         0.00000E+00
         0.00000E+00
         0.00000E+00
         0.00000E+00
         0.00000E+00
         0.00000E+00
         0.00000E+00
         0.00000E+00
         0.00000E+00
         0.00000E+00
         0.00000E+00
         0.00000E+00
         0.00000E+00
         0.00000E+00
         0.00000E+00
         0.00000E+00
         0.00000E+00
         0.00000E+00
         0.00000E+00
         0.00000E+00
         0.00000E+00
         0.00000E+00
         0.00000E+00
         0.00000E+00
         0.00000E+00
         0.00000E+00
         0.00000E+00
         0.00000E+00
         0.00000E+00
         0.00000E+00
         0.00000E+00
         0.00000E+00
         0.00000E+00
         0.00000E+00
         0.00000E+00
         0.00000E+00
         0.00000E+00
         0.00000E+00
         0.00000E+00
         0.00000E+00
         0.00000E+00
         0.00000E+00
         0.00000E+00
         0.00000E+00
         0.00000E+00
         0.00000E+00
         0.00000E+00
         0.00000E+00
         0.00000E+00
         0.00000E+00
         0.00000E+00
         0.00000E+00
         0.00000E+00
         0.00000E+00
         0.00000E+00
         0.00000E+00
         0.00000E+00
         0.00000E+00
         0.00000E+00
         0.00000E+00
         0.00000E+00
         0.00000E+00
         0.00000E+00
         0.00000E+00
         0.00000E+00
         0.00000E+00
         0.00000E+00
         0.00000E+00
         0.00000E+00
         0.00000E+00
         0.00000E+00
         0.00000E+00
         0.00000E+00
         0.00000E+00
         0.00000E+00
         0.00000E+00
         0.00000E+00
         0.00000E+00
         0.00000E+00
         0.00000E+00
         0.00000E+00
         0.00000E+00
         0.00000E+00
         0.00000E+00
         0.00000E+00
         0.00000E+00
         0.00000E+00
         0.00000E+00
         0.00000E+00
         0.00000E+00
         0.00000E+00
         0.00000E+00
         0.00000E+00
         0.00000E+00
         0.00000E+00
         0.00000E+00
         0.00000E+00
         0.00000E+00
         0.00000E+00
         0.00000E+00
         0.00000E+00
         0.00000E+00
         0.00000E+00
         0.00000E+00
         0.00000E+00
         0.00000E+00
         0.00000E+00
         0.00000E+00
         0.00000E+00
         0.00000E+00
         0.00000E+00
         0.00000E+00
         0.00000E+00
         0.00000E+00
         0.00000E+00
         0.00000E+00
         0.00000E+00
         0.00000E+00
         0.00000E+00
         0.00000E+00
         0.00000E+00
         0.00000E+00
         0.00000E+00
         0.00000E+00
         0.00000E+00
         0.00000E+00
         0.00000E+00
         0.00000E+00
         0.00000E+00
         0.00000E+00
         0.00000E+00
         0.00000E+00
         0.00000E+00
         0.00000E+00
         0.00000E+00
         0.00000E+00
         0.00000E+00
         0.00000E+00
         0.00000E+00
         0.00000E+00
         0.00000E+00
         0.00000E+00
         0.00000E+00
         0.00000E+00
         0.00000E+00
         0.00000E+00
         0.00000E+00
         0.00000E+00
         0.00000E+00
         0.00000E+00
         0.00000E+00
         0.00000E+00
         0.00000E+00
         0.00000E+00
         0.00000E+00
         0.00000E+00
         0.00000E+00
         0.00000E+00
         0.00000E+00
         0.00000E+00
         0.00000E+00
         0.00000E+00
         0.00000E+00
         0.00000E+00
         0.00000E+00
         0.00000E+00
         0.00000E+00
         0.00000E+00
         0.00000E+00
         0.00000E+00
         0.00000E+00
         0.00000E+00
         0.00000E+00
         0.00000E+00
         0.00000E+00
         0.00000E+00
         0.00000E+00
         0.00000E+00
  
SCALARS                   max_wave_vel  double 1
LOOKUP_TABLE default
         0.00000E+00
         0.00000E+00
         0.00000E+00
         0.00000E+00
         0.00000E+00
         0.00000E+00
         0.00000E+00
         0.00000E+00
         0.00000E+00
         0.00000E+00
         0.00000E+00
         0.00000E+00
         0.00000E+00
         0.00000E+00
         0.00000E+00
         0.00000E+00
         0.00000E+00
         0.00000E+00
         0.00000E+00
         0.00000E+00
         0.00000E+00
         0.00000E+00
         0.00000E+00
         0.00000E+00
         0.00000E+00
         0.00000E+00
         0.00000E+00
         0.00000E+00
         0.00000E+00
         0.00000E+00
         0.00000E+00
         0.00000E+00
         0.00000E+00
         0.00000E+00
         0.00000E+00
         0.00000E+00
         0.00000E+00
         0.00000E+00
         0.00000E+00
         0.00000E+00
         0.00000E+00
         0.00000E+00
         0.00000E+00
         0.00000E+00
         0.00000E+00
         0.00000E+00
         0.00000E+00
         0.00000E+00
         0.00000E+00
         0.00000E+00
         0.00000E+00
         0.00000E+00
         0.00000E+00
         0.00000E+00
         0.00000E+00
         0.00000E+00
         0.00000E+00
         0.00000E+00
         0.00000E+00
         0.00000E+00
         0.00000E+00
         0.00000E+00
         0.00000E+00
         0.00000E+00
         0.00000E+00
         0.00000E+00
         0.00000E+00
         0.00000E+00
         0.00000E+00
         0.00000E+00
         0.00000E+00
         0.00000E+00
         0.00000E+00
         0.00000E+00
         0.00000E+00
         0.00000E+00
         0.00000E+00
         0.00000E+00
         0.00000E+00
         0.00000E+00
         0.00000E+00
         0.00000E+00
         0.00000E+00
         0.00000E+00
         0.00000E+00
         0.00000E+00
         0.00000E+00
         0.00000E+00
         0.00000E+00
         0.00000E+00
         0.00000E+00
         0.00000E+00
         0.00000E+00
         0.00000E+00
         0.00000E+00
         0.00000E+00
         0.00000E+00
         0.00000E+00
         0.00000E+00
         0.00000E+00
         0.00000E+00
         0.00000E+00
         0.00000E+00
         0.00000E+00
         0.00000E+00
         0.00000E+00
         0.00000E+00
         0.00000E+00
         0.00000E+00
         0.00000E+00
         0.00000E+00
         0.00000E+00
         0.00000E+00
         0.00000E+00
         0.00000E+00
         0.00000E+00
         0.00000E+00
         0.00000E+00
         0.00000E+00
         0.00000E+00
         0.00000E+00
         0.00000E+00
         0.00000E+00
         0.00000E+00
         0.00000E+00
         0.00000E+00
         0.00000E+00
         0.00000E+00
         0.00000E+00
         0.00000E+00
         0.00000E+00
         0.00000E+00
         0.00000E+00
         0.00000E+00
         0.00000E+00
         0.00000E+00
         0.00000E+00
         0.00000E+00
         0.00000E+00
         0.00000E+00
         0.00000E+00
         0.00000E+00
         0.00000E+00
         0.00000E+00
         0.00000E+00
         0.00000E+00
         0.00000E+00
         0.00000E+00
         0.00000E+00
         0.00000E+00
         0.00000E+00
         0.00000E+00
         0.00000E+00
         0.00000E+00
         0.00000E+00
         0.00000E+00
         0.00000E+00
         0.00000E+00
         0.00000E+00
         0.00000E+00
         0.00000E+00
         0.00000E+00
         0.00000E+00
         0.00000E+00
         0.00000E+00
         0.00000E+00
         0.00000E+00
         0.00000E+00
         0.00000E+00
         0.00000E+00
         0.00000E+00
         0.00000E+00
         0.00000E+00
         0.00000E+00
         0.00000E+00
         0.00000E+00
         0.00000E+00
         0.00000E+00
         0.00000E+00
         0.00000E+00
         0.00000E+00
         0.00000E+00
         0.00000E+00
         0.00000E+00
         0.00000E+00
         0.00000E+00
         0.00000E+00
         0.00000E+00
         0.00000E+00
         0.00000E+00
         0.00000E+00
         0.00000E+00
         0.00000E+00
         0.00000E+00
         0.00000E+00
         0.00000E+00
         0.00000E+00
         0.00000E+00
         0.00000E+00
         0.00000E+00
         0.00000E+00
         0.00000E+00
         0.00000E+00
         0.00000E+00
         0.00000E+00
         0.00000E+00
         0.00000E+00
         0.00000E+00
         0.00000E+00
         0.00000E+00
         0.00000E+00
         0.00000E+00
         0.00000E+00
         0.00000E+00
         0.00000E+00
         0.00000E+00
         0.00000E+00
         0.00000E+00
         0.00000E+00
         0.00000E+00
         0.00000E+00
         0.00000E+00
         0.00000E+00
         0.00000E+00
         0.00000E+00
         0.00000E+00
         0.00000E+00
         0.00000E+00
         0.00000E+00
         0.00000E+00
         0.00000E+00
         0.00000E+00
         0.00000E+00
         0.00000E+00
         0.00000E+00
         0.00000E+00
         0.00000E+00
         0.00000E+00
         0.00000E+00
         0.00000E+00
         0.00000E+00
         0.00000E+00
         0.00000E+00
         0.00000E+00
         0.00000E+00
         0.00000E+00
         0.00000E+00
         0.00000E+00
         0.00000E+00
         0.00000E+00
         0.00000E+00
         0.00000E+00
         0.00000E+00
         0.00000E+00
         0.00000E+00
         0.00000E+00
         0.00000E+00
         0.00000E+00
         0.00000E+00
         0.00000E+00
         0.00000E+00
         0.00000E+00
         0.00000E+00
         0.00000E+00
         0.00000E+00
         0.00000E+00
         0.00000E+00
         0.00000E+00
         0.00000E+00
         0.00000E+00
         0.00000E+00
         0.00000E+00
         0.00000E+00
         0.00000E+00
         0.00000E+00
         0.00000E+00
         0.00000E+00
         0.00000E+00
         0.00000E+00
         0.00000E+00
         0.00000E+00
         0.00000E+00
         0.00000E+00
         0.00000E+00
         0.00000E+00
         0.00000E+00
         0.00000E+00
         0.00000E+00
         0.00000E+00
         0.00000E+00
         0.00000E+00
         0.00000E+00
         0.00000E+00
         0.00000E+00
         0.00000E+00
         0.00000E+00
         0.00000E+00
         0.00000E+00
         0.00000E+00
         0.00000E+00
         0.00000E+00
         0.00000E+00
         0.00000E+00
         0.00000E+00
         0.00000E+00
         0.00000E+00
         0.00000E+00
         0.00000E+00
         0.00000E+00
         0.00000E+00
         0.00000E+00
         0.00000E+00
         0.00000E+00
         0.00000E+00
         0.00000E+00
         0.00000E+00
         0.00000E+00
         0.00000E+00
         0.00000E+00
         0.00000E+00
         0.00000E+00
         0.00000E+00
         0.00000E+00
         0.00000E+00
         0.00000E+00
         0.00000E+00
         0.00000E+00
         0.00000E+00
         0.00000E+00
         0.00000E+00
         0.00000E+00
         0.00000E+00
         0.00000E+00
         0.00000E+00
         0.00000E+00
         0.00000E+00
         0.00000E+00
         0.00000E+00
         0.00000E+00
         0.00000E+00
         0.00000E+00
         0.00000E+00
         0.00000E+00
         0.00000E+00
         0.00000E+00
         0.00000E+00
         0.00000E+00
         0.00000E+00
         0.00000E+00
         0.00000E+00
         0.00000E+00
         0.00000E+00
         0.00000E+00
         0.00000E+00
         0.00000E+00
         0.00000E+00
         0.00000E+00
         0.00000E+00
         0.00000E+00
         0.00000E+00
         0.00000E+00
         0.00000E+00
         0.00000E+00
         0.00000E+00
         0.00000E+00
         0.00000E+00
         0.00000E+00
         0.00000E+00
         0.00000E+00
         0.00000E+00
         0.00000E+00
         0.00000E+00
         0.00000E+00
         0.00000E+00
         0.00000E+00
         0.00000E+00
         0.00000E+00
         0.00000E+00
         0.00000E+00
         0.00000E+00
         0.00000E+00
         0.00000E+00
         0.00000E+00
         0.00000E+00
         0.00000E+00
         0.00000E+00
         0.00000E+00
         0.00000E+00
         0.00000E+00
         0.00000E+00
         0.00000E+00
         0.00000E+00
         0.00000E+00
         0.00000E+00
         0.00000E+00
         0.00000E+00
         0.00000E+00
         0.00000E+00
         0.00000E+00
         0.00000E+00
         0.00000E+00
         0.00000E+00
         0.00000E+00
         0.00000E+00
         0.00000E+00
         0.00000E+00
         0.00000E+00
         0.00000E+00
         0.00000E+00
         0.00000E+00
         0.00000E+00
         0.00000E+00
         0.00000E+00
         0.00000E+00
         0.00000E+00
         0.00000E+00
         0.00000E+00
         0.00000E+00
         0.00000E+00
         0.00000E+00
         0.00000E+00
         0.00000E+00
         0.00000E+00
         0.00000E+00
         0.00000E+00
         0.00000E+00
         0.00000E+00
         0.00000E+00
         0.00000E+00
         0.00000E+00
         0.00000E+00
         0.00000E+00
         0.00000E+00
         0.00000E+00
         0.00000E+00
         0.00000E+00
         0.00000E+00
         0.00000E+00
         0.00000E+00
         0.00000E+00
         0.00000E+00
         0.00000E+00
         0.00000E+00
         0.00000E+00
         0.00000E+00
         0.00000E+00
         0.00000E+00
         0.00000E+00
         0.00000E+00
         0.00000E+00
         0.00000E+00
         0.00000E+00
         0.00000E+00
         0.00000E+00
         0.00000E+00
         0.00000E+00
         0.00000E+00
         0.00000E+00
         0.00000E+00
         0.00000E+00
         0.00000E+00
         0.00000E+00
         0.00000E+00
         0.00000E+00
         0.00000E+00
         0.00000E+00
         0.00000E+00
         0.00000E+00
         0.00000E+00
         0.00000E+00
         0.00000E+00
         0.00000E+00
         0.00000E+00
         0.00000E+00
         0.00000E+00
         0.00000E+00
         0.00000E+00
         0.00000E+00
         0.00000E+00
         0.00000E+00
         0.00000E+00
         0.00000E+00
         0.00000E+00
         0.00000E+00
         0.00000E+00
         0.00000E+00
         0.00000E+00
         0.00000E+00
         0.00000E+00
         0.00000E+00
         0.00000E+00
         0.00000E+00
         0.00000E+00
         0.00000E+00
         0.00000E+00
         0.00000E+00
         0.00000E+00
         0.00000E+00
         0.00000E+00
         0.00000E+00
         0.00000E+00
         0.00000E+00
         0.00000E+00
         0.00000E+00
         0.00000E+00
         0.00000E+00
         0.00000E+00
         0.00000E+00
         0.00000E+00
         0.00000E+00
         0.00000E+00
         0.00000E+00
         0.00000E+00
         0.00000E+00
         0.00000E+00
         0.00000E+00
         0.00000E+00
         0.00000E+00
         0.00000E+00
         0.00000E+00
         0.00000E+00
         0.00000E+00
         0.00000E+00
         0.00000E+00
         0.00000E+00
         0.00000E+00
         0.00000E+00
         0.00000E+00
         0.00000E+00
         0.00000E+00
         0.00000E+00
         0.00000E+00
         0.00000E+00
         0.00000E+00
         0.00000E+00
         0.00000E+00
         0.00000E+00
         0.00000E+00
         0.00000E+00
         0.00000E+00
         0.00000E+00
         0.00000E+00
         0.00000E+00
         0.00000E+00
         0.00000E+00
         0.00000E+00
         0.00000E+00
         0.00000E+00
         0.00000E+00
         0.00000E+00
         0.00000E+00
         0.00000E+00
         0.00000E+00
         0.00000E+00
         0.00000E+00
         0.00000E+00
         0.00000E+00
         0.00000E+00
         0.00000E+00
         0.00000E+00
         0.00000E+00
         0.00000E+00
         0.00000E+00
         0.00000E+00
         0.00000E+00
         0.00000E+00
         0.00000E+00
         0.00000E+00
         0.00000E+00
         0.00000E+00
         0.00000E+00
         0.00000E+00
         0.00000E+00
         0.00000E+00
         0.00000E+00
         0.00000E+00
         0.00000E+00
         0.00000E+00
         0.00000E+00
         0.00000E+00
         0.00000E+00
         0.00000E+00
         0.00000E+00
         0.00000E+00
         0.00000E+00
         0.00000E+00
         0.00000E+00
         0.00000E+00
         0.00000E+00
         0.00000E+00
         0.00000E+00
         0.00000E+00
         0.00000E+00
         0.00000E+00
         0.00000E+00
         0.00000E+00
         0.00000E+00
         0.00000E+00
         0.00000E+00
         0.00000E+00
         0.00000E+00
         0.00000E+00
         0.00000E+00
         0.00000E+00
         0.00000E+00
         0.00000E+00
         0.00000E+00
         0.00000E+00
         0.00000E+00
         0.00000E+00
         0.00000E+00
         0.00000E+00
         0.00000E+00
         0.00000E+00
         0.00000E+00
         0.00000E+00
         0.00000E+00
         0.00000E+00
         0.00000E+00
         0.00000E+00
         0.00000E+00
         0.00000E+00
         0.00000E+00
         0.00000E+00
         0.00000E+00
         0.00000E+00
         0.00000E+00
         0.00000E+00
         0.00000E+00
         0.00000E+00
         0.00000E+00
         0.00000E+00
         0.00000E+00
         0.00000E+00
         0.00000E+00
         0.00000E+00
         0.00000E+00
         0.00000E+00
         0.00000E+00
         0.00000E+00
         0.00000E+00
         0.00000E+00
         0.00000E+00
         0.00000E+00
         0.00000E+00
         0.00000E+00
         0.00000E+00
         0.00000E+00
         0.00000E+00
         0.00000E+00
         0.00000E+00
         0.00000E+00
         0.00000E+00
         0.00000E+00
         0.00000E+00
         0.00000E+00
         0.00000E+00
         0.00000E+00
         0.00000E+00
         0.00000E+00
         0.00000E+00
         0.00000E+00
         0.00000E+00
         0.00000E+00
         0.00000E+00
         0.00000E+00
         0.00000E+00
         0.00000E+00
         0.00000E+00
         0.00000E+00
         0.00000E+00
         0.00000E+00
         0.00000E+00
         0.00000E+00
         0.00000E+00
         0.00000E+00
         0.00000E+00
         0.00000E+00
         0.00000E+00
         0.00000E+00
         0.00000E+00
         0.00000E+00
         0.00000E+00
         0.00000E+00
         0.00000E+00
         0.00000E+00
         0.00000E+00
         0.00000E+00
         0.00000E+00
         0.00000E+00
         0.00000E+00
         0.00000E+00
         0.00000E+00
         0.00000E+00
         0.00000E+00
         0.00000E+00
         0.00000E+00
         0.00000E+00
         0.00000E+00
         0.00000E+00
         0.00000E+00
         0.00000E+00
         0.00000E+00
         0.00000E+00
         0.00000E+00
         0.00000E+00
         0.00000E+00
         0.00000E+00
         0.00000E+00
         0.00000E+00
         0.00000E+00
         0.00000E+00
         0.00000E+00
         0.00000E+00
         0.00000E+00
         0.00000E+00
         0.00000E+00
         0.00000E+00
         0.00000E+00
         0.00000E+00
         0.00000E+00
         0.00000E+00
         0.00000E+00
         0.00000E+00
         0.00000E+00
         0.00000E+00
         0.00000E+00
         0.00000E+00
         0.00000E+00
         0.00000E+00
         0.00000E+00
         0.00000E+00
         0.00000E+00
         0.00000E+00
         0.00000E+00
         0.00000E+00
         0.00000E+00
         0.00000E+00
         0.00000E+00
         0.00000E+00
         0.00000E+00
         0.00000E+00
         0.00000E+00
         0.00000E+00
         0.00000E+00
         0.00000E+00
         0.00000E+00
         0.00000E+00
         0.00000E+00
         0.00000E+00
         0.00000E+00
         0.00000E+00
         0.00000E+00
         0.00000E+00
         0.00000E+00
         0.00000E+00
         0.00000E+00
         0.00000E+00
         0.00000E+00
         0.00000E+00
         0.00000E+00
         0.00000E+00
         0.00000E+00
         0.00000E+00
         0.00000E+00
         0.00000E+00
         0.00000E+00
         0.00000E+00
         0.00000E+00
         0.00000E+00
         0.00000E+00
         0.00000E+00
         0.00000E+00
         0.00000E+00
         0.00000E+00
         0.00000E+00
         0.00000E+00
         0.00000E+00
         0.00000E+00
         0.00000E+00
         0.00000E+00
         0.00000E+00
         0.00000E+00
         0.00000E+00
         0.00000E+00
         0.00000E+00
         0.00000E+00
         0.00000E+00
         0.00000E+00
         0.00000E+00
         0.00000E+00
         0.00000E+00
         0.00000E+00
         0.00000E+00
         0.00000E+00
         0.00000E+00
         0.00000E+00
         0.00000E+00
         0.00000E+00
         0.00000E+00
         0.00000E+00
         0.00000E+00
         0.00000E+00
         0.00000E+00
         0.00000E+00
         0.00000E+00
         0.00000E+00
         0.00000E+00
         0.00000E+00
         0.00000E+00
         0.00000E+00
         0.00000E+00
         0.00000E+00
         0.00000E+00
         0.00000E+00
         0.00000E+00
         0.00000E+00
         0.00000E+00
         0.00000E+00
         0.00000E+00
         0.00000E+00
         0.00000E+00
         0.00000E+00
         0.00000E+00
         0.00000E+00
         0.00000E+00
         0.00000E+00
         0.00000E+00
         0.00000E+00
         0.00000E+00
         0.00000E+00
         0.00000E+00
         0.00000E+00
         0.00000E+00
         0.00000E+00
         0.00000E+00
         0.00000E+00
         0.00000E+00
         0.00000E+00
         0.00000E+00
         0.00000E+00
         0.00000E+00
         0.00000E+00
         0.00000E+00
         0.00000E+00
         0.00000E+00
         0.00000E+00
         0.00000E+00
         0.00000E+00
         0.00000E+00
         0.00000E+00
         0.00000E+00
         0.00000E+00
         0.00000E+00
         0.00000E+00
         0.00000E+00
         0.00000E+00
         0.00000E+00
         0.00000E+00
         0.00000E+00
         0.00000E+00
         0.00000E+00
         0.00000E+00
         0.00000E+00
         0.00000E+00
         0.00000E+00
         0.00000E+00
         0.00000E+00
         0.00000E+00
         0.00000E+00
         0.00000E+00
         0.00000E+00
         0.00000E+00
         0.00000E+00
         0.00000E+00
         0.00000E+00
         0.00000E+00
         0.00000E+00
         0.00000E+00
         0.00000E+00
         0.00000E+00
         0.00000E+00
         0.00000E+00
         0.00000E+00
         0.00000E+00
         0.00000E+00
         0.00000E+00
         0.00000E+00
         0.00000E+00
         0.00000E+00
         0.00000E+00
         0.00000E+00
         0.00000E+00
         0.00000E+00
         0.00000E+00
         0.00000E+00
         0.00000E+00
         0.00000E+00
         0.00000E+00
         0.00000E+00
         0.00000E+00
         0.00000E+00
         0.00000E+00
         0.00000E+00
         0.00000E+00
         0.00000E+00
         0.00000E+00
         0.00000E+00
         0.00000E+00
         0.00000E+00
         0.00000E+00
         0.00000E+00
         0.00000E+00
         0.00000E+00
         0.00000E+00
         0.00000E+00
         0.00000E+00
         0.00000E+00
         0.00000E+00
         0.00000E+00
         0.00000E+00
         0.00000E+00
         0.00000E+00
         0.00000E+00
         0.00000E+00
         0.00000E+00
         0.00000E+00
         0.00000E+00
         0.00000E+00
         0.00000E+00
         0.00000E+00
         0.00000E+00
         0.00000E+00
         0.00000E+00
         0.00000E+00
         0.00000E+00
         0.00000E+00
         0.00000E+00
         0.00000E+00
         0.00000E+00
         0.00000E+00
         0.00000E+00
         0.00000E+00
         0.00000E+00
         0.00000E+00
         0.00000E+00
         0.00000E+00
         0.00000E+00
         0.00000E+00
         0.00000E+00
         0.00000E+00
         0.00000E+00
         0.00000E+00
         0.00000E+00
         0.00000E+00
         0.00000E+00
         0.00000E+00
         0.00000E+00
         0.00000E+00
         0.00000E+00
         0.00000E+00
         0.00000E+00
         0.00000E+00
         0.00000E+00
         0.00000E+00
         0.00000E+00
         0.00000E+00
         0.00000E+00
         0.00000E+00
         0.00000E+00
         0.00000E+00
         0.00000E+00
         0.00000E+00
         0.00000E+00
         0.00000E+00
         0.00000E+00
         0.00000E+00
         0.00000E+00
         0.00000E+00
         0.00000E+00
         0.00000E+00
         0.00000E+00
         0.00000E+00
         0.00000E+00
         0.00000E+00
         0.00000E+00
         0.00000E+00
         0.00000E+00
         0.00000E+00
         0.00000E+00
         0.00000E+00
         0.00000E+00
         0.00000E+00
         0.00000E+00
         0.00000E+00
         0.00000E+00
         0.00000E+00
         0.00000E+00
         0.00000E+00
         0.00000E+00
         0.00000E+00
         0.00000E+00
         0.00000E+00
         0.00000E+00
         0.00000E+00
         0.00000E+00
         0.00000E+00
         0.00000E+00
         0.00000E+00
         0.00000E+00
         0.00000E+00
         0.00000E+00
         0.00000E+00
         0.00000E+00
         0.00000E+00
         0.00000E+00
         0.00000E+00
         0.00000E+00
         0.00000E+00
         0.00000E+00
         0.00000E+00
         0.00000E+00
         0.00000E+00
         0.00000E+00
         0.00000E+00
         0.00000E+00
         0.00000E+00
         0.00000E+00
         0.00000E+00
         0.00000E+00
         0.00000E+00
         0.00000E+00
         0.00000E+00
         0.00000E+00
         0.00000E+00
         0.00000E+00
         0.00000E+00
         0.00000E+00
         0.00000E+00
         0.00000E+00
         0.00000E+00
         0.00000E+00
         0.00000E+00
         0.00000E+00
         0.00000E+00
         0.00000E+00
         0.00000E+00
         0.00000E+00
         0.00000E+00
         0.00000E+00
         0.00000E+00
         0.00000E+00
         0.00000E+00
         0.00000E+00
         0.00000E+00
         0.00000E+00
         0.00000E+00
         0.00000E+00
         0.00000E+00
         0.00000E+00
         0.00000E+00
         0.00000E+00
         0.00000E+00
         0.00000E+00
         0.00000E+00
         0.00000E+00
         0.00000E+00
         0.00000E+00
         0.00000E+00
         0.00000E+00
         0.00000E+00
         0.00000E+00
         0.00000E+00
         0.00000E+00
         0.00000E+00
         0.00000E+00
         0.00000E+00
         0.00000E+00
         0.00000E+00
         0.00000E+00
         0.00000E+00
         0.00000E+00
         0.00000E+00
         0.00000E+00
         0.00000E+00
         0.00000E+00
         0.00000E+00
         0.00000E+00
         0.00000E+00
         0.00000E+00
         0.00000E+00
         0.00000E+00
         0.00000E+00
         0.00000E+00
         0.00000E+00
         0.00000E+00
         0.00000E+00
         0.00000E+00
         0.00000E+00
         0.00000E+00
         0.00000E+00
         0.00000E+00
         0.00000E+00
         0.00000E+00
         0.00000E+00
         0.00000E+00
         0.00000E+00
         0.00000E+00
         0.00000E+00
         0.00000E+00
         0.00000E+00
         0.00000E+00
         0.00000E+00
         0.00000E+00
         0.00000E+00
         0.00000E+00
         0.00000E+00
         0.00000E+00
         0.00000E+00
         0.00000E+00
         0.00000E+00
         0.00000E+00
         0.00000E+00
         0.00000E+00
         0.00000E+00
         0.00000E+00
         0.00000E+00
         0.00000E+00
         0.00000E+00
         0.00000E+00
         0.00000E+00
         0.00000E+00
         0.00000E+00
         0.00000E+00
         0.00000E+00
         0.00000E+00
         0.00000E+00
         0.00000E+00
         0.00000E+00
         0.00000E+00
         0.00000E+00
         0.00000E+00
         0.00000E+00
         0.00000E+00
         0.00000E+00
         0.00000E+00
         0.00000E+00
         0.00000E+00
         0.00000E+00
         0.00000E+00
         0.00000E+00
         0.00000E+00
         0.00000E+00
         0.00000E+00
         0.00000E+00
         0.00000E+00
         0.00000E+00
         0.00000E+00
         0.00000E+00
         0.00000E+00
         0.00000E+00
         0.00000E+00
         0.00000E+00
         0.00000E+00
         0.00000E+00
         0.00000E+00
         0.00000E+00
         0.00000E+00
         0.00000E+00
         0.00000E+00
         0.00000E+00
         0.00000E+00
         0.00000E+00
         0.00000E+00
         0.00000E+00
         0.00000E+00
         0.00000E+00
         0.00000E+00
         0.00000E+00
         0.00000E+00
         0.00000E+00
         0.00000E+00
         0.00000E+00
         0.00000E+00
         0.00000E+00
         0.00000E+00
         0.00000E+00
         0.00000E+00
         0.00000E+00
         0.00000E+00
         0.00000E+00
         0.00000E+00
         0.00000E+00
         0.00000E+00
         0.00000E+00
         0.00000E+00
         0.00000E+00
         0.00000E+00
         0.00000E+00
         0.00000E+00
         0.00000E+00
         0.00000E+00
         0.00000E+00
         0.00000E+00
         0.00000E+00
         0.00000E+00
         0.00000E+00
         0.00000E+00
         0.00000E+00
         0.00000E+00
         0.00000E+00
         0.00000E+00
         0.00000E+00
         0.00000E+00
         0.00000E+00
         0.00000E+00
         0.00000E+00
         0.00000E+00
         0.00000E+00
         0.00000E+00
         0.00000E+00
         0.00000E+00
         0.00000E+00
         0.00000E+00
         0.00000E+00
         0.00000E+00
         0.00000E+00
         0.00000E+00
         0.00000E+00
         0.00000E+00
         0.00000E+00
         0.00000E+00
         0.00000E+00
         0.00000E+00
         0.00000E+00
         0.00000E+00
         0.00000E+00
         0.00000E+00
         0.00000E+00
         0.00000E+00
         0.00000E+00
         0.00000E+00
         0.00000E+00
         0.00000E+00
         0.00000E+00
         0.00000E+00
         0.00000E+00
         0.00000E+00
         0.00000E+00
         0.00000E+00
         0.00000E+00
         0.00000E+00
         0.00000E+00
         0.00000E+00
         0.00000E+00
         0.00000E+00
         0.00000E+00
         0.00000E+00
         0.00000E+00
         0.00000E+00
         0.00000E+00
         0.00000E+00
         0.00000E+00
         0.00000E+00
         0.00000E+00
         0.00000E+00
         0.00000E+00
         0.00000E+00
         0.00000E+00
         0.00000E+00
         0.00000E+00
         0.00000E+00
         0.00000E+00
         0.00000E+00
         0.00000E+00
         0.00000E+00
         0.00000E+00
         0.00000E+00
         0.00000E+00
         0.00000E+00
         0.00000E+00
         0.00000E+00
         0.00000E+00
         0.00000E+00
         0.00000E+00
         0.00000E+00
         0.00000E+00
         0.00000E+00
         0.00000E+00
         0.00000E+00
         0.00000E+00
         0.00000E+00
         0.00000E+00
         0.00000E+00
         0.00000E+00
         0.00000E+00
         0.00000E+00
         0.00000E+00
         0.00000E+00
         0.00000E+00
         0.00000E+00
         0.00000E+00
         0.00000E+00
         0.00000E+00
         0.00000E+00
         0.00000E+00
         0.00000E+00
         0.00000E+00
         0.00000E+00
         0.00000E+00
         0.00000E+00
         0.00000E+00
         0.00000E+00
         0.00000E+00
         0.00000E+00
         0.00000E+00
         0.00000E+00
         0.00000E+00
         0.00000E+00
         0.00000E+00
         0.00000E+00
         0.00000E+00
         0.00000E+00
         0.00000E+00
         0.00000E+00
         0.00000E+00
         0.00000E+00
         0.00000E+00
         0.00000E+00
         0.00000E+00
         0.00000E+00
         0.00000E+00
         0.00000E+00
         0.00000E+00
         0.00000E+00
         0.00000E+00
         0.00000E+00
         0.00000E+00
         0.00000E+00
         0.00000E+00
         0.00000E+00
         0.00000E+00
         0.00000E+00
         0.00000E+00
         0.00000E+00
         0.00000E+00
         0.00000E+00
         0.00000E+00
         0.00000E+00
         0.00000E+00
         0.00000E+00
         0.00000E+00
         0.00000E+00
         0.00000E+00
         0.00000E+00
         0.00000E+00
         0.00000E+00
         0.00000E+00
         0.00000E+00
         0.00000E+00
         0.00000E+00
         0.00000E+00
         0.00000E+00
         0.00000E+00
         0.00000E+00
         0.00000E+00
         0.00000E+00
         0.00000E+00
         0.00000E+00
         0.00000E+00
         0.00000E+00
         0.00000E+00
         0.00000E+00
         0.00000E+00
         0.00000E+00
         0.00000E+00
         0.00000E+00
         0.00000E+00
         0.00000E+00
         0.00000E+00
         0.00000E+00
         0.00000E+00
         0.00000E+00
         0.00000E+00
         0.00000E+00
         0.00000E+00
         0.00000E+00
         0.00000E+00
         0.00000E+00
         0.00000E+00
         0.00000E+00
         0.00000E+00
         0.00000E+00
         0.00000E+00
         0.00000E+00
         0.00000E+00
         0.00000E+00
         0.00000E+00
         0.00000E+00
         0.00000E+00
         0.00000E+00
         0.00000E+00
         0.00000E+00
         0.00000E+00
         0.00000E+00
         0.00000E+00
         0.00000E+00
         0.00000E+00
         0.00000E+00
         0.00000E+00
         0.00000E+00
         0.00000E+00
         0.00000E+00
         0.00000E+00
         0.00000E+00
         0.00000E+00
         0.00000E+00
         0.00000E+00
         0.00000E+00
         0.00000E+00
         0.00000E+00
         0.00000E+00
         0.00000E+00
         0.00000E+00
         0.00000E+00
         0.00000E+00
         0.00000E+00
         0.00000E+00
         0.00000E+00
         0.00000E+00
         0.00000E+00
         0.00000E+00
         0.00000E+00
         0.00000E+00
         0.00000E+00
         0.00000E+00
         0.00000E+00
         0.00000E+00
         0.00000E+00
         0.00000E+00
         0.00000E+00
         0.00000E+00
         0.00000E+00
         0.00000E+00
         0.00000E+00
         0.00000E+00
         0.00000E+00
         0.00000E+00
         0.00000E+00
         0.00000E+00
         0.00000E+00
         0.00000E+00
         0.00000E+00
         0.00000E+00
         0.00000E+00
         0.00000E+00
         0.00000E+00
         0.00000E+00
         0.00000E+00
         0.00000E+00
         0.00000E+00
         0.00000E+00
         0.00000E+00
         0.00000E+00
         0.00000E+00
         0.00000E+00
         0.00000E+00
         0.00000E+00
         0.00000E+00
         0.00000E+00
         0.00000E+00
         0.00000E+00
         0.00000E+00
         0.00000E+00
         0.00000E+00
         0.00000E+00
         0.00000E+00
         0.00000E+00
         0.00000E+00
         0.00000E+00
         0.00000E+00
         0.00000E+00
         0.00000E+00
         0.00000E+00
         0.00000E+00
         0.00000E+00
         0.00000E+00
         0.00000E+00
         0.00000E+00
         0.00000E+00
         0.00000E+00
         0.00000E+00
         0.00000E+00
         0.00000E+00
         0.00000E+00
         0.00000E+00
         0.00000E+00
         0.00000E+00
         0.00000E+00
         0.00000E+00
         0.00000E+00
         0.00000E+00
         0.00000E+00
         0.00000E+00
         0.00000E+00
         0.00000E+00
         0.00000E+00
         0.00000E+00
         0.00000E+00
         0.00000E+00
         0.00000E+00
         0.00000E+00
         0.00000E+00
         0.00000E+00
         0.00000E+00
         0.00000E+00
         0.00000E+00
         0.00000E+00
         0.00000E+00
         0.00000E+00
         0.00000E+00
         0.00000E+00
         0.00000E+00
         0.00000E+00
         0.00000E+00
         0.00000E+00
         0.00000E+00
         0.00000E+00
         0.00000E+00
         0.00000E+00
         0.00000E+00
         0.00000E+00
         0.00000E+00
         0.00000E+00
         0.00000E+00
         0.00000E+00
         0.00000E+00
         0.00000E+00
         0.00000E+00
         0.00000E+00
         0.00000E+00
         0.00000E+00
         0.00000E+00
         0.00000E+00
         0.00000E+00
         0.00000E+00
         0.00000E+00
         0.00000E+00
         0.00000E+00
         0.00000E+00
         0.00000E+00
         0.00000E+00
         0.00000E+00
         0.00000E+00
         0.00000E+00
         0.00000E+00
         0.00000E+00
         0.00000E+00
         0.00000E+00
         0.00000E+00
         0.00000E+00
         0.00000E+00
         0.00000E+00
         0.00000E+00
         0.00000E+00
         0.00000E+00
         0.00000E+00
         0.00000E+00
         0.00000E+00
         0.00000E+00
         0.00000E+00
         0.00000E+00
         0.00000E+00
         0.00000E+00
         0.00000E+00
         0.00000E+00
         0.00000E+00
         0.00000E+00
         0.00000E+00
         0.00000E+00
         0.00000E+00
         0.00000E+00
         0.00000E+00
         0.00000E+00
         0.00000E+00
         0.00000E+00
         0.00000E+00
         0.00000E+00
         0.00000E+00
         0.00000E+00
         0.00000E+00
         0.00000E+00
         0.00000E+00
         0.00000E+00
         0.00000E+00
         0.00000E+00
         0.00000E+00
         0.00000E+00
         0.00000E+00
         0.00000E+00
         0.00000E+00
         0.00000E+00
         0.00000E+00
         0.00000E+00
         0.00000E+00
         0.00000E+00
         0.00000E+00
         0.00000E+00
         0.00000E+00
         0.00000E+00
         0.00000E+00
         0.00000E+00
         0.00000E+00
         0.00000E+00
         0.00000E+00
         0.00000E+00
         0.00000E+00
         0.00000E+00
         0.00000E+00
         0.00000E+00
         0.00000E+00
         0.00000E+00
         0.00000E+00
         0.00000E+00
         0.00000E+00
         0.00000E+00
         0.00000E+00
         0.00000E+00
         0.00000E+00
         0.00000E+00
         0.00000E+00
         0.00000E+00
         0.00000E+00
         0.00000E+00
         0.00000E+00
         0.00000E+00
         0.00000E+00
         0.00000E+00
         0.00000E+00
         0.00000E+00
         0.00000E+00
         0.00000E+00
         0.00000E+00
         0.00000E+00
         0.00000E+00
         0.00000E+00
         0.00000E+00
         0.00000E+00
         0.00000E+00
         0.00000E+00
         0.00000E+00
         0.00000E+00
         0.00000E+00
         0.00000E+00
         0.00000E+00
         0.00000E+00
         0.00000E+00
         0.00000E+00
         0.00000E+00
         0.00000E+00
         0.00000E+00
         0.00000E+00
         0.00000E+00
         0.00000E+00
         0.00000E+00
         0.00000E+00
         0.00000E+00
         0.00000E+00
         0.00000E+00
         0.00000E+00
         0.00000E+00
         0.00000E+00
         0.00000E+00
         0.00000E+00
         0.00000E+00
         0.00000E+00
         0.00000E+00
         0.00000E+00
         0.00000E+00
         0.00000E+00
         0.00000E+00
         0.00000E+00
         0.00000E+00
         0.00000E+00
         0.00000E+00
         0.00000E+00
         0.00000E+00
         0.00000E+00
         0.00000E+00
         0.00000E+00
         0.00000E+00
         0.00000E+00
         0.00000E+00
         0.00000E+00
         0.00000E+00
         0.00000E+00
         0.00000E+00
         0.00000E+00
         0.00000E+00
         0.00000E+00
         0.00000E+00
         0.00000E+00
         0.00000E+00
         0.00000E+00
         0.00000E+00
         0.00000E+00
         0.00000E+00
         0.00000E+00
         0.00000E+00
         0.00000E+00
         0.00000E+00
         0.00000E+00
         0.00000E+00
         0.00000E+00
         0.00000E+00
         0.00000E+00
         0.00000E+00
         0.00000E+00
         0.00000E+00
         0.00000E+00
         0.00000E+00
         0.00000E+00
         0.00000E+00
         0.00000E+00
         0.00000E+00
         0.00000E+00
         0.00000E+00
         0.00000E+00
         0.00000E+00
         0.00000E+00
         0.00000E+00
         0.00000E+00
         0.00000E+00
         0.00000E+00
         0.00000E+00
         0.00000E+00
         0.00000E+00
         0.00000E+00
         0.00000E+00
         0.00000E+00
         0.00000E+00
         0.00000E+00
         0.00000E+00
         0.00000E+00
         0.00000E+00
         0.00000E+00
         0.00000E+00
         0.00000E+00
         0.00000E+00
         0.00000E+00
         0.00000E+00
         0.00000E+00
         0.00000E+00
         0.00000E+00
         0.00000E+00
         0.00000E+00
         0.00000E+00
         0.00000E+00
         0.00000E+00
         0.00000E+00
         0.00000E+00
         0.00000E+00
         0.00000E+00
         0.00000E+00
         0.00000E+00
         0.00000E+00
         0.00000E+00
         0.00000E+00
         0.00000E+00
         0.00000E+00
         0.00000E+00
         0.00000E+00
         0.00000E+00
         0.00000E+00
         0.00000E+00
         0.00000E+00
         0.00000E+00
         0.00000E+00
         0.00000E+00
         0.00000E+00
         0.00000E+00
         0.00000E+00
         0.00000E+00
         0.00000E+00
         0.00000E+00
         0.00000E+00
         0.00000E+00
         0.00000E+00
         0.00000E+00
         0.00000E+00
         0.00000E+00
         0.00000E+00
         0.00000E+00
         0.00000E+00
         0.00000E+00
         0.00000E+00
         0.00000E+00
         0.00000E+00
         0.00000E+00
         0.00000E+00
         0.00000E+00
         0.00000E+00
         0.00000E+00
         0.00000E+00
         0.00000E+00
         0.00000E+00
         0.00000E+00
         0.00000E+00
         0.00000E+00
         0.00000E+00
         0.00000E+00
         0.00000E+00
         0.00000E+00
         0.00000E+00
         0.00000E+00
         0.00000E+00
         0.00000E+00
         0.00000E+00
         0.00000E+00
         0.00000E+00
         0.00000E+00
         0.00000E+00
         0.00000E+00
         0.00000E+00
         0.00000E+00
         0.00000E+00
         0.00000E+00
         0.00000E+00
         0.00000E+00
         0.00000E+00
         0.00000E+00
         0.00000E+00
         0.00000E+00
         0.00000E+00
         0.00000E+00
         0.00000E+00
         0.00000E+00
         0.00000E+00
         0.00000E+00
         0.00000E+00
         0.00000E+00
         0.00000E+00
         0.00000E+00
         0.00000E+00
         0.00000E+00
         0.00000E+00
         0.00000E+00
         0.00000E+00
         0.00000E+00
         0.00000E+00
         0.00000E+00
         0.00000E+00
         0.00000E+00
         0.00000E+00
         0.00000E+00
         0.00000E+00
         0.00000E+00
         0.00000E+00
         0.00000E+00
         0.00000E+00
         0.00000E+00
         0.00000E+00
         0.00000E+00
         0.00000E+00
         0.00000E+00
         0.00000E+00
         0.00000E+00
         0.00000E+00
         0.00000E+00
         0.00000E+00
         0.00000E+00
         0.00000E+00
         0.00000E+00
         0.00000E+00
         0.00000E+00
         0.00000E+00
         0.00000E+00
         0.00000E+00
         0.00000E+00
         0.00000E+00
         0.00000E+00
         0.00000E+00
         0.00000E+00
         0.00000E+00
         0.00000E+00
         0.00000E+00
         0.00000E+00
         0.00000E+00
         0.00000E+00
         0.00000E+00
         0.00000E+00
         0.00000E+00
         0.00000E+00
         0.00000E+00
         0.00000E+00
         0.00000E+00
         0.00000E+00
         0.00000E+00
         0.00000E+00
         0.00000E+00
         0.00000E+00
         0.00000E+00
         0.00000E+00
         0.00000E+00
         0.00000E+00
         0.00000E+00
         0.00000E+00
         0.00000E+00
         0.00000E+00
         0.00000E+00
         0.00000E+00
         0.00000E+00
         0.00000E+00
         0.00000E+00
         0.00000E+00
         0.00000E+00
         0.00000E+00
         0.00000E+00
         0.00000E+00
         0.00000E+00
         0.00000E+00
         0.00000E+00
         0.00000E+00
         0.00000E+00
         0.00000E+00
         0.00000E+00
         0.00000E+00
         0.00000E+00
         0.00000E+00
         0.00000E+00
         0.00000E+00
         0.00000E+00
         0.00000E+00
         0.00000E+00
         0.00000E+00
         0.00000E+00
         0.00000E+00
         0.00000E+00
         0.00000E+00
         0.00000E+00
         0.00000E+00
         0.00000E+00
         0.00000E+00
         0.00000E+00
         0.00000E+00
         0.00000E+00
         0.00000E+00
         0.00000E+00
         0.00000E+00
         0.00000E+00
  
SCALARS                      eps_shear  double 1
LOOKUP_TABLE default
         0.00000E+00
         0.00000E+00
         0.00000E+00
         0.00000E+00
         0.00000E+00
         0.00000E+00
         0.00000E+00
         0.00000E+00
         0.00000E+00
         0.00000E+00
         0.00000E+00
         0.00000E+00
         0.00000E+00
         0.00000E+00
         0.00000E+00
         0.00000E+00
         0.00000E+00
         0.00000E+00
         0.00000E+00
         0.00000E+00
         0.00000E+00
         0.00000E+00
         0.00000E+00
         0.00000E+00
         0.00000E+00
         0.00000E+00
         0.00000E+00
         0.00000E+00
         0.00000E+00
         0.00000E+00
         0.00000E+00
         0.00000E+00
         0.00000E+00
         0.00000E+00
         0.00000E+00
         0.00000E+00
         0.00000E+00
         0.00000E+00
         0.00000E+00
         0.00000E+00
         0.00000E+00
         0.00000E+00
         0.00000E+00
         0.00000E+00
         0.00000E+00
         0.00000E+00
         0.00000E+00
         0.00000E+00
         0.00000E+00
         0.00000E+00
         0.00000E+00
         0.00000E+00
         0.00000E+00
         0.00000E+00
         0.00000E+00
         0.00000E+00
         0.00000E+00
         0.00000E+00
         0.00000E+00
         0.00000E+00
         0.00000E+00
         0.00000E+00
         0.00000E+00
         0.00000E+00
         0.00000E+00
         0.00000E+00
         0.00000E+00
         0.00000E+00
         0.00000E+00
         0.00000E+00
         0.00000E+00
         0.00000E+00
         0.00000E+00
         0.00000E+00
         0.00000E+00
         0.00000E+00
         0.00000E+00
         0.00000E+00
         0.00000E+00
         0.00000E+00
         0.00000E+00
         0.00000E+00
         0.00000E+00
         0.00000E+00
         0.00000E+00
         0.00000E+00
         0.00000E+00
         0.00000E+00
         0.00000E+00
         0.00000E+00
         0.00000E+00
         0.00000E+00
         0.00000E+00
         0.00000E+00
         0.00000E+00
         0.00000E+00
         0.00000E+00
         0.00000E+00
         0.00000E+00
         0.00000E+00
         0.00000E+00
         0.00000E+00
         0.00000E+00
         0.00000E+00
         0.00000E+00
         0.00000E+00
         0.00000E+00
         0.00000E+00
         0.00000E+00
         0.00000E+00
         0.00000E+00
         0.00000E+00
         0.00000E+00
         0.00000E+00
         0.00000E+00
         0.00000E+00
         0.00000E+00
         0.00000E+00
         0.00000E+00
         0.00000E+00
         0.00000E+00
         0.00000E+00
         0.00000E+00
         0.00000E+00
         0.00000E+00
         0.00000E+00
         0.00000E+00
         0.00000E+00
         0.00000E+00
         0.00000E+00
         0.00000E+00
         0.00000E+00
         0.00000E+00
         0.00000E+00
         0.00000E+00
         0.00000E+00
         0.00000E+00
         0.00000E+00
         0.00000E+00
         0.00000E+00
         0.00000E+00
         0.00000E+00
         0.00000E+00
         0.00000E+00
         0.00000E+00
         0.00000E+00
         0.00000E+00
         0.00000E+00
         0.00000E+00
         0.00000E+00
         0.00000E+00
         0.00000E+00
         0.00000E+00
         0.00000E+00
         0.00000E+00
         0.00000E+00
         0.00000E+00
         0.00000E+00
         0.00000E+00
         0.00000E+00
         0.00000E+00
         0.00000E+00
         0.00000E+00
         0.00000E+00
         0.00000E+00
         0.00000E+00
         0.00000E+00
         0.00000E+00
         0.00000E+00
         0.00000E+00
         0.00000E+00
         0.00000E+00
         0.00000E+00
         0.00000E+00
         0.00000E+00
         0.00000E+00
         0.00000E+00
         0.00000E+00
         0.00000E+00
         0.00000E+00
         0.00000E+00
         0.00000E+00
         0.00000E+00
         0.00000E+00
         0.00000E+00
         0.00000E+00
         0.00000E+00
         0.00000E+00
         0.00000E+00
         0.00000E+00
         0.00000E+00
         0.00000E+00
         0.00000E+00
         0.00000E+00
         0.00000E+00
         0.00000E+00
         0.00000E+00
         0.00000E+00
         0.00000E+00
         0.00000E+00
         0.00000E+00
         0.00000E+00
         0.00000E+00
         0.00000E+00
         0.00000E+00
         0.00000E+00
         0.00000E+00
         0.00000E+00
         0.00000E+00
         0.00000E+00
         0.00000E+00
         0.00000E+00
         0.00000E+00
         0.00000E+00
         0.00000E+00
         0.00000E+00
         0.00000E+00
         0.00000E+00
         0.00000E+00
         0.00000E+00
         0.00000E+00
         0.00000E+00
         0.00000E+00
         0.00000E+00
         0.00000E+00
         0.00000E+00
         0.00000E+00
         0.00000E+00
         0.00000E+00
         0.00000E+00
         0.00000E+00
         0.00000E+00
         0.00000E+00
         0.00000E+00
         0.00000E+00
         0.00000E+00
         0.00000E+00
         0.00000E+00
         0.00000E+00
         0.00000E+00
         0.00000E+00
         0.00000E+00
         0.00000E+00
         0.00000E+00
         0.00000E+00
         0.00000E+00
         0.00000E+00
         0.00000E+00
         0.00000E+00
         0.00000E+00
         0.00000E+00
         0.00000E+00
         0.00000E+00
         0.00000E+00
         0.00000E+00
         0.00000E+00
         0.00000E+00
         0.00000E+00
         0.00000E+00
         0.00000E+00
         0.00000E+00
         0.00000E+00
         0.00000E+00
         0.00000E+00
         0.00000E+00
         0.00000E+00
         0.00000E+00
         0.00000E+00
         0.00000E+00
         0.00000E+00
         0.00000E+00
         0.00000E+00
         0.00000E+00
         0.00000E+00
         0.00000E+00
         0.00000E+00
         0.00000E+00
         0.00000E+00
         0.00000E+00
         0.00000E+00
         0.00000E+00
         0.00000E+00
         0.00000E+00
         0.00000E+00
         0.00000E+00
         0.00000E+00
         0.00000E+00
         0.00000E+00
         0.00000E+00
         0.00000E+00
         0.00000E+00
         0.00000E+00
         0.00000E+00
         0.00000E+00
         0.00000E+00
         0.00000E+00
         0.00000E+00
         0.00000E+00
         0.00000E+00
         0.00000E+00
         0.00000E+00
         0.00000E+00
         0.00000E+00
         0.00000E+00
         0.00000E+00
         0.00000E+00
         0.00000E+00
         0.00000E+00
         0.00000E+00
         0.00000E+00
         0.00000E+00
         0.00000E+00
         0.00000E+00
         0.00000E+00
         0.00000E+00
         0.00000E+00
         0.00000E+00
         0.00000E+00
         0.00000E+00
         0.00000E+00
         0.00000E+00
         0.00000E+00
         0.00000E+00
         0.00000E+00
         0.00000E+00
         0.00000E+00
         0.00000E+00
         0.00000E+00
         0.00000E+00
         0.00000E+00
         0.00000E+00
         0.00000E+00
         0.00000E+00
         0.00000E+00
         0.00000E+00
         0.00000E+00
         0.00000E+00
         0.00000E+00
         0.00000E+00
         0.00000E+00
         0.00000E+00
         0.00000E+00
         0.00000E+00
         0.00000E+00
         0.00000E+00
         0.00000E+00
         0.00000E+00
         0.00000E+00
         0.00000E+00
         0.00000E+00
         0.00000E+00
         0.00000E+00
         0.00000E+00
         0.00000E+00
         0.00000E+00
         0.00000E+00
         0.00000E+00
         0.00000E+00
         0.00000E+00
         0.00000E+00
         0.00000E+00
         0.00000E+00
         0.00000E+00
         0.00000E+00
         0.00000E+00
         0.00000E+00
         0.00000E+00
         0.00000E+00
         0.00000E+00
         0.00000E+00
         0.00000E+00
         0.00000E+00
         0.00000E+00
         0.00000E+00
         0.00000E+00
         0.00000E+00
         0.00000E+00
         0.00000E+00
         0.00000E+00
         0.00000E+00
         0.00000E+00
         0.00000E+00
         0.00000E+00
         0.00000E+00
         0.00000E+00
         0.00000E+00
         0.00000E+00
         0.00000E+00
         0.00000E+00
         0.00000E+00
         0.00000E+00
         0.00000E+00
         0.00000E+00
         0.00000E+00
         0.00000E+00
         0.00000E+00
         0.00000E+00
         0.00000E+00
         0.00000E+00
         0.00000E+00
         0.00000E+00
         0.00000E+00
         0.00000E+00
         0.00000E+00
         0.00000E+00
         0.00000E+00
         0.00000E+00
         0.00000E+00
         0.00000E+00
         0.00000E+00
         0.00000E+00
         0.00000E+00
         0.00000E+00
         0.00000E+00
         0.00000E+00
         0.00000E+00
         0.00000E+00
         0.00000E+00
         0.00000E+00
         0.00000E+00
         0.00000E+00
         0.00000E+00
         0.00000E+00
         0.00000E+00
         0.00000E+00
         0.00000E+00
         0.00000E+00
         0.00000E+00
         0.00000E+00
         0.00000E+00
         0.00000E+00
         0.00000E+00
         0.00000E+00
         0.00000E+00
         0.00000E+00
         0.00000E+00
         0.00000E+00
         0.00000E+00
         0.00000E+00
         0.00000E+00
         0.00000E+00
         0.00000E+00
         0.00000E+00
         0.00000E+00
         0.00000E+00
         0.00000E+00
         0.00000E+00
         0.00000E+00
         0.00000E+00
         0.00000E+00
         0.00000E+00
         0.00000E+00
         0.00000E+00
         0.00000E+00
         0.00000E+00
         0.00000E+00
         0.00000E+00
         0.00000E+00
         0.00000E+00
         0.00000E+00
         0.00000E+00
         0.00000E+00
         0.00000E+00
         0.00000E+00
         0.00000E+00
         0.00000E+00
         0.00000E+00
         0.00000E+00
         0.00000E+00
         0.00000E+00
         0.00000E+00
         0.00000E+00
         0.00000E+00
         0.00000E+00
         0.00000E+00
         0.00000E+00
         0.00000E+00
         0.00000E+00
         0.00000E+00
         0.00000E+00
         0.00000E+00
         0.00000E+00
         0.00000E+00
         0.00000E+00
         0.00000E+00
         0.00000E+00
         0.00000E+00
         0.00000E+00
         0.00000E+00
         0.00000E+00
         0.00000E+00
         0.00000E+00
         0.00000E+00
         0.00000E+00
         0.00000E+00
         0.00000E+00
         0.00000E+00
         0.00000E+00
         0.00000E+00
         0.00000E+00
         0.00000E+00
         0.00000E+00
         0.00000E+00
         0.00000E+00
         0.00000E+00
         0.00000E+00
         0.00000E+00
         0.00000E+00
         0.00000E+00
         0.00000E+00
         0.00000E+00
         0.00000E+00
         0.00000E+00
         0.00000E+00
         0.00000E+00
         0.00000E+00
         0.00000E+00
         0.00000E+00
         0.00000E+00
         0.00000E+00
         0.00000E+00
         0.00000E+00
         0.00000E+00
         0.00000E+00
         0.00000E+00
         0.00000E+00
         0.00000E+00
         0.00000E+00
         0.00000E+00
         0.00000E+00
         0.00000E+00
         0.00000E+00
         0.00000E+00
         0.00000E+00
         0.00000E+00
         0.00000E+00
         0.00000E+00
         0.00000E+00
         0.00000E+00
         0.00000E+00
         0.00000E+00
         0.00000E+00
         0.00000E+00
         0.00000E+00
         0.00000E+00
         0.00000E+00
         0.00000E+00
         0.00000E+00
         0.00000E+00
         0.00000E+00
         0.00000E+00
         0.00000E+00
         0.00000E+00
         0.00000E+00
         0.00000E+00
         0.00000E+00
         0.00000E+00
         0.00000E+00
         0.00000E+00
         0.00000E+00
         0.00000E+00
         0.00000E+00
         0.00000E+00
         0.00000E+00
         0.00000E+00
         0.00000E+00
         0.00000E+00
         0.00000E+00
         0.00000E+00
         0.00000E+00
         0.00000E+00
         0.00000E+00
         0.00000E+00
         0.00000E+00
         0.00000E+00
         0.00000E+00
         0.00000E+00
         0.00000E+00
         0.00000E+00
         0.00000E+00
         0.00000E+00
         0.00000E+00
         0.00000E+00
         0.00000E+00
         0.00000E+00
         0.00000E+00
         0.00000E+00
         0.00000E+00
         0.00000E+00
         0.00000E+00
         0.00000E+00
         0.00000E+00
         0.00000E+00
         0.00000E+00
         0.00000E+00
         0.00000E+00
         0.00000E+00
         0.00000E+00
         0.00000E+00
         0.00000E+00
         0.00000E+00
         0.00000E+00
         0.00000E+00
         0.00000E+00
         0.00000E+00
         0.00000E+00
         0.00000E+00
         0.00000E+00
         0.00000E+00
         0.00000E+00
         0.00000E+00
         0.00000E+00
         0.00000E+00
         0.00000E+00
         0.00000E+00
         0.00000E+00
         0.00000E+00
         0.00000E+00
         0.00000E+00
         0.00000E+00
         0.00000E+00
         0.00000E+00
         0.00000E+00
         0.00000E+00
         0.00000E+00
         0.00000E+00
         0.00000E+00
         0.00000E+00
         0.00000E+00
         0.00000E+00
         0.00000E+00
         0.00000E+00
         0.00000E+00
         0.00000E+00
         0.00000E+00
         0.00000E+00
         0.00000E+00
         0.00000E+00
         0.00000E+00
         0.00000E+00
         0.00000E+00
         0.00000E+00
         0.00000E+00
         0.00000E+00
         0.00000E+00
         0.00000E+00
         0.00000E+00
         0.00000E+00
         0.00000E+00
         0.00000E+00
         0.00000E+00
         0.00000E+00
         0.00000E+00
         0.00000E+00
         0.00000E+00
         0.00000E+00
         0.00000E+00
         0.00000E+00
         0.00000E+00
         0.00000E+00
         0.00000E+00
         0.00000E+00
         0.00000E+00
         0.00000E+00
         0.00000E+00
         0.00000E+00
         0.00000E+00
         0.00000E+00
         0.00000E+00
         0.00000E+00
         0.00000E+00
         0.00000E+00
         0.00000E+00
         0.00000E+00
         0.00000E+00
         0.00000E+00
         0.00000E+00
         0.00000E+00
         0.00000E+00
         0.00000E+00
         0.00000E+00
         0.00000E+00
         0.00000E+00
         0.00000E+00
         0.00000E+00
         0.00000E+00
         0.00000E+00
         0.00000E+00
         0.00000E+00
         0.00000E+00
         0.00000E+00
         0.00000E+00
         0.00000E+00
         0.00000E+00
         0.00000E+00
         0.00000E+00
         0.00000E+00
         0.00000E+00
         0.00000E+00
         0.00000E+00
         0.00000E+00
         0.00000E+00
         0.00000E+00
         0.00000E+00
         0.00000E+00
         0.00000E+00
         0.00000E+00
         0.00000E+00
         0.00000E+00
         0.00000E+00
         0.00000E+00
         0.00000E+00
         0.00000E+00
         0.00000E+00
         0.00000E+00
         0.00000E+00
         0.00000E+00
         0.00000E+00
         0.00000E+00
         0.00000E+00
         0.00000E+00
         0.00000E+00
         0.00000E+00
         0.00000E+00
         0.00000E+00
         0.00000E+00
         0.00000E+00
         0.00000E+00
         0.00000E+00
         0.00000E+00
         0.00000E+00
         0.00000E+00
         0.00000E+00
         0.00000E+00
         0.00000E+00
         0.00000E+00
         0.00000E+00
         0.00000E+00
         0.00000E+00
         0.00000E+00
         0.00000E+00
         0.00000E+00
         0.00000E+00
         0.00000E+00
         0.00000E+00
         0.00000E+00
         0.00000E+00
         0.00000E+00
         0.00000E+00
         0.00000E+00
         0.00000E+00
         0.00000E+00
         0.00000E+00
         0.00000E+00
         0.00000E+00
         0.00000E+00
         0.00000E+00
         0.00000E+00
         0.00000E+00
         0.00000E+00
         0.00000E+00
         0.00000E+00
         0.00000E+00
         0.00000E+00
         0.00000E+00
         0.00000E+00
         0.00000E+00
         0.00000E+00
         0.00000E+00
         0.00000E+00
         0.00000E+00
         0.00000E+00
         0.00000E+00
         0.00000E+00
         0.00000E+00
         0.00000E+00
         0.00000E+00
         0.00000E+00
         0.00000E+00
         0.00000E+00
         0.00000E+00
         0.00000E+00
         0.00000E+00
         0.00000E+00
         0.00000E+00
         0.00000E+00
         0.00000E+00
         0.00000E+00
         0.00000E+00
         0.00000E+00
         0.00000E+00
         0.00000E+00
         0.00000E+00
         0.00000E+00
         0.00000E+00
         0.00000E+00
         0.00000E+00
         0.00000E+00
         0.00000E+00
         0.00000E+00
         0.00000E+00
         0.00000E+00
         0.00000E+00
         0.00000E+00
         0.00000E+00
         0.00000E+00
         0.00000E+00
         0.00000E+00
         0.00000E+00
         0.00000E+00
         0.00000E+00
         0.00000E+00
         0.00000E+00
         0.00000E+00
         0.00000E+00
         0.00000E+00
         0.00000E+00
         0.00000E+00
         0.00000E+00
         0.00000E+00
         0.00000E+00
         0.00000E+00
         0.00000E+00
         0.00000E+00
         0.00000E+00
         0.00000E+00
         0.00000E+00
         0.00000E+00
         0.00000E+00
         0.00000E+00
         0.00000E+00
         0.00000E+00
         0.00000E+00
         0.00000E+00
         0.00000E+00
         0.00000E+00
         0.00000E+00
         0.00000E+00
         0.00000E+00
         0.00000E+00
         0.00000E+00
         0.00000E+00
         0.00000E+00
         0.00000E+00
         0.00000E+00
         0.00000E+00
         0.00000E+00
         0.00000E+00
         0.00000E+00
         0.00000E+00
         0.00000E+00
         0.00000E+00
         0.00000E+00
         0.00000E+00
         0.00000E+00
         0.00000E+00
         0.00000E+00
         0.00000E+00
         0.00000E+00
         0.00000E+00
         0.00000E+00
         0.00000E+00
         0.00000E+00
         0.00000E+00
         0.00000E+00
         0.00000E+00
         0.00000E+00
         0.00000E+00
         0.00000E+00
         0.00000E+00
         0.00000E+00
         0.00000E+00
         0.00000E+00
         0.00000E+00
         0.00000E+00
         0.00000E+00
         0.00000E+00
         0.00000E+00
         0.00000E+00
         0.00000E+00
         0.00000E+00
         0.00000E+00
         0.00000E+00
         0.00000E+00
         0.00000E+00
         0.00000E+00
         0.00000E+00
         0.00000E+00
         0.00000E+00
         0.00000E+00
         0.00000E+00
         0.00000E+00
         0.00000E+00
         0.00000E+00
         0.00000E+00
         0.00000E+00
         0.00000E+00
         0.00000E+00
         0.00000E+00
         0.00000E+00
         0.00000E+00
         0.00000E+00
         0.00000E+00
         0.00000E+00
         0.00000E+00
         0.00000E+00
         0.00000E+00
         0.00000E+00
         0.00000E+00
         0.00000E+00
         0.00000E+00
         0.00000E+00
         0.00000E+00
         0.00000E+00
         0.00000E+00
         0.00000E+00
         0.00000E+00
         0.00000E+00
         0.00000E+00
         0.00000E+00
         0.00000E+00
         0.00000E+00
         0.00000E+00
         0.00000E+00
         0.00000E+00
         0.00000E+00
         0.00000E+00
         0.00000E+00
         0.00000E+00
         0.00000E+00
         0.00000E+00
         0.00000E+00
         0.00000E+00
         0.00000E+00
         0.00000E+00
         0.00000E+00
         0.00000E+00
         0.00000E+00
         0.00000E+00
         0.00000E+00
         0.00000E+00
         0.00000E+00
         0.00000E+00
         0.00000E+00
         0.00000E+00
         0.00000E+00
         0.00000E+00
         0.00000E+00
         0.00000E+00
         0.00000E+00
         0.00000E+00
         0.00000E+00
         0.00000E+00
         0.00000E+00
         0.00000E+00
         0.00000E+00
         0.00000E+00
         0.00000E+00
         0.00000E+00
         0.00000E+00
         0.00000E+00
         0.00000E+00
         0.00000E+00
         0.00000E+00
         0.00000E+00
         0.00000E+00
         0.00000E+00
         0.00000E+00
         0.00000E+00
         0.00000E+00
         0.00000E+00
         0.00000E+00
         0.00000E+00
         0.00000E+00
         0.00000E+00
         0.00000E+00
         0.00000E+00
         0.00000E+00
         0.00000E+00
         0.00000E+00
         0.00000E+00
         0.00000E+00
         0.00000E+00
         0.00000E+00
         0.00000E+00
         0.00000E+00
         0.00000E+00
         0.00000E+00
         0.00000E+00
         0.00000E+00
         0.00000E+00
         0.00000E+00
         0.00000E+00
         0.00000E+00
         0.00000E+00
         0.00000E+00
         0.00000E+00
         0.00000E+00
         0.00000E+00
         0.00000E+00
         0.00000E+00
         0.00000E+00
         0.00000E+00
         0.00000E+00
         0.00000E+00
         0.00000E+00
         0.00000E+00
         0.00000E+00
         0.00000E+00
         0.00000E+00
         0.00000E+00
         0.00000E+00
         0.00000E+00
         0.00000E+00
         0.00000E+00
         0.00000E+00
         0.00000E+00
         0.00000E+00
         0.00000E+00
         0.00000E+00
         0.00000E+00
         0.00000E+00
         0.00000E+00
         0.00000E+00
         0.00000E+00
         0.00000E+00
         0.00000E+00
         0.00000E+00
         0.00000E+00
         0.00000E+00
         0.00000E+00
         0.00000E+00
         0.00000E+00
         0.00000E+00
         0.00000E+00
         0.00000E+00
         0.00000E+00
         0.00000E+00
         0.00000E+00
         0.00000E+00
         0.00000E+00
         0.00000E+00
         0.00000E+00
         0.00000E+00
         0.00000E+00
         0.00000E+00
         0.00000E+00
         0.00000E+00
         0.00000E+00
         0.00000E+00
         0.00000E+00
         0.00000E+00
         0.00000E+00
         0.00000E+00
         0.00000E+00
         0.00000E+00
         0.00000E+00
         0.00000E+00
         0.00000E+00
         0.00000E+00
         0.00000E+00
         0.00000E+00
         0.00000E+00
         0.00000E+00
         0.00000E+00
         0.00000E+00
         0.00000E+00
         0.00000E+00
         0.00000E+00
         0.00000E+00
         0.00000E+00
         0.00000E+00
         0.00000E+00
         0.00000E+00
         0.00000E+00
         0.00000E+00
         0.00000E+00
         0.00000E+00
         0.00000E+00
         0.00000E+00
         0.00000E+00
         0.00000E+00
         0.00000E+00
         0.00000E+00
         0.00000E+00
         0.00000E+00
         0.00000E+00
         0.00000E+00
         0.00000E+00
         0.00000E+00
         0.00000E+00
         0.00000E+00
         0.00000E+00
         0.00000E+00
         0.00000E+00
         0.00000E+00
         0.00000E+00
         0.00000E+00
         0.00000E+00
         0.00000E+00
         0.00000E+00
         0.00000E+00
         0.00000E+00
         0.00000E+00
         0.00000E+00
         0.00000E+00
         0.00000E+00
         0.00000E+00
         0.00000E+00
         0.00000E+00
         0.00000E+00
         0.00000E+00
         0.00000E+00
         0.00000E+00
         0.00000E+00
         0.00000E+00
         0.00000E+00
         0.00000E+00
         0.00000E+00
         0.00000E+00
         0.00000E+00
         0.00000E+00
         0.00000E+00
         0.00000E+00
         0.00000E+00
         0.00000E+00
         0.00000E+00
         0.00000E+00
         0.00000E+00
         0.00000E+00
         0.00000E+00
         0.00000E+00
         0.00000E+00
         0.00000E+00
         0.00000E+00
         0.00000E+00
         0.00000E+00
         0.00000E+00
         0.00000E+00
         0.00000E+00
         0.00000E+00
         0.00000E+00
         0.00000E+00
         0.00000E+00
         0.00000E+00
         0.00000E+00
         0.00000E+00
         0.00000E+00
         0.00000E+00
         0.00000E+00
         0.00000E+00
         0.00000E+00
         0.00000E+00
         0.00000E+00
         0.00000E+00
         0.00000E+00
         0.00000E+00
         0.00000E+00
         0.00000E+00
         0.00000E+00
         0.00000E+00
         0.00000E+00
         0.00000E+00
         0.00000E+00
         0.00000E+00
         0.00000E+00
         0.00000E+00
         0.00000E+00
         0.00000E+00
         0.00000E+00
         0.00000E+00
         0.00000E+00
         0.00000E+00
         0.00000E+00
         0.00000E+00
         0.00000E+00
         0.00000E+00
         0.00000E+00
         0.00000E+00
         0.00000E+00
         0.00000E+00
         0.00000E+00
         0.00000E+00
         0.00000E+00
         0.00000E+00
         0.00000E+00
         0.00000E+00
         0.00000E+00
         0.00000E+00
         0.00000E+00
         0.00000E+00
         0.00000E+00
         0.00000E+00
         0.00000E+00
         0.00000E+00
         0.00000E+00
         0.00000E+00
         0.00000E+00
         0.00000E+00
         0.00000E+00
         0.00000E+00
         0.00000E+00
         0.00000E+00
         0.00000E+00
         0.00000E+00
         0.00000E+00
         0.00000E+00
         0.00000E+00
         0.00000E+00
         0.00000E+00
         0.00000E+00
         0.00000E+00
         0.00000E+00
         0.00000E+00
         0.00000E+00
         0.00000E+00
         0.00000E+00
         0.00000E+00
         0.00000E+00
         0.00000E+00
         0.00000E+00
         0.00000E+00
         0.00000E+00
         0.00000E+00
         0.00000E+00
         0.00000E+00
         0.00000E+00
         0.00000E+00
         0.00000E+00
         0.00000E+00
         0.00000E+00
         0.00000E+00
         0.00000E+00
         0.00000E+00
         0.00000E+00
         0.00000E+00
         0.00000E+00
         0.00000E+00
         0.00000E+00
         0.00000E+00
         0.00000E+00
         0.00000E+00
         0.00000E+00
         0.00000E+00
         0.00000E+00
         0.00000E+00
         0.00000E+00
         0.00000E+00
         0.00000E+00
         0.00000E+00
         0.00000E+00
         0.00000E+00
         0.00000E+00
         0.00000E+00
         0.00000E+00
         0.00000E+00
         0.00000E+00
         0.00000E+00
         0.00000E+00
         0.00000E+00
         0.00000E+00
         0.00000E+00
         0.00000E+00
         0.00000E+00
         0.00000E+00
         0.00000E+00
         0.00000E+00
         0.00000E+00
         0.00000E+00
         0.00000E+00
         0.00000E+00
         0.00000E+00
         0.00000E+00
         0.00000E+00
         0.00000E+00
         0.00000E+00
         0.00000E+00
         0.00000E+00
         0.00000E+00
         0.00000E+00
         0.00000E+00
         0.00000E+00
         0.00000E+00
         0.00000E+00
         0.00000E+00
         0.00000E+00
         0.00000E+00
         0.00000E+00
         0.00000E+00
         0.00000E+00
         0.00000E+00
         0.00000E+00
         0.00000E+00
         0.00000E+00
         0.00000E+00
         0.00000E+00
         0.00000E+00
         0.00000E+00
         0.00000E+00
         0.00000E+00
         0.00000E+00
         0.00000E+00
         0.00000E+00
         0.00000E+00
         0.00000E+00
         0.00000E+00
         0.00000E+00
         0.00000E+00
         0.00000E+00
         0.00000E+00
         0.00000E+00
         0.00000E+00
         0.00000E+00
         0.00000E+00
         0.00000E+00
         0.00000E+00
         0.00000E+00
         0.00000E+00
         0.00000E+00
         0.00000E+00
         0.00000E+00
         0.00000E+00
         0.00000E+00
         0.00000E+00
         0.00000E+00
         0.00000E+00
         0.00000E+00
         0.00000E+00
         0.00000E+00
         0.00000E+00
         0.00000E+00
         0.00000E+00
         0.00000E+00
         0.00000E+00
         0.00000E+00
         0.00000E+00
         0.00000E+00
         0.00000E+00
         0.00000E+00
         0.00000E+00
         0.00000E+00
         0.00000E+00
         0.00000E+00
         0.00000E+00
         0.00000E+00
         0.00000E+00
         0.00000E+00
         0.00000E+00
         0.00000E+00
         0.00000E+00
         0.00000E+00
         0.00000E+00
         0.00000E+00
         0.00000E+00
         0.00000E+00
         0.00000E+00
         0.00000E+00
         0.00000E+00
         0.00000E+00
         0.00000E+00
         0.00000E+00
         0.00000E+00
         0.00000E+00
         0.00000E+00
         0.00000E+00
         0.00000E+00
         0.00000E+00
         0.00000E+00
         0.00000E+00
         0.00000E+00
         0.00000E+00
         0.00000E+00
         0.00000E+00
         0.00000E+00
         0.00000E+00
         0.00000E+00
         0.00000E+00
         0.00000E+00
         0.00000E+00
         0.00000E+00
         0.00000E+00
         0.00000E+00
         0.00000E+00
         0.00000E+00
         0.00000E+00
         0.00000E+00
         0.00000E+00
         0.00000E+00
         0.00000E+00
         0.00000E+00
         0.00000E+00
         0.00000E+00
         0.00000E+00
         0.00000E+00
         0.00000E+00
         0.00000E+00
         0.00000E+00
         0.00000E+00
         0.00000E+00
         0.00000E+00
         0.00000E+00
         0.00000E+00
         0.00000E+00
         0.00000E+00
         0.00000E+00
         0.00000E+00
         0.00000E+00
         0.00000E+00
         0.00000E+00
         0.00000E+00
         0.00000E+00
         0.00000E+00
         0.00000E+00
         0.00000E+00
         0.00000E+00
         0.00000E+00
         0.00000E+00
         0.00000E+00
         0.00000E+00
         0.00000E+00
         0.00000E+00
         0.00000E+00
         0.00000E+00
         0.00000E+00
         0.00000E+00
         0.00000E+00
         0.00000E+00
         0.00000E+00
         0.00000E+00
         0.00000E+00
         0.00000E+00
         0.00000E+00
         0.00000E+00
         0.00000E+00
         0.00000E+00
         0.00000E+00
         0.00000E+00
         0.00000E+00
         0.00000E+00
         0.00000E+00
         0.00000E+00
         0.00000E+00
         0.00000E+00
         0.00000E+00
         0.00000E+00
         0.00000E+00
         0.00000E+00
         0.00000E+00
         0.00000E+00
         0.00000E+00
         0.00000E+00
         0.00000E+00
         0.00000E+00
         0.00000E+00
         0.00000E+00
         0.00000E+00
         0.00000E+00
         0.00000E+00
         0.00000E+00
         0.00000E+00
         0.00000E+00
         0.00000E+00
         0.00000E+00
         0.00000E+00
         0.00000E+00
         0.00000E+00
         0.00000E+00
         0.00000E+00
         0.00000E+00
         0.00000E+00
         0.00000E+00
         0.00000E+00
         0.00000E+00
         0.00000E+00
         0.00000E+00
         0.00000E+00
         0.00000E+00
         0.00000E+00
         0.00000E+00
         0.00000E+00
         0.00000E+00
         0.00000E+00
         0.00000E+00
         0.00000E+00
         0.00000E+00
         0.00000E+00
         0.00000E+00
         0.00000E+00
         0.00000E+00
         0.00000E+00
         0.00000E+00
         0.00000E+00
         0.00000E+00
         0.00000E+00
         0.00000E+00
         0.00000E+00
         0.00000E+00
         0.00000E+00
         0.00000E+00
         0.00000E+00
         0.00000E+00
         0.00000E+00
         0.00000E+00
         0.00000E+00
         0.00000E+00
         0.00000E+00
         0.00000E+00
         0.00000E+00
         0.00000E+00
         0.00000E+00
         0.00000E+00
         0.00000E+00
         0.00000E+00
         0.00000E+00
         0.00000E+00
         0.00000E+00
         0.00000E+00
         0.00000E+00
         0.00000E+00
         0.00000E+00
         0.00000E+00
         0.00000E+00
         0.00000E+00
         0.00000E+00
         0.00000E+00
         0.00000E+00
         0.00000E+00
         0.00000E+00
         0.00000E+00
         0.00000E+00
         0.00000E+00
         0.00000E+00
         0.00000E+00
         0.00000E+00
         0.00000E+00
         0.00000E+00
         0.00000E+00
         0.00000E+00
         0.00000E+00
         0.00000E+00
         0.00000E+00
         0.00000E+00
         0.00000E+00
         0.00000E+00
         0.00000E+00
         0.00000E+00
         0.00000E+00
         0.00000E+00
         0.00000E+00
         0.00000E+00
         0.00000E+00
         0.00000E+00
         0.00000E+00
         0.00000E+00
         0.00000E+00
         0.00000E+00
         0.00000E+00
         0.00000E+00
         0.00000E+00
         0.00000E+00
         0.00000E+00
         0.00000E+00
         0.00000E+00
         0.00000E+00
         0.00000E+00
         0.00000E+00
         0.00000E+00
         0.00000E+00
         0.00000E+00
         0.00000E+00
         0.00000E+00
         0.00000E+00
         0.00000E+00
         0.00000E+00
         0.00000E+00
         0.00000E+00
         0.00000E+00
         0.00000E+00
         0.00000E+00
         0.00000E+00
         0.00000E+00
         0.00000E+00
         0.00000E+00
         0.00000E+00
         0.00000E+00
         0.00000E+00
         0.00000E+00
         0.00000E+00
         0.00000E+00
         0.00000E+00
         0.00000E+00
         0.00000E+00
         0.00000E+00
         0.00000E+00
         0.00000E+00
         0.00000E+00
         0.00000E+00
         0.00000E+00
         0.00000E+00
         0.00000E+00
         0.00000E+00
         0.00000E+00
         0.00000E+00
         0.00000E+00
         0.00000E+00
         0.00000E+00
         0.00000E+00
         0.00000E+00
         0.00000E+00
         0.00000E+00
         0.00000E+00
         0.00000E+00
         0.00000E+00
         0.00000E+00
         0.00000E+00
         0.00000E+00
         0.00000E+00
         0.00000E+00
         0.00000E+00
         0.00000E+00
         0.00000E+00
         0.00000E+00
         0.00000E+00
         0.00000E+00
         0.00000E+00
         0.00000E+00
         0.00000E+00
         0.00000E+00
         0.00000E+00
         0.00000E+00
         0.00000E+00
         0.00000E+00
         0.00000E+00
         0.00000E+00
         0.00000E+00
         0.00000E+00
         0.00000E+00
         0.00000E+00
         0.00000E+00
         0.00000E+00
         0.00000E+00
         0.00000E+00
         0.00000E+00
         0.00000E+00
         0.00000E+00
         0.00000E+00
         0.00000E+00
         0.00000E+00
         0.00000E+00
         0.00000E+00
         0.00000E+00
         0.00000E+00
         0.00000E+00
         0.00000E+00
         0.00000E+00
         0.00000E+00
         0.00000E+00
         0.00000E+00
         0.00000E+00
         0.00000E+00
         0.00000E+00
         0.00000E+00
         0.00000E+00
         0.00000E+00
         0.00000E+00
         0.00000E+00
         0.00000E+00
         0.00000E+00
         0.00000E+00
         0.00000E+00
         0.00000E+00
         0.00000E+00
         0.00000E+00
         0.00000E+00
         0.00000E+00
         0.00000E+00
         0.00000E+00
         0.00000E+00
         0.00000E+00
         0.00000E+00
         0.00000E+00
         0.00000E+00
         0.00000E+00
         0.00000E+00
         0.00000E+00
         0.00000E+00
         0.00000E+00
         0.00000E+00
         0.00000E+00
         0.00000E+00
         0.00000E+00
         0.00000E+00
         0.00000E+00
         0.00000E+00
         0.00000E+00
         0.00000E+00
         0.00000E+00
         0.00000E+00
         0.00000E+00
         0.00000E+00
         0.00000E+00
         0.00000E+00
         0.00000E+00
         0.00000E+00
         0.00000E+00
         0.00000E+00
         0.00000E+00
         0.00000E+00
         0.00000E+00
         0.00000E+00
         0.00000E+00
         0.00000E+00
         0.00000E+00
         0.00000E+00
         0.00000E+00
         0.00000E+00
         0.00000E+00
         0.00000E+00
         0.00000E+00
         0.00000E+00
         0.00000E+00
         0.00000E+00
         0.00000E+00
         0.00000E+00
         0.00000E+00
         0.00000E+00
         0.00000E+00
         0.00000E+00
         0.00000E+00
         0.00000E+00
         0.00000E+00
         0.00000E+00
         0.00000E+00
         0.00000E+00
         0.00000E+00
         0.00000E+00
         0.00000E+00
         0.00000E+00
         0.00000E+00
         0.00000E+00
         0.00000E+00
         0.00000E+00
         0.00000E+00
         0.00000E+00
         0.00000E+00
         0.00000E+00
         0.00000E+00
         0.00000E+00
         0.00000E+00
         0.00000E+00
         0.00000E+00
         0.00000E+00
         0.00000E+00
         0.00000E+00
         0.00000E+00
         0.00000E+00
         0.00000E+00
         0.00000E+00
         0.00000E+00
         0.00000E+00
         0.00000E+00
         0.00000E+00
         0.00000E+00
         0.00000E+00
         0.00000E+00
         0.00000E+00
         0.00000E+00
         0.00000E+00
         0.00000E+00
         0.00000E+00
         0.00000E+00
         0.00000E+00
         0.00000E+00
         0.00000E+00
         0.00000E+00
         0.00000E+00
         0.00000E+00
         0.00000E+00
         0.00000E+00
         0.00000E+00
         0.00000E+00
         0.00000E+00
         0.00000E+00
         0.00000E+00
         0.00000E+00
         0.00000E+00
         0.00000E+00
         0.00000E+00
         0.00000E+00
         0.00000E+00
         0.00000E+00
         0.00000E+00
         0.00000E+00
         0.00000E+00
         0.00000E+00
         0.00000E+00
         0.00000E+00
         0.00000E+00
         0.00000E+00
         0.00000E+00
         0.00000E+00
         0.00000E+00
         0.00000E+00
         0.00000E+00
         0.00000E+00
         0.00000E+00
         0.00000E+00
         0.00000E+00
         0.00000E+00
         0.00000E+00
         0.00000E+00
         0.00000E+00
         0.00000E+00
         0.00000E+00
         0.00000E+00
         0.00000E+00
         0.00000E+00
         0.00000E+00
         0.00000E+00
         0.00000E+00
         0.00000E+00
         0.00000E+00
         0.00000E+00
         0.00000E+00
         0.00000E+00
         0.00000E+00
         0.00000E+00
         0.00000E+00
         0.00000E+00
         0.00000E+00
         0.00000E+00
         0.00000E+00
         0.00000E+00
         0.00000E+00
         0.00000E+00
         0.00000E+00
         0.00000E+00
         0.00000E+00
         0.00000E+00
         0.00000E+00
         0.00000E+00
         0.00000E+00
         0.00000E+00
         0.00000E+00
         0.00000E+00
         0.00000E+00
         0.00000E+00
         0.00000E+00
         0.00000E+00
         0.00000E+00
         0.00000E+00
         0.00000E+00
         0.00000E+00
         0.00000E+00
         0.00000E+00
         0.00000E+00
         0.00000E+00
         0.00000E+00
         0.00000E+00
         0.00000E+00
         0.00000E+00
         0.00000E+00
         0.00000E+00
         0.00000E+00
         0.00000E+00
         0.00000E+00
         0.00000E+00
         0.00000E+00
         0.00000E+00
         0.00000E+00
         0.00000E+00
         0.00000E+00
         0.00000E+00
         0.00000E+00
         0.00000E+00
         0.00000E+00
         0.00000E+00
         0.00000E+00
         0.00000E+00
         0.00000E+00
         0.00000E+00
         0.00000E+00
         0.00000E+00
         0.00000E+00
         0.00000E+00
         0.00000E+00
         0.00000E+00
         0.00000E+00
         0.00000E+00
         0.00000E+00
         0.00000E+00
         0.00000E+00
         0.00000E+00
         0.00000E+00
         0.00000E+00
         0.00000E+00
         0.00000E+00
         0.00000E+00
         0.00000E+00
         0.00000E+00
         0.00000E+00
         0.00000E+00
         0.00000E+00
         0.00000E+00
         0.00000E+00
         0.00000E+00
         0.00000E+00
         0.00000E+00
         0.00000E+00
         0.00000E+00
         0.00000E+00
         0.00000E+00
         0.00000E+00
         0.00000E+00
         0.00000E+00
         0.00000E+00
         0.00000E+00
         0.00000E+00
         0.00000E+00
         0.00000E+00
         0.00000E+00
         0.00000E+00
         0.00000E+00
         0.00000E+00
         0.00000E+00
         0.00000E+00
         0.00000E+00
         0.00000E+00
         0.00000E+00
         0.00000E+00
         0.00000E+00
         0.00000E+00
         0.00000E+00
         0.00000E+00
         0.00000E+00
         0.00000E+00
         0.00000E+00
         0.00000E+00
         0.00000E+00
         0.00000E+00
         0.00000E+00
         0.00000E+00
         0.00000E+00
         0.00000E+00
         0.00000E+00
         0.00000E+00
         0.00000E+00
         0.00000E+00
         0.00000E+00
         0.00000E+00
  
SCALARS                        eps_vol  double 1
LOOKUP_TABLE default
         0.00000E+00
         0.00000E+00
         0.00000E+00
         0.00000E+00
         0.00000E+00
         0.00000E+00
         0.00000E+00
         0.00000E+00
         0.00000E+00
         0.00000E+00
         0.00000E+00
         0.00000E+00
         0.00000E+00
         0.00000E+00
         0.00000E+00
         0.00000E+00
         0.00000E+00
         0.00000E+00
         0.00000E+00
         0.00000E+00
         0.00000E+00
         0.00000E+00
         0.00000E+00
         0.00000E+00
         0.00000E+00
         0.00000E+00
         0.00000E+00
         0.00000E+00
         0.00000E+00
         0.00000E+00
         0.00000E+00
         0.00000E+00
         0.00000E+00
         0.00000E+00
         0.00000E+00
         0.00000E+00
         0.00000E+00
         0.00000E+00
         0.00000E+00
         0.00000E+00
         0.00000E+00
         0.00000E+00
         0.00000E+00
         0.00000E+00
         0.00000E+00
         0.00000E+00
         0.00000E+00
         0.00000E+00
         0.00000E+00
         0.00000E+00
         0.00000E+00
         0.00000E+00
         0.00000E+00
         0.00000E+00
         0.00000E+00
         0.00000E+00
         0.00000E+00
         0.00000E+00
         0.00000E+00
         0.00000E+00
         0.00000E+00
         0.00000E+00
         0.00000E+00
         0.00000E+00
         0.00000E+00
         0.00000E+00
         0.00000E+00
         0.00000E+00
         0.00000E+00
         0.00000E+00
         0.00000E+00
         0.00000E+00
         0.00000E+00
         0.00000E+00
         0.00000E+00
         0.00000E+00
         0.00000E+00
         0.00000E+00
         0.00000E+00
         0.00000E+00
         0.00000E+00
         0.00000E+00
         0.00000E+00
         0.00000E+00
         0.00000E+00
         0.00000E+00
         0.00000E+00
         0.00000E+00
         0.00000E+00
         0.00000E+00
         0.00000E+00
         0.00000E+00
         0.00000E+00
         0.00000E+00
         0.00000E+00
         0.00000E+00
         0.00000E+00
         0.00000E+00
         0.00000E+00
         0.00000E+00
         0.00000E+00
         0.00000E+00
         0.00000E+00
         0.00000E+00
         0.00000E+00
         0.00000E+00
         0.00000E+00
         0.00000E+00
         0.00000E+00
         0.00000E+00
         0.00000E+00
         0.00000E+00
         0.00000E+00
         0.00000E+00
         0.00000E+00
         0.00000E+00
         0.00000E+00
         0.00000E+00
         0.00000E+00
         0.00000E+00
         0.00000E+00
         0.00000E+00
         0.00000E+00
         0.00000E+00
         0.00000E+00
         0.00000E+00
         0.00000E+00
         0.00000E+00
         0.00000E+00
         0.00000E+00
         0.00000E+00
         0.00000E+00
         0.00000E+00
         0.00000E+00
         0.00000E+00
         0.00000E+00
         0.00000E+00
         0.00000E+00
         0.00000E+00
         0.00000E+00
         0.00000E+00
         0.00000E+00
         0.00000E+00
         0.00000E+00
         0.00000E+00
         0.00000E+00
         0.00000E+00
         0.00000E+00
         0.00000E+00
         0.00000E+00
         0.00000E+00
         0.00000E+00
         0.00000E+00
         0.00000E+00
         0.00000E+00
         0.00000E+00
         0.00000E+00
         0.00000E+00
         0.00000E+00
         0.00000E+00
         0.00000E+00
         0.00000E+00
         0.00000E+00
         0.00000E+00
         0.00000E+00
         0.00000E+00
         0.00000E+00
         0.00000E+00
         0.00000E+00
         0.00000E+00
         0.00000E+00
         0.00000E+00
         0.00000E+00
         0.00000E+00
         0.00000E+00
         0.00000E+00
         0.00000E+00
         0.00000E+00
         0.00000E+00
         0.00000E+00
         0.00000E+00
         0.00000E+00
         0.00000E+00
         0.00000E+00
         0.00000E+00
         0.00000E+00
         0.00000E+00
         0.00000E+00
         0.00000E+00
         0.00000E+00
         0.00000E+00
         0.00000E+00
         0.00000E+00
         0.00000E+00
         0.00000E+00
         0.00000E+00
         0.00000E+00
         0.00000E+00
         0.00000E+00
         0.00000E+00
         0.00000E+00
         0.00000E+00
         0.00000E+00
         0.00000E+00
         0.00000E+00
         0.00000E+00
         0.00000E+00
         0.00000E+00
         0.00000E+00
         0.00000E+00
         0.00000E+00
         0.00000E+00
         0.00000E+00
         0.00000E+00
         0.00000E+00
         0.00000E+00
         0.00000E+00
         0.00000E+00
         0.00000E+00
         0.00000E+00
         0.00000E+00
         0.00000E+00
         0.00000E+00
         0.00000E+00
         0.00000E+00
         0.00000E+00
         0.00000E+00
         0.00000E+00
         0.00000E+00
         0.00000E+00
         0.00000E+00
         0.00000E+00
         0.00000E+00
         0.00000E+00
         0.00000E+00
         0.00000E+00
         0.00000E+00
         0.00000E+00
         0.00000E+00
         0.00000E+00
         0.00000E+00
         0.00000E+00
         0.00000E+00
         0.00000E+00
         0.00000E+00
         0.00000E+00
         0.00000E+00
         0.00000E+00
         0.00000E+00
         0.00000E+00
         0.00000E+00
         0.00000E+00
         0.00000E+00
         0.00000E+00
         0.00000E+00
         0.00000E+00
         0.00000E+00
         0.00000E+00
         0.00000E+00
         0.00000E+00
         0.00000E+00
         0.00000E+00
         0.00000E+00
         0.00000E+00
         0.00000E+00
         0.00000E+00
         0.00000E+00
         0.00000E+00
         0.00000E+00
         0.00000E+00
         0.00000E+00
         0.00000E+00
         0.00000E+00
         0.00000E+00
         0.00000E+00
         0.00000E+00
         0.00000E+00
         0.00000E+00
         0.00000E+00
         0.00000E+00
         0.00000E+00
         0.00000E+00
         0.00000E+00
         0.00000E+00
         0.00000E+00
         0.00000E+00
         0.00000E+00
         0.00000E+00
         0.00000E+00
         0.00000E+00
         0.00000E+00
         0.00000E+00
         0.00000E+00
         0.00000E+00
         0.00000E+00
         0.00000E+00
         0.00000E+00
         0.00000E+00
         0.00000E+00
         0.00000E+00
         0.00000E+00
         0.00000E+00
         0.00000E+00
         0.00000E+00
         0.00000E+00
         0.00000E+00
         0.00000E+00
         0.00000E+00
         0.00000E+00
         0.00000E+00
         0.00000E+00
         0.00000E+00
         0.00000E+00
         0.00000E+00
         0.00000E+00
         0.00000E+00
         0.00000E+00
         0.00000E+00
         0.00000E+00
         0.00000E+00
         0.00000E+00
         0.00000E+00
         0.00000E+00
         0.00000E+00
         0.00000E+00
         0.00000E+00
         0.00000E+00
         0.00000E+00
         0.00000E+00
         0.00000E+00
         0.00000E+00
         0.00000E+00
         0.00000E+00
         0.00000E+00
         0.00000E+00
         0.00000E+00
         0.00000E+00
         0.00000E+00
         0.00000E+00
         0.00000E+00
         0.00000E+00
         0.00000E+00
         0.00000E+00
         0.00000E+00
         0.00000E+00
         0.00000E+00
         0.00000E+00
         0.00000E+00
         0.00000E+00
         0.00000E+00
         0.00000E+00
         0.00000E+00
         0.00000E+00
         0.00000E+00
         0.00000E+00
         0.00000E+00
         0.00000E+00
         0.00000E+00
         0.00000E+00
         0.00000E+00
         0.00000E+00
         0.00000E+00
         0.00000E+00
         0.00000E+00
         0.00000E+00
         0.00000E+00
         0.00000E+00
         0.00000E+00
         0.00000E+00
         0.00000E+00
         0.00000E+00
         0.00000E+00
         0.00000E+00
         0.00000E+00
         0.00000E+00
         0.00000E+00
         0.00000E+00
         0.00000E+00
         0.00000E+00
         0.00000E+00
         0.00000E+00
         0.00000E+00
         0.00000E+00
         0.00000E+00
         0.00000E+00
         0.00000E+00
         0.00000E+00
         0.00000E+00
         0.00000E+00
         0.00000E+00
         0.00000E+00
         0.00000E+00
         0.00000E+00
         0.00000E+00
         0.00000E+00
         0.00000E+00
         0.00000E+00
         0.00000E+00
         0.00000E+00
         0.00000E+00
         0.00000E+00
         0.00000E+00
         0.00000E+00
         0.00000E+00
         0.00000E+00
         0.00000E+00
         0.00000E+00
         0.00000E+00
         0.00000E+00
         0.00000E+00
         0.00000E+00
         0.00000E+00
         0.00000E+00
         0.00000E+00
         0.00000E+00
         0.00000E+00
         0.00000E+00
         0.00000E+00
         0.00000E+00
         0.00000E+00
         0.00000E+00
         0.00000E+00
         0.00000E+00
         0.00000E+00
         0.00000E+00
         0.00000E+00
         0.00000E+00
         0.00000E+00
         0.00000E+00
         0.00000E+00
         0.00000E+00
         0.00000E+00
         0.00000E+00
         0.00000E+00
         0.00000E+00
         0.00000E+00
         0.00000E+00
         0.00000E+00
         0.00000E+00
         0.00000E+00
         0.00000E+00
         0.00000E+00
         0.00000E+00
         0.00000E+00
         0.00000E+00
         0.00000E+00
         0.00000E+00
         0.00000E+00
         0.00000E+00
         0.00000E+00
         0.00000E+00
         0.00000E+00
         0.00000E+00
         0.00000E+00
         0.00000E+00
         0.00000E+00
         0.00000E+00
         0.00000E+00
         0.00000E+00
         0.00000E+00
         0.00000E+00
         0.00000E+00
         0.00000E+00
         0.00000E+00
         0.00000E+00
         0.00000E+00
         0.00000E+00
         0.00000E+00
         0.00000E+00
         0.00000E+00
         0.00000E+00
         0.00000E+00
         0.00000E+00
         0.00000E+00
         0.00000E+00
         0.00000E+00
         0.00000E+00
         0.00000E+00
         0.00000E+00
         0.00000E+00
         0.00000E+00
         0.00000E+00
         0.00000E+00
         0.00000E+00
         0.00000E+00
         0.00000E+00
         0.00000E+00
         0.00000E+00
         0.00000E+00
         0.00000E+00
         0.00000E+00
         0.00000E+00
         0.00000E+00
         0.00000E+00
         0.00000E+00
         0.00000E+00
         0.00000E+00
         0.00000E+00
         0.00000E+00
         0.00000E+00
         0.00000E+00
         0.00000E+00
         0.00000E+00
         0.00000E+00
         0.00000E+00
         0.00000E+00
         0.00000E+00
         0.00000E+00
         0.00000E+00
         0.00000E+00
         0.00000E+00
         0.00000E+00
         0.00000E+00
         0.00000E+00
         0.00000E+00
         0.00000E+00
         0.00000E+00
         0.00000E+00
         0.00000E+00
         0.00000E+00
         0.00000E+00
         0.00000E+00
         0.00000E+00
         0.00000E+00
         0.00000E+00
         0.00000E+00
         0.00000E+00
         0.00000E+00
         0.00000E+00
         0.00000E+00
         0.00000E+00
         0.00000E+00
         0.00000E+00
         0.00000E+00
         0.00000E+00
         0.00000E+00
         0.00000E+00
         0.00000E+00
         0.00000E+00
         0.00000E+00
         0.00000E+00
         0.00000E+00
         0.00000E+00
         0.00000E+00
         0.00000E+00
         0.00000E+00
         0.00000E+00
         0.00000E+00
         0.00000E+00
         0.00000E+00
         0.00000E+00
         0.00000E+00
         0.00000E+00
         0.00000E+00
         0.00000E+00
         0.00000E+00
         0.00000E+00
         0.00000E+00
         0.00000E+00
         0.00000E+00
         0.00000E+00
         0.00000E+00
         0.00000E+00
         0.00000E+00
         0.00000E+00
         0.00000E+00
         0.00000E+00
         0.00000E+00
         0.00000E+00
         0.00000E+00
         0.00000E+00
         0.00000E+00
         0.00000E+00
         0.00000E+00
         0.00000E+00
         0.00000E+00
         0.00000E+00
         0.00000E+00
         0.00000E+00
         0.00000E+00
         0.00000E+00
         0.00000E+00
         0.00000E+00
         0.00000E+00
         0.00000E+00
         0.00000E+00
         0.00000E+00
         0.00000E+00
         0.00000E+00
         0.00000E+00
         0.00000E+00
         0.00000E+00
         0.00000E+00
         0.00000E+00
         0.00000E+00
         0.00000E+00
         0.00000E+00
         0.00000E+00
         0.00000E+00
         0.00000E+00
         0.00000E+00
         0.00000E+00
         0.00000E+00
         0.00000E+00
         0.00000E+00
         0.00000E+00
         0.00000E+00
         0.00000E+00
         0.00000E+00
         0.00000E+00
         0.00000E+00
         0.00000E+00
         0.00000E+00
         0.00000E+00
         0.00000E+00
         0.00000E+00
         0.00000E+00
         0.00000E+00
         0.00000E+00
         0.00000E+00
         0.00000E+00
         0.00000E+00
         0.00000E+00
         0.00000E+00
         0.00000E+00
         0.00000E+00
         0.00000E+00
         0.00000E+00
         0.00000E+00
         0.00000E+00
         0.00000E+00
         0.00000E+00
         0.00000E+00
         0.00000E+00
         0.00000E+00
         0.00000E+00
         0.00000E+00
         0.00000E+00
         0.00000E+00
         0.00000E+00
         0.00000E+00
         0.00000E+00
         0.00000E+00
         0.00000E+00
         0.00000E+00
         0.00000E+00
         0.00000E+00
         0.00000E+00
         0.00000E+00
         0.00000E+00
         0.00000E+00
         0.00000E+00
         0.00000E+00
         0.00000E+00
         0.00000E+00
         0.00000E+00
         0.00000E+00
         0.00000E+00
         0.00000E+00
         0.00000E+00
         0.00000E+00
         0.00000E+00
         0.00000E+00
         0.00000E+00
         0.00000E+00
         0.00000E+00
         0.00000E+00
         0.00000E+00
         0.00000E+00
         0.00000E+00
         0.00000E+00
         0.00000E+00
         0.00000E+00
         0.00000E+00
         0.00000E+00
         0.00000E+00
         0.00000E+00
         0.00000E+00
         0.00000E+00
         0.00000E+00
         0.00000E+00
         0.00000E+00
         0.00000E+00
         0.00000E+00
         0.00000E+00
         0.00000E+00
         0.00000E+00
         0.00000E+00
         0.00000E+00
         0.00000E+00
         0.00000E+00
         0.00000E+00
         0.00000E+00
         0.00000E+00
         0.00000E+00
         0.00000E+00
         0.00000E+00
         0.00000E+00
         0.00000E+00
         0.00000E+00
         0.00000E+00
         0.00000E+00
         0.00000E+00
         0.00000E+00
         0.00000E+00
         0.00000E+00
         0.00000E+00
         0.00000E+00
         0.00000E+00
         0.00000E+00
         0.00000E+00
         0.00000E+00
         0.00000E+00
         0.00000E+00
         0.00000E+00
         0.00000E+00
         0.00000E+00
         0.00000E+00
         0.00000E+00
         0.00000E+00
         0.00000E+00
         0.00000E+00
         0.00000E+00
         0.00000E+00
         0.00000E+00
         0.00000E+00
         0.00000E+00
         0.00000E+00
         0.00000E+00
         0.00000E+00
         0.00000E+00
         0.00000E+00
         0.00000E+00
         0.00000E+00
         0.00000E+00
         0.00000E+00
         0.00000E+00
         0.00000E+00
         0.00000E+00
         0.00000E+00
         0.00000E+00
         0.00000E+00
         0.00000E+00
         0.00000E+00
         0.00000E+00
         0.00000E+00
         0.00000E+00
         0.00000E+00
         0.00000E+00
         0.00000E+00
         0.00000E+00
         0.00000E+00
         0.00000E+00
         0.00000E+00
         0.00000E+00
         0.00000E+00
         0.00000E+00
         0.00000E+00
         0.00000E+00
         0.00000E+00
         0.00000E+00
         0.00000E+00
         0.00000E+00
         0.00000E+00
         0.00000E+00
         0.00000E+00
         0.00000E+00
         0.00000E+00
         0.00000E+00
         0.00000E+00
         0.00000E+00
         0.00000E+00
         0.00000E+00
         0.00000E+00
         0.00000E+00
         0.00000E+00
         0.00000E+00
         0.00000E+00
         0.00000E+00
         0.00000E+00
         0.00000E+00
         0.00000E+00
         0.00000E+00
         0.00000E+00
         0.00000E+00
         0.00000E+00
         0.00000E+00
         0.00000E+00
         0.00000E+00
         0.00000E+00
         0.00000E+00
         0.00000E+00
         0.00000E+00
         0.00000E+00
         0.00000E+00
         0.00000E+00
         0.00000E+00
         0.00000E+00
         0.00000E+00
         0.00000E+00
         0.00000E+00
         0.00000E+00
         0.00000E+00
         0.00000E+00
         0.00000E+00
         0.00000E+00
         0.00000E+00
         0.00000E+00
         0.00000E+00
         0.00000E+00
         0.00000E+00
         0.00000E+00
         0.00000E+00
         0.00000E+00
         0.00000E+00
         0.00000E+00
         0.00000E+00
         0.00000E+00
         0.00000E+00
         0.00000E+00
         0.00000E+00
         0.00000E+00
         0.00000E+00
         0.00000E+00
         0.00000E+00
         0.00000E+00
         0.00000E+00
         0.00000E+00
         0.00000E+00
         0.00000E+00
         0.00000E+00
         0.00000E+00
         0.00000E+00
         0.00000E+00
         0.00000E+00
         0.00000E+00
         0.00000E+00
         0.00000E+00
         0.00000E+00
         0.00000E+00
         0.00000E+00
         0.00000E+00
         0.00000E+00
         0.00000E+00
         0.00000E+00
         0.00000E+00
         0.00000E+00
         0.00000E+00
         0.00000E+00
         0.00000E+00
         0.00000E+00
         0.00000E+00
         0.00000E+00
         0.00000E+00
         0.00000E+00
         0.00000E+00
         0.00000E+00
         0.00000E+00
         0.00000E+00
         0.00000E+00
         0.00000E+00
         0.00000E+00
         0.00000E+00
         0.00000E+00
         0.00000E+00
         0.00000E+00
         0.00000E+00
         0.00000E+00
         0.00000E+00
         0.00000E+00
         0.00000E+00
         0.00000E+00
         0.00000E+00
         0.00000E+00
         0.00000E+00
         0.00000E+00
         0.00000E+00
         0.00000E+00
         0.00000E+00
         0.00000E+00
         0.00000E+00
         0.00000E+00
         0.00000E+00
         0.00000E+00
         0.00000E+00
         0.00000E+00
         0.00000E+00
         0.00000E+00
         0.00000E+00
         0.00000E+00
         0.00000E+00
         0.00000E+00
         0.00000E+00
         0.00000E+00
         0.00000E+00
         0.00000E+00
         0.00000E+00
         0.00000E+00
         0.00000E+00
         0.00000E+00
         0.00000E+00
         0.00000E+00
         0.00000E+00
         0.00000E+00
         0.00000E+00
         0.00000E+00
         0.00000E+00
         0.00000E+00
         0.00000E+00
         0.00000E+00
         0.00000E+00
         0.00000E+00
         0.00000E+00
         0.00000E+00
         0.00000E+00
         0.00000E+00
         0.00000E+00
         0.00000E+00
         0.00000E+00
         0.00000E+00
         0.00000E+00
         0.00000E+00
         0.00000E+00
         0.00000E+00
         0.00000E+00
         0.00000E+00
         0.00000E+00
         0.00000E+00
         0.00000E+00
         0.00000E+00
         0.00000E+00
         0.00000E+00
         0.00000E+00
         0.00000E+00
         0.00000E+00
         0.00000E+00
         0.00000E+00
         0.00000E+00
         0.00000E+00
         0.00000E+00
         0.00000E+00
         0.00000E+00
         0.00000E+00
         0.00000E+00
         0.00000E+00
         0.00000E+00
         0.00000E+00
         0.00000E+00
         0.00000E+00
         0.00000E+00
         0.00000E+00
         0.00000E+00
         0.00000E+00
         0.00000E+00
         0.00000E+00
         0.00000E+00
         0.00000E+00
         0.00000E+00
         0.00000E+00
         0.00000E+00
         0.00000E+00
         0.00000E+00
         0.00000E+00
         0.00000E+00
         0.00000E+00
         0.00000E+00
         0.00000E+00
         0.00000E+00
         0.00000E+00
         0.00000E+00
         0.00000E+00
         0.00000E+00
         0.00000E+00
         0.00000E+00
         0.00000E+00
         0.00000E+00
         0.00000E+00
         0.00000E+00
         0.00000E+00
         0.00000E+00
         0.00000E+00
         0.00000E+00
         0.00000E+00
         0.00000E+00
         0.00000E+00
         0.00000E+00
         0.00000E+00
         0.00000E+00
         0.00000E+00
         0.00000E+00
         0.00000E+00
         0.00000E+00
         0.00000E+00
         0.00000E+00
         0.00000E+00
         0.00000E+00
         0.00000E+00
         0.00000E+00
         0.00000E+00
         0.00000E+00
         0.00000E+00
         0.00000E+00
         0.00000E+00
         0.00000E+00
         0.00000E+00
         0.00000E+00
         0.00000E+00
         0.00000E+00
         0.00000E+00
         0.00000E+00
         0.00000E+00
         0.00000E+00
         0.00000E+00
         0.00000E+00
         0.00000E+00
         0.00000E+00
         0.00000E+00
         0.00000E+00
         0.00000E+00
         0.00000E+00
         0.00000E+00
         0.00000E+00
         0.00000E+00
         0.00000E+00
         0.00000E+00
         0.00000E+00
         0.00000E+00
         0.00000E+00
         0.00000E+00
         0.00000E+00
         0.00000E+00
         0.00000E+00
         0.00000E+00
         0.00000E+00
         0.00000E+00
         0.00000E+00
         0.00000E+00
         0.00000E+00
         0.00000E+00
         0.00000E+00
         0.00000E+00
         0.00000E+00
         0.00000E+00
         0.00000E+00
         0.00000E+00
         0.00000E+00
         0.00000E+00
         0.00000E+00
         0.00000E+00
         0.00000E+00
         0.00000E+00
         0.00000E+00
         0.00000E+00
         0.00000E+00
         0.00000E+00
         0.00000E+00
         0.00000E+00
         0.00000E+00
         0.00000E+00
         0.00000E+00
         0.00000E+00
         0.00000E+00
         0.00000E+00
         0.00000E+00
         0.00000E+00
         0.00000E+00
         0.00000E+00
         0.00000E+00
         0.00000E+00
         0.00000E+00
         0.00000E+00
         0.00000E+00
         0.00000E+00
         0.00000E+00
         0.00000E+00
         0.00000E+00
         0.00000E+00
         0.00000E+00
         0.00000E+00
         0.00000E+00
         0.00000E+00
         0.00000E+00
         0.00000E+00
         0.00000E+00
         0.00000E+00
         0.00000E+00
         0.00000E+00
         0.00000E+00
         0.00000E+00
         0.00000E+00
         0.00000E+00
         0.00000E+00
         0.00000E+00
         0.00000E+00
         0.00000E+00
         0.00000E+00
         0.00000E+00
         0.00000E+00
         0.00000E+00
         0.00000E+00
         0.00000E+00
         0.00000E+00
         0.00000E+00
         0.00000E+00
         0.00000E+00
         0.00000E+00
         0.00000E+00
         0.00000E+00
         0.00000E+00
         0.00000E+00
         0.00000E+00
         0.00000E+00
         0.00000E+00
         0.00000E+00
         0.00000E+00
         0.00000E+00
         0.00000E+00
         0.00000E+00
         0.00000E+00
         0.00000E+00
         0.00000E+00
         0.00000E+00
         0.00000E+00
         0.00000E+00
         0.00000E+00
         0.00000E+00
         0.00000E+00
         0.00000E+00
         0.00000E+00
         0.00000E+00
         0.00000E+00
         0.00000E+00
         0.00000E+00
         0.00000E+00
         0.00000E+00
         0.00000E+00
         0.00000E+00
         0.00000E+00
         0.00000E+00
         0.00000E+00
         0.00000E+00
         0.00000E+00
         0.00000E+00
         0.00000E+00
         0.00000E+00
         0.00000E+00
         0.00000E+00
         0.00000E+00
         0.00000E+00
         0.00000E+00
         0.00000E+00
         0.00000E+00
         0.00000E+00
         0.00000E+00
         0.00000E+00
         0.00000E+00
         0.00000E+00
         0.00000E+00
         0.00000E+00
         0.00000E+00
         0.00000E+00
         0.00000E+00
         0.00000E+00
         0.00000E+00
         0.00000E+00
         0.00000E+00
         0.00000E+00
         0.00000E+00
         0.00000E+00
         0.00000E+00
         0.00000E+00
         0.00000E+00
         0.00000E+00
         0.00000E+00
         0.00000E+00
         0.00000E+00
         0.00000E+00
         0.00000E+00
         0.00000E+00
         0.00000E+00
         0.00000E+00
         0.00000E+00
         0.00000E+00
         0.00000E+00
         0.00000E+00
         0.00000E+00
         0.00000E+00
         0.00000E+00
         0.00000E+00
         0.00000E+00
         0.00000E+00
         0.00000E+00
         0.00000E+00
         0.00000E+00
         0.00000E+00
         0.00000E+00
         0.00000E+00
         0.00000E+00
         0.00000E+00
         0.00000E+00
         0.00000E+00
         0.00000E+00
         0.00000E+00
         0.00000E+00
         0.00000E+00
         0.00000E+00
         0.00000E+00
         0.00000E+00
         0.00000E+00
         0.00000E+00
         0.00000E+00
         0.00000E+00
         0.00000E+00
         0.00000E+00
         0.00000E+00
         0.00000E+00
         0.00000E+00
         0.00000E+00
         0.00000E+00
         0.00000E+00
         0.00000E+00
         0.00000E+00
         0.00000E+00
         0.00000E+00
         0.00000E+00
         0.00000E+00
         0.00000E+00
         0.00000E+00
         0.00000E+00
         0.00000E+00
         0.00000E+00
         0.00000E+00
         0.00000E+00
         0.00000E+00
         0.00000E+00
         0.00000E+00
         0.00000E+00
         0.00000E+00
         0.00000E+00
         0.00000E+00
         0.00000E+00
         0.00000E+00
         0.00000E+00
         0.00000E+00
         0.00000E+00
         0.00000E+00
         0.00000E+00
         0.00000E+00
         0.00000E+00
         0.00000E+00
         0.00000E+00
         0.00000E+00
         0.00000E+00
         0.00000E+00
         0.00000E+00
         0.00000E+00
         0.00000E+00
         0.00000E+00
         0.00000E+00
         0.00000E+00
         0.00000E+00
         0.00000E+00
         0.00000E+00
         0.00000E+00
         0.00000E+00
         0.00000E+00
         0.00000E+00
         0.00000E+00
         0.00000E+00
         0.00000E+00
         0.00000E+00
         0.00000E+00
         0.00000E+00
         0.00000E+00
         0.00000E+00
         0.00000E+00
         0.00000E+00
         0.00000E+00
         0.00000E+00
         0.00000E+00
         0.00000E+00
         0.00000E+00
         0.00000E+00
         0.00000E+00
         0.00000E+00
         0.00000E+00
         0.00000E+00
         0.00000E+00
         0.00000E+00
         0.00000E+00
         0.00000E+00
         0.00000E+00
         0.00000E+00
         0.00000E+00
         0.00000E+00
         0.00000E+00
         0.00000E+00
         0.00000E+00
         0.00000E+00
         0.00000E+00
         0.00000E+00
         0.00000E+00
         0.00000E+00
         0.00000E+00
         0.00000E+00
         0.00000E+00
         0.00000E+00
         0.00000E+00
         0.00000E+00
         0.00000E+00
         0.00000E+00
         0.00000E+00
         0.00000E+00
         0.00000E+00
         0.00000E+00
         0.00000E+00
         0.00000E+00
         0.00000E+00
         0.00000E+00
         0.00000E+00
         0.00000E+00
         0.00000E+00
         0.00000E+00
         0.00000E+00
         0.00000E+00
         0.00000E+00
         0.00000E+00
         0.00000E+00
         0.00000E+00
         0.00000E+00
         0.00000E+00
         0.00000E+00
         0.00000E+00
         0.00000E+00
         0.00000E+00
         0.00000E+00
         0.00000E+00
         0.00000E+00
         0.00000E+00
         0.00000E+00
         0.00000E+00
         0.00000E+00
         0.00000E+00
         0.00000E+00
         0.00000E+00
         0.00000E+00
         0.00000E+00
         0.00000E+00
         0.00000E+00
         0.00000E+00
         0.00000E+00
         0.00000E+00
         0.00000E+00
         0.00000E+00
         0.00000E+00
         0.00000E+00
         0.00000E+00
         0.00000E+00
         0.00000E+00
         0.00000E+00
         0.00000E+00
         0.00000E+00
         0.00000E+00
         0.00000E+00
         0.00000E+00
         0.00000E+00
         0.00000E+00
         0.00000E+00
         0.00000E+00
         0.00000E+00
         0.00000E+00
         0.00000E+00
         0.00000E+00
         0.00000E+00
         0.00000E+00
         0.00000E+00
         0.00000E+00
         0.00000E+00
         0.00000E+00
         0.00000E+00
         0.00000E+00
         0.00000E+00
         0.00000E+00
         0.00000E+00
         0.00000E+00
         0.00000E+00
         0.00000E+00
         0.00000E+00
         0.00000E+00
         0.00000E+00
         0.00000E+00
         0.00000E+00
         0.00000E+00
         0.00000E+00
         0.00000E+00
         0.00000E+00
         0.00000E+00
         0.00000E+00
         0.00000E+00
         0.00000E+00
         0.00000E+00
         0.00000E+00
         0.00000E+00
         0.00000E+00
         0.00000E+00
         0.00000E+00
         0.00000E+00
         0.00000E+00
         0.00000E+00
         0.00000E+00
         0.00000E+00
         0.00000E+00
         0.00000E+00
         0.00000E+00
         0.00000E+00
         0.00000E+00
         0.00000E+00
         0.00000E+00
         0.00000E+00
         0.00000E+00
         0.00000E+00
         0.00000E+00
         0.00000E+00
         0.00000E+00
         0.00000E+00
         0.00000E+00
         0.00000E+00
         0.00000E+00
         0.00000E+00
         0.00000E+00
         0.00000E+00
         0.00000E+00
         0.00000E+00
         0.00000E+00
         0.00000E+00
         0.00000E+00
         0.00000E+00
         0.00000E+00
         0.00000E+00
         0.00000E+00
         0.00000E+00
         0.00000E+00
         0.00000E+00
         0.00000E+00
         0.00000E+00
         0.00000E+00
         0.00000E+00
         0.00000E+00
         0.00000E+00
         0.00000E+00
         0.00000E+00
         0.00000E+00
         0.00000E+00
         0.00000E+00
         0.00000E+00
         0.00000E+00
         0.00000E+00
         0.00000E+00
         0.00000E+00
         0.00000E+00
         0.00000E+00
         0.00000E+00
         0.00000E+00
         0.00000E+00
         0.00000E+00
         0.00000E+00
         0.00000E+00
         0.00000E+00
         0.00000E+00
         0.00000E+00
         0.00000E+00
         0.00000E+00
         0.00000E+00
         0.00000E+00
         0.00000E+00
         0.00000E+00
         0.00000E+00
         0.00000E+00
         0.00000E+00
         0.00000E+00
         0.00000E+00
         0.00000E+00
         0.00000E+00
         0.00000E+00
         0.00000E+00
         0.00000E+00
         0.00000E+00
         0.00000E+00
         0.00000E+00
         0.00000E+00
         0.00000E+00
         0.00000E+00
         0.00000E+00
         0.00000E+00
         0.00000E+00
         0.00000E+00
         0.00000E+00
         0.00000E+00
         0.00000E+00
         0.00000E+00
         0.00000E+00
         0.00000E+00
         0.00000E+00
         0.00000E+00
         0.00000E+00
         0.00000E+00
         0.00000E+00
         0.00000E+00
         0.00000E+00
         0.00000E+00
         0.00000E+00
         0.00000E+00
         0.00000E+00
         0.00000E+00
         0.00000E+00
         0.00000E+00
         0.00000E+00
         0.00000E+00
         0.00000E+00
         0.00000E+00
         0.00000E+00
         0.00000E+00
         0.00000E+00
         0.00000E+00
         0.00000E+00
         0.00000E+00
         0.00000E+00
         0.00000E+00
         0.00000E+00
         0.00000E+00
         0.00000E+00
         0.00000E+00
         0.00000E+00
         0.00000E+00
         0.00000E+00
         0.00000E+00
         0.00000E+00
         0.00000E+00
         0.00000E+00
         0.00000E+00
         0.00000E+00
         0.00000E+00
         0.00000E+00
         0.00000E+00
         0.00000E+00
         0.00000E+00
         0.00000E+00
         0.00000E+00
         0.00000E+00
         0.00000E+00
         0.00000E+00
         0.00000E+00
         0.00000E+00
         0.00000E+00
         0.00000E+00
         0.00000E+00
         0.00000E+00
         0.00000E+00
         0.00000E+00
         0.00000E+00
         0.00000E+00
         0.00000E+00
         0.00000E+00
         0.00000E+00
         0.00000E+00
         0.00000E+00
         0.00000E+00
         0.00000E+00
         0.00000E+00
         0.00000E+00
         0.00000E+00
         0.00000E+00
         0.00000E+00
         0.00000E+00
         0.00000E+00
         0.00000E+00
         0.00000E+00
         0.00000E+00
         0.00000E+00
         0.00000E+00
         0.00000E+00
         0.00000E+00
         0.00000E+00
         0.00000E+00
         0.00000E+00
         0.00000E+00
         0.00000E+00
         0.00000E+00
         0.00000E+00
         0.00000E+00
         0.00000E+00
         0.00000E+00
         0.00000E+00
         0.00000E+00
         0.00000E+00
         0.00000E+00
         0.00000E+00
         0.00000E+00
         0.00000E+00
         0.00000E+00
         0.00000E+00
         0.00000E+00
         0.00000E+00
         0.00000E+00
         0.00000E+00
         0.00000E+00
         0.00000E+00
         0.00000E+00
         0.00000E+00
         0.00000E+00
         0.00000E+00
         0.00000E+00
         0.00000E+00
         0.00000E+00
         0.00000E+00
         0.00000E+00
         0.00000E+00
         0.00000E+00
         0.00000E+00
         0.00000E+00
         0.00000E+00
         0.00000E+00
         0.00000E+00
         0.00000E+00
         0.00000E+00
         0.00000E+00
         0.00000E+00
         0.00000E+00
         0.00000E+00
         0.00000E+00
         0.00000E+00
         0.00000E+00
         0.00000E+00
         0.00000E+00
         0.00000E+00
         0.00000E+00
         0.00000E+00
         0.00000E+00
         0.00000E+00
         0.00000E+00
         0.00000E+00
         0.00000E+00
         0.00000E+00
         0.00000E+00
         0.00000E+00
         0.00000E+00
         0.00000E+00
         0.00000E+00
         0.00000E+00
         0.00000E+00
         0.00000E+00
         0.00000E+00
         0.00000E+00
         0.00000E+00
         0.00000E+00
         0.00000E+00
         0.00000E+00
         0.00000E+00
         0.00000E+00
         0.00000E+00
         0.00000E+00
         0.00000E+00
         0.00000E+00
         0.00000E+00
         0.00000E+00
         0.00000E+00
         0.00000E+00
         0.00000E+00
         0.00000E+00
         0.00000E+00
         0.00000E+00
         0.00000E+00
         0.00000E+00
         0.00000E+00
         0.00000E+00
         0.00000E+00
         0.00000E+00
         0.00000E+00
         0.00000E+00
         0.00000E+00
         0.00000E+00
         0.00000E+00
         0.00000E+00
         0.00000E+00
         0.00000E+00
         0.00000E+00
         0.00000E+00
         0.00000E+00
         0.00000E+00
         0.00000E+00
         0.00000E+00
         0.00000E+00
         0.00000E+00
         0.00000E+00
         0.00000E+00
         0.00000E+00
         0.00000E+00
         0.00000E+00
         0.00000E+00
         0.00000E+00
         0.00000E+00
         0.00000E+00
         0.00000E+00
         0.00000E+00
         0.00000E+00
         0.00000E+00
         0.00000E+00
         0.00000E+00
         0.00000E+00
         0.00000E+00
         0.00000E+00
         0.00000E+00
         0.00000E+00
         0.00000E+00
         0.00000E+00
         0.00000E+00
         0.00000E+00
         0.00000E+00
         0.00000E+00
         0.00000E+00
         0.00000E+00
         0.00000E+00
         0.00000E+00
         0.00000E+00
         0.00000E+00
         0.00000E+00
         0.00000E+00
         0.00000E+00
         0.00000E+00
         0.00000E+00
         0.00000E+00
         0.00000E+00
         0.00000E+00
         0.00000E+00
         0.00000E+00
         0.00000E+00
         0.00000E+00
         0.00000E+00
         0.00000E+00
         0.00000E+00
         0.00000E+00
         0.00000E+00
         0.00000E+00
         0.00000E+00
         0.00000E+00
         0.00000E+00
         0.00000E+00
         0.00000E+00
         0.00000E+00
         0.00000E+00
         0.00000E+00
         0.00000E+00
         0.00000E+00
         0.00000E+00
         0.00000E+00
         0.00000E+00
         0.00000E+00
         0.00000E+00
         0.00000E+00
         0.00000E+00
         0.00000E+00
         0.00000E+00
         0.00000E+00
         0.00000E+00
         0.00000E+00
         0.00000E+00
         0.00000E+00
         0.00000E+00
         0.00000E+00
         0.00000E+00
         0.00000E+00
         0.00000E+00
         0.00000E+00
         0.00000E+00
         0.00000E+00
         0.00000E+00
         0.00000E+00
         0.00000E+00
         0.00000E+00
         0.00000E+00
         0.00000E+00
         0.00000E+00
         0.00000E+00
         0.00000E+00
         0.00000E+00
         0.00000E+00
         0.00000E+00
         0.00000E+00
         0.00000E+00
         0.00000E+00
         0.00000E+00
         0.00000E+00
         0.00000E+00
         0.00000E+00
         0.00000E+00
         0.00000E+00
         0.00000E+00
         0.00000E+00
         0.00000E+00
         0.00000E+00
         0.00000E+00
         0.00000E+00
         0.00000E+00
         0.00000E+00
         0.00000E+00
         0.00000E+00
         0.00000E+00
         0.00000E+00
         0.00000E+00
         0.00000E+00
         0.00000E+00
         0.00000E+00
         0.00000E+00
         0.00000E+00
         0.00000E+00
         0.00000E+00
         0.00000E+00
         0.00000E+00
         0.00000E+00
         0.00000E+00
         0.00000E+00
         0.00000E+00
         0.00000E+00
         0.00000E+00
         0.00000E+00
         0.00000E+00
         0.00000E+00
         0.00000E+00
         0.00000E+00
         0.00000E+00
         0.00000E+00
         0.00000E+00
         0.00000E+00
         0.00000E+00
         0.00000E+00
         0.00000E+00
         0.00000E+00
         0.00000E+00
         0.00000E+00
         0.00000E+00
         0.00000E+00
         0.00000E+00
         0.00000E+00
         0.00000E+00
         0.00000E+00
         0.00000E+00
         0.00000E+00
         0.00000E+00
         0.00000E+00
         0.00000E+00
         0.00000E+00
         0.00000E+00
         0.00000E+00
         0.00000E+00
         0.00000E+00
         0.00000E+00
         0.00000E+00
         0.00000E+00
         0.00000E+00
         0.00000E+00
         0.00000E+00
         0.00000E+00
         0.00000E+00
         0.00000E+00
         0.00000E+00
         0.00000E+00
         0.00000E+00
         0.00000E+00
         0.00000E+00
         0.00000E+00
         0.00000E+00
         0.00000E+00
         0.00000E+00
         0.00000E+00
         0.00000E+00
         0.00000E+00
         0.00000E+00
         0.00000E+00
         0.00000E+00
         0.00000E+00
         0.00000E+00
         0.00000E+00
         0.00000E+00
         0.00000E+00
         0.00000E+00
         0.00000E+00
         0.00000E+00
         0.00000E+00
         0.00000E+00
         0.00000E+00
         0.00000E+00
         0.00000E+00
         0.00000E+00
         0.00000E+00
         0.00000E+00
         0.00000E+00
         0.00000E+00
         0.00000E+00
         0.00000E+00
         0.00000E+00
         0.00000E+00
         0.00000E+00
         0.00000E+00
         0.00000E+00
         0.00000E+00
         0.00000E+00
         0.00000E+00
         0.00000E+00
         0.00000E+00
         0.00000E+00
         0.00000E+00
         0.00000E+00
         0.00000E+00
         0.00000E+00
         0.00000E+00
         0.00000E+00
         0.00000E+00
         0.00000E+00
         0.00000E+00
         0.00000E+00
         0.00000E+00
         0.00000E+00
         0.00000E+00
         0.00000E+00
         0.00000E+00
         0.00000E+00
         0.00000E+00
         0.00000E+00
         0.00000E+00
         0.00000E+00
         0.00000E+00
         0.00000E+00
         0.00000E+00
         0.00000E+00
         0.00000E+00
         0.00000E+00
         0.00000E+00
         0.00000E+00
         0.00000E+00
         0.00000E+00
         0.00000E+00
         0.00000E+00
         0.00000E+00
         0.00000E+00
         0.00000E+00
         0.00000E+00
         0.00000E+00
         0.00000E+00
         0.00000E+00
         0.00000E+00
  
SCALARS                            eps  double 1
LOOKUP_TABLE default
         0.93567E+01
         0.92415E+01
         0.93146E+01
         0.94455E+01
         0.00000E+00
         0.00000E+00
         0.00000E+00
         0.00000E+00
         0.92381E+01
         0.92768E+01
         0.00000E+00
         0.00000E+00
         0.90745E+01
         0.90683E+01
         0.00000E+00
         0.00000E+00
         0.94263E+01
         0.90774E+01
         0.00000E+00
         0.00000E+00
         0.89489E+01
         0.88495E+01
         0.90082E+01
         0.00000E+00
         0.00000E+00
         0.00000E+00
         0.88531E+01
         0.87075E+01
         0.00000E+00
         0.00000E+00
         0.94200E+01
         0.92683E+01
         0.95670E+01
         0.00000E+00
         0.00000E+00
         0.00000E+00
         0.93323E+01
         0.91388E+01
         0.00000E+00
         0.00000E+00
         0.92559E+01
         0.91066E+01
         0.00000E+00
         0.00000E+00
         0.93822E+01
         0.94380E+01
         0.00000E+00
         0.00000E+00
         0.89865E+01
         0.00000E+00
         0.94271E+01
         0.00000E+00
         0.88109E+01
         0.00000E+00
         0.87651E+01
         0.00000E+00
         0.87660E+01
         0.89287E+01
         0.00000E+00
         0.00000E+00
         0.94169E+01
         0.93588E+01
         0.00000E+00
         0.00000E+00
         0.94534E+01
         0.00000E+00
         0.93841E+01
         0.00000E+00
         0.92028E+01
         0.91839E+01
         0.00000E+00
         0.00000E+00
         0.91424E+01
         0.00000E+00
         0.86557E+01
         0.00000E+00
         0.86303E+01
         0.00000E+00
         0.86433E+01
         0.00000E+00
         0.87146E+01
         0.87872E+01
         0.00000E+00
         0.00000E+00
         0.89343E+01
         0.00000E+00
         0.93794E+01
         0.00000E+00
         0.93104E+01
         0.00000E+00
         0.92543E+01
         0.92221E+01
         0.00000E+00
         0.00000E+00
         0.92602E+01
         0.00000E+00
         0.92876E+01
         0.00000E+00
         0.92631E+01
         0.00000E+00
         0.92551E+01
         0.92796E+01
         0.00000E+00
         0.00000E+00
         0.91207E+01
         0.91874E+01
         0.00000E+00
         0.00000E+00
         0.91093E+01
         0.00000E+00
         0.91863E+01
         0.00000E+00
         0.91109E+01
         0.00000E+00
         0.89453E+01
         0.00000E+00
         0.87851E+01
         0.00000E+00
         0.86887E+01
         0.00000E+00
         0.86788E+01
         0.00000E+00
         0.86817E+01
         0.00000E+00
         0.87861E+01
         0.00000E+00
         0.89827E+01
         0.00000E+00
         0.91977E+01
         0.00000E+00
         0.93223E+01
         0.00000E+00
         0.94458E+01
         0.00000E+00
         0.95274E+01
         0.00000E+00
         0.95248E+01
         0.00000E+00
         0.93248E+01
         0.00000E+00
         0.91848E+01
         0.00000E+00
         0.91387E+01
         0.00000E+00
         0.92140E+01
         0.00000E+00
         0.92523E+01
         0.00000E+00
         0.91858E+01
         0.00000E+00
         0.91858E+01
         0.00000E+00
         0.92359E+01
         0.00000E+00
         0.93009E+01
         0.00000E+00
         0.32746E+00
         0.32899E+00
         0.32863E+00
         0.32745E+00
         0.33182E+00
         0.32836E+00
         0.33265E+00
         0.33032E+00
         0.32745E+00
         0.32855E+00
         0.33539E+00
         0.33638E+00
         0.33405E+00
         0.33382E+00
         0.33540E+00
         0.32745E+00
         0.32744E+00
         0.32745E+00
         0.32929E+00
         0.32834E+00
         0.32977E+00
         0.32888E+00
         0.33057E+00
         0.33005E+00
         0.32843E+00
         0.32853E+00
         0.33138E+00
         0.33111E+00
         0.33341E+00
         0.33001E+00
         0.32744E+00
         0.32903E+00
         0.32744E+00
         0.32789E+00
         0.33699E+00
         0.33376E+00
         0.33235E+00
         0.33407E+00
         0.33427E+00
         0.33719E+00
         0.33955E+00
         0.33416E+00
         0.32974E+00
         0.33027E+00
         0.33250E+00
         0.33688E+00
         0.33308E+00
         0.32950E+00
         0.32973E+00
         0.33248E+00
         0.33563E+00
         0.33149E+00
         0.34638E+00
         0.34193E+00
         0.34275E+00
         0.34180E+00
         0.34220E+00
         0.34480E+00
         0.34732E+00
         0.34795E+00
         0.34751E+00
         0.34787E+00
         0.34894E+00
         0.34231E+00
         0.33973E+00
         0.33878E+00
         0.33746E+00
         0.33652E+00
         0.33665E+00
         0.33853E+00
         0.34493E+00
         0.34341E+00
         0.34103E+00
         0.34095E+00
         0.34136E+00
         0.34348E+00
         0.34036E+00
         0.33929E+00
         0.69275E-02
         0.29028E-02
         0.25605E-02
         0.77785E-03
         0.73169E-02
         0.40810E-02
         0.63198E-04
         0.67606E-02
         0.30558E-02
         0.61868E-02
         0.14094E-02
         0.16554E-01
         0.11782E-01
         0.42972E-02
         0.17494E-01
         0.41676E-02
         0.57303E-03
         0.00000E+00
         0.17837E-02
         0.00000E+00
         0.12317E-01
         0.11355E-01
         0.10973E-01
         0.53260E-03
         0.28748E-02
         0.00000E+00
         0.38763E-02
         0.00000E+00
         0.00000E+00
         0.33836E-02
         0.31024E-02
         0.19493E-03
         0.91173E-03
         0.37073E-03
         0.10399E-01
         0.49407E-02
         0.73307E-02
         0.13659E-01
         0.97575E-02
         0.88588E-02
         0.13945E-01
         0.12336E-01
         0.12440E-01
         0.88992E-02
         0.76042E-02
         0.11588E-01
         0.64901E-02
         0.50438E-02
         0.36065E-02
         0.48287E-02
         0.99206E-02
         0.58088E-02
         0.54917E-01
         0.56318E-01
         0.59033E-01
         0.58579E-01
         0.62686E-01
         0.67577E-01
         0.64697E-01
         0.57123E-01
         0.55574E-01
         0.59732E-01
         0.58468E-01
         0.57622E-01
         0.47010E-01
         0.44513E-01
         0.49252E-01
         0.53010E-01
         0.55148E-01
         0.60559E-01
         0.58113E-01
         0.59786E-01
         0.53472E-01
         0.50589E-01
         0.54190E-01
         0.52895E-01
         0.54536E-01
         0.54046E-01
         0.69351E-02
         0.29041E-02
         0.25637E-02
         0.78340E-03
         0.73122E-02
         0.40768E-02
         0.72762E-04
         0.67702E-02
         0.30665E-02
         0.62143E-02
         0.14093E-02
         0.16553E-01
         0.11788E-01
         0.42797E-02
         0.17516E-01
         0.41734E-02
         0.58331E-03
         0.00000E+00
         0.17865E-02
         0.00000E+00
         0.12318E-01
         0.11354E-01
         0.10972E-01
         0.53250E-03
         0.29006E-02
         0.00000E+00
         0.38786E-02
         0.00000E+00
         0.00000E+00
         0.33951E-02
         0.31083E-02
         0.19386E-03
         0.90494E-03
         0.37389E-03
         0.10405E-01
         0.49384E-02
         0.73283E-02
         0.13686E-01
         0.97866E-02
         0.88755E-02
         0.13956E-01
         0.12344E-01
         0.12441E-01
         0.88989E-02
         0.76020E-02
         0.11587E-01
         0.64902E-02
         0.50433E-02
         0.35969E-02
         0.48178E-02
         0.99132E-02
         0.57949E-02
         0.54896E-01
         0.56303E-01
         0.59033E-01
         0.58579E-01
         0.62675E-01
         0.67553E-01
         0.64668E-01
         0.57107E-01
         0.55559E-01
         0.59713E-01
         0.58457E-01
         0.57624E-01
         0.47005E-01
         0.44511E-01
         0.49258E-01
         0.53024E-01
         0.55163E-01
         0.60573E-01
         0.58110E-01
         0.59782E-01
         0.53466E-01
         0.50586E-01
         0.54170E-01
         0.52858E-01
         0.54503E-01
         0.54015E-01
         0.69428E-02
         0.29055E-02
         0.25669E-02
         0.78899E-03
         0.73073E-02
         0.40728E-02
         0.82372E-04
         0.67798E-02
         0.30772E-02
         0.62417E-02
         0.14092E-02
         0.16553E-01
         0.11794E-01
         0.42623E-02
         0.17537E-01
         0.41794E-02
         0.59377E-03
         0.00000E+00
         0.17894E-02
         0.00000E+00
         0.12320E-01
         0.11353E-01
         0.10971E-01
         0.53234E-03
         0.29262E-02
         0.00000E+00
         0.38809E-02
         0.00000E+00
         0.00000E+00
         0.34062E-02
         0.31144E-02
         0.19280E-03
         0.89815E-03
         0.37701E-03
         0.10411E-01
         0.49363E-02
         0.73257E-02
         0.13712E-01
         0.98158E-02
         0.88923E-02
         0.13968E-01
         0.12352E-01
         0.12444E-01
         0.88992E-02
         0.76003E-02
         0.11587E-01
         0.64903E-02
         0.50427E-02
         0.35873E-02
         0.48068E-02
         0.99061E-02
         0.57812E-02
         0.54875E-01
         0.56289E-01
         0.59033E-01
         0.58580E-01
         0.62665E-01
         0.67529E-01
         0.64640E-01
         0.57091E-01
         0.55544E-01
         0.59694E-01
         0.58447E-01
         0.57627E-01
         0.47001E-01
         0.44509E-01
         0.49265E-01
         0.53038E-01
         0.55178E-01
         0.60587E-01
         0.58106E-01
         0.59778E-01
         0.53460E-01
         0.50582E-01
         0.54151E-01
         0.52821E-01
         0.54470E-01
         0.53985E-01
         0.69505E-02
         0.29069E-02
         0.25702E-02
         0.79458E-03
         0.73025E-02
         0.40687E-02
         0.92066E-04
         0.67893E-02
         0.30879E-02
         0.62685E-02
         0.14092E-02
         0.16552E-01
         0.11800E-01
         0.42449E-02
         0.17559E-01
         0.41860E-02
         0.60464E-03
         0.00000E+00
         0.17926E-02
         0.00000E+00
         0.12322E-01
         0.11352E-01
         0.10971E-01
         0.53198E-03
         0.29513E-02
         0.00000E+00
         0.38828E-02
         0.00000E+00
         0.00000E+00
         0.34163E-02
         0.31208E-02
         0.19198E-03
         0.89132E-03
         0.38017E-03
         0.10417E-01
         0.49340E-02
         0.73233E-02
         0.13739E-01
         0.98456E-02
         0.89101E-02
         0.13980E-01
         0.12361E-01
         0.12446E-01
         0.89006E-02
         0.75990E-02
         0.11586E-01
         0.64911E-02
         0.50422E-02
         0.35778E-02
         0.47958E-02
         0.98986E-02
         0.57673E-02
         0.54853E-01
         0.56275E-01
         0.59032E-01
         0.58580E-01
         0.62654E-01
         0.67505E-01
         0.64611E-01
         0.57075E-01
         0.55529E-01
         0.59675E-01
         0.58436E-01
         0.57630E-01
         0.46997E-01
         0.44508E-01
         0.49272E-01
         0.53054E-01
         0.55196E-01
         0.60602E-01
         0.58103E-01
         0.59775E-01
         0.53453E-01
         0.50579E-01
         0.54131E-01
         0.52784E-01
         0.54438E-01
         0.53954E-01
         0.69580E-02
         0.29083E-02
         0.25734E-02
         0.80016E-03
         0.72979E-02
         0.40645E-02
         0.10168E-03
         0.67987E-02
         0.30985E-02
         0.62947E-02
         0.14093E-02
         0.16551E-01
         0.11806E-01
         0.42275E-02
         0.17580E-01
         0.41930E-02
         0.61590E-03
         0.00000E+00
         0.17958E-02
         0.00000E+00
         0.12324E-01
         0.11352E-01
         0.10972E-01
         0.53142E-03
         0.29759E-02
         0.00000E+00
         0.38845E-02
         0.00000E+00
         0.00000E+00
         0.34253E-02
         0.31274E-02
         0.19126E-03
         0.88448E-03
         0.38331E-03
         0.10423E-01
         0.49318E-02
         0.73209E-02
         0.13765E-01
         0.98758E-02
         0.89287E-02
         0.13993E-01
         0.12370E-01
         0.12450E-01
         0.89031E-02
         0.75986E-02
         0.11587E-01
         0.64922E-02
         0.50421E-02
         0.35684E-02
         0.47846E-02
         0.98915E-02
         0.57535E-02
         0.54832E-01
         0.56260E-01
         0.59032E-01
         0.58580E-01
         0.62643E-01
         0.67481E-01
         0.64583E-01
         0.57058E-01
         0.55514E-01
         0.59655E-01
         0.58426E-01
         0.57634E-01
         0.46995E-01
         0.44507E-01
         0.49280E-01
         0.53072E-01
         0.55215E-01
         0.60617E-01
         0.58100E-01
         0.59771E-01
         0.53447E-01
         0.50575E-01
         0.54111E-01
         0.52747E-01
         0.54405E-01
         0.53924E-01
         0.69652E-02
         0.29093E-02
         0.25765E-02
         0.80575E-03
         0.72931E-02
         0.40604E-02
         0.11105E-03
         0.68075E-02
         0.31092E-02
         0.63201E-02
         0.14098E-02
         0.16551E-01
         0.11812E-01
         0.42100E-02
         0.17602E-01
         0.42003E-02
         0.62723E-03
         0.00000E+00
         0.17990E-02
         0.00000E+00
         0.12327E-01
         0.11352E-01
         0.10974E-01
         0.53086E-03
         0.29998E-02
         0.00000E+00
         0.38861E-02
         0.00000E+00
         0.00000E+00
         0.34341E-02
         0.31338E-02
         0.19030E-03
         0.87766E-03
         0.38647E-03
         0.10429E-01
         0.49300E-02
         0.73188E-02
         0.13792E-01
         0.99065E-02
         0.89478E-02
         0.14007E-01
         0.12379E-01
         0.12454E-01
         0.89061E-02
         0.75989E-02
         0.11588E-01
         0.64936E-02
         0.50423E-02
         0.35594E-02
         0.47739E-02
         0.98844E-02
         0.57400E-02
         0.54811E-01
         0.56246E-01
         0.59031E-01
         0.58581E-01
         0.62632E-01
         0.67457E-01
         0.64554E-01
         0.57042E-01
         0.55499E-01
         0.59636E-01
         0.58417E-01
         0.57638E-01
         0.46993E-01
         0.44506E-01
         0.49288E-01
         0.53091E-01
         0.55236E-01
         0.60633E-01
         0.58097E-01
         0.59767E-01
         0.53441E-01
         0.50572E-01
         0.54091E-01
         0.52710E-01
         0.54373E-01
         0.53893E-01
         0.69719E-02
         0.29095E-02
         0.25795E-02
         0.81140E-03
         0.72885E-02
         0.40565E-02
         0.12008E-03
         0.68150E-02
         0.31201E-02
         0.63445E-02
         0.14110E-02
         0.16551E-01
         0.11819E-01
         0.41929E-02
         0.17624E-01
         0.42076E-02
         0.63835E-03
         0.00000E+00
         0.18023E-02
         0.00000E+00
         0.12330E-01
         0.11352E-01
         0.10975E-01
         0.53042E-03
         0.30231E-02
         0.00000E+00
         0.38880E-02
         0.00000E+00
         0.00000E+00
         0.34428E-02
         0.31397E-02
         0.18870E-03
         0.87076E-03
         0.38949E-03
         0.10436E-01
         0.49284E-02
         0.73170E-02
         0.13819E-01
         0.99374E-02
         0.89669E-02
         0.14021E-01
         0.12388E-01
         0.12458E-01
         0.89092E-02
         0.75996E-02
         0.11590E-01
         0.64957E-02
         0.50433E-02
         0.35517E-02
         0.47636E-02
         0.98780E-02
         0.57265E-02
         0.54790E-01
         0.56232E-01
         0.59031E-01
         0.58581E-01
         0.62621E-01
         0.67433E-01
         0.64525E-01
         0.57026E-01
         0.55484E-01
         0.59617E-01
         0.58406E-01
         0.57642E-01
         0.46992E-01
         0.44505E-01
         0.49295E-01
         0.53110E-01
         0.55256E-01
         0.60648E-01
         0.58093E-01
         0.59763E-01
         0.53436E-01
         0.50569E-01
         0.54071E-01
         0.52673E-01
         0.54340E-01
         0.53862E-01
         0.69782E-02
         0.29095E-02
         0.25825E-02
         0.81703E-03
         0.72842E-02
         0.40523E-02
         0.12883E-03
         0.68218E-02
         0.31311E-02
         0.63684E-02
         0.14126E-02
         0.16551E-01
         0.11825E-01
         0.41757E-02
         0.17645E-01
         0.42149E-02
         0.64937E-03
         0.00000E+00
         0.18056E-02
         0.00000E+00
         0.12332E-01
         0.11352E-01
         0.10977E-01
         0.52994E-03
         0.30459E-02
         0.00000E+00
         0.38899E-02
         0.00000E+00
         0.00000E+00
         0.34515E-02
         0.31455E-02
         0.18673E-03
         0.86385E-03
         0.39251E-03
         0.10442E-01
         0.49272E-02
         0.73156E-02
         0.13846E-01
         0.99684E-02
         0.89863E-02
         0.14034E-01
         0.12398E-01
         0.12462E-01
         0.89126E-02
         0.76006E-02
         0.11593E-01
         0.64981E-02
         0.50445E-02
         0.35446E-02
         0.47536E-02
         0.98717E-02
         0.57133E-02
         0.54769E-01
         0.56218E-01
         0.59030E-01
         0.58581E-01
         0.62610E-01
         0.67409E-01
         0.64496E-01
         0.57009E-01
         0.55469E-01
         0.59597E-01
         0.58396E-01
         0.57646E-01
         0.46990E-01
         0.44504E-01
         0.49303E-01
         0.53129E-01
         0.55276E-01
         0.60663E-01
         0.58088E-01
         0.59759E-01
         0.53431E-01
         0.50567E-01
         0.54051E-01
         0.52636E-01
         0.54308E-01
         0.53832E-01
         0.69846E-02
         0.29095E-02
         0.25854E-02
         0.82268E-03
         0.72797E-02
         0.40482E-02
         0.13758E-03
         0.68286E-02
         0.31421E-02
         0.63923E-02
         0.14140E-02
         0.16551E-01
         0.11832E-01
         0.41587E-02
         0.17667E-01
         0.42222E-02
         0.66042E-03
         0.00000E+00
         0.18088E-02
         0.00000E+00
         0.12335E-01
         0.11352E-01
         0.10978E-01
         0.52960E-03
         0.30688E-02
         0.00000E+00
         0.38919E-02
         0.00000E+00
         0.00000E+00
         0.34603E-02
         0.31513E-02
         0.18481E-03
         0.85700E-03
         0.39551E-03
         0.10449E-01
         0.49258E-02
         0.73142E-02
         0.13873E-01
         0.99996E-02
         0.90053E-02
         0.14048E-01
         0.12407E-01
         0.12466E-01
         0.89161E-02
         0.76018E-02
         0.11595E-01
         0.65003E-02
         0.50458E-02
         0.35375E-02
         0.47436E-02
         0.98657E-02
         0.56999E-02
         0.54747E-01
         0.56204E-01
         0.59029E-01
         0.58582E-01
         0.62599E-01
         0.67384E-01
         0.64467E-01
         0.56993E-01
         0.55455E-01
         0.59578E-01
         0.58386E-01
         0.57650E-01
         0.46988E-01
         0.44503E-01
         0.49312E-01
         0.53148E-01
         0.55296E-01
         0.60678E-01
         0.58084E-01
         0.59756E-01
         0.53426E-01
         0.50565E-01
         0.54031E-01
         0.52600E-01
         0.54275E-01
         0.53801E-01
         0.69908E-02
         0.29094E-02
         0.25882E-02
         0.82839E-03
         0.72752E-02
         0.40440E-02
         0.14638E-03
         0.68355E-02
         0.31532E-02
         0.64161E-02
         0.14157E-02
         0.16551E-01
         0.11839E-01
         0.41417E-02
         0.17689E-01
         0.42295E-02
         0.67150E-03
         0.00000E+00
         0.18120E-02
         0.00000E+00
         0.12338E-01
         0.11352E-01
         0.10980E-01
         0.52925E-03
         0.30916E-02
         0.00000E+00
         0.38939E-02
         0.00000E+00
         0.00000E+00
         0.34690E-02
         0.31570E-02
         0.18283E-03
         0.85017E-03
         0.39854E-03
         0.10456E-01
         0.49246E-02
         0.73128E-02
         0.13901E-01
         0.10031E-01
         0.90246E-02
         0.14062E-01
         0.12417E-01
         0.12470E-01
         0.89196E-02
         0.76029E-02
         0.11597E-01
         0.65027E-02
         0.50472E-02
         0.35303E-02
         0.47335E-02
         0.98592E-02
         0.56866E-02
         0.54726E-01
         0.56190E-01
         0.59029E-01
         0.58582E-01
         0.62588E-01
         0.67360E-01
         0.64438E-01
         0.56977E-01
         0.55440E-01
         0.59558E-01
         0.58376E-01
         0.57654E-01
         0.46986E-01
         0.44502E-01
         0.49320E-01
         0.53167E-01
         0.55317E-01
         0.60693E-01
         0.58080E-01
         0.59752E-01
         0.53421E-01
         0.50562E-01
         0.54011E-01
         0.52563E-01
         0.54243E-01
         0.53771E-01
         0.69971E-02
         0.29093E-02
         0.25911E-02
         0.83403E-03
         0.72709E-02
         0.40401E-02
         0.15529E-03
         0.68423E-02
         0.31643E-02
         0.64399E-02
         0.14174E-02
         0.16551E-01
         0.11846E-01
         0.41247E-02
         0.17711E-01
         0.42368E-02
         0.68260E-03
         0.00000E+00
         0.18153E-02
         0.00000E+00
         0.12340E-01
         0.11352E-01
         0.10981E-01
         0.52893E-03
         0.31144E-02
         0.00000E+00
         0.38960E-02
         0.00000E+00
         0.00000E+00
         0.34777E-02
         0.31627E-02
         0.18089E-03
         0.84341E-03
         0.40156E-03
         0.10462E-01
         0.49233E-02
         0.73114E-02
         0.13928E-01
         0.10062E-01
         0.90436E-02
         0.14076E-01
         0.12426E-01
         0.12474E-01
         0.89228E-02
         0.76039E-02
         0.11600E-01
         0.65051E-02
         0.50485E-02
         0.35233E-02
         0.47235E-02
         0.98533E-02
         0.56734E-02
         0.54705E-01
         0.56175E-01
         0.59028E-01
         0.58582E-01
         0.62577E-01
         0.67336E-01
         0.64409E-01
         0.56960E-01
         0.55425E-01
         0.59539E-01
         0.58366E-01
         0.57658E-01
         0.46984E-01
         0.44501E-01
         0.49328E-01
         0.53185E-01
         0.55337E-01
         0.60708E-01
         0.58076E-01
         0.59748E-01
         0.53416E-01
         0.50559E-01
         0.53991E-01
         0.52526E-01
         0.54211E-01
         0.53740E-01
         0.70033E-02
         0.29093E-02
         0.25940E-02
         0.83975E-03
         0.72664E-02
         0.40360E-02
         0.16411E-03
         0.68491E-02
         0.31754E-02
         0.64637E-02
         0.14192E-02
         0.16551E-01
         0.11853E-01
         0.41078E-02
         0.17733E-01
         0.42441E-02
         0.69370E-03
         0.00000E+00
         0.18186E-02
         0.00000E+00
         0.12343E-01
         0.11352E-01
         0.10983E-01
         0.52864E-03
         0.31371E-02
         0.00000E+00
         0.38980E-02
         0.00000E+00
         0.00000E+00
         0.34865E-02
         0.31685E-02
         0.17896E-03
         0.83662E-03
         0.40462E-03
         0.10469E-01
         0.49220E-02
         0.73099E-02
         0.13955E-01
         0.10093E-01
         0.90628E-02
         0.14089E-01
         0.12436E-01
         0.12478E-01
         0.89262E-02
         0.76050E-02
         0.11602E-01
         0.65074E-02
         0.50499E-02
         0.35162E-02
         0.47135E-02
         0.98470E-02
         0.56601E-02
         0.54683E-01
         0.56161E-01
         0.59027E-01
         0.58582E-01
         0.62566E-01
         0.67312E-01
         0.64380E-01
         0.56944E-01
         0.55410E-01
         0.59519E-01
         0.58356E-01
         0.57662E-01
         0.46982E-01
         0.44501E-01
         0.49336E-01
         0.53204E-01
         0.55357E-01
         0.60723E-01
         0.58072E-01
         0.59744E-01
         0.53410E-01
         0.50557E-01
         0.53971E-01
         0.52489E-01
         0.54179E-01
         0.53710E-01
         0.70096E-02
         0.29092E-02
         0.25969E-02
         0.84546E-03
         0.72620E-02
         0.40319E-02
         0.17295E-03
         0.68559E-02
         0.31864E-02
         0.64874E-02
         0.14211E-02
         0.16552E-01
         0.11860E-01
         0.40908E-02
         0.17755E-01
         0.42513E-02
         0.70481E-03
         0.00000E+00
         0.18218E-02
         0.00000E+00
         0.12346E-01
         0.11352E-01
         0.10984E-01
         0.52835E-03
         0.31597E-02
         0.00000E+00
         0.39000E-02
         0.00000E+00
         0.00000E+00
         0.34951E-02
         0.31742E-02
         0.17699E-03
         0.82985E-03
         0.40763E-03
         0.10476E-01
         0.49209E-02
         0.73086E-02
         0.13982E-01
         0.10124E-01
         0.90820E-02
         0.14103E-01
         0.12445E-01
         0.12482E-01
         0.89298E-02
         0.76063E-02
         0.11604E-01
         0.65099E-02
         0.50512E-02
         0.35092E-02
         0.47035E-02
         0.98406E-02
         0.56467E-02
         0.54662E-01
         0.56147E-01
         0.59026E-01
         0.58583E-01
         0.62555E-01
         0.67287E-01
         0.64351E-01
         0.56928E-01
         0.55395E-01
         0.59499E-01
         0.58346E-01
         0.57666E-01
         0.46980E-01
         0.44500E-01
         0.49344E-01
         0.53223E-01
         0.55377E-01
         0.60738E-01
         0.58068E-01
         0.59740E-01
         0.53405E-01
         0.50554E-01
         0.53951E-01
         0.52453E-01
         0.54147E-01
         0.53679E-01
         0.70158E-02
         0.29092E-02
         0.25998E-02
         0.85118E-03
         0.72577E-02
         0.40278E-02
         0.18189E-03
         0.68627E-02
         0.31975E-02
         0.65111E-02
         0.14230E-02
         0.16552E-01
         0.11866E-01
         0.40739E-02
         0.17777E-01
         0.42586E-02
         0.71596E-03
         0.00000E+00
         0.18251E-02
         0.00000E+00
         0.12348E-01
         0.11352E-01
         0.10986E-01
         0.52806E-03
         0.31824E-02
         0.00000E+00
         0.39020E-02
         0.00000E+00
         0.00000E+00
         0.35037E-02
         0.31800E-02
         0.17507E-03
         0.82314E-03
         0.41067E-03
         0.10483E-01
         0.49196E-02
         0.73071E-02
         0.14010E-01
         0.10156E-01
         0.91010E-02
         0.14117E-01
         0.12455E-01
         0.12486E-01
         0.89332E-02
         0.76074E-02
         0.11607E-01
         0.65123E-02
         0.50525E-02
         0.35021E-02
         0.46935E-02
         0.98345E-02
         0.56336E-02
         0.54641E-01
         0.56133E-01
         0.59025E-01
         0.58583E-01
         0.62544E-01
         0.67263E-01
         0.64321E-01
         0.56911E-01
         0.55381E-01
         0.59479E-01
         0.58335E-01
         0.57670E-01
         0.46978E-01
         0.44499E-01
         0.49352E-01
         0.53242E-01
         0.55398E-01
         0.60752E-01
         0.58064E-01
         0.59736E-01
         0.53400E-01
         0.50552E-01
         0.53931E-01
         0.52416E-01
         0.54114E-01
         0.53649E-01
         0.70220E-02
         0.29092E-02
         0.26027E-02
         0.85695E-03
         0.72533E-02
         0.40236E-02
         0.19078E-03
         0.68695E-02
         0.32087E-02
         0.65348E-02
         0.14250E-02
         0.16552E-01
         0.11873E-01
         0.40569E-02
         0.17799E-01
         0.42658E-02
         0.72713E-03
         0.00000E+00
         0.18283E-02
         0.00000E+00
         0.12351E-01
         0.11352E-01
         0.10987E-01
         0.52778E-03
         0.32051E-02
         0.00000E+00
         0.39040E-02
         0.00000E+00
         0.00000E+00
         0.35124E-02
         0.31857E-02
         0.17309E-03
         0.81646E-03
         0.41370E-03
         0.10489E-01
         0.49186E-02
         0.73057E-02
         0.14037E-01
         0.10187E-01
         0.91200E-02
         0.14131E-01
         0.12464E-01
         0.12491E-01
         0.89365E-02
         0.76085E-02
         0.11609E-01
         0.65145E-02
         0.50540E-02
         0.34950E-02
         0.46834E-02
         0.98283E-02
         0.56202E-02
         0.54619E-01
         0.56119E-01
         0.59024E-01
         0.58583E-01
         0.62533E-01
         0.67239E-01
         0.64292E-01
         0.56894E-01
         0.55366E-01
         0.59459E-01
         0.58325E-01
         0.57674E-01
         0.46976E-01
         0.44498E-01
         0.49360E-01
         0.53261E-01
         0.55418E-01
         0.60767E-01
         0.58060E-01
         0.59732E-01
         0.53395E-01
         0.50549E-01
         0.53911E-01
         0.52379E-01
         0.54082E-01
         0.53618E-01
         0.70282E-02
         0.29090E-02
         0.26055E-02
         0.86267E-03
         0.72488E-02
         0.40197E-02
         0.19967E-03
         0.68763E-02
         0.32198E-02
         0.65586E-02
         0.14271E-02
         0.16552E-01
         0.11880E-01
         0.40401E-02
         0.17821E-01
         0.42731E-02
         0.73834E-03
         0.00000E+00
         0.18316E-02
         0.00000E+00
         0.12354E-01
         0.11352E-01
         0.10989E-01
         0.52753E-03
         0.32278E-02
         0.00000E+00
         0.39059E-02
         0.00000E+00
         0.00000E+00
         0.35210E-02
         0.31914E-02
         0.17120E-03
         0.80983E-03
         0.41679E-03
         0.10496E-01
         0.49173E-02
         0.73043E-02
         0.14064E-01
         0.10218E-01
         0.91388E-02
         0.14144E-01
         0.12474E-01
         0.12495E-01
         0.89397E-02
         0.76098E-02
         0.11612E-01
         0.65170E-02
         0.50553E-02
         0.34880E-02
         0.46735E-02
         0.98221E-02
         0.56069E-02
         0.54598E-01
         0.56105E-01
         0.59023E-01
         0.58584E-01
         0.62522E-01
         0.67214E-01
         0.64262E-01
         0.56878E-01
         0.55351E-01
         0.59439E-01
         0.58315E-01
         0.57678E-01
         0.46974E-01
         0.44497E-01
         0.49368E-01
         0.53280E-01
         0.55439E-01
         0.60782E-01
         0.58056E-01
         0.59728E-01
         0.53390E-01
         0.50547E-01
         0.53891E-01
         0.52343E-01
         0.54050E-01
         0.53588E-01
         0.70343E-02
         0.29089E-02
         0.26084E-02
         0.86844E-03
         0.72446E-02
         0.40156E-02
         0.20867E-03
         0.68831E-02
         0.32310E-02
         0.65822E-02
         0.14292E-02
         0.16552E-01
         0.11887E-01
         0.40231E-02
         0.17843E-01
         0.42804E-02
         0.74958E-03
         0.00000E+00
         0.18348E-02
         0.00000E+00
         0.12356E-01
         0.11351E-01
         0.10991E-01
         0.52733E-03
         0.32503E-02
         0.00000E+00
         0.39078E-02
         0.00000E+00
         0.00000E+00
         0.35295E-02
         0.31971E-02
         0.16932E-03
         0.80326E-03
         0.41990E-03
         0.10503E-01
         0.49160E-02
         0.73028E-02
         0.14092E-01
         0.10249E-01
         0.91577E-02
         0.14158E-01
         0.12483E-01
         0.12498E-01
         0.89433E-02
         0.76109E-02
         0.11614E-01
         0.65195E-02
         0.50567E-02
         0.34811E-02
         0.46634E-02
         0.98158E-02
         0.55938E-02
         0.54577E-01
         0.56091E-01
         0.59022E-01
         0.58584E-01
         0.62511E-01
         0.67190E-01
         0.64233E-01
         0.56861E-01
         0.55337E-01
         0.59418E-01
         0.58305E-01
         0.57683E-01
         0.46973E-01
         0.44496E-01
         0.49376E-01
         0.53298E-01
         0.55459E-01
         0.60797E-01
         0.58051E-01
         0.59724E-01
         0.53385E-01
         0.50544E-01
         0.53871E-01
         0.52306E-01
         0.54018E-01
         0.53557E-01
         0.70405E-02
         0.29089E-02
         0.26113E-02
         0.87423E-03
         0.72402E-02
         0.40115E-02
         0.21759E-03
         0.68897E-02
         0.32422E-02
         0.66056E-02
         0.14314E-02
         0.16552E-01
         0.11894E-01
         0.40061E-02
         0.17865E-01
         0.42877E-02
         0.76082E-03
         0.00000E+00
         0.18381E-02
         0.00000E+00
         0.12359E-01
         0.11351E-01
         0.10992E-01
         0.52701E-03
         0.32729E-02
         0.00000E+00
         0.39090E-02
         0.00000E+00
         0.00000E+00
         0.35376E-02
         0.32029E-02
         0.16735E-03
         0.79666E-03
         0.42300E-03
         0.10510E-01
         0.49150E-02
         0.73015E-02
         0.14119E-01
         0.10281E-01
         0.91757E-02
         0.14171E-01
         0.12491E-01
         0.12502E-01
         0.89468E-02
         0.76120E-02
         0.11617E-01
         0.65218E-02
         0.50581E-02
         0.34740E-02
         0.46534E-02
         0.98099E-02
         0.55805E-02
         0.54555E-01
         0.56077E-01
         0.59021E-01
         0.58584E-01
         0.62501E-01
         0.67165E-01
         0.64203E-01
         0.56845E-01
         0.55322E-01
         0.59397E-01
         0.58296E-01
         0.57689E-01
         0.46972E-01
         0.44495E-01
         0.49384E-01
         0.53317E-01
         0.55479E-01
         0.60812E-01
         0.58047E-01
         0.59720E-01
         0.53380E-01
         0.50542E-01
         0.53850E-01
         0.52269E-01
         0.53986E-01
         0.53527E-01
         0.70466E-02
         0.29089E-02
         0.26141E-02
         0.88002E-03
         0.72357E-02
         0.40074E-02
         0.22654E-03
         0.68964E-02
         0.32535E-02
         0.66289E-02
         0.14336E-02
         0.16553E-01
         0.11901E-01
         0.39890E-02
         0.17886E-01
         0.42949E-02
         0.77207E-03
         0.00000E+00
         0.18414E-02
         0.00000E+00
         0.12362E-01
         0.11351E-01
         0.10994E-01
         0.52680E-03
         0.32953E-02
         0.00000E+00
         0.39098E-02
         0.00000E+00
         0.00000E+00
         0.35452E-02
         0.32086E-02
         0.16544E-03
         0.79010E-03
         0.42607E-03
         0.10517E-01
         0.49138E-02
         0.73001E-02
         0.14147E-01
         0.10312E-01
         0.91935E-02
         0.14183E-01
         0.12499E-01
         0.12505E-01
         0.89501E-02
         0.76134E-02
         0.11619E-01
         0.65242E-02
         0.50595E-02
         0.34670E-02
         0.46433E-02
         0.98034E-02
         0.55671E-02
         0.54534E-01
         0.56063E-01
         0.59020E-01
         0.58584E-01
         0.62490E-01
         0.67141E-01
         0.64174E-01
         0.56828E-01
         0.55307E-01
         0.59375E-01
         0.58286E-01
         0.57697E-01
         0.46972E-01
         0.44495E-01
         0.49392E-01
         0.53336E-01
         0.55499E-01
         0.60826E-01
         0.58043E-01
         0.59716E-01
         0.53375E-01
         0.50539E-01
         0.53830E-01
         0.52233E-01
         0.53954E-01
         0.53497E-01
         0.70529E-02
         0.29088E-02
         0.26172E-02
         0.88585E-03
         0.72316E-02
         0.40035E-02
         0.23557E-03
         0.69031E-02
         0.32648E-02
         0.66521E-02
         0.14359E-02
         0.16553E-01
         0.11907E-01
         0.39719E-02
         0.17908E-01
         0.43022E-02
         0.78337E-03
         0.00000E+00
         0.18447E-02
         0.00000E+00
         0.12364E-01
         0.11351E-01
         0.10995E-01
         0.52663E-03
         0.33176E-02
         0.00000E+00
         0.39104E-02
         0.00000E+00
         0.00000E+00
         0.35527E-02
         0.32144E-02
         0.16357E-03
         0.78369E-03
         0.42924E-03
         0.10524E-01
         0.49127E-02
         0.72985E-02
         0.14175E-01
         0.10343E-01
         0.92105E-02
         0.14194E-01
         0.12506E-01
         0.12508E-01
         0.89536E-02
         0.76144E-02
         0.11622E-01
         0.65267E-02
         0.50610E-02
         0.34601E-02
         0.46333E-02
         0.97975E-02
         0.55540E-02
         0.54513E-01
         0.56050E-01
         0.59019E-01
         0.58585E-01
         0.62479E-01
         0.67116E-01
         0.64144E-01
         0.56812E-01
         0.55292E-01
         0.59352E-01
         0.58276E-01
         0.57705E-01
         0.46972E-01
         0.44494E-01
         0.49400E-01
         0.53355E-01
         0.55520E-01
         0.60841E-01
         0.58040E-01
         0.59712E-01
         0.53370E-01
         0.50537E-01
         0.53810E-01
         0.52196E-01
         0.53922E-01
         0.53466E-01
         0.75295E-02
         0.36689E-02
         0.34008E-02
         0.17723E-02
         0.78660E-02
         0.47577E-02
         0.15974E-02
         0.75058E-02
         0.39298E-02
         0.72831E-02
         0.27448E-02
         0.17125E-01
         0.12478E-01
         0.49351E-02
         0.18507E-01
         0.48615E-02
         0.18428E-02
         0.35886E-03
         0.27834E-02
         0.10496E-02
         0.12843E-01
         0.11858E-01
         0.11465E-01
         0.16178E-02
         0.41878E-02
         0.32861E-03
         0.48722E-02
         0.62450E-03
         0.14678E-02
         0.44414E-02
         0.38587E-02
         0.13231E-02
         0.16873E-02
         0.14891E-02
         0.11155E-01
         0.56808E-02
         0.79270E-02
         0.14794E-01
         0.11031E-01
         0.99120E-02
         0.14777E-01
         0.13067E-01
         0.13016E-01
         0.94517E-02
         0.81988E-02
         0.12218E-01
         0.72125E-02
         0.57474E-02
         0.42360E-02
         0.53627E-02
         0.10393E-01
         0.62301E-02
         0.55292E-01
         0.56811E-01
         0.59813E-01
         0.59347E-01
         0.63266E-01
         0.67947E-01
         0.64976E-01
         0.57643E-01
         0.56134E-01
         0.60217E-01
         0.59118E-01
         0.58496E-01
         0.47646E-01
         0.45118E-01
         0.50036E-01
         0.54015E-01
         0.56192E-01
         0.61590E-01
         0.58843E-01
         0.60521E-01
         0.54089E-01
         0.51225E-01
         0.54514E-01
         0.52878E-01
         0.54599E-01
         0.54145E-01
         0.32617E-01
         0.31836E-01
         0.31249E-01
         0.27880E-01
         0.37120E-01
         0.33470E-01
         0.33666E-01
         0.36614E-01
         0.29862E-01
         0.36450E-01
         0.37401E-01
         0.49837E-01
         0.43033E-01
         0.39305E-01
         0.52321E-01
         0.29781E-01
         0.30573E-01
         0.26107E-01
         0.31915E-01
         0.33062E-01
         0.40415E-01
         0.40501E-01
         0.38154E-01
         0.30284E-01
         0.35283E-01
         0.28823E-01
         0.39170E-01
         0.37157E-01
         0.37536E-01
         0.36614E-01
         0.29564E-01
         0.30060E-01
         0.28078E-01
         0.29335E-01
         0.42126E-01
         0.36158E-01
         0.37479E-01
         0.48535E-01
         0.45040E-01
         0.43887E-01
         0.47805E-01
         0.44730E-01
         0.42771E-01
         0.36056E-01
         0.36480E-01
         0.42744E-01
         0.37159E-01
         0.34397E-01
         0.33038E-01
         0.34732E-01
         0.40232E-01
         0.35240E-01
         0.95098E-01
         0.95412E-01
         0.99277E-01
         0.97726E-01
         0.10282E+00
         0.10984E+00
         0.10824E+00
         0.10123E+00
         0.99939E-01
         0.10467E+00
         0.10232E+00
         0.98949E-01
         0.84350E-01
         0.79911E-01
         0.84312E-01
         0.88169E-01
         0.90552E-01
         0.98599E-01
         0.98469E-01
         0.10038E+00
         0.91489E-01
         0.87682E-01
         0.92002E-01
         0.90280E-01
         0.91401E-01
         0.90626E-01
  
SCALARS                            dam  double 1
LOOKUP_TABLE default
         0.00000E+00
         0.00000E+00
         0.00000E+00
         0.00000E+00
         0.00000E+00
         0.00000E+00
         0.00000E+00
         0.00000E+00
         0.00000E+00
         0.00000E+00
         0.00000E+00
         0.00000E+00
         0.00000E+00
         0.00000E+00
         0.00000E+00
         0.00000E+00
         0.00000E+00
         0.00000E+00
         0.00000E+00
         0.00000E+00
         0.00000E+00
         0.00000E+00
         0.00000E+00
         0.00000E+00
         0.00000E+00
         0.00000E+00
         0.00000E+00
         0.00000E+00
         0.00000E+00
         0.00000E+00
         0.00000E+00
         0.00000E+00
         0.00000E+00
         0.00000E+00
         0.00000E+00
         0.00000E+00
         0.00000E+00
         0.00000E+00
         0.00000E+00
         0.00000E+00
         0.00000E+00
         0.00000E+00
         0.00000E+00
         0.00000E+00
         0.00000E+00
         0.00000E+00
         0.00000E+00
         0.00000E+00
         0.00000E+00
         0.00000E+00
         0.00000E+00
         0.00000E+00
         0.00000E+00
         0.00000E+00
         0.00000E+00
         0.00000E+00
         0.00000E+00
         0.00000E+00
         0.00000E+00
         0.00000E+00
         0.00000E+00
         0.00000E+00
         0.00000E+00
         0.00000E+00
         0.00000E+00
         0.00000E+00
         0.00000E+00
         0.00000E+00
         0.00000E+00
         0.00000E+00
         0.00000E+00
         0.00000E+00
         0.00000E+00
         0.00000E+00
         0.00000E+00
         0.00000E+00
         0.00000E+00
         0.00000E+00
         0.00000E+00
         0.00000E+00
         0.00000E+00
         0.00000E+00
         0.00000E+00
         0.00000E+00
         0.00000E+00
         0.00000E+00
         0.00000E+00
         0.00000E+00
         0.00000E+00
         0.00000E+00
         0.00000E+00
         0.00000E+00
         0.00000E+00
         0.00000E+00
         0.00000E+00
         0.00000E+00
         0.00000E+00
         0.00000E+00
         0.00000E+00
         0.00000E+00
         0.00000E+00
         0.00000E+00
         0.00000E+00
         0.00000E+00
         0.00000E+00
         0.00000E+00
         0.00000E+00
         0.00000E+00
         0.00000E+00
         0.00000E+00
         0.00000E+00
         0.00000E+00
         0.00000E+00
         0.00000E+00
         0.00000E+00
         0.00000E+00
         0.00000E+00
         0.00000E+00
         0.00000E+00
         0.00000E+00
         0.00000E+00
         0.00000E+00
         0.00000E+00
         0.00000E+00
         0.00000E+00
         0.00000E+00
         0.00000E+00
         0.00000E+00
         0.00000E+00
         0.00000E+00
         0.00000E+00
         0.00000E+00
         0.00000E+00
         0.00000E+00
         0.00000E+00
         0.00000E+00
         0.00000E+00
         0.00000E+00
         0.00000E+00
         0.00000E+00
         0.00000E+00
         0.00000E+00
         0.00000E+00
         0.00000E+00
         0.00000E+00
         0.00000E+00
         0.00000E+00
         0.00000E+00
         0.00000E+00
         0.00000E+00
         0.00000E+00
         0.00000E+00
         0.00000E+00
         0.00000E+00
         0.00000E+00
         0.00000E+00
         0.00000E+00
         0.00000E+00
         0.00000E+00
         0.00000E+00
         0.00000E+00
         0.00000E+00
         0.00000E+00
         0.00000E+00
         0.00000E+00
         0.00000E+00
         0.00000E+00
         0.00000E+00
         0.00000E+00
         0.00000E+00
         0.00000E+00
         0.00000E+00
         0.00000E+00
         0.00000E+00
         0.00000E+00
         0.00000E+00
         0.00000E+00
         0.00000E+00
         0.00000E+00
         0.00000E+00
         0.00000E+00
         0.00000E+00
         0.00000E+00
         0.00000E+00
         0.00000E+00
         0.00000E+00
         0.00000E+00
         0.00000E+00
         0.00000E+00
         0.00000E+00
         0.00000E+00
         0.00000E+00
         0.00000E+00
         0.00000E+00
         0.00000E+00
         0.00000E+00
         0.00000E+00
         0.00000E+00
         0.00000E+00
         0.00000E+00
         0.00000E+00
         0.00000E+00
         0.00000E+00
         0.00000E+00
         0.00000E+00
         0.00000E+00
         0.00000E+00
         0.00000E+00
         0.00000E+00
         0.00000E+00
         0.00000E+00
         0.00000E+00
         0.00000E+00
         0.00000E+00
         0.00000E+00
         0.00000E+00
         0.00000E+00
         0.00000E+00
         0.00000E+00
         0.00000E+00
         0.00000E+00
         0.00000E+00
         0.00000E+00
         0.00000E+00
         0.00000E+00
         0.00000E+00
         0.00000E+00
         0.00000E+00
         0.00000E+00
         0.00000E+00
         0.00000E+00
         0.00000E+00
         0.00000E+00
         0.00000E+00
         0.00000E+00
         0.00000E+00
         0.00000E+00
         0.00000E+00
         0.00000E+00
         0.00000E+00
         0.00000E+00
         0.00000E+00
         0.00000E+00
         0.00000E+00
         0.00000E+00
         0.00000E+00
         0.00000E+00
         0.00000E+00
         0.00000E+00
         0.00000E+00
         0.00000E+00
         0.00000E+00
         0.00000E+00
         0.00000E+00
         0.00000E+00
         0.00000E+00
         0.00000E+00
         0.00000E+00
         0.00000E+00
         0.00000E+00
         0.00000E+00
         0.00000E+00
         0.00000E+00
         0.00000E+00
         0.00000E+00
         0.00000E+00
         0.00000E+00
         0.00000E+00
         0.00000E+00
         0.00000E+00
         0.00000E+00
         0.00000E+00
         0.00000E+00
         0.00000E+00
         0.00000E+00
         0.00000E+00
         0.00000E+00
         0.00000E+00
         0.00000E+00
         0.00000E+00
         0.00000E+00
         0.00000E+00
         0.00000E+00
         0.00000E+00
         0.00000E+00
         0.00000E+00
         0.00000E+00
         0.00000E+00
         0.00000E+00
         0.00000E+00
         0.00000E+00
         0.00000E+00
         0.00000E+00
         0.00000E+00
         0.00000E+00
         0.00000E+00
         0.00000E+00
         0.00000E+00
         0.00000E+00
         0.00000E+00
         0.00000E+00
         0.00000E+00
         0.00000E+00
         0.00000E+00
         0.00000E+00
         0.00000E+00
         0.00000E+00
         0.00000E+00
         0.00000E+00
         0.00000E+00
         0.00000E+00
         0.00000E+00
         0.00000E+00
         0.00000E+00
         0.00000E+00
         0.00000E+00
         0.00000E+00
         0.00000E+00
         0.00000E+00
         0.00000E+00
         0.00000E+00
         0.00000E+00
         0.00000E+00
         0.00000E+00
         0.00000E+00
         0.00000E+00
         0.00000E+00
         0.00000E+00
         0.00000E+00
         0.00000E+00
         0.00000E+00
         0.00000E+00
         0.00000E+00
         0.00000E+00
         0.00000E+00
         0.00000E+00
         0.00000E+00
         0.00000E+00
         0.00000E+00
         0.00000E+00
         0.00000E+00
         0.00000E+00
         0.00000E+00
         0.00000E+00
         0.00000E+00
         0.00000E+00
         0.00000E+00
         0.00000E+00
         0.00000E+00
         0.00000E+00
         0.00000E+00
         0.00000E+00
         0.00000E+00
         0.00000E+00
         0.00000E+00
         0.00000E+00
         0.00000E+00
         0.00000E+00
         0.00000E+00
         0.00000E+00
         0.00000E+00
         0.00000E+00
         0.00000E+00
         0.00000E+00
         0.00000E+00
         0.00000E+00
         0.00000E+00
         0.00000E+00
         0.00000E+00
         0.00000E+00
         0.00000E+00
         0.00000E+00
         0.00000E+00
         0.00000E+00
         0.00000E+00
         0.00000E+00
         0.00000E+00
         0.00000E+00
         0.00000E+00
         0.00000E+00
         0.00000E+00
         0.00000E+00
         0.00000E+00
         0.00000E+00
         0.00000E+00
         0.00000E+00
         0.00000E+00
         0.00000E+00
         0.00000E+00
         0.00000E+00
         0.00000E+00
         0.00000E+00
         0.00000E+00
         0.00000E+00
         0.00000E+00
         0.00000E+00
         0.00000E+00
         0.00000E+00
         0.00000E+00
         0.00000E+00
         0.00000E+00
         0.00000E+00
         0.00000E+00
         0.00000E+00
         0.00000E+00
         0.00000E+00
         0.00000E+00
         0.00000E+00
         0.00000E+00
         0.00000E+00
         0.00000E+00
         0.00000E+00
         0.00000E+00
         0.00000E+00
         0.00000E+00
         0.00000E+00
         0.00000E+00
         0.00000E+00
         0.00000E+00
         0.00000E+00
         0.00000E+00
         0.00000E+00
         0.00000E+00
         0.00000E+00
         0.00000E+00
         0.00000E+00
         0.00000E+00
         0.00000E+00
         0.00000E+00
         0.00000E+00
         0.00000E+00
         0.00000E+00
         0.00000E+00
         0.00000E+00
         0.00000E+00
         0.00000E+00
         0.00000E+00
         0.00000E+00
         0.00000E+00
         0.00000E+00
         0.00000E+00
         0.00000E+00
         0.00000E+00
         0.00000E+00
         0.00000E+00
         0.00000E+00
         0.00000E+00
         0.00000E+00
         0.00000E+00
         0.00000E+00
         0.00000E+00
         0.00000E+00
         0.00000E+00
         0.00000E+00
         0.00000E+00
         0.00000E+00
         0.00000E+00
         0.00000E+00
         0.00000E+00
         0.00000E+00
         0.00000E+00
         0.00000E+00
         0.00000E+00
         0.00000E+00
         0.00000E+00
         0.00000E+00
         0.00000E+00
         0.00000E+00
         0.00000E+00
         0.00000E+00
         0.00000E+00
         0.00000E+00
         0.00000E+00
         0.00000E+00
         0.00000E+00
         0.00000E+00
         0.00000E+00
         0.00000E+00
         0.00000E+00
         0.00000E+00
         0.00000E+00
         0.00000E+00
         0.00000E+00
         0.00000E+00
         0.00000E+00
         0.00000E+00
         0.00000E+00
         0.00000E+00
         0.00000E+00
         0.00000E+00
         0.00000E+00
         0.00000E+00
         0.00000E+00
         0.00000E+00
         0.00000E+00
         0.00000E+00
         0.00000E+00
         0.00000E+00
         0.00000E+00
         0.00000E+00
         0.00000E+00
         0.00000E+00
         0.00000E+00
         0.00000E+00
         0.00000E+00
         0.00000E+00
         0.00000E+00
         0.00000E+00
         0.00000E+00
         0.00000E+00
         0.00000E+00
         0.00000E+00
         0.00000E+00
         0.00000E+00
         0.00000E+00
         0.00000E+00
         0.00000E+00
         0.00000E+00
         0.00000E+00
         0.00000E+00
         0.00000E+00
         0.00000E+00
         0.00000E+00
         0.00000E+00
         0.00000E+00
         0.00000E+00
         0.00000E+00
         0.00000E+00
         0.00000E+00
         0.00000E+00
         0.00000E+00
         0.00000E+00
         0.00000E+00
         0.00000E+00
         0.00000E+00
         0.00000E+00
         0.00000E+00
         0.00000E+00
         0.00000E+00
         0.00000E+00
         0.00000E+00
         0.00000E+00
         0.00000E+00
         0.00000E+00
         0.00000E+00
         0.00000E+00
         0.00000E+00
         0.00000E+00
         0.00000E+00
         0.00000E+00
         0.00000E+00
         0.00000E+00
         0.00000E+00
         0.00000E+00
         0.00000E+00
         0.00000E+00
         0.00000E+00
         0.00000E+00
         0.00000E+00
         0.00000E+00
         0.00000E+00
         0.00000E+00
         0.00000E+00
         0.00000E+00
         0.00000E+00
         0.00000E+00
         0.00000E+00
         0.00000E+00
         0.00000E+00
         0.00000E+00
         0.00000E+00
         0.00000E+00
         0.00000E+00
         0.00000E+00
         0.00000E+00
         0.00000E+00
         0.00000E+00
         0.00000E+00
         0.00000E+00
         0.00000E+00
         0.00000E+00
         0.00000E+00
         0.00000E+00
         0.00000E+00
         0.00000E+00
         0.00000E+00
         0.00000E+00
         0.00000E+00
         0.00000E+00
         0.00000E+00
         0.00000E+00
         0.00000E+00
         0.00000E+00
         0.00000E+00
         0.00000E+00
         0.00000E+00
         0.00000E+00
         0.00000E+00
         0.00000E+00
         0.00000E+00
         0.00000E+00
         0.00000E+00
         0.00000E+00
         0.00000E+00
         0.00000E+00
         0.00000E+00
         0.00000E+00
         0.00000E+00
         0.00000E+00
         0.00000E+00
         0.00000E+00
         0.00000E+00
         0.00000E+00
         0.00000E+00
         0.00000E+00
         0.00000E+00
         0.00000E+00
         0.00000E+00
         0.00000E+00
         0.00000E+00
         0.00000E+00
         0.00000E+00
         0.00000E+00
         0.00000E+00
         0.00000E+00
         0.00000E+00
         0.00000E+00
         0.00000E+00
         0.00000E+00
         0.00000E+00
         0.00000E+00
         0.00000E+00
         0.00000E+00
         0.00000E+00
         0.00000E+00
         0.00000E+00
         0.00000E+00
         0.00000E+00
         0.00000E+00
         0.00000E+00
         0.00000E+00
         0.00000E+00
         0.00000E+00
         0.00000E+00
         0.00000E+00
         0.00000E+00
         0.00000E+00
         0.00000E+00
         0.00000E+00
         0.00000E+00
         0.00000E+00
         0.00000E+00
         0.00000E+00
         0.00000E+00
         0.00000E+00
         0.00000E+00
         0.00000E+00
         0.00000E+00
         0.00000E+00
         0.00000E+00
         0.00000E+00
         0.00000E+00
         0.00000E+00
         0.00000E+00
         0.00000E+00
         0.00000E+00
         0.00000E+00
         0.00000E+00
         0.00000E+00
         0.00000E+00
         0.00000E+00
         0.00000E+00
         0.00000E+00
         0.00000E+00
         0.00000E+00
         0.00000E+00
         0.00000E+00
         0.00000E+00
         0.00000E+00
         0.00000E+00
         0.00000E+00
         0.00000E+00
         0.00000E+00
         0.00000E+00
         0.00000E+00
         0.00000E+00
         0.00000E+00
         0.00000E+00
         0.00000E+00
         0.00000E+00
         0.00000E+00
         0.00000E+00
         0.00000E+00
         0.00000E+00
         0.00000E+00
         0.00000E+00
         0.00000E+00
         0.00000E+00
         0.00000E+00
         0.00000E+00
         0.00000E+00
         0.00000E+00
         0.00000E+00
         0.00000E+00
         0.00000E+00
         0.00000E+00
         0.00000E+00
         0.00000E+00
         0.00000E+00
         0.00000E+00
         0.00000E+00
         0.00000E+00
         0.00000E+00
         0.00000E+00
         0.00000E+00
         0.00000E+00
         0.00000E+00
         0.00000E+00
         0.00000E+00
         0.00000E+00
         0.00000E+00
         0.00000E+00
         0.00000E+00
         0.00000E+00
         0.00000E+00
         0.00000E+00
         0.00000E+00
         0.00000E+00
         0.00000E+00
         0.00000E+00
         0.00000E+00
         0.00000E+00
         0.00000E+00
         0.00000E+00
         0.00000E+00
         0.00000E+00
         0.00000E+00
         0.00000E+00
         0.00000E+00
         0.00000E+00
         0.00000E+00
         0.00000E+00
         0.00000E+00
         0.00000E+00
         0.00000E+00
         0.00000E+00
         0.00000E+00
         0.00000E+00
         0.00000E+00
         0.00000E+00
         0.00000E+00
         0.00000E+00
         0.00000E+00
         0.00000E+00
         0.00000E+00
         0.00000E+00
         0.00000E+00
         0.00000E+00
         0.00000E+00
         0.00000E+00
         0.00000E+00
         0.00000E+00
         0.00000E+00
         0.00000E+00
         0.00000E+00
         0.00000E+00
         0.00000E+00
         0.00000E+00
         0.00000E+00
         0.00000E+00
         0.00000E+00
         0.00000E+00
         0.00000E+00
         0.00000E+00
         0.00000E+00
         0.00000E+00
         0.00000E+00
         0.00000E+00
         0.00000E+00
         0.00000E+00
         0.00000E+00
         0.00000E+00
         0.00000E+00
         0.00000E+00
         0.00000E+00
         0.00000E+00
         0.00000E+00
         0.00000E+00
         0.00000E+00
         0.00000E+00
         0.00000E+00
         0.00000E+00
         0.00000E+00
         0.00000E+00
         0.00000E+00
         0.00000E+00
         0.00000E+00
         0.00000E+00
         0.00000E+00
         0.00000E+00
         0.00000E+00
         0.00000E+00
         0.00000E+00
         0.00000E+00
         0.00000E+00
         0.00000E+00
         0.00000E+00
         0.00000E+00
         0.00000E+00
         0.00000E+00
         0.00000E+00
         0.00000E+00
         0.00000E+00
         0.00000E+00
         0.00000E+00
         0.00000E+00
         0.00000E+00
         0.00000E+00
         0.00000E+00
         0.00000E+00
         0.00000E+00
         0.00000E+00
         0.00000E+00
         0.00000E+00
         0.00000E+00
         0.00000E+00
         0.00000E+00
         0.00000E+00
         0.00000E+00
         0.00000E+00
         0.00000E+00
         0.00000E+00
         0.00000E+00
         0.00000E+00
         0.00000E+00
         0.00000E+00
         0.00000E+00
         0.00000E+00
         0.00000E+00
         0.00000E+00
         0.00000E+00
         0.00000E+00
         0.00000E+00
         0.00000E+00
         0.00000E+00
         0.00000E+00
         0.00000E+00
         0.00000E+00
         0.00000E+00
         0.00000E+00
         0.00000E+00
         0.00000E+00
         0.00000E+00
         0.00000E+00
         0.00000E+00
         0.00000E+00
         0.00000E+00
         0.00000E+00
         0.00000E+00
         0.00000E+00
         0.00000E+00
         0.00000E+00
         0.00000E+00
         0.00000E+00
         0.00000E+00
         0.00000E+00
         0.00000E+00
         0.00000E+00
         0.00000E+00
         0.00000E+00
         0.00000E+00
         0.00000E+00
         0.00000E+00
         0.00000E+00
         0.00000E+00
         0.00000E+00
         0.00000E+00
         0.00000E+00
         0.00000E+00
         0.00000E+00
         0.00000E+00
         0.00000E+00
         0.00000E+00
         0.00000E+00
         0.00000E+00
         0.00000E+00
         0.00000E+00
         0.00000E+00
         0.00000E+00
         0.00000E+00
         0.00000E+00
         0.00000E+00
         0.00000E+00
         0.00000E+00
         0.00000E+00
         0.00000E+00
         0.00000E+00
         0.00000E+00
         0.00000E+00
         0.00000E+00
         0.00000E+00
         0.00000E+00
         0.00000E+00
         0.00000E+00
         0.00000E+00
         0.00000E+00
         0.00000E+00
         0.00000E+00
         0.00000E+00
         0.00000E+00
         0.00000E+00
         0.00000E+00
         0.00000E+00
         0.00000E+00
         0.00000E+00
         0.00000E+00
         0.00000E+00
         0.00000E+00
         0.00000E+00
         0.00000E+00
         0.00000E+00
         0.00000E+00
         0.00000E+00
         0.00000E+00
         0.00000E+00
         0.00000E+00
         0.00000E+00
         0.00000E+00
         0.00000E+00
         0.00000E+00
         0.00000E+00
         0.00000E+00
         0.00000E+00
         0.00000E+00
         0.00000E+00
         0.00000E+00
         0.00000E+00
         0.00000E+00
         0.00000E+00
         0.00000E+00
         0.00000E+00
         0.00000E+00
         0.00000E+00
         0.00000E+00
         0.00000E+00
         0.00000E+00
         0.00000E+00
         0.00000E+00
         0.00000E+00
         0.00000E+00
         0.00000E+00
         0.00000E+00
         0.00000E+00
         0.00000E+00
         0.00000E+00
         0.00000E+00
         0.00000E+00
         0.00000E+00
         0.00000E+00
         0.00000E+00
         0.00000E+00
         0.00000E+00
         0.00000E+00
         0.00000E+00
         0.00000E+00
         0.00000E+00
         0.00000E+00
         0.00000E+00
         0.00000E+00
         0.00000E+00
         0.00000E+00
         0.00000E+00
         0.00000E+00
         0.00000E+00
         0.00000E+00
         0.00000E+00
         0.00000E+00
         0.00000E+00
         0.00000E+00
         0.00000E+00
         0.00000E+00
         0.00000E+00
         0.00000E+00
         0.00000E+00
         0.00000E+00
         0.00000E+00
         0.00000E+00
         0.00000E+00
         0.00000E+00
         0.00000E+00
         0.00000E+00
         0.00000E+00
         0.00000E+00
         0.00000E+00
         0.00000E+00
         0.00000E+00
         0.00000E+00
         0.00000E+00
         0.00000E+00
         0.00000E+00
         0.00000E+00
         0.00000E+00
         0.00000E+00
         0.00000E+00
         0.00000E+00
         0.00000E+00
         0.00000E+00
         0.00000E+00
         0.00000E+00
         0.00000E+00
         0.00000E+00
         0.00000E+00
         0.00000E+00
         0.00000E+00
         0.00000E+00
         0.00000E+00
         0.00000E+00
         0.00000E+00
         0.00000E+00
         0.00000E+00
         0.00000E+00
         0.00000E+00
         0.00000E+00
         0.00000E+00
         0.00000E+00
         0.00000E+00
         0.00000E+00
         0.00000E+00
         0.00000E+00
         0.00000E+00
         0.00000E+00
         0.00000E+00
         0.00000E+00
         0.00000E+00
         0.00000E+00
         0.00000E+00
         0.00000E+00
         0.00000E+00
         0.00000E+00
         0.00000E+00
         0.00000E+00
         0.00000E+00
         0.00000E+00
         0.00000E+00
         0.00000E+00
         0.00000E+00
         0.00000E+00
         0.00000E+00
         0.00000E+00
         0.00000E+00
         0.00000E+00
         0.00000E+00
         0.00000E+00
         0.00000E+00
         0.00000E+00
         0.00000E+00
         0.00000E+00
         0.00000E+00
         0.00000E+00
         0.00000E+00
         0.00000E+00
         0.00000E+00
         0.00000E+00
         0.00000E+00
         0.00000E+00
         0.00000E+00
         0.00000E+00
         0.00000E+00
         0.00000E+00
         0.00000E+00
         0.00000E+00
         0.00000E+00
         0.00000E+00
         0.00000E+00
         0.00000E+00
         0.00000E+00
         0.00000E+00
         0.00000E+00
         0.00000E+00
         0.00000E+00
         0.00000E+00
         0.00000E+00
         0.00000E+00
         0.00000E+00
         0.00000E+00
         0.00000E+00
         0.00000E+00
         0.00000E+00
         0.00000E+00
         0.00000E+00
         0.00000E+00
         0.00000E+00
         0.00000E+00
         0.00000E+00
         0.00000E+00
         0.00000E+00
         0.00000E+00
         0.00000E+00
         0.00000E+00
         0.00000E+00
         0.00000E+00
         0.00000E+00
         0.00000E+00
         0.00000E+00
         0.00000E+00
         0.00000E+00
         0.00000E+00
         0.00000E+00
         0.00000E+00
         0.00000E+00
         0.00000E+00
         0.00000E+00
         0.00000E+00
         0.00000E+00
         0.00000E+00
         0.00000E+00
         0.00000E+00
         0.00000E+00
         0.00000E+00
         0.00000E+00
         0.00000E+00
         0.00000E+00
         0.00000E+00
         0.00000E+00
         0.00000E+00
         0.00000E+00
         0.00000E+00
         0.00000E+00
         0.00000E+00
         0.00000E+00
         0.00000E+00
         0.00000E+00
         0.00000E+00
         0.00000E+00
         0.00000E+00
         0.00000E+00
         0.00000E+00
         0.00000E+00
         0.00000E+00
         0.00000E+00
         0.00000E+00
         0.00000E+00
         0.00000E+00
         0.00000E+00
         0.00000E+00
         0.00000E+00
         0.00000E+00
         0.00000E+00
         0.00000E+00
         0.00000E+00
         0.00000E+00
         0.00000E+00
         0.00000E+00
         0.00000E+00
         0.00000E+00
         0.00000E+00
         0.00000E+00
         0.00000E+00
         0.00000E+00
         0.00000E+00
         0.00000E+00
         0.00000E+00
         0.00000E+00
         0.00000E+00
         0.00000E+00
         0.00000E+00
         0.00000E+00
         0.00000E+00
         0.00000E+00
         0.00000E+00
         0.00000E+00
         0.00000E+00
         0.00000E+00
         0.00000E+00
         0.00000E+00
         0.00000E+00
         0.00000E+00
         0.00000E+00
         0.00000E+00
         0.00000E+00
         0.00000E+00
         0.00000E+00
         0.00000E+00
         0.00000E+00
         0.00000E+00
         0.00000E+00
         0.00000E+00
         0.00000E+00
         0.00000E+00
         0.00000E+00
         0.00000E+00
         0.00000E+00
         0.00000E+00
         0.00000E+00
         0.00000E+00
         0.00000E+00
         0.00000E+00
         0.00000E+00
         0.00000E+00
         0.00000E+00
         0.00000E+00
         0.00000E+00
         0.00000E+00
         0.00000E+00
         0.00000E+00
         0.00000E+00
         0.00000E+00
         0.00000E+00
         0.00000E+00
         0.00000E+00
         0.00000E+00
         0.00000E+00
         0.00000E+00
         0.00000E+00
         0.00000E+00
         0.00000E+00
         0.00000E+00
         0.00000E+00
         0.00000E+00
         0.00000E+00
         0.00000E+00
         0.00000E+00
         0.00000E+00
         0.00000E+00
         0.00000E+00
         0.00000E+00
         0.00000E+00
         0.00000E+00
         0.00000E+00
         0.00000E+00
         0.00000E+00
         0.00000E+00
         0.00000E+00
         0.00000E+00
         0.00000E+00
         0.00000E+00
         0.00000E+00
         0.00000E+00
         0.00000E+00
         0.00000E+00
         0.00000E+00
         0.00000E+00
         0.00000E+00
         0.00000E+00
         0.00000E+00
         0.00000E+00
         0.00000E+00
         0.00000E+00
         0.00000E+00
         0.00000E+00
         0.00000E+00
         0.00000E+00
         0.00000E+00
         0.00000E+00
         0.00000E+00
         0.00000E+00
         0.00000E+00
         0.00000E+00
         0.00000E+00
         0.00000E+00
         0.00000E+00
         0.00000E+00
         0.00000E+00
         0.00000E+00
         0.00000E+00
         0.00000E+00
         0.00000E+00
         0.00000E+00
         0.00000E+00
         0.00000E+00
         0.00000E+00
         0.00000E+00
         0.00000E+00
         0.00000E+00
         0.00000E+00
         0.00000E+00
         0.00000E+00
         0.00000E+00
         0.00000E+00
         0.00000E+00
         0.00000E+00
         0.00000E+00
         0.00000E+00
         0.00000E+00
         0.00000E+00
         0.00000E+00
         0.00000E+00
         0.00000E+00
         0.00000E+00
         0.00000E+00
         0.00000E+00
         0.00000E+00
         0.00000E+00
         0.00000E+00
         0.00000E+00
         0.00000E+00
         0.00000E+00
         0.00000E+00
         0.00000E+00
         0.00000E+00
         0.00000E+00
         0.00000E+00
         0.00000E+00
         0.00000E+00
         0.00000E+00
         0.00000E+00
         0.00000E+00
         0.00000E+00
         0.00000E+00
         0.00000E+00
         0.00000E+00
         0.00000E+00
         0.00000E+00
         0.00000E+00
         0.00000E+00
         0.00000E+00
         0.00000E+00
         0.00000E+00
         0.00000E+00
         0.00000E+00
         0.00000E+00
         0.00000E+00
         0.00000E+00
         0.00000E+00
         0.00000E+00
         0.00000E+00
         0.00000E+00
         0.00000E+00
         0.00000E+00
         0.00000E+00
         0.00000E+00
         0.00000E+00
         0.00000E+00
         0.00000E+00
         0.00000E+00
         0.00000E+00
         0.00000E+00
         0.00000E+00
         0.00000E+00
         0.00000E+00
         0.00000E+00
         0.00000E+00
         0.00000E+00
         0.00000E+00
         0.00000E+00
         0.00000E+00
         0.00000E+00
         0.00000E+00
         0.00000E+00
         0.00000E+00
         0.00000E+00
         0.00000E+00
         0.00000E+00
         0.00000E+00
         0.00000E+00
         0.00000E+00
         0.00000E+00
         0.00000E+00
         0.00000E+00
         0.00000E+00
         0.00000E+00
         0.00000E+00
         0.00000E+00
         0.00000E+00
         0.00000E+00
         0.00000E+00
         0.00000E+00
         0.00000E+00
         0.00000E+00
         0.00000E+00
         0.00000E+00
         0.00000E+00
         0.00000E+00
         0.00000E+00
         0.00000E+00
         0.00000E+00
         0.00000E+00
         0.00000E+00
         0.00000E+00
         0.00000E+00
         0.00000E+00
         0.00000E+00
         0.00000E+00
         0.00000E+00
         0.00000E+00
         0.00000E+00
         0.00000E+00
         0.00000E+00
         0.00000E+00
         0.00000E+00
         0.00000E+00
         0.00000E+00
         0.00000E+00
         0.00000E+00
         0.00000E+00
         0.00000E+00
         0.00000E+00
         0.00000E+00
         0.00000E+00
         0.00000E+00
         0.00000E+00
         0.00000E+00
         0.00000E+00
         0.00000E+00
         0.00000E+00
         0.00000E+00
         0.00000E+00
         0.00000E+00
         0.00000E+00
         0.00000E+00
         0.00000E+00
         0.00000E+00
         0.00000E+00
         0.00000E+00
         0.00000E+00
         0.00000E+00
         0.00000E+00
         0.00000E+00
         0.00000E+00
         0.00000E+00
         0.00000E+00
         0.00000E+00
         0.00000E+00
         0.00000E+00
         0.00000E+00
         0.00000E+00
         0.00000E+00
         0.00000E+00
         0.00000E+00
         0.00000E+00
         0.00000E+00
         0.00000E+00
         0.00000E+00
         0.00000E+00
         0.00000E+00
         0.00000E+00
         0.00000E+00
         0.00000E+00
         0.00000E+00
         0.00000E+00
         0.00000E+00
         0.00000E+00
         0.00000E+00
         0.00000E+00
         0.00000E+00
         0.00000E+00
         0.00000E+00
         0.00000E+00
         0.00000E+00
         0.00000E+00
         0.00000E+00
         0.00000E+00
         0.00000E+00
         0.00000E+00
         0.00000E+00
         0.00000E+00
         0.00000E+00
         0.00000E+00
         0.00000E+00
         0.00000E+00
         0.00000E+00
         0.00000E+00
         0.00000E+00
         0.00000E+00
         0.00000E+00
         0.00000E+00
         0.00000E+00
         0.00000E+00
         0.00000E+00
         0.00000E+00
         0.00000E+00
         0.00000E+00
         0.00000E+00
         0.00000E+00
         0.00000E+00
         0.00000E+00
         0.00000E+00
         0.00000E+00
         0.00000E+00
         0.00000E+00
         0.00000E+00
         0.00000E+00
         0.00000E+00
         0.00000E+00
         0.00000E+00
         0.00000E+00
         0.00000E+00
         0.00000E+00
         0.00000E+00
         0.00000E+00
         0.00000E+00
         0.00000E+00
         0.00000E+00
         0.00000E+00
         0.00000E+00
         0.00000E+00
         0.00000E+00
         0.00000E+00
         0.00000E+00
         0.00000E+00
         0.00000E+00
         0.00000E+00
         0.00000E+00
         0.00000E+00
         0.00000E+00
         0.00000E+00
         0.00000E+00
         0.00000E+00
         0.00000E+00
         0.00000E+00
         0.00000E+00
         0.00000E+00
         0.00000E+00
         0.00000E+00
         0.00000E+00
         0.00000E+00
         0.00000E+00
         0.00000E+00
         0.00000E+00
         0.00000E+00
         0.00000E+00
         0.00000E+00
         0.00000E+00
         0.00000E+00
         0.00000E+00
         0.00000E+00
         0.00000E+00
         0.00000E+00
         0.00000E+00
         0.00000E+00
         0.00000E+00
         0.00000E+00
         0.00000E+00
         0.00000E+00
         0.00000E+00
         0.00000E+00
         0.00000E+00
         0.00000E+00
         0.00000E+00
         0.00000E+00
         0.00000E+00
         0.00000E+00
         0.00000E+00
         0.00000E+00
         0.00000E+00
         0.00000E+00
         0.00000E+00
         0.00000E+00
         0.00000E+00
         0.00000E+00
         0.00000E+00
         0.00000E+00
         0.00000E+00
         0.00000E+00
         0.00000E+00
         0.00000E+00
         0.00000E+00
         0.00000E+00
         0.00000E+00
         0.00000E+00
         0.00000E+00
         0.00000E+00
         0.00000E+00
         0.00000E+00
         0.00000E+00
         0.00000E+00
         0.00000E+00
         0.00000E+00
         0.00000E+00
         0.00000E+00
         0.00000E+00
         0.00000E+00
         0.00000E+00
         0.00000E+00
         0.00000E+00
         0.00000E+00
         0.00000E+00
         0.00000E+00
         0.00000E+00
         0.00000E+00
         0.00000E+00
         0.00000E+00
         0.00000E+00
         0.00000E+00
         0.00000E+00
         0.00000E+00
         0.00000E+00
         0.00000E+00
         0.00000E+00
         0.00000E+00
         0.00000E+00
         0.00000E+00
         0.00000E+00
         0.00000E+00
         0.00000E+00
         0.00000E+00
         0.00000E+00
         0.00000E+00
         0.00000E+00
         0.00000E+00
         0.00000E+00
         0.00000E+00
         0.00000E+00
         0.00000E+00
         0.00000E+00
         0.00000E+00
         0.00000E+00
         0.00000E+00
         0.00000E+00
         0.00000E+00
         0.00000E+00
         0.00000E+00
         0.00000E+00
         0.00000E+00
         0.00000E+00
         0.00000E+00
         0.00000E+00
         0.00000E+00
         0.00000E+00
         0.00000E+00
         0.00000E+00
         0.00000E+00
         0.00000E+00
         0.00000E+00
         0.00000E+00
         0.00000E+00
         0.00000E+00
         0.00000E+00
         0.00000E+00
         0.00000E+00
         0.00000E+00
         0.00000E+00
         0.00000E+00
         0.00000E+00
         0.00000E+00
         0.00000E+00
         0.00000E+00
         0.00000E+00
         0.00000E+00
         0.00000E+00
         0.00000E+00
         0.00000E+00
         0.00000E+00
         0.00000E+00
         0.00000E+00
         0.00000E+00
         0.00000E+00
         0.00000E+00
         0.00000E+00
         0.00000E+00
         0.00000E+00
         0.00000E+00
         0.00000E+00
         0.00000E+00
         0.00000E+00
         0.00000E+00
         0.00000E+00
         0.00000E+00
         0.00000E+00
         0.00000E+00
         0.00000E+00
         0.00000E+00
         0.00000E+00
         0.00000E+00
         0.00000E+00
         0.00000E+00
         0.00000E+00
         0.00000E+00
         0.00000E+00
         0.00000E+00
         0.00000E+00
         0.00000E+00
         0.00000E+00
         0.00000E+00
         0.00000E+00
         0.00000E+00
         0.00000E+00
         0.00000E+00
         0.00000E+00
         0.00000E+00
         0.00000E+00
         0.00000E+00
         0.00000E+00
         0.00000E+00
         0.00000E+00
         0.00000E+00
         0.00000E+00
         0.00000E+00
         0.00000E+00
         0.00000E+00
         0.00000E+00
         0.00000E+00
         0.00000E+00
         0.00000E+00
         0.00000E+00
         0.00000E+00
         0.00000E+00
         0.00000E+00
         0.00000E+00
         0.00000E+00
         0.00000E+00
         0.00000E+00
         0.00000E+00
         0.00000E+00
         0.00000E+00
         0.00000E+00
         0.00000E+00
         0.00000E+00
         0.00000E+00
         0.00000E+00
         0.00000E+00
         0.00000E+00
         0.00000E+00
         0.00000E+00
         0.00000E+00
         0.00000E+00
         0.00000E+00
         0.00000E+00
         0.00000E+00
         0.00000E+00
         0.00000E+00
         0.00000E+00
         0.00000E+00
         0.00000E+00
         0.00000E+00
         0.00000E+00
         0.00000E+00
         0.00000E+00
         0.00000E+00
         0.00000E+00
         0.00000E+00
         0.00000E+00
         0.00000E+00
         0.00000E+00
         0.00000E+00
         0.00000E+00
         0.00000E+00
         0.00000E+00
         0.00000E+00
         0.00000E+00
         0.00000E+00
         0.00000E+00
         0.00000E+00
         0.00000E+00
         0.00000E+00
         0.00000E+00
         0.00000E+00
         0.00000E+00
         0.00000E+00
         0.00000E+00
         0.00000E+00
         0.00000E+00
         0.00000E+00
         0.00000E+00
         0.00000E+00
         0.00000E+00
         0.00000E+00
         0.00000E+00
         0.00000E+00
         0.00000E+00
         0.00000E+00
         0.00000E+00
         0.00000E+00
         0.00000E+00
         0.00000E+00
         0.00000E+00
         0.00000E+00
         0.00000E+00
         0.00000E+00
         0.00000E+00
         0.00000E+00
         0.00000E+00
         0.00000E+00
         0.00000E+00
         0.00000E+00
         0.00000E+00
         0.00000E+00
         0.00000E+00
         0.00000E+00
         0.00000E+00
         0.00000E+00
         0.00000E+00
         0.00000E+00
         0.00000E+00
         0.00000E+00
         0.00000E+00
         0.00000E+00
         0.00000E+00
         0.00000E+00
         0.00000E+00
         0.00000E+00
         0.00000E+00
         0.00000E+00
         0.00000E+00
         0.00000E+00
         0.00000E+00
         0.00000E+00
         0.00000E+00
         0.00000E+00
         0.00000E+00
         0.00000E+00
         0.00000E+00
         0.00000E+00
         0.00000E+00
         0.00000E+00
         0.00000E+00
         0.00000E+00
         0.00000E+00
         0.00000E+00
         0.00000E+00
         0.00000E+00
         0.00000E+00
         0.00000E+00
         0.00000E+00
         0.00000E+00
         0.00000E+00
         0.00000E+00
         0.00000E+00
         0.00000E+00
         0.00000E+00
         0.00000E+00
         0.00000E+00
         0.00000E+00
         0.00000E+00
         0.00000E+00
         0.00000E+00
         0.00000E+00
         0.00000E+00
         0.00000E+00
         0.00000E+00
         0.00000E+00
         0.00000E+00
         0.00000E+00
         0.00000E+00
         0.00000E+00
         0.00000E+00
         0.00000E+00
         0.00000E+00
         0.00000E+00
         0.00000E+00
         0.00000E+00
         0.00000E+00
         0.00000E+00
         0.00000E+00
         0.00000E+00
         0.00000E+00
         0.00000E+00
         0.00000E+00
         0.00000E+00
         0.00000E+00
         0.00000E+00
         0.00000E+00
         0.00000E+00
         0.00000E+00
         0.00000E+00
         0.00000E+00
         0.00000E+00
         0.00000E+00
         0.00000E+00
         0.00000E+00
         0.00000E+00
         0.00000E+00
         0.00000E+00
         0.00000E+00
         0.00000E+00
         0.00000E+00
         0.00000E+00
         0.00000E+00
         0.00000E+00
         0.00000E+00
         0.00000E+00
         0.00000E+00
         0.00000E+00
         0.00000E+00
         0.00000E+00
         0.00000E+00
         0.00000E+00
         0.00000E+00
         0.00000E+00
         0.00000E+00
         0.00000E+00
         0.00000E+00
         0.00000E+00
         0.00000E+00
         0.00000E+00
         0.00000E+00
         0.00000E+00
         0.00000E+00
         0.00000E+00
         0.00000E+00
         0.00000E+00
         0.00000E+00
         0.00000E+00
         0.00000E+00
         0.00000E+00
         0.00000E+00
         0.00000E+00
         0.00000E+00
         0.00000E+00
         0.00000E+00
         0.00000E+00
         0.00000E+00
         0.00000E+00
         0.00000E+00
         0.00000E+00
         0.00000E+00
         0.00000E+00
         0.00000E+00
         0.00000E+00
         0.00000E+00
         0.00000E+00
         0.00000E+00
         0.00000E+00
         0.00000E+00
         0.00000E+00
         0.00000E+00
         0.00000E+00
         0.00000E+00
         0.00000E+00
         0.00000E+00
         0.00000E+00
         0.00000E+00
         0.00000E+00
         0.00000E+00
         0.00000E+00
         0.00000E+00
         0.00000E+00
         0.00000E+00
         0.00000E+00
         0.00000E+00
         0.00000E+00
         0.00000E+00
         0.00000E+00
         0.00000E+00
         0.00000E+00
         0.00000E+00
         0.00000E+00
         0.00000E+00
         0.00000E+00
         0.00000E+00
         0.00000E+00
         0.00000E+00
         0.00000E+00
         0.00000E+00
         0.00000E+00
         0.00000E+00
         0.00000E+00
         0.00000E+00
         0.00000E+00
         0.00000E+00
  
SCALARS           initial_coordinate_x  double 1
LOOKUP_TABLE default
         0.10378E-02
         0.17452E-02
         0.23177E-02
         0.16698E-02
         0.10379E-02
         0.17453E-02
         0.23178E-02
         0.16700E-02
         0.30377E-02
         0.27791E-02
         0.30377E-02
         0.27788E-02
         0.12850E-02
         0.65139E-03
         0.12851E-02
         0.65164E-03
         0.12757E-03
        -0.12822E-03
         0.12783E-03
        -0.12804E-03
         0.94500E-03
         0.11327E-02
         0.17490E-02
         0.94533E-03
         0.11330E-02
         0.17494E-02
         0.40588E-03
         0.39779E-03
         0.40594E-03
         0.39781E-03
        -0.76303E-03
        -0.86604E-03
         0.46119E-03
        -0.76268E-03
        -0.86593E-03
         0.46164E-03
        -0.18300E-02
        -0.18440E-02
        -0.18297E-02
        -0.18441E-02
        -0.27238E-02
        -0.28028E-02
        -0.27238E-02
        -0.28031E-02
        -0.25365E-02
        -0.19287E-02
        -0.25363E-02
        -0.19283E-02
        -0.99363E-03
        -0.99377E-03
        -0.14380E-02
        -0.14377E-02
        -0.31574E-03
        -0.31594E-03
        -0.11068E-02
        -0.11071E-02
        -0.18845E-02
        -0.18713E-02
        -0.18846E-02
        -0.18714E-02
        -0.15871E-03
        -0.94089E-03
        -0.15844E-03
        -0.94029E-03
         0.78856E-03
         0.78922E-03
         0.17211E-02
         0.17211E-02
         0.32050E-02
         0.28046E-02
         0.32047E-02
         0.28047E-02
         0.23059E-02
         0.23060E-02
        -0.40614E-03
        -0.40627E-03
        -0.12092E-02
        -0.12092E-02
        -0.19448E-02
        -0.19448E-02
        -0.25029E-02
        -0.26371E-02
        -0.25029E-02
        -0.26372E-02
        -0.27671E-02
        -0.27674E-02
        -0.21123E-02
        -0.21122E-02
        -0.16087E-02
        -0.16087E-02
        -0.11939E-02
        -0.58641E-03
        -0.11937E-02
        -0.58606E-03
         0.20912E-03
         0.20952E-03
         0.10586E-02
         0.10589E-02
         0.18413E-02
         0.18413E-02
         0.24544E-02
         0.26022E-02
         0.24543E-02
         0.26021E-02
         0.37964E-02
         0.39100E-02
         0.37964E-02
         0.39100E-02
         0.34621E-02
         0.34621E-02
         0.29267E-02
         0.29267E-02
         0.22211E-02
         0.22211E-02
         0.13865E-02
         0.13865E-02
         0.47130E-03
         0.47130E-03
        -0.47130E-03
        -0.47130E-03
        -0.13865E-02
        -0.13865E-02
        -0.22211E-02
        -0.22211E-02
        -0.29267E-02
        -0.29267E-02
        -0.34621E-02
        -0.34621E-02
        -0.37964E-02
        -0.37964E-02
        -0.39100E-02
        -0.39100E-02
        -0.37964E-02
        -0.37964E-02
        -0.34621E-02
        -0.34621E-02
        -0.29267E-02
        -0.29267E-02
        -0.22211E-02
        -0.22211E-02
        -0.13865E-02
        -0.13865E-02
        -0.47130E-03
        -0.47130E-03
         0.47130E-03
         0.47130E-03
         0.13865E-02
         0.13865E-02
         0.22211E-02
         0.22211E-02
         0.29267E-02
         0.29267E-02
         0.34621E-02
         0.34621E-02
         0.37964E-02
         0.37964E-02
         0.10376E-02
         0.17450E-02
         0.23175E-02
         0.16696E-02
         0.30377E-02
         0.27795E-02
         0.12849E-02
         0.65115E-03
         0.12731E-03
        -0.12841E-03
         0.94467E-03
         0.11323E-02
         0.17487E-02
         0.40583E-03
         0.39777E-03
        -0.76338E-03
        -0.86615E-03
         0.46074E-03
        -0.18303E-02
        -0.18439E-02
        -0.27238E-02
        -0.28025E-02
        -0.25366E-02
        -0.19292E-02
        -0.99349E-03
        -0.14384E-02
        -0.31554E-03
        -0.11064E-02
        -0.18845E-02
        -0.18712E-02
        -0.15899E-03
        -0.94149E-03
         0.78790E-03
         0.17210E-02
         0.32053E-02
         0.28046E-02
         0.23058E-02
        -0.40600E-03
        -0.12092E-02
        -0.19447E-02
        -0.25028E-02
        -0.26370E-02
        -0.27668E-02
        -0.21125E-02
        -0.16088E-02
        -0.11940E-02
        -0.58676E-03
         0.20871E-03
         0.10583E-02
         0.18413E-02
         0.24545E-02
         0.26022E-02
         0.37964E-02
         0.39100E-02
         0.34621E-02
         0.29267E-02
         0.22211E-02
         0.13865E-02
         0.47130E-03
        -0.47130E-03
        -0.13865E-02
        -0.22211E-02
        -0.29267E-02
        -0.34621E-02
        -0.37964E-02
        -0.39100E-02
        -0.37964E-02
        -0.34621E-02
        -0.29267E-02
        -0.22211E-02
        -0.13865E-02
        -0.47130E-03
         0.47130E-03
         0.13865E-02
         0.22211E-02
         0.29267E-02
         0.34621E-02
         0.37964E-02
         0.10375E-02
         0.17448E-02
         0.23174E-02
         0.16694E-02
         0.30377E-02
         0.27798E-02
         0.12848E-02
         0.65090E-03
         0.12705E-03
        -0.12859E-03
         0.94434E-03
         0.11320E-02
         0.17483E-02
         0.40577E-03
         0.39776E-03
        -0.76374E-03
        -0.86626E-03
         0.46029E-03
        -0.18306E-02
        -0.18438E-02
        -0.27238E-02
        -0.28022E-02
        -0.25368E-02
        -0.19296E-02
        -0.99334E-03
        -0.14387E-02
        -0.31534E-03
        -0.11061E-02
        -0.18844E-02
        -0.18710E-02
        -0.15926E-03
        -0.94209E-03
         0.78724E-03
         0.17210E-02
         0.32056E-02
         0.28046E-02
         0.23057E-02
        -0.40586E-03
        -0.12092E-02
        -0.19447E-02
        -0.25028E-02
        -0.26369E-02
        -0.27665E-02
        -0.21126E-02
        -0.16088E-02
        -0.11941E-02
        -0.58711E-03
         0.20830E-03
         0.10580E-02
         0.18414E-02
         0.24546E-02
         0.26023E-02
         0.37964E-02
         0.39100E-02
         0.34621E-02
         0.29267E-02
         0.22211E-02
         0.13865E-02
         0.47130E-03
        -0.47130E-03
        -0.13865E-02
        -0.22211E-02
        -0.29267E-02
        -0.34621E-02
        -0.37964E-02
        -0.39100E-02
        -0.37964E-02
        -0.34621E-02
        -0.29267E-02
        -0.22211E-02
        -0.13865E-02
        -0.47130E-03
         0.47130E-03
         0.13865E-02
         0.22211E-02
         0.29267E-02
         0.34621E-02
         0.37964E-02
         0.10374E-02
         0.17446E-02
         0.23173E-02
         0.16692E-02
         0.30376E-02
         0.27801E-02
         0.12847E-02
         0.65065E-03
         0.12678E-03
        -0.12878E-03
         0.94401E-03
         0.11316E-02
         0.17479E-02
         0.40572E-03
         0.39774E-03
        -0.76409E-03
        -0.86637E-03
         0.45985E-03
        -0.18309E-02
        -0.18437E-02
        -0.27237E-02
        -0.28020E-02
        -0.25369E-02
        -0.19300E-02
        -0.99320E-03
        -0.14391E-02
        -0.31514E-03
        -0.11057E-02
        -0.18844E-02
        -0.18709E-02
        -0.15954E-03
        -0.94269E-03
         0.78658E-03
         0.17209E-02
         0.32060E-02
         0.28046E-02
         0.23056E-02
        -0.40572E-03
        -0.12092E-02
        -0.19446E-02
        -0.25028E-02
        -0.26368E-02
        -0.27662E-02
        -0.21128E-02
        -0.16088E-02
        -0.11942E-02
        -0.58746E-03
         0.20790E-03
         0.10577E-02
         0.18414E-02
         0.24548E-02
         0.26024E-02
         0.37964E-02
         0.39100E-02
         0.34621E-02
         0.29267E-02
         0.22211E-02
         0.13865E-02
         0.47130E-03
        -0.47130E-03
        -0.13865E-02
        -0.22211E-02
        -0.29267E-02
        -0.34621E-02
        -0.37964E-02
        -0.39100E-02
        -0.37964E-02
        -0.34621E-02
        -0.29267E-02
        -0.22211E-02
        -0.13865E-02
        -0.47130E-03
         0.47130E-03
         0.13865E-02
         0.22211E-02
         0.29267E-02
         0.34621E-02
         0.37964E-02
         0.10373E-02
         0.17445E-02
         0.23172E-02
         0.16689E-02
         0.30376E-02
         0.27805E-02
         0.12846E-02
         0.65041E-03
         0.12652E-03
        -0.12896E-03
         0.94367E-03
         0.11313E-02
         0.17475E-02
         0.40566E-03
         0.39772E-03
        -0.76444E-03
        -0.86648E-03
         0.45940E-03
        -0.18312E-02
        -0.18436E-02
        -0.27237E-02
        -0.28017E-02
        -0.25371E-02
        -0.19305E-02
        -0.99305E-03
        -0.14394E-02
        -0.31494E-03
        -0.11054E-02
        -0.18843E-02
        -0.18708E-02
        -0.15981E-03
        -0.94328E-03
         0.78592E-03
         0.17209E-02
         0.32063E-02
         0.28045E-02
         0.23055E-02
        -0.40558E-03
        -0.12092E-02
        -0.19446E-02
        -0.25027E-02
        -0.26367E-02
        -0.27658E-02
        -0.21129E-02
        -0.16089E-02
        -0.11943E-02
        -0.58781E-03
         0.20749E-03
         0.10574E-02
         0.18415E-02
         0.24549E-02
         0.26025E-02
         0.37964E-02
         0.39100E-02
         0.34621E-02
         0.29267E-02
         0.22211E-02
         0.13865E-02
         0.47130E-03
        -0.47130E-03
        -0.13865E-02
        -0.22211E-02
        -0.29267E-02
        -0.34621E-02
        -0.37964E-02
        -0.39100E-02
        -0.37964E-02
        -0.34621E-02
        -0.29267E-02
        -0.22211E-02
        -0.13865E-02
        -0.47130E-03
         0.47130E-03
         0.13865E-02
         0.22211E-02
         0.29267E-02
         0.34621E-02
         0.37964E-02
         0.10372E-02
         0.17443E-02
         0.23171E-02
         0.16687E-02
         0.30376E-02
         0.27808E-02
         0.12845E-02
         0.65016E-03
         0.12626E-03
        -0.12915E-03
         0.94334E-03
         0.11310E-02
         0.17471E-02
         0.40561E-03
         0.39770E-03
        -0.76480E-03
        -0.86659E-03
         0.45895E-03
        -0.18315E-02
        -0.18435E-02
        -0.27237E-02
        -0.28014E-02
        -0.25372E-02
        -0.19309E-02
        -0.99291E-03
        -0.14398E-02
        -0.31474E-03
        -0.11051E-02
        -0.18843E-02
        -0.18706E-02
        -0.16009E-03
        -0.94388E-03
         0.78526E-03
         0.17208E-02
         0.32066E-02
         0.28045E-02
         0.23053E-02
        -0.40545E-03
        -0.12092E-02
        -0.19446E-02
        -0.25027E-02
        -0.26366E-02
        -0.27655E-02
        -0.21130E-02
        -0.16089E-02
        -0.11944E-02
        -0.58816E-03
         0.20709E-03
         0.10571E-02
         0.18415E-02
         0.24550E-02
         0.26025E-02
         0.37964E-02
         0.39100E-02
         0.34621E-02
         0.29267E-02
         0.22211E-02
         0.13865E-02
         0.47130E-03
        -0.47130E-03
        -0.13865E-02
        -0.22211E-02
        -0.29267E-02
        -0.34621E-02
        -0.37964E-02
        -0.39100E-02
        -0.37964E-02
        -0.34621E-02
        -0.29267E-02
        -0.22211E-02
        -0.13865E-02
        -0.47130E-03
         0.47130E-03
         0.13865E-02
         0.22211E-02
         0.29267E-02
         0.34621E-02
         0.37964E-02
         0.10371E-02
         0.17441E-02
         0.23169E-02
         0.16685E-02
         0.30376E-02
         0.27812E-02
         0.12844E-02
         0.64992E-03
         0.12600E-03
        -0.12933E-03
         0.94301E-03
         0.11306E-02
         0.17467E-02
         0.40556E-03
         0.39769E-03
        -0.76515E-03
        -0.86670E-03
         0.45850E-03
        -0.18318E-02
        -0.18434E-02
        -0.27236E-02
        -0.28011E-02
        -0.25374E-02
        -0.19313E-02
        -0.99277E-03
        -0.14401E-02
        -0.31454E-03
        -0.11047E-02
        -0.18842E-02
        -0.18705E-02
        -0.16036E-03
        -0.94448E-03
         0.78460E-03
         0.17208E-02
         0.32070E-02
         0.28045E-02
         0.23052E-02
        -0.40531E-03
        -0.12092E-02
        -0.19445E-02
        -0.25027E-02
        -0.26366E-02
        -0.27652E-02
        -0.21132E-02
        -0.16090E-02
        -0.11946E-02
        -0.58851E-03
         0.20668E-03
         0.10567E-02
         0.18416E-02
         0.24551E-02
         0.26026E-02
         0.37964E-02
         0.39100E-02
         0.34621E-02
         0.29267E-02
         0.22211E-02
         0.13865E-02
         0.47130E-03
        -0.47130E-03
        -0.13865E-02
        -0.22211E-02
        -0.29267E-02
        -0.34621E-02
        -0.37964E-02
        -0.39100E-02
        -0.37964E-02
        -0.34621E-02
        -0.29267E-02
        -0.22211E-02
        -0.13865E-02
        -0.47130E-03
         0.47130E-03
         0.13865E-02
         0.22211E-02
         0.29267E-02
         0.34621E-02
         0.37964E-02
         0.10370E-02
         0.17439E-02
         0.23168E-02
         0.16683E-02
         0.30375E-02
         0.27815E-02
         0.12843E-02
         0.64967E-03
         0.12573E-03
        -0.12952E-03
         0.94268E-03
         0.11303E-02
         0.17463E-02
         0.40550E-03
         0.39767E-03
        -0.76551E-03
        -0.86680E-03
         0.45806E-03
        -0.18321E-02
        -0.18433E-02
        -0.27236E-02
        -0.28009E-02
        -0.25375E-02
        -0.19317E-02
        -0.99262E-03
        -0.14405E-02
        -0.31434E-03
        -0.11044E-02
        -0.18842E-02
        -0.18704E-02
        -0.16064E-03
        -0.94508E-03
         0.78394E-03
         0.17208E-02
         0.32073E-02
         0.28045E-02
         0.23051E-02
        -0.40517E-03
        -0.12092E-02
        -0.19445E-02
        -0.25026E-02
        -0.26365E-02
        -0.27649E-02
        -0.21133E-02
        -0.16090E-02
        -0.11947E-02
        -0.58886E-03
         0.20627E-03
         0.10564E-02
         0.18416E-02
         0.24553E-02
         0.26027E-02
         0.37964E-02
         0.39100E-02
         0.34621E-02
         0.29267E-02
         0.22211E-02
         0.13865E-02
         0.47130E-03
        -0.47130E-03
        -0.13865E-02
        -0.22211E-02
        -0.29267E-02
        -0.34621E-02
        -0.37964E-02
        -0.39100E-02
        -0.37964E-02
        -0.34621E-02
        -0.29267E-02
        -0.22211E-02
        -0.13865E-02
        -0.47130E-03
         0.47130E-03
         0.13865E-02
         0.22211E-02
         0.29267E-02
         0.34621E-02
         0.37964E-02
         0.10368E-02
         0.17438E-02
         0.23167E-02
         0.16681E-02
         0.30375E-02
         0.27819E-02
         0.12842E-02
         0.64943E-03
         0.12547E-03
        -0.12970E-03
         0.94235E-03
         0.11300E-02
         0.17459E-02
         0.40545E-03
         0.39766E-03
        -0.76586E-03
        -0.86691E-03
         0.45761E-03
        -0.18324E-02
        -0.18432E-02
        -0.27236E-02
        -0.28006E-02
        -0.25377E-02
        -0.19322E-02
        -0.99248E-03
        -0.14408E-02
        -0.31414E-03
        -0.11040E-02
        -0.18841E-02
        -0.18703E-02
        -0.16091E-03
        -0.94568E-03
         0.78328E-03
         0.17207E-02
         0.32076E-02
         0.28044E-02
         0.23050E-02
        -0.40503E-03
        -0.12092E-02
        -0.19445E-02
        -0.25026E-02
        -0.26364E-02
        -0.27646E-02
        -0.21134E-02
        -0.16091E-02
        -0.11948E-02
        -0.58921E-03
         0.20587E-03
         0.10561E-02
         0.18416E-02
         0.24554E-02
         0.26027E-02
         0.37964E-02
         0.39100E-02
         0.34621E-02
         0.29267E-02
         0.22211E-02
         0.13865E-02
         0.47130E-03
        -0.47130E-03
        -0.13865E-02
        -0.22211E-02
        -0.29267E-02
        -0.34621E-02
        -0.37964E-02
        -0.39100E-02
        -0.37964E-02
        -0.34621E-02
        -0.29267E-02
        -0.22211E-02
        -0.13865E-02
        -0.47130E-03
         0.47130E-03
         0.13865E-02
         0.22211E-02
         0.29267E-02
         0.34621E-02
         0.37964E-02
         0.10367E-02
         0.17436E-02
         0.23166E-02
         0.16679E-02
         0.30375E-02
         0.27822E-02
         0.12841E-02
         0.64918E-03
         0.12521E-03
        -0.12989E-03
         0.94202E-03
         0.11296E-02
         0.17455E-02
         0.40539E-03
         0.39764E-03
        -0.76621E-03
        -0.86702E-03
         0.45716E-03
        -0.18326E-02
        -0.18431E-02
        -0.27235E-02
        -0.28003E-02
        -0.25379E-02
        -0.19326E-02
        -0.99233E-03
        -0.14412E-02
        -0.31394E-03
        -0.11037E-02
        -0.18841E-02
        -0.18701E-02
        -0.16119E-03
        -0.94628E-03
         0.78262E-03
         0.17207E-02
         0.32079E-02
         0.28044E-02
         0.23049E-02
        -0.40490E-03
        -0.12093E-02
        -0.19444E-02
        -0.25026E-02
        -0.26363E-02
        -0.27643E-02
        -0.21136E-02
        -0.16091E-02
        -0.11949E-02
        -0.58956E-03
         0.20546E-03
         0.10558E-02
         0.18417E-02
         0.24555E-02
         0.26028E-02
         0.37964E-02
         0.39100E-02
         0.34621E-02
         0.29267E-02
         0.22211E-02
         0.13865E-02
         0.47130E-03
        -0.47130E-03
        -0.13865E-02
        -0.22211E-02
        -0.29267E-02
        -0.34621E-02
        -0.37964E-02
        -0.39100E-02
        -0.37964E-02
        -0.34621E-02
        -0.29267E-02
        -0.22211E-02
        -0.13865E-02
        -0.47130E-03
         0.47130E-03
         0.13865E-02
         0.22211E-02
         0.29267E-02
         0.34621E-02
         0.37964E-02
         0.10366E-02
         0.17434E-02
         0.23164E-02
         0.16677E-02
         0.30375E-02
         0.27825E-02
         0.12840E-02
         0.64894E-03
         0.12495E-03
        -0.13007E-03
         0.94169E-03
         0.11293E-02
         0.17451E-02
         0.40534E-03
         0.39762E-03
        -0.76657E-03
        -0.86713E-03
         0.45671E-03
        -0.18329E-02
        -0.18430E-02
        -0.27235E-02
        -0.28001E-02
        -0.25380E-02
        -0.19330E-02
        -0.99219E-03
        -0.14415E-02
        -0.31374E-03
        -0.11033E-02
        -0.18840E-02
        -0.18700E-02
        -0.16146E-03
        -0.94687E-03
         0.78195E-03
         0.17207E-02
         0.32083E-02
         0.28044E-02
         0.23048E-02
        -0.40476E-03
        -0.12093E-02
        -0.19444E-02
        -0.25026E-02
        -0.26362E-02
        -0.27640E-02
        -0.21137E-02
        -0.16091E-02
        -0.11950E-02
        -0.58991E-03
         0.20505E-03
         0.10555E-02
         0.18417E-02
         0.24556E-02
         0.26029E-02
         0.37964E-02
         0.39100E-02
         0.34621E-02
         0.29267E-02
         0.22211E-02
         0.13865E-02
         0.47130E-03
        -0.47130E-03
        -0.13865E-02
        -0.22211E-02
        -0.29267E-02
        -0.34621E-02
        -0.37964E-02
        -0.39100E-02
        -0.37964E-02
        -0.34621E-02
        -0.29267E-02
        -0.22211E-02
        -0.13865E-02
        -0.47130E-03
         0.47130E-03
         0.13865E-02
         0.22211E-02
         0.29267E-02
         0.34621E-02
         0.37964E-02
         0.10365E-02
         0.17432E-02
         0.23163E-02
         0.16675E-02
         0.30374E-02
         0.27829E-02
         0.12839E-02
         0.64869E-03
         0.12468E-03
        -0.13026E-03
         0.94135E-03
         0.11289E-02
         0.17447E-02
         0.40528E-03
         0.39760E-03
        -0.76692E-03
        -0.86724E-03
         0.45626E-03
        -0.18332E-02
        -0.18430E-02
        -0.27235E-02
        -0.27998E-02
        -0.25382E-02
        -0.19334E-02
        -0.99205E-03
        -0.14419E-02
        -0.31354E-03
        -0.11030E-02
        -0.18840E-02
        -0.18699E-02
        -0.16174E-03
        -0.94747E-03
         0.78129E-03
         0.17206E-02
         0.32086E-02
         0.28044E-02
         0.23047E-02
        -0.40462E-03
        -0.12093E-02
        -0.19444E-02
        -0.25025E-02
        -0.26361E-02
        -0.27637E-02
        -0.21139E-02
        -0.16092E-02
        -0.11951E-02
        -0.59025E-03
         0.20465E-03
         0.10552E-02
         0.18418E-02
         0.24558E-02
         0.26030E-02
         0.37964E-02
         0.39100E-02
         0.34621E-02
         0.29267E-02
         0.22211E-02
         0.13865E-02
         0.47130E-03
        -0.47130E-03
        -0.13865E-02
        -0.22211E-02
        -0.29267E-02
        -0.34621E-02
        -0.37964E-02
        -0.39100E-02
        -0.37964E-02
        -0.34621E-02
        -0.29267E-02
        -0.22211E-02
        -0.13865E-02
        -0.47130E-03
         0.47130E-03
         0.13865E-02
         0.22211E-02
         0.29267E-02
         0.34621E-02
         0.37964E-02
         0.10364E-02
         0.17430E-02
         0.23162E-02
         0.16672E-02
         0.30374E-02
         0.27832E-02
         0.12838E-02
         0.64845E-03
         0.12442E-03
        -0.13044E-03
         0.94102E-03
         0.11286E-02
         0.17443E-02
         0.40523E-03
         0.39759E-03
        -0.76727E-03
        -0.86735E-03
         0.45582E-03
        -0.18335E-02
        -0.18429E-02
        -0.27235E-02
        -0.27995E-02
        -0.25383E-02
        -0.19339E-02
        -0.99190E-03
        -0.14422E-02
        -0.31334E-03
        -0.11026E-02
        -0.18839E-02
        -0.18697E-02
        -0.16201E-03
        -0.94807E-03
         0.78063E-03
         0.17206E-02
         0.32089E-02
         0.28043E-02
         0.23046E-02
        -0.40448E-03
        -0.12093E-02
        -0.19443E-02
        -0.25025E-02
        -0.26360E-02
        -0.27633E-02
        -0.21140E-02
        -0.16092E-02
        -0.11953E-02
        -0.59060E-03
         0.20424E-03
         0.10549E-02
         0.18418E-02
         0.24559E-02
         0.26030E-02
         0.37964E-02
         0.39100E-02
         0.34621E-02
         0.29267E-02
         0.22211E-02
         0.13865E-02
         0.47130E-03
        -0.47130E-03
        -0.13865E-02
        -0.22211E-02
        -0.29267E-02
        -0.34621E-02
        -0.37964E-02
        -0.39100E-02
        -0.37964E-02
        -0.34621E-02
        -0.29267E-02
        -0.22211E-02
        -0.13865E-02
        -0.47130E-03
         0.47130E-03
         0.13865E-02
         0.22211E-02
         0.29267E-02
         0.34621E-02
         0.37964E-02
         0.10363E-02
         0.17429E-02
         0.23161E-02
         0.16670E-02
         0.30374E-02
         0.27836E-02
         0.12837E-02
         0.64820E-03
         0.12416E-03
        -0.13063E-03
         0.94069E-03
         0.11282E-02
         0.17439E-02
         0.40518E-03
         0.39757E-03
        -0.76763E-03
        -0.86746E-03
         0.45537E-03
        -0.18338E-02
        -0.18428E-02
        -0.27234E-02
        -0.27992E-02
        -0.25385E-02
        -0.19343E-02
        -0.99176E-03
        -0.14425E-02
        -0.31314E-03
        -0.11023E-02
        -0.18839E-02
        -0.18696E-02
        -0.16229E-03
        -0.94867E-03
         0.77997E-03
         0.17205E-02
         0.32092E-02
         0.28043E-02
         0.23044E-02
        -0.40434E-03
        -0.12093E-02
        -0.19443E-02
        -0.25025E-02
        -0.26359E-02
        -0.27630E-02
        -0.21141E-02
        -0.16093E-02
        -0.11954E-02
        -0.59095E-03
         0.20384E-03
         0.10546E-02
         0.18419E-02
         0.24560E-02
         0.26031E-02
         0.37964E-02
         0.39100E-02
         0.34621E-02
         0.29267E-02
         0.22211E-02
         0.13865E-02
         0.47130E-03
        -0.47130E-03
        -0.13865E-02
        -0.22211E-02
        -0.29267E-02
        -0.34621E-02
        -0.37964E-02
        -0.39100E-02
        -0.37964E-02
        -0.34621E-02
        -0.29267E-02
        -0.22211E-02
        -0.13865E-02
        -0.47130E-03
         0.47130E-03
         0.13865E-02
         0.22211E-02
         0.29267E-02
         0.34621E-02
         0.37964E-02
         0.10362E-02
         0.17427E-02
         0.23160E-02
         0.16668E-02
         0.30373E-02
         0.27839E-02
         0.12836E-02
         0.64796E-03
         0.12390E-03
        -0.13082E-03
         0.94036E-03
         0.11279E-02
         0.17435E-02
         0.40512E-03
         0.39755E-03
        -0.76798E-03
        -0.86756E-03
         0.45492E-03
        -0.18341E-02
        -0.18427E-02
        -0.27234E-02
        -0.27990E-02
        -0.25386E-02
        -0.19347E-02
        -0.99161E-03
        -0.14429E-02
        -0.31294E-03
        -0.11019E-02
        -0.18838E-02
        -0.18695E-02
        -0.16256E-03
        -0.94927E-03
         0.77931E-03
         0.17205E-02
         0.32096E-02
         0.28043E-02
         0.23043E-02
        -0.40420E-03
        -0.12093E-02
        -0.19443E-02
        -0.25024E-02
        -0.26358E-02
        -0.27627E-02
        -0.21143E-02
        -0.16093E-02
        -0.11955E-02
        -0.59130E-03
         0.20343E-03
         0.10543E-02
         0.18419E-02
         0.24561E-02
         0.26032E-02
         0.37964E-02
         0.39100E-02
         0.34621E-02
         0.29267E-02
         0.22211E-02
         0.13865E-02
         0.47130E-03
        -0.47130E-03
        -0.13865E-02
        -0.22211E-02
        -0.29267E-02
        -0.34621E-02
        -0.37964E-02
        -0.39100E-02
        -0.37964E-02
        -0.34621E-02
        -0.29267E-02
        -0.22211E-02
        -0.13865E-02
        -0.47130E-03
         0.47130E-03
         0.13865E-02
         0.22211E-02
         0.29267E-02
         0.34621E-02
         0.37964E-02
         0.10360E-02
         0.17425E-02
         0.23158E-02
         0.16666E-02
         0.30373E-02
         0.27842E-02
         0.12835E-02
         0.64771E-03
         0.12363E-03
        -0.13100E-03
         0.94003E-03
         0.11276E-02
         0.17432E-02
         0.40507E-03
         0.39754E-03
        -0.76834E-03
        -0.86767E-03
         0.45447E-03
        -0.18344E-02
        -0.18426E-02
        -0.27234E-02
        -0.27987E-02
        -0.25388E-02
        -0.19352E-02
        -0.99147E-03
        -0.14433E-02
        -0.31274E-03
        -0.11016E-02
        -0.18838E-02
        -0.18694E-02
        -0.16284E-03
        -0.94986E-03
         0.77865E-03
         0.17205E-02
         0.32099E-02
         0.28042E-02
         0.23042E-02
        -0.40407E-03
        -0.12093E-02
        -0.19442E-02
        -0.25024E-02
        -0.26358E-02
        -0.27624E-02
        -0.21144E-02
        -0.16094E-02
        -0.11956E-02
        -0.59165E-03
         0.20302E-03
         0.10540E-02
         0.18419E-02
         0.24563E-02
         0.26033E-02
         0.37964E-02
         0.39100E-02
         0.34621E-02
         0.29267E-02
         0.22211E-02
         0.13865E-02
         0.47130E-03
        -0.47130E-03
        -0.13865E-02
        -0.22211E-02
        -0.29267E-02
        -0.34621E-02
        -0.37964E-02
        -0.39100E-02
        -0.37964E-02
        -0.34621E-02
        -0.29267E-02
        -0.22211E-02
        -0.13865E-02
        -0.47130E-03
         0.47130E-03
         0.13865E-02
         0.22211E-02
         0.29267E-02
         0.34621E-02
         0.37964E-02
         0.10359E-02
         0.17423E-02
         0.23157E-02
         0.16664E-02
         0.30373E-02
         0.27846E-02
         0.12834E-02
         0.64747E-03
         0.12337E-03
        -0.13118E-03
         0.93970E-03
         0.11272E-02
         0.17428E-02
         0.40501E-03
         0.39752E-03
        -0.76869E-03
        -0.86778E-03
         0.45402E-03
        -0.18347E-02
        -0.18425E-02
        -0.27234E-02
        -0.27984E-02
        -0.25389E-02
        -0.19356E-02
        -0.99133E-03
        -0.14436E-02
        -0.31254E-03
        -0.11013E-02
        -0.18837E-02
        -0.18692E-02
        -0.16311E-03
        -0.95046E-03
         0.77799E-03
         0.17204E-02
         0.32102E-02
         0.28042E-02
         0.23041E-02
        -0.40393E-03
        -0.12093E-02
        -0.19442E-02
        -0.25024E-02
        -0.26357E-02
        -0.27621E-02
        -0.21146E-02
        -0.16094E-02
        -0.11957E-02
        -0.59200E-03
         0.20262E-03
         0.10536E-02
         0.18420E-02
         0.24564E-02
         0.26033E-02
         0.37964E-02
         0.39100E-02
         0.34621E-02
         0.29267E-02
         0.22211E-02
         0.13865E-02
         0.47130E-03
        -0.47130E-03
        -0.13865E-02
        -0.22211E-02
        -0.29267E-02
        -0.34621E-02
        -0.37964E-02
        -0.39100E-02
        -0.37964E-02
        -0.34621E-02
        -0.29267E-02
        -0.22211E-02
        -0.13865E-02
        -0.47130E-03
         0.47130E-03
         0.13865E-02
         0.22211E-02
         0.29267E-02
         0.34621E-02
         0.37964E-02
         0.10358E-02
         0.17422E-02
         0.23156E-02
         0.16662E-02
         0.30373E-02
         0.27849E-02
         0.12833E-02
         0.64722E-03
         0.12311E-03
        -0.13137E-03
         0.93937E-03
         0.11269E-02
         0.17424E-02
         0.40496E-03
         0.39750E-03
        -0.76904E-03
        -0.86789E-03
         0.45358E-03
        -0.18350E-02
        -0.18424E-02
        -0.27233E-02
        -0.27981E-02
        -0.25391E-02
        -0.19360E-02
        -0.99118E-03
        -0.14440E-02
        -0.31234E-03
        -0.11009E-02
        -0.18836E-02
        -0.18691E-02
        -0.16339E-03
        -0.95106E-03
         0.77733E-03
         0.17204E-02
         0.32105E-02
         0.28042E-02
         0.23040E-02
        -0.40379E-03
        -0.12093E-02
        -0.19441E-02
        -0.25023E-02
        -0.26356E-02
        -0.27618E-02
        -0.21147E-02
        -0.16094E-02
        -0.11958E-02
        -0.59235E-03
         0.20221E-03
         0.10533E-02
         0.18420E-02
         0.24565E-02
         0.26034E-02
         0.37964E-02
         0.39100E-02
         0.34621E-02
         0.29267E-02
         0.22211E-02
         0.13865E-02
         0.47130E-03
        -0.47130E-03
        -0.13865E-02
        -0.22211E-02
        -0.29267E-02
        -0.34621E-02
        -0.37964E-02
        -0.39100E-02
        -0.37964E-02
        -0.34621E-02
        -0.29267E-02
        -0.22211E-02
        -0.13865E-02
        -0.47130E-03
         0.47130E-03
         0.13865E-02
         0.22211E-02
         0.29267E-02
         0.34621E-02
         0.37964E-02
         0.10357E-02
         0.17420E-02
         0.23155E-02
         0.16660E-02
         0.30372E-02
         0.27853E-02
         0.12832E-02
         0.64698E-03
         0.12285E-03
        -0.13155E-03
         0.93903E-03
         0.11266E-02
         0.17420E-02
         0.40490E-03
         0.39749E-03
        -0.76940E-03
        -0.86800E-03
         0.45313E-03
        -0.18353E-02
        -0.18423E-02
        -0.27233E-02
        -0.27979E-02
        -0.25393E-02
        -0.19365E-02
        -0.99104E-03
        -0.14443E-02
        -0.31214E-03
        -0.11006E-02
        -0.18836E-02
        -0.18690E-02
        -0.16366E-03
        -0.95166E-03
         0.77667E-03
         0.17203E-02
         0.32109E-02
         0.28042E-02
         0.23039E-02
        -0.40365E-03
        -0.12093E-02
        -0.19441E-02
        -0.25023E-02
        -0.26355E-02
        -0.27615E-02
        -0.21148E-02
        -0.16095E-02
        -0.11960E-02
        -0.59270E-03
         0.20180E-03
         0.10530E-02
         0.18421E-02
         0.24566E-02
         0.26035E-02
         0.37964E-02
         0.39100E-02
         0.34621E-02
         0.29267E-02
         0.22211E-02
         0.13865E-02
         0.47130E-03
        -0.47130E-03
        -0.13865E-02
        -0.22211E-02
        -0.29267E-02
        -0.34621E-02
        -0.37964E-02
        -0.39100E-02
        -0.37964E-02
        -0.34621E-02
        -0.29267E-02
        -0.22211E-02
        -0.13865E-02
        -0.47130E-03
         0.47130E-03
         0.13865E-02
         0.22211E-02
         0.29267E-02
         0.34621E-02
         0.37964E-02
         0.10356E-02
         0.17418E-02
         0.23153E-02
         0.16657E-02
         0.30372E-02
         0.27856E-02
         0.12830E-02
         0.64673E-03
         0.12259E-03
        -0.13174E-03
         0.93870E-03
         0.11262E-02
         0.17416E-02
         0.40485E-03
         0.39747E-03
        -0.76975E-03
        -0.86811E-03
         0.45268E-03
        -0.18356E-02
        -0.18422E-02
        -0.27233E-02
        -0.27976E-02
        -0.25394E-02
        -0.19369E-02
        -0.99090E-03
        -0.14446E-02
        -0.31194E-03
        -0.11002E-02
        -0.18835E-02
        -0.18689E-02
        -0.16394E-03
        -0.95226E-03
         0.77601E-03
         0.17203E-02
         0.32112E-02
         0.28042E-02
         0.23038E-02
        -0.40352E-03
        -0.12093E-02
        -0.19441E-02
        -0.25023E-02
        -0.26354E-02
        -0.27612E-02
        -0.21150E-02
        -0.16095E-02
        -0.11961E-02
        -0.59305E-03
         0.20140E-03
         0.10527E-02
         0.18421E-02
         0.24568E-02
         0.26036E-02
         0.37964E-02
         0.39100E-02
         0.34621E-02
         0.29267E-02
         0.22211E-02
         0.13865E-02
         0.47130E-03
        -0.47130E-03
        -0.13865E-02
        -0.22211E-02
        -0.29267E-02
        -0.34621E-02
        -0.37964E-02
        -0.39100E-02
        -0.37964E-02
        -0.34621E-02
        -0.29267E-02
        -0.22211E-02
        -0.13865E-02
        -0.47130E-03
         0.47130E-03
         0.13865E-02
         0.22211E-02
         0.29267E-02
         0.34621E-02
         0.37964E-02
         0.10355E-02
         0.17416E-02
         0.23152E-02
         0.16655E-02
         0.30372E-02
         0.27860E-02
         0.12829E-02
         0.64649E-03
         0.12232E-03
        -0.13193E-03
         0.93837E-03
         0.11259E-02
         0.17412E-02
         0.40480E-03
         0.39745E-03
        -0.77011E-03
        -0.86822E-03
         0.45223E-03
        -0.18359E-02
        -0.18421E-02
        -0.27232E-02
        -0.27973E-02
        -0.25396E-02
        -0.19373E-02
        -0.99075E-03
        -0.14450E-02
        -0.31173E-03
        -0.10999E-02
        -0.18835E-02
        -0.18687E-02
        -0.16421E-03
        -0.95285E-03
         0.77535E-03
         0.17202E-02
         0.32115E-02
         0.28041E-02
         0.23037E-02
        -0.40338E-03
        -0.12093E-02
        -0.19440E-02
        -0.25023E-02
        -0.26353E-02
        -0.27609E-02
        -0.21151E-02
        -0.16096E-02
        -0.11962E-02
        -0.59340E-03
         0.20099E-03
         0.10524E-02
         0.18422E-02
         0.24569E-02
         0.26036E-02
         0.37964E-02
         0.39100E-02
         0.34621E-02
         0.29267E-02
         0.22211E-02
         0.13865E-02
         0.47130E-03
        -0.47130E-03
        -0.13865E-02
        -0.22211E-02
        -0.29267E-02
        -0.34621E-02
        -0.37964E-02
        -0.39100E-02
        -0.37964E-02
        -0.34621E-02
        -0.29267E-02
        -0.22211E-02
        -0.13865E-02
        -0.47130E-03
         0.47130E-03
         0.13865E-02
         0.22211E-02
         0.29267E-02
         0.34621E-02
         0.37964E-02
         0.10354E-02
         0.17414E-02
         0.23151E-02
         0.16653E-02
         0.30372E-02
         0.27863E-02
         0.12829E-02
         0.64624E-03
         0.12206E-03
        -0.13211E-03
         0.93804E-03
         0.11255E-02
         0.17408E-02
         0.40474E-03
         0.39744E-03
        -0.77046E-03
        -0.86832E-03
         0.45179E-03
        -0.18362E-02
        -0.18420E-02
        -0.27232E-02
        -0.27970E-02
        -0.25397E-02
        -0.19377E-02
        -0.99061E-03
        -0.14453E-02
        -0.31153E-03
        -0.10995E-02
        -0.18834E-02
        -0.18686E-02
        -0.16449E-03
        -0.95345E-03
         0.77469E-03
         0.17202E-02
         0.32119E-02
         0.28041E-02
         0.23036E-02
        -0.40324E-03
        -0.12093E-02
        -0.19440E-02
        -0.25022E-02
        -0.26352E-02
        -0.27606E-02
        -0.21152E-02
        -0.16096E-02
        -0.11963E-02
        -0.59375E-03
         0.20059E-03
         0.10521E-02
         0.18422E-02
         0.24570E-02
         0.26037E-02
         0.37964E-02
         0.39100E-02
         0.34621E-02
         0.29267E-02
         0.22211E-02
         0.13865E-02
         0.47130E-03
        -0.47130E-03
        -0.13865E-02
        -0.22211E-02
        -0.29267E-02
        -0.34621E-02
        -0.37964E-02
        -0.39100E-02
        -0.37964E-02
        -0.34621E-02
        -0.29267E-02
        -0.22211E-02
        -0.13865E-02
        -0.47130E-03
         0.47130E-03
         0.13865E-02
         0.22211E-02
         0.29267E-02
         0.34621E-02
         0.37964E-02
         0.10352E-02
         0.17413E-02
         0.23150E-02
         0.16651E-02
         0.30371E-02
         0.27866E-02
         0.12827E-02
         0.64600E-03
         0.12180E-03
        -0.13230E-03
         0.93771E-03
         0.11252E-02
         0.17404E-02
         0.40469E-03
         0.39742E-03
        -0.77081E-03
        -0.86843E-03
         0.45134E-03
        -0.18365E-02
        -0.18419E-02
        -0.27232E-02
        -0.27968E-02
        -0.25399E-02
        -0.19382E-02
        -0.99046E-03
        -0.14457E-02
        -0.31133E-03
        -0.10992E-02
        -0.18834E-02
        -0.18685E-02
        -0.16476E-03
        -0.95405E-03
         0.77402E-03
         0.17202E-02
         0.32122E-02
         0.28041E-02
         0.23034E-02
        -0.40310E-03
        -0.12093E-02
        -0.19440E-02
        -0.25022E-02
        -0.26351E-02
        -0.27602E-02
        -0.21154E-02
        -0.16097E-02
        -0.11964E-02
        -0.59409E-03
         0.20018E-03
         0.10518E-02
         0.18422E-02
         0.24571E-02
         0.26038E-02
         0.37964E-02
         0.39100E-02
         0.34621E-02
         0.29267E-02
         0.22211E-02
         0.13865E-02
         0.47130E-03
        -0.47130E-03
        -0.13865E-02
        -0.22211E-02
        -0.29267E-02
        -0.34621E-02
        -0.37964E-02
        -0.39100E-02
        -0.37964E-02
        -0.34621E-02
        -0.29267E-02
        -0.22211E-02
        -0.13865E-02
        -0.47130E-03
         0.47130E-03
         0.13865E-02
         0.22211E-02
         0.29267E-02
         0.34621E-02
         0.37964E-02
         0.10351E-02
         0.17411E-02
         0.23149E-02
         0.16649E-02
         0.30371E-02
         0.27870E-02
         0.12826E-02
         0.64575E-03
         0.12154E-03
        -0.13248E-03
         0.93738E-03
         0.11249E-02
         0.17400E-02
         0.40463E-03
         0.39740E-03
        -0.77117E-03
        -0.86854E-03
         0.45089E-03
        -0.18368E-02
        -0.18418E-02
        -0.27232E-02
        -0.27965E-02
        -0.25400E-02
        -0.19386E-02
        -0.99032E-03
        -0.14460E-02
        -0.31113E-03
        -0.10988E-02
        -0.18833E-02
        -0.18683E-02
        -0.16504E-03
        -0.95465E-03
         0.77336E-03
         0.17201E-02
         0.32125E-02
         0.28041E-02
         0.23033E-02
        -0.40296E-03
        -0.12093E-02
        -0.19439E-02
        -0.25022E-02
        -0.26350E-02
        -0.27599E-02
        -0.21155E-02
        -0.16097E-02
        -0.11965E-02
        -0.59444E-03
         0.19977E-03
         0.10515E-02
         0.18423E-02
         0.24573E-02
         0.26039E-02
         0.37964E-02
         0.39100E-02
         0.34621E-02
         0.29267E-02
         0.22211E-02
         0.13865E-02
         0.47130E-03
        -0.47130E-03
        -0.13865E-02
        -0.22211E-02
        -0.29267E-02
        -0.34621E-02
        -0.37964E-02
        -0.39100E-02
        -0.37964E-02
        -0.34621E-02
        -0.29267E-02
        -0.22211E-02
        -0.13865E-02
        -0.47130E-03
         0.47130E-03
         0.13865E-02
         0.22211E-02
         0.29267E-02
         0.34621E-02
         0.37964E-02
  
SCALARS           initial_coordinate_y  double 1
LOOKUP_TABLE default
         0.67292E-03
         0.12308E-02
         0.59151E-03
        -0.33775E-03
         0.67237E-03
         0.12301E-02
         0.59098E-03
        -0.33851E-03
         0.14882E-03
        -0.67643E-03
         0.14846E-03
        -0.67692E-03
         0.18412E-02
         0.14576E-02
         0.18410E-02
         0.14566E-02
         0.29933E-03
         0.11672E-02
         0.29819E-03
         0.11655E-02
         0.22748E-02
         0.28286E-02
         0.24238E-02
         0.22746E-02
         0.28291E-02
         0.24236E-02
         0.21685E-02
         0.29366E-02
         0.21684E-02
         0.29369E-02
        -0.10033E-02
         0.78969E-04
        -0.70318E-03
        -0.10032E-02
         0.78160E-04
        -0.70391E-03
        -0.71196E-03
         0.82749E-04
        -0.71210E-03
         0.82626E-04
        -0.77865E-03
         0.40713E-04
        -0.77882E-03
         0.40439E-04
        -0.15195E-02
        -0.13230E-02
        -0.15195E-02
        -0.13231E-02
         0.98847E-03
         0.98712E-03
        -0.17325E-02
        -0.17325E-02
         0.20220E-02
         0.20217E-02
         0.18615E-02
         0.18616E-02
         0.17175E-02
         0.90940E-03
         0.17175E-02
         0.90916E-03
        -0.19800E-02
        -0.23489E-02
        -0.19800E-02
        -0.23489E-02
        -0.17074E-02
        -0.17074E-02
        -0.14894E-02
        -0.14892E-02
         0.76036E-03
         0.12477E-02
         0.75936E-03
         0.12473E-02
         0.18665E-02
         0.18664E-02
         0.29038E-02
         0.29049E-02
         0.27207E-02
         0.27212E-02
         0.24642E-02
         0.24645E-02
         0.22359E-02
         0.16503E-02
         0.22359E-02
         0.16503E-02
         0.87493E-03
         0.87466E-03
        -0.21373E-02
        -0.21373E-02
        -0.26931E-02
        -0.26931E-02
        -0.31291E-02
        -0.30382E-02
        -0.31291E-02
        -0.30382E-02
        -0.28748E-02
        -0.28748E-02
        -0.26423E-02
        -0.26420E-02
        -0.23707E-02
        -0.23705E-02
        -0.21445E-02
        -0.15105E-02
        -0.21439E-02
        -0.15106E-02
         0.93572E-03
         0.00000E+00
         0.93572E-03
         0.00000E+00
         0.18171E-02
         0.18171E-02
         0.25928E-02
         0.25928E-02
         0.32179E-02
         0.32179E-02
         0.36559E-02
         0.36559E-02
         0.38815E-02
         0.38815E-02
         0.38815E-02
         0.38815E-02
         0.36559E-02
         0.36559E-02
         0.32179E-02
         0.32179E-02
         0.25928E-02
         0.25928E-02
         0.18171E-02
         0.18171E-02
         0.93572E-03
         0.93572E-03
         0.22152E-17
        -0.47884E-18
        -0.93572E-03
        -0.93572E-03
        -0.18171E-02
        -0.18171E-02
        -0.25928E-02
        -0.25928E-02
        -0.32179E-02
        -0.32179E-02
        -0.36559E-02
        -0.36559E-02
        -0.38815E-02
        -0.38815E-02
        -0.38815E-02
        -0.38815E-02
        -0.36559E-02
        -0.36559E-02
        -0.32179E-02
        -0.32179E-02
        -0.25928E-02
        -0.25928E-02
        -0.18171E-02
        -0.18171E-02
        -0.93572E-03
        -0.93572E-03
         0.67348E-03
         0.12314E-02
         0.59203E-03
        -0.33700E-03
         0.14918E-03
        -0.67594E-03
         0.18414E-02
         0.14586E-02
         0.30048E-03
         0.11690E-02
         0.22749E-02
         0.28282E-02
         0.24239E-02
         0.21685E-02
         0.29364E-02
        -0.10035E-02
         0.79778E-04
        -0.70245E-03
        -0.71182E-03
         0.82873E-04
        -0.77848E-03
         0.40986E-04
        -0.15194E-02
        -0.13228E-02
         0.98983E-03
        -0.17324E-02
         0.20223E-02
         0.18614E-02
         0.17175E-02
         0.90964E-03
        -0.19800E-02
        -0.23489E-02
        -0.17074E-02
        -0.14896E-02
         0.76137E-03
         0.12481E-02
         0.18665E-02
         0.29027E-02
         0.27202E-02
         0.24640E-02
         0.22359E-02
         0.16503E-02
         0.87519E-03
        -0.21373E-02
        -0.26932E-02
        -0.31291E-02
        -0.30382E-02
        -0.28748E-02
        -0.26426E-02
        -0.23709E-02
        -0.21450E-02
        -0.15104E-02
         0.93572E-03
         0.00000E+00
         0.18171E-02
         0.25928E-02
         0.32179E-02
         0.36559E-02
         0.38815E-02
         0.38815E-02
         0.36559E-02
         0.32179E-02
         0.25928E-02
         0.18171E-02
         0.93572E-03
        -0.47884E-18
        -0.93572E-03
        -0.18171E-02
        -0.25928E-02
        -0.32179E-02
        -0.36559E-02
        -0.38815E-02
        -0.38815E-02
        -0.36559E-02
        -0.32179E-02
        -0.25928E-02
        -0.18171E-02
        -0.93572E-03
         0.67403E-03
         0.12321E-02
         0.59255E-03
        -0.33624E-03
         0.14955E-03
        -0.67544E-03
         0.18415E-02
         0.14596E-02
         0.30163E-03
         0.11707E-02
         0.22750E-02
         0.28277E-02
         0.24241E-02
         0.21685E-02
         0.29361E-02
        -0.10036E-02
         0.80588E-04
        -0.70173E-03
        -0.71168E-03
         0.82996E-04
        -0.77831E-03
         0.41259E-04
        -0.15194E-02
        -0.13227E-02
         0.99119E-03
        -0.17324E-02
         0.20226E-02
         0.18613E-02
         0.17175E-02
         0.90988E-03
        -0.19801E-02
        -0.23490E-02
        -0.17074E-02
        -0.14899E-02
         0.76237E-03
         0.12485E-02
         0.18666E-02
         0.29017E-02
         0.27198E-02
         0.24638E-02
         0.22359E-02
         0.16503E-02
         0.87545E-03
        -0.21374E-02
        -0.26932E-02
        -0.31291E-02
        -0.30382E-02
        -0.28748E-02
        -0.26428E-02
        -0.23711E-02
        -0.21456E-02
        -0.15103E-02
         0.93572E-03
         0.00000E+00
         0.18171E-02
         0.25928E-02
         0.32179E-02
         0.36559E-02
         0.38815E-02
         0.38815E-02
         0.36559E-02
         0.32179E-02
         0.25928E-02
         0.18171E-02
         0.93572E-03
         0.39516E-17
        -0.93572E-03
        -0.18171E-02
        -0.25928E-02
        -0.32179E-02
        -0.36559E-02
        -0.38815E-02
        -0.38815E-02
        -0.36559E-02
        -0.32179E-02
        -0.25928E-02
        -0.18171E-02
        -0.93572E-03
         0.67459E-03
         0.12328E-02
         0.59308E-03
        -0.33549E-03
         0.14991E-03
        -0.67495E-03
         0.18417E-02
         0.14606E-02
         0.30278E-03
         0.11725E-02
         0.22752E-02
         0.28273E-02
         0.24242E-02
         0.21686E-02
         0.29359E-02
        -0.10038E-02
         0.81397E-04
        -0.70100E-03
        -0.71154E-03
         0.83120E-04
        -0.77814E-03
         0.41533E-04
        -0.15193E-02
        -0.13227E-02
         0.99254E-03
        -0.17324E-02
         0.20228E-02
         0.18611E-02
         0.17175E-02
         0.91012E-03
        -0.19801E-02
        -0.23490E-02
        -0.17074E-02
        -0.14901E-02
         0.76338E-03
         0.12490E-02
         0.18666E-02
         0.29006E-02
         0.27193E-02
         0.24636E-02
         0.22359E-02
         0.16503E-02
         0.87571E-03
        -0.21374E-02
        -0.26932E-02
        -0.31291E-02
        -0.30382E-02
        -0.28748E-02
        -0.26431E-02
        -0.23713E-02
        -0.21461E-02
        -0.15102E-02
         0.93572E-03
         0.00000E+00
         0.18171E-02
         0.25928E-02
         0.32179E-02
         0.36559E-02
         0.38815E-02
         0.38815E-02
         0.36559E-02
         0.32179E-02
         0.25928E-02
         0.18171E-02
         0.93572E-03
        -0.47884E-18
        -0.93572E-03
        -0.18171E-02
        -0.25928E-02
        -0.32179E-02
        -0.36559E-02
        -0.38815E-02
        -0.38815E-02
        -0.36559E-02
        -0.32179E-02
        -0.25928E-02
        -0.18171E-02
        -0.93572E-03
         0.67514E-03
         0.12334E-02
         0.59360E-03
        -0.33474E-03
         0.15027E-03
        -0.67446E-03
         0.18419E-02
         0.14616E-02
         0.30393E-03
         0.11742E-02
         0.22753E-02
         0.28269E-02
         0.24244E-02
         0.21686E-02
         0.29356E-02
        -0.10039E-02
         0.82206E-04
        -0.70028E-03
        -0.71140E-03
         0.83243E-04
        -0.77797E-03
         0.41806E-04
        -0.15193E-02
        -0.13226E-02
         0.99390E-03
        -0.17323E-02
         0.20231E-02
         0.18610E-02
         0.17175E-02
         0.91036E-03
        -0.19801E-02
        -0.23490E-02
        -0.17074E-02
        -0.14904E-02
         0.76439E-03
         0.12494E-02
         0.18666E-02
         0.28995E-02
         0.27188E-02
         0.24633E-02
         0.22359E-02
         0.16503E-02
         0.87597E-03
        -0.21374E-02
        -0.26932E-02
        -0.31291E-02
        -0.30382E-02
        -0.28748E-02
        -0.26434E-02
        -0.23715E-02
        -0.21467E-02
        -0.15101E-02
         0.93572E-03
         0.00000E+00
         0.18171E-02
         0.25928E-02
         0.32179E-02
         0.36559E-02
         0.38815E-02
         0.38815E-02
         0.36559E-02
         0.32179E-02
         0.25928E-02
         0.18171E-02
         0.93572E-03
        -0.47884E-18
        -0.93572E-03
        -0.18171E-02
        -0.25928E-02
        -0.32179E-02
        -0.36559E-02
        -0.38815E-02
        -0.38815E-02
        -0.36559E-02
        -0.32179E-02
        -0.25928E-02
        -0.18171E-02
        -0.93572E-03
         0.67570E-03
         0.12341E-02
         0.59412E-03
        -0.33398E-03
         0.15064E-03
        -0.67396E-03
         0.18421E-02
         0.14626E-02
         0.30507E-03
         0.11760E-02
         0.22754E-02
         0.28264E-02
         0.24245E-02
         0.21686E-02
         0.29353E-02
        -0.10040E-02
         0.83015E-04
        -0.69955E-03
        -0.71126E-03
         0.83367E-04
        -0.77780E-03
         0.42080E-04
        -0.15192E-02
        -0.13224E-02
         0.99526E-03
        -0.17323E-02
         0.20234E-02
         0.18609E-02
         0.17175E-02
         0.91060E-03
        -0.19801E-02
        -0.23490E-02
        -0.17074E-02
        -0.14906E-02
         0.76539E-03
         0.12498E-02
         0.18667E-02
         0.28984E-02
         0.27184E-02
         0.24631E-02
         0.22359E-02
         0.16503E-02
         0.87623E-03
        -0.21374E-02
        -0.26932E-02
        -0.31291E-02
        -0.30382E-02
        -0.28748E-02
        -0.26436E-02
        -0.23717E-02
        -0.21472E-02
        -0.15100E-02
         0.93572E-03
         0.00000E+00
         0.18171E-02
         0.25928E-02
         0.32179E-02
         0.36559E-02
         0.38815E-02
         0.38815E-02
         0.36559E-02
         0.32179E-02
         0.25928E-02
         0.18171E-02
         0.93572E-03
        -0.47884E-18
        -0.93572E-03
        -0.18171E-02
        -0.25928E-02
        -0.32179E-02
        -0.36559E-02
        -0.38815E-02
        -0.38815E-02
        -0.36559E-02
        -0.32179E-02
        -0.25928E-02
        -0.18171E-02
        -0.93572E-03
         0.67625E-03
         0.12348E-02
         0.59465E-03
        -0.33323E-03
         0.15100E-03
        -0.67347E-03
         0.18423E-02
         0.14636E-02
         0.30622E-03
         0.11777E-02
         0.22755E-02
         0.28260E-02
         0.24247E-02
         0.21687E-02
         0.29351E-02
        -0.10042E-02
         0.83825E-04
        -0.69882E-03
        -0.71112E-03
         0.83490E-04
        -0.77763E-03
         0.42353E-04
        -0.15192E-02
        -0.13223E-02
         0.99661E-03
        -0.17322E-02
         0.20237E-02
         0.18607E-02
         0.17175E-02
         0.91084E-03
        -0.19801E-02
        -0.23491E-02
        -0.17074E-02
        -0.14909E-02
         0.76640E-03
         0.12503E-02
         0.18667E-02
         0.28974E-02
         0.27179E-02
         0.24629E-02
         0.22359E-02
         0.16503E-02
         0.87650E-03
        -0.21374E-02
        -0.26933E-02
        -0.31291E-02
        -0.30382E-02
        -0.28749E-02
        -0.26439E-02
        -0.23719E-02
        -0.21478E-02
        -0.15099E-02
         0.93572E-03
         0.00000E+00
         0.18171E-02
         0.25928E-02
         0.32179E-02
         0.36559E-02
         0.38815E-02
         0.38815E-02
         0.36559E-02
         0.32179E-02
         0.25928E-02
         0.18171E-02
         0.93572E-03
        -0.47884E-18
        -0.93572E-03
        -0.18171E-02
        -0.25928E-02
        -0.32179E-02
        -0.36559E-02
        -0.38815E-02
        -0.38815E-02
        -0.36559E-02
        -0.32179E-02
        -0.25928E-02
        -0.18171E-02
        -0.93572E-03
         0.67680E-03
         0.12354E-02
         0.59517E-03
        -0.33247E-03
         0.15136E-03
        -0.67298E-03
         0.18425E-02
         0.14646E-02
         0.30737E-03
         0.11795E-02
         0.22757E-02
         0.28255E-02
         0.24248E-02
         0.21687E-02
         0.29348E-02
        -0.10043E-02
         0.84634E-04
        -0.69810E-03
        -0.71098E-03
         0.83614E-04
        -0.77746E-03
         0.42626E-04
        -0.15191E-02
        -0.13223E-02
         0.99797E-03
        -0.17322E-02
         0.20240E-02
         0.18606E-02
         0.17175E-02
         0.91108E-03
        -0.19802E-02
        -0.23491E-02
        -0.17074E-02
        -0.14911E-02
         0.76740E-03
         0.12507E-02
         0.18668E-02
         0.28963E-02
         0.27174E-02
         0.24627E-02
         0.22358E-02
         0.16503E-02
         0.87676E-03
        -0.21374E-02
        -0.26933E-02
        -0.31291E-02
        -0.30382E-02
        -0.28749E-02
        -0.26442E-02
        -0.23721E-02
        -0.21483E-02
        -0.15097E-02
         0.93572E-03
         0.00000E+00
         0.18171E-02
         0.25928E-02
         0.32179E-02
         0.36559E-02
         0.38815E-02
         0.38815E-02
         0.36559E-02
         0.32179E-02
         0.25928E-02
         0.18171E-02
         0.93572E-03
        -0.47884E-18
        -0.93572E-03
        -0.18171E-02
        -0.25928E-02
        -0.32179E-02
        -0.36559E-02
        -0.38815E-02
        -0.38815E-02
        -0.36559E-02
        -0.32179E-02
        -0.25928E-02
        -0.18171E-02
        -0.93572E-03
         0.67736E-03
         0.12361E-02
         0.59570E-03
        -0.33172E-03
         0.15173E-03
        -0.67248E-03
         0.18427E-02
         0.14656E-02
         0.30852E-03
         0.11812E-02
         0.22758E-02
         0.28251E-02
         0.24249E-02
         0.21688E-02
         0.29345E-02
        -0.10044E-02
         0.85443E-04
        -0.69737E-03
        -0.71084E-03
         0.83737E-04
        -0.77729E-03
         0.42899E-04
        -0.15191E-02
        -0.13222E-02
         0.99932E-03
        -0.17322E-02
         0.20243E-02
         0.18605E-02
         0.17175E-02
         0.91132E-03
        -0.19802E-02
        -0.23491E-02
        -0.17074E-02
        -0.14914E-02
         0.76841E-03
         0.12511E-02
         0.18668E-02
         0.28952E-02
         0.27170E-02
         0.24624E-02
         0.22358E-02
         0.16503E-02
         0.87702E-03
        -0.21374E-02
        -0.26933E-02
        -0.31291E-02
        -0.30382E-02
        -0.28749E-02
        -0.26444E-02
        -0.23723E-02
        -0.21489E-02
        -0.15096E-02
         0.93572E-03
         0.00000E+00
         0.18171E-02
         0.25928E-02
         0.32179E-02
         0.36559E-02
         0.38815E-02
         0.38815E-02
         0.36559E-02
         0.32179E-02
         0.25928E-02
         0.18171E-02
         0.93572E-03
        -0.47884E-18
        -0.93572E-03
        -0.18171E-02
        -0.25928E-02
        -0.32179E-02
        -0.36559E-02
        -0.38815E-02
        -0.38815E-02
        -0.36559E-02
        -0.32179E-02
        -0.25928E-02
        -0.18171E-02
        -0.93572E-03
         0.67791E-03
         0.12368E-02
         0.59622E-03
        -0.33096E-03
         0.15209E-03
        -0.67199E-03
         0.18429E-02
         0.14666E-02
         0.30967E-03
         0.11830E-02
         0.22759E-02
         0.28247E-02
         0.24251E-02
         0.21688E-02
         0.29343E-02
        -0.10046E-02
         0.86253E-04
        -0.69665E-03
        -0.71070E-03
         0.83861E-04
        -0.77712E-03
         0.43173E-04
        -0.15190E-02
        -0.13220E-02
         0.10007E-02
        -0.17321E-02
         0.20245E-02
         0.18603E-02
         0.17175E-02
         0.91156E-03
        -0.19802E-02
        -0.23491E-02
        -0.17074E-02
        -0.14916E-02
         0.76941E-03
         0.12515E-02
         0.18668E-02
         0.28942E-02
         0.27165E-02
         0.24622E-02
         0.22358E-02
         0.16503E-02
         0.87728E-03
        -0.21374E-02
        -0.26933E-02
        -0.31291E-02
        -0.30382E-02
        -0.28749E-02
        -0.26447E-02
        -0.23725E-02
        -0.21494E-02
        -0.15095E-02
         0.93572E-03
         0.00000E+00
         0.18171E-02
         0.25928E-02
         0.32179E-02
         0.36559E-02
         0.38815E-02
         0.38815E-02
         0.36559E-02
         0.32179E-02
         0.25928E-02
         0.18171E-02
         0.93572E-03
        -0.47884E-18
        -0.93572E-03
        -0.18171E-02
        -0.25928E-02
        -0.32179E-02
        -0.36559E-02
        -0.38815E-02
        -0.38815E-02
        -0.36559E-02
        -0.32179E-02
        -0.25928E-02
        -0.18171E-02
        -0.93572E-03
         0.67847E-03
         0.12374E-02
         0.59674E-03
        -0.33021E-03
         0.15245E-03
        -0.67150E-03
         0.18430E-02
         0.14676E-02
         0.31081E-03
         0.11847E-02
         0.22761E-02
         0.28242E-02
         0.24252E-02
         0.21688E-02
         0.29340E-02
        -0.10047E-02
         0.87062E-04
        -0.69592E-03
        -0.71056E-03
         0.83985E-04
        -0.77695E-03
         0.43446E-04
        -0.15190E-02
        -0.13219E-02
         0.10020E-02
        -0.17321E-02
         0.20248E-02
         0.18602E-02
         0.17175E-02
         0.91180E-03
        -0.19803E-02
        -0.23491E-02
        -0.17073E-02
        -0.14919E-02
         0.77042E-03
         0.12520E-02
         0.18669E-02
         0.28931E-02
         0.27160E-02
         0.24620E-02
         0.22358E-02
         0.16503E-02
         0.87754E-03
        -0.21374E-02
        -0.26933E-02
        -0.31291E-02
        -0.30382E-02
        -0.28749E-02
        -0.26450E-02
        -0.23727E-02
        -0.21500E-02
        -0.15094E-02
         0.93572E-03
         0.00000E+00
         0.18171E-02
         0.25928E-02
         0.32179E-02
         0.36559E-02
         0.38815E-02
         0.38815E-02
         0.36559E-02
         0.32179E-02
         0.25928E-02
         0.18171E-02
         0.93572E-03
         0.39516E-17
        -0.93572E-03
        -0.18171E-02
        -0.25928E-02
        -0.32179E-02
        -0.36559E-02
        -0.38815E-02
        -0.38815E-02
        -0.36559E-02
        -0.32179E-02
        -0.25928E-02
        -0.18171E-02
        -0.93572E-03
         0.67902E-03
         0.12381E-02
         0.59727E-03
        -0.32945E-03
         0.15282E-03
        -0.67100E-03
         0.18432E-02
         0.14686E-02
         0.31196E-03
         0.11865E-02
         0.22762E-02
         0.28238E-02
         0.24254E-02
         0.21688E-02
         0.29337E-02
        -0.10049E-02
         0.87871E-04
        -0.69519E-03
        -0.71042E-03
         0.84108E-04
        -0.77678E-03
         0.43720E-04
        -0.15189E-02
        -0.13219E-02
         0.10034E-02
        -0.17320E-02
         0.20251E-02
         0.18601E-02
         0.17175E-02
         0.91204E-03
        -0.19803E-02
        -0.23492E-02
        -0.17073E-02
        -0.14921E-02
         0.77142E-03
         0.12524E-02
         0.18669E-02
         0.28920E-02
         0.27155E-02
         0.24618E-02
         0.22358E-02
         0.16503E-02
         0.87781E-03
        -0.21374E-02
        -0.26934E-02
        -0.31291E-02
        -0.30382E-02
        -0.28749E-02
        -0.26452E-02
        -0.23729E-02
        -0.21505E-02
        -0.15093E-02
         0.93572E-03
         0.00000E+00
         0.18171E-02
         0.25928E-02
         0.32179E-02
         0.36559E-02
         0.38815E-02
         0.38815E-02
         0.36559E-02
         0.32179E-02
         0.25928E-02
         0.18171E-02
         0.93572E-03
        -0.47884E-18
        -0.93572E-03
        -0.18171E-02
        -0.25928E-02
        -0.32179E-02
        -0.36559E-02
        -0.38815E-02
        -0.38815E-02
        -0.36559E-02
        -0.32179E-02
        -0.25928E-02
        -0.18171E-02
        -0.93572E-03
         0.67958E-03
         0.12387E-02
         0.59779E-03
        -0.32870E-03
         0.15318E-03
        -0.67051E-03
         0.18434E-02
         0.14696E-02
         0.31311E-03
         0.11882E-02
         0.22763E-02
         0.28233E-02
         0.24255E-02
         0.21689E-02
         0.29335E-02
        -0.10050E-02
         0.88681E-04
        -0.69447E-03
        -0.71028E-03
         0.84232E-04
        -0.77661E-03
         0.43993E-04
        -0.15189E-02
        -0.13218E-02
         0.10048E-02
        -0.17320E-02
         0.20254E-02
         0.18599E-02
         0.17175E-02
         0.91228E-03
        -0.19803E-02
        -0.23492E-02
        -0.17073E-02
        -0.14923E-02
         0.77243E-03
         0.12528E-02
         0.18670E-02
         0.28910E-02
         0.27151E-02
         0.24615E-02
         0.22358E-02
         0.16503E-02
         0.87807E-03
        -0.21374E-02
        -0.26934E-02
        -0.31291E-02
        -0.30382E-02
        -0.28749E-02
        -0.26455E-02
        -0.23732E-02
        -0.21511E-02
        -0.15092E-02
         0.93572E-03
         0.00000E+00
         0.18171E-02
         0.25928E-02
         0.32179E-02
         0.36559E-02
         0.38815E-02
         0.38815E-02
         0.36559E-02
         0.32179E-02
         0.25928E-02
         0.18171E-02
         0.93572E-03
         0.22152E-17
        -0.93572E-03
        -0.18171E-02
        -0.25928E-02
        -0.32179E-02
        -0.36559E-02
        -0.38815E-02
        -0.38815E-02
        -0.36559E-02
        -0.32179E-02
        -0.25928E-02
        -0.18171E-02
        -0.93572E-03
         0.68013E-03
         0.12394E-02
         0.59831E-03
        -0.32794E-03
         0.15354E-03
        -0.67002E-03
         0.18436E-02
         0.14706E-02
         0.31426E-03
         0.11900E-02
         0.22765E-02
         0.28229E-02
         0.24257E-02
         0.21689E-02
         0.29332E-02
        -0.10051E-02
         0.89490E-04
        -0.69374E-03
        -0.71013E-03
         0.84355E-04
        -0.77644E-03
         0.44266E-04
        -0.15188E-02
        -0.13216E-02
         0.10061E-02
        -0.17320E-02
         0.20257E-02
         0.18598E-02
         0.17175E-02
         0.91252E-03
        -0.19803E-02
        -0.23492E-02
        -0.17073E-02
        -0.14926E-02
         0.77343E-03
         0.12533E-02
         0.18670E-02
         0.28899E-02
         0.27146E-02
         0.24613E-02
         0.22358E-02
         0.16503E-02
         0.87833E-03
        -0.21374E-02
        -0.26934E-02
        -0.31291E-02
        -0.30382E-02
        -0.28750E-02
        -0.26458E-02
        -0.23734E-02
        -0.21516E-02
        -0.15091E-02
         0.93572E-03
         0.00000E+00
         0.18171E-02
         0.25928E-02
         0.32179E-02
         0.36559E-02
         0.38815E-02
         0.38815E-02
         0.36559E-02
         0.32179E-02
         0.25928E-02
         0.18171E-02
         0.93572E-03
        -0.47884E-18
        -0.93572E-03
        -0.18171E-02
        -0.25928E-02
        -0.32179E-02
        -0.36559E-02
        -0.38815E-02
        -0.38815E-02
        -0.36559E-02
        -0.32179E-02
        -0.25928E-02
        -0.18171E-02
        -0.93572E-03
         0.68068E-03
         0.12401E-02
         0.59884E-03
        -0.32719E-03
         0.15391E-03
        -0.66953E-03
         0.18438E-02
         0.14716E-02
         0.31541E-03
         0.11917E-02
         0.22766E-02
         0.28225E-02
         0.24258E-02
         0.21690E-02
         0.29330E-02
        -0.10053E-02
         0.90299E-04
        -0.69302E-03
        -0.70999E-03
         0.84479E-04
        -0.77627E-03
         0.44540E-04
        -0.15188E-02
        -0.13215E-02
         0.10075E-02
        -0.17319E-02
         0.20260E-02
         0.18597E-02
         0.17175E-02
         0.91276E-03
        -0.19804E-02
        -0.23493E-02
        -0.17073E-02
        -0.14928E-02
         0.77444E-03
         0.12537E-02
         0.18670E-02
         0.28888E-02
         0.27141E-02
         0.24611E-02
         0.22358E-02
         0.16503E-02
         0.87859E-03
        -0.21374E-02
        -0.26934E-02
        -0.31291E-02
        -0.30382E-02
        -0.28750E-02
        -0.26460E-02
        -0.23736E-02
        -0.21521E-02
        -0.15090E-02
         0.93572E-03
         0.00000E+00
         0.18171E-02
         0.25928E-02
         0.32179E-02
         0.36559E-02
         0.38815E-02
         0.38815E-02
         0.36559E-02
         0.32179E-02
         0.25928E-02
         0.18171E-02
         0.93572E-03
         0.22152E-17
        -0.93572E-03
        -0.18171E-02
        -0.25928E-02
        -0.32179E-02
        -0.36559E-02
        -0.38815E-02
        -0.38815E-02
        -0.36559E-02
        -0.32179E-02
        -0.25928E-02
        -0.18171E-02
        -0.93572E-03
         0.68124E-03
         0.12407E-02
         0.59936E-03
        -0.32643E-03
         0.15427E-03
        -0.66903E-03
         0.18440E-02
         0.14727E-02
         0.31656E-03
         0.11935E-02
         0.22767E-02
         0.28220E-02
         0.24260E-02
         0.21690E-02
         0.29327E-02
        -0.10054E-02
         0.91108E-04
        -0.69229E-03
        -0.70985E-03
         0.84602E-04
        -0.77610E-03
         0.44813E-04
        -0.15187E-02
        -0.13215E-02
         0.10088E-02
        -0.17319E-02
         0.20262E-02
         0.18595E-02
         0.17175E-02
         0.91300E-03
        -0.19804E-02
        -0.23493E-02
        -0.17073E-02
        -0.14931E-02
         0.77544E-03
         0.12541E-02
         0.18671E-02
         0.28877E-02
         0.27137E-02
         0.24609E-02
         0.22358E-02
         0.16503E-02
         0.87885E-03
        -0.21374E-02
        -0.26934E-02
        -0.31291E-02
        -0.30382E-02
        -0.28750E-02
        -0.26463E-02
        -0.23738E-02
        -0.21527E-02
        -0.15088E-02
         0.93572E-03
         0.00000E+00
         0.18171E-02
         0.25928E-02
         0.32179E-02
         0.36559E-02
         0.38815E-02
         0.38815E-02
         0.36559E-02
         0.32179E-02
         0.25928E-02
         0.18171E-02
         0.93572E-03
        -0.47884E-18
        -0.93572E-03
        -0.18171E-02
        -0.25928E-02
        -0.32179E-02
        -0.36559E-02
        -0.38815E-02
        -0.38815E-02
        -0.36559E-02
        -0.32179E-02
        -0.25928E-02
        -0.18171E-02
        -0.93572E-03
         0.68179E-03
         0.12414E-02
         0.59988E-03
        -0.32568E-03
         0.15463E-03
        -0.66854E-03
         0.18442E-02
         0.14736E-02
         0.31770E-03
         0.11952E-02
         0.22768E-02
         0.28216E-02
         0.24261E-02
         0.21690E-02
         0.29324E-02
        -0.10056E-02
         0.91918E-04
        -0.69156E-03
        -0.70971E-03
         0.84726E-04
        -0.77593E-03
         0.45086E-04
        -0.15187E-02
        -0.13213E-02
         0.10102E-02
        -0.17318E-02
         0.20265E-02
         0.18594E-02
         0.17175E-02
         0.91324E-03
        -0.19804E-02
        -0.23493E-02
        -0.17073E-02
        -0.14933E-02
         0.77645E-03
         0.12545E-02
         0.18671E-02
         0.28867E-02
         0.27132E-02
         0.24606E-02
         0.22358E-02
         0.16503E-02
         0.87912E-03
        -0.21374E-02
        -0.26935E-02
        -0.31291E-02
        -0.30381E-02
        -0.28750E-02
        -0.26466E-02
        -0.23740E-02
        -0.21533E-02
        -0.15087E-02
         0.93572E-03
         0.00000E+00
         0.18171E-02
         0.25928E-02
         0.32179E-02
         0.36559E-02
         0.38815E-02
         0.38815E-02
         0.36559E-02
         0.32179E-02
         0.25928E-02
         0.18171E-02
         0.93572E-03
        -0.47884E-18
        -0.93572E-03
        -0.18171E-02
        -0.25928E-02
        -0.32179E-02
        -0.36559E-02
        -0.38815E-02
        -0.38815E-02
        -0.36559E-02
        -0.32179E-02
        -0.25928E-02
        -0.18171E-02
        -0.93572E-03
         0.68235E-03
         0.12421E-02
         0.60041E-03
        -0.32493E-03
         0.15500E-03
        -0.66805E-03
         0.18444E-02
         0.14747E-02
         0.31885E-03
         0.11970E-02
         0.22770E-02
         0.28211E-02
         0.24262E-02
         0.21691E-02
         0.29322E-02
        -0.10057E-02
         0.92727E-04
        -0.69084E-03
        -0.70957E-03
         0.84849E-04
        -0.77576E-03
         0.45359E-04
        -0.15186E-02
        -0.13212E-02
         0.10115E-02
        -0.17318E-02
         0.20268E-02
         0.18593E-02
         0.17175E-02
         0.91347E-03
        -0.19804E-02
        -0.23493E-02
        -0.17073E-02
        -0.14936E-02
         0.77745E-03
         0.12550E-02
         0.18671E-02
         0.28856E-02
         0.27127E-02
         0.24604E-02
         0.22358E-02
         0.16503E-02
         0.87938E-03
        -0.21374E-02
        -0.26935E-02
        -0.31291E-02
        -0.30381E-02
        -0.28750E-02
        -0.26468E-02
        -0.23742E-02
        -0.21538E-02
        -0.15086E-02
         0.93572E-03
         0.00000E+00
         0.18171E-02
         0.25928E-02
         0.32179E-02
         0.36559E-02
         0.38815E-02
         0.38815E-02
         0.36559E-02
         0.32179E-02
         0.25928E-02
         0.18171E-02
         0.93572E-03
        -0.47884E-18
        -0.93572E-03
        -0.18171E-02
        -0.25928E-02
        -0.32179E-02
        -0.36559E-02
        -0.38815E-02
        -0.38815E-02
        -0.36559E-02
        -0.32179E-02
        -0.25928E-02
        -0.18171E-02
        -0.93572E-03
         0.68290E-03
         0.12427E-02
         0.60093E-03
        -0.32417E-03
         0.15536E-03
        -0.66755E-03
         0.18445E-02
         0.14757E-02
         0.32000E-03
         0.11987E-02
         0.22771E-02
         0.28207E-02
         0.24264E-02
         0.21691E-02
         0.29319E-02
        -0.10058E-02
         0.93536E-04
        -0.69011E-03
        -0.70943E-03
         0.84973E-04
        -0.77559E-03
         0.45633E-04
        -0.15186E-02
        -0.13212E-02
         0.10129E-02
        -0.17318E-02
         0.20271E-02
         0.18592E-02
         0.17175E-02
         0.91371E-03
        -0.19805E-02
        -0.23493E-02
        -0.17073E-02
        -0.14938E-02
         0.77846E-03
         0.12554E-02
         0.18672E-02
         0.28845E-02
         0.27122E-02
         0.24602E-02
         0.22358E-02
         0.16502E-02
         0.87964E-03
        -0.21374E-02
        -0.26935E-02
        -0.31291E-02
        -0.30381E-02
        -0.28750E-02
        -0.26471E-02
        -0.23744E-02
        -0.21543E-02
        -0.15085E-02
         0.93572E-03
         0.00000E+00
         0.18171E-02
         0.25928E-02
         0.32179E-02
         0.36559E-02
         0.38815E-02
         0.38815E-02
         0.36559E-02
         0.32179E-02
         0.25928E-02
         0.18171E-02
         0.93572E-03
        -0.47884E-18
        -0.93572E-03
        -0.18171E-02
        -0.25928E-02
        -0.32179E-02
        -0.36559E-02
        -0.38815E-02
        -0.38815E-02
        -0.36559E-02
        -0.32179E-02
        -0.25928E-02
        -0.18171E-02
        -0.93572E-03
         0.68346E-03
         0.12434E-02
         0.60145E-03
        -0.32342E-03
         0.15572E-03
        -0.66706E-03
         0.18447E-02
         0.14767E-02
         0.32115E-03
         0.12005E-02
         0.22772E-02
         0.28203E-02
         0.24265E-02
         0.21691E-02
         0.29316E-02
        -0.10060E-02
         0.94345E-04
        -0.68939E-03
        -0.70929E-03
         0.85096E-04
        -0.77542E-03
         0.45906E-04
        -0.15185E-02
        -0.13211E-02
         0.10142E-02
        -0.17317E-02
         0.20274E-02
         0.18590E-02
         0.17175E-02
         0.91395E-03
        -0.19805E-02
        -0.23494E-02
        -0.17073E-02
        -0.14941E-02
         0.77946E-03
         0.12558E-02
         0.18672E-02
         0.28835E-02
         0.27118E-02
         0.24600E-02
         0.22358E-02
         0.16502E-02
         0.87990E-03
        -0.21374E-02
        -0.26935E-02
        -0.31291E-02
        -0.30381E-02
        -0.28750E-02
        -0.26474E-02
        -0.23746E-02
        -0.21549E-02
        -0.15084E-02
         0.93572E-03
         0.00000E+00
         0.18171E-02
         0.25928E-02
         0.32179E-02
         0.36559E-02
         0.38815E-02
         0.38815E-02
         0.36559E-02
         0.32179E-02
         0.25928E-02
         0.18171E-02
         0.93572E-03
         0.22152E-17
        -0.93572E-03
        -0.18171E-02
        -0.25928E-02
        -0.32179E-02
        -0.36559E-02
        -0.38815E-02
        -0.38815E-02
        -0.36559E-02
        -0.32179E-02
        -0.25928E-02
        -0.18171E-02
        -0.93572E-03
         0.68401E-03
         0.12440E-02
         0.60198E-03
        -0.32266E-03
         0.15609E-03
        -0.66657E-03
         0.18449E-02
         0.14777E-02
         0.32230E-03
         0.12022E-02
         0.22774E-02
         0.28198E-02
         0.24267E-02
         0.21692E-02
         0.29314E-02
        -0.10061E-02
         0.95155E-04
        -0.68866E-03
        -0.70915E-03
         0.85220E-04
        -0.77525E-03
         0.46180E-04
        -0.15185E-02
        -0.13210E-02
         0.10156E-02
        -0.17317E-02
         0.20277E-02
         0.18589E-02
         0.17175E-02
         0.91419E-03
        -0.19805E-02
        -0.23494E-02
        -0.17073E-02
        -0.14943E-02
         0.78047E-03
         0.12563E-02
         0.18672E-02
         0.28824E-02
         0.27113E-02
         0.24597E-02
         0.22358E-02
         0.16502E-02
         0.88016E-03
        -0.21374E-02
        -0.26935E-02
        -0.31291E-02
        -0.30381E-02
        -0.28751E-02
        -0.26476E-02
        -0.23748E-02
        -0.21554E-02
        -0.15083E-02
         0.93572E-03
         0.00000E+00
         0.18171E-02
         0.25928E-02
         0.32179E-02
         0.36559E-02
         0.38815E-02
         0.38815E-02
         0.36559E-02
         0.32179E-02
         0.25928E-02
         0.18171E-02
         0.93572E-03
        -0.47884E-18
        -0.93572E-03
        -0.18171E-02
        -0.25928E-02
        -0.32179E-02
        -0.36559E-02
        -0.38815E-02
        -0.38815E-02
        -0.36559E-02
        -0.32179E-02
        -0.25928E-02
        -0.18171E-02
        -0.93572E-03
         0.68457E-03
         0.12447E-02
         0.60250E-03
        -0.32191E-03
         0.15645E-03
        -0.66607E-03
         0.18451E-02
         0.14787E-02
         0.32345E-03
         0.12040E-02
         0.22775E-02
         0.28194E-02
         0.24268E-02
         0.21692E-02
         0.29311E-02
        -0.10062E-02
         0.95964E-04
        -0.68793E-03
        -0.70901E-03
         0.85343E-04
        -0.77507E-03
         0.46453E-04
        -0.15184E-02
        -0.13209E-02
         0.10169E-02
        -0.17316E-02
         0.20280E-02
         0.18588E-02
         0.17175E-02
         0.91443E-03
        -0.19806E-02
        -0.23494E-02
        -0.17073E-02
        -0.14945E-02
         0.78148E-03
         0.12567E-02
         0.18673E-02
         0.28813E-02
         0.27108E-02
         0.24595E-02
         0.22358E-02
         0.16502E-02
         0.88043E-03
        -0.21374E-02
        -0.26936E-02
        -0.31291E-02
        -0.30381E-02
        -0.28751E-02
        -0.26479E-02
        -0.23750E-02
        -0.21560E-02
        -0.15082E-02
         0.93572E-03
         0.00000E+00
         0.18171E-02
         0.25928E-02
         0.32179E-02
         0.36559E-02
         0.38815E-02
         0.38815E-02
         0.36559E-02
         0.32179E-02
         0.25928E-02
         0.18171E-02
         0.93572E-03
        -0.47884E-18
        -0.93572E-03
        -0.18171E-02
        -0.25928E-02
        -0.32179E-02
        -0.36559E-02
        -0.38815E-02
        -0.38815E-02
        -0.36559E-02
        -0.32179E-02
        -0.25928E-02
        -0.18171E-02
        -0.93572E-03
         0.68512E-03
         0.12454E-02
         0.60302E-03
        -0.32115E-03
         0.15681E-03
        -0.66558E-03
         0.18453E-02
         0.14797E-02
         0.32459E-03
         0.12058E-02
         0.22776E-02
         0.28189E-02
         0.24270E-02
         0.21693E-02
         0.29308E-02
        -0.10064E-02
         0.96773E-04
        -0.68721E-03
        -0.70887E-03
         0.85467E-04
        -0.77490E-03
         0.46726E-04
        -0.15184E-02
        -0.13208E-02
         0.10183E-02
        -0.17316E-02
         0.20283E-02
         0.18586E-02
         0.17175E-02
         0.91467E-03
        -0.19806E-02
        -0.23494E-02
        -0.17073E-02
        -0.14948E-02
         0.78248E-03
         0.12571E-02
         0.18673E-02
         0.28802E-02
         0.27103E-02
         0.24593E-02
         0.22358E-02
         0.16502E-02
         0.88069E-03
        -0.21374E-02
        -0.26936E-02
        -0.31291E-02
        -0.30381E-02
        -0.28751E-02
        -0.26482E-02
        -0.23752E-02
        -0.21565E-02
        -0.15081E-02
         0.93572E-03
         0.00000E+00
         0.18171E-02
         0.25928E-02
         0.32179E-02
         0.36559E-02
         0.38815E-02
         0.38815E-02
         0.36559E-02
         0.32179E-02
         0.25928E-02
         0.18171E-02
         0.93572E-03
        -0.47884E-18
        -0.93572E-03
        -0.18171E-02
        -0.25928E-02
        -0.32179E-02
        -0.36559E-02
        -0.38815E-02
        -0.38815E-02
        -0.36559E-02
        -0.32179E-02
        -0.25928E-02
        -0.18171E-02
        -0.93572E-03
         0.68567E-03
         0.12460E-02
         0.60355E-03
        -0.32040E-03
         0.15718E-03
        -0.66509E-03
         0.18455E-02
         0.14807E-02
         0.32574E-03
         0.12075E-02
         0.22777E-02
         0.28185E-02
         0.24271E-02
         0.21693E-02
         0.29306E-02
        -0.10065E-02
         0.97583E-04
        -0.68648E-03
        -0.70873E-03
         0.85591E-04
        -0.77474E-03
         0.47000E-04
        -0.15183E-02
        -0.13207E-02
         0.10197E-02
        -0.17316E-02
         0.20285E-02
         0.18585E-02
         0.17175E-02
         0.91491E-03
        -0.19806E-02
        -0.23495E-02
        -0.17073E-02
        -0.14950E-02
         0.78348E-03
         0.12576E-02
         0.18674E-02
         0.28792E-02
         0.27099E-02
         0.24591E-02
         0.22358E-02
         0.16502E-02
         0.88095E-03
        -0.21374E-02
        -0.26936E-02
        -0.31290E-02
        -0.30381E-02
        -0.28751E-02
        -0.26484E-02
        -0.23754E-02
        -0.21571E-02
        -0.15080E-02
         0.93572E-03
         0.00000E+00
         0.18171E-02
         0.25928E-02
         0.32179E-02
         0.36559E-02
         0.38815E-02
         0.38815E-02
         0.36559E-02
         0.32179E-02
         0.25928E-02
         0.18171E-02
         0.93572E-03
         0.47884E-18
        -0.93572E-03
        -0.18171E-02
        -0.25928E-02
        -0.32179E-02
        -0.36559E-02
        -0.38815E-02
        -0.38815E-02
        -0.36559E-02
        -0.32179E-02
        -0.25928E-02
        -0.18171E-02
        -0.93572E-03
  
SCALARS           initial_coordinate_z  double 1
LOOKUP_TABLE default
        -0.10771E-01
        -0.10771E-01
        -0.10771E-01
        -0.10771E-01
        -0.11750E-01
        -0.11750E-01
        -0.11750E-01
        -0.11750E-01
        -0.10771E-01
        -0.10771E-01
        -0.11750E-01
        -0.11750E-01
        -0.10771E-01
        -0.10771E-01
        -0.11750E-01
        -0.11750E-01
        -0.10771E-01
        -0.10771E-01
        -0.11750E-01
        -0.11750E-01
        -0.10771E-01
        -0.10771E-01
        -0.10771E-01
        -0.11750E-01
        -0.11750E-01
        -0.11750E-01
        -0.10771E-01
        -0.10771E-01
        -0.11750E-01
        -0.11750E-01
        -0.10771E-01
        -0.10771E-01
        -0.10771E-01
        -0.11750E-01
        -0.11750E-01
        -0.11750E-01
        -0.10771E-01
        -0.10771E-01
        -0.11750E-01
        -0.11750E-01
        -0.10771E-01
        -0.10771E-01
        -0.11750E-01
        -0.11750E-01
        -0.10771E-01
        -0.10771E-01
        -0.11750E-01
        -0.11750E-01
        -0.10771E-01
        -0.11750E-01
        -0.10771E-01
        -0.11750E-01
        -0.10771E-01
        -0.11750E-01
        -0.10771E-01
        -0.11750E-01
        -0.10771E-01
        -0.10771E-01
        -0.11750E-01
        -0.11750E-01
        -0.10771E-01
        -0.10771E-01
        -0.11750E-01
        -0.11750E-01
        -0.10771E-01
        -0.11750E-01
        -0.10771E-01
        -0.11750E-01
        -0.10771E-01
        -0.10771E-01
        -0.11750E-01
        -0.11750E-01
        -0.10771E-01
        -0.11750E-01
        -0.10771E-01
        -0.11750E-01
        -0.10771E-01
        -0.11750E-01
        -0.10771E-01
        -0.11750E-01
        -0.10771E-01
        -0.10771E-01
        -0.11750E-01
        -0.11750E-01
        -0.10771E-01
        -0.11750E-01
        -0.10771E-01
        -0.11750E-01
        -0.10771E-01
        -0.11750E-01
        -0.10771E-01
        -0.10771E-01
        -0.11750E-01
        -0.11750E-01
        -0.10771E-01
        -0.11750E-01
        -0.10771E-01
        -0.11750E-01
        -0.10771E-01
        -0.11750E-01
        -0.10771E-01
        -0.10771E-01
        -0.11750E-01
        -0.11750E-01
        -0.10771E-01
        -0.10771E-01
        -0.11750E-01
        -0.11750E-01
        -0.10771E-01
        -0.11750E-01
        -0.10771E-01
        -0.11750E-01
        -0.10771E-01
        -0.11750E-01
        -0.10771E-01
        -0.11750E-01
        -0.10771E-01
        -0.11750E-01
        -0.10771E-01
        -0.11750E-01
        -0.10771E-01
        -0.11750E-01
        -0.10771E-01
        -0.11750E-01
        -0.10771E-01
        -0.11750E-01
        -0.10771E-01
        -0.11750E-01
        -0.10771E-01
        -0.11750E-01
        -0.10771E-01
        -0.11750E-01
        -0.10771E-01
        -0.11750E-01
        -0.10771E-01
        -0.11750E-01
        -0.10771E-01
        -0.11750E-01
        -0.10771E-01
        -0.11750E-01
        -0.10771E-01
        -0.11750E-01
        -0.10771E-01
        -0.11750E-01
        -0.10771E-01
        -0.11750E-01
        -0.10771E-01
        -0.11750E-01
        -0.10771E-01
        -0.11750E-01
        -0.10771E-01
        -0.11750E-01
        -0.10771E-01
        -0.11750E-01
        -0.10771E-01
        -0.11750E-01
        -0.97917E-02
        -0.97917E-02
        -0.97917E-02
        -0.97917E-02
        -0.97917E-02
        -0.97917E-02
        -0.97917E-02
        -0.97917E-02
        -0.97917E-02
        -0.97917E-02
        -0.97917E-02
        -0.97917E-02
        -0.97917E-02
        -0.97917E-02
        -0.97917E-02
        -0.97917E-02
        -0.97917E-02
        -0.97917E-02
        -0.97917E-02
        -0.97917E-02
        -0.97917E-02
        -0.97917E-02
        -0.97917E-02
        -0.97917E-02
        -0.97917E-02
        -0.97917E-02
        -0.97917E-02
        -0.97917E-02
        -0.97917E-02
        -0.97917E-02
        -0.97917E-02
        -0.97917E-02
        -0.97917E-02
        -0.97917E-02
        -0.97917E-02
        -0.97917E-02
        -0.97917E-02
        -0.97917E-02
        -0.97917E-02
        -0.97917E-02
        -0.97917E-02
        -0.97917E-02
        -0.97917E-02
        -0.97917E-02
        -0.97917E-02
        -0.97917E-02
        -0.97917E-02
        -0.97917E-02
        -0.97917E-02
        -0.97917E-02
        -0.97917E-02
        -0.97917E-02
        -0.97917E-02
        -0.97917E-02
        -0.97917E-02
        -0.97917E-02
        -0.97917E-02
        -0.97917E-02
        -0.97917E-02
        -0.97917E-02
        -0.97917E-02
        -0.97917E-02
        -0.97917E-02
        -0.97917E-02
        -0.97917E-02
        -0.97917E-02
        -0.97917E-02
        -0.97917E-02
        -0.97917E-02
        -0.97917E-02
        -0.97917E-02
        -0.97917E-02
        -0.97917E-02
        -0.97917E-02
        -0.97917E-02
        -0.97917E-02
        -0.97917E-02
        -0.97917E-02
        -0.88125E-02
        -0.88125E-02
        -0.88125E-02
        -0.88125E-02
        -0.88125E-02
        -0.88125E-02
        -0.88125E-02
        -0.88125E-02
        -0.88125E-02
        -0.88125E-02
        -0.88125E-02
        -0.88125E-02
        -0.88125E-02
        -0.88125E-02
        -0.88125E-02
        -0.88125E-02
        -0.88125E-02
        -0.88125E-02
        -0.88125E-02
        -0.88125E-02
        -0.88125E-02
        -0.88125E-02
        -0.88125E-02
        -0.88125E-02
        -0.88125E-02
        -0.88125E-02
        -0.88125E-02
        -0.88125E-02
        -0.88125E-02
        -0.88125E-02
        -0.88125E-02
        -0.88125E-02
        -0.88125E-02
        -0.88125E-02
        -0.88125E-02
        -0.88125E-02
        -0.88125E-02
        -0.88125E-02
        -0.88125E-02
        -0.88125E-02
        -0.88125E-02
        -0.88125E-02
        -0.88125E-02
        -0.88125E-02
        -0.88125E-02
        -0.88125E-02
        -0.88125E-02
        -0.88125E-02
        -0.88125E-02
        -0.88125E-02
        -0.88125E-02
        -0.88125E-02
        -0.88125E-02
        -0.88125E-02
        -0.88125E-02
        -0.88125E-02
        -0.88125E-02
        -0.88125E-02
        -0.88125E-02
        -0.88125E-02
        -0.88125E-02
        -0.88125E-02
        -0.88125E-02
        -0.88125E-02
        -0.88125E-02
        -0.88125E-02
        -0.88125E-02
        -0.88125E-02
        -0.88125E-02
        -0.88125E-02
        -0.88125E-02
        -0.88125E-02
        -0.88125E-02
        -0.88125E-02
        -0.88125E-02
        -0.88125E-02
        -0.88125E-02
        -0.88125E-02
        -0.78333E-02
        -0.78333E-02
        -0.78333E-02
        -0.78333E-02
        -0.78333E-02
        -0.78333E-02
        -0.78333E-02
        -0.78333E-02
        -0.78333E-02
        -0.78333E-02
        -0.78333E-02
        -0.78333E-02
        -0.78333E-02
        -0.78333E-02
        -0.78333E-02
        -0.78333E-02
        -0.78333E-02
        -0.78333E-02
        -0.78333E-02
        -0.78333E-02
        -0.78333E-02
        -0.78333E-02
        -0.78333E-02
        -0.78333E-02
        -0.78333E-02
        -0.78333E-02
        -0.78333E-02
        -0.78333E-02
        -0.78333E-02
        -0.78333E-02
        -0.78333E-02
        -0.78333E-02
        -0.78333E-02
        -0.78333E-02
        -0.78333E-02
        -0.78333E-02
        -0.78333E-02
        -0.78333E-02
        -0.78333E-02
        -0.78333E-02
        -0.78333E-02
        -0.78333E-02
        -0.78333E-02
        -0.78333E-02
        -0.78333E-02
        -0.78333E-02
        -0.78333E-02
        -0.78333E-02
        -0.78333E-02
        -0.78333E-02
        -0.78333E-02
        -0.78333E-02
        -0.78333E-02
        -0.78333E-02
        -0.78333E-02
        -0.78333E-02
        -0.78333E-02
        -0.78333E-02
        -0.78333E-02
        -0.78333E-02
        -0.78333E-02
        -0.78333E-02
        -0.78333E-02
        -0.78333E-02
        -0.78333E-02
        -0.78333E-02
        -0.78333E-02
        -0.78333E-02
        -0.78333E-02
        -0.78333E-02
        -0.78333E-02
        -0.78333E-02
        -0.78333E-02
        -0.78333E-02
        -0.78333E-02
        -0.78333E-02
        -0.78333E-02
        -0.78333E-02
        -0.68542E-02
        -0.68542E-02
        -0.68542E-02
        -0.68542E-02
        -0.68542E-02
        -0.68542E-02
        -0.68542E-02
        -0.68542E-02
        -0.68542E-02
        -0.68542E-02
        -0.68542E-02
        -0.68542E-02
        -0.68542E-02
        -0.68542E-02
        -0.68542E-02
        -0.68542E-02
        -0.68542E-02
        -0.68542E-02
        -0.68542E-02
        -0.68542E-02
        -0.68542E-02
        -0.68542E-02
        -0.68542E-02
        -0.68542E-02
        -0.68542E-02
        -0.68542E-02
        -0.68542E-02
        -0.68542E-02
        -0.68542E-02
        -0.68542E-02
        -0.68542E-02
        -0.68542E-02
        -0.68542E-02
        -0.68542E-02
        -0.68542E-02
        -0.68542E-02
        -0.68542E-02
        -0.68542E-02
        -0.68542E-02
        -0.68542E-02
        -0.68542E-02
        -0.68542E-02
        -0.68542E-02
        -0.68542E-02
        -0.68542E-02
        -0.68542E-02
        -0.68542E-02
        -0.68542E-02
        -0.68542E-02
        -0.68542E-02
        -0.68542E-02
        -0.68542E-02
        -0.68542E-02
        -0.68542E-02
        -0.68542E-02
        -0.68542E-02
        -0.68542E-02
        -0.68542E-02
        -0.68542E-02
        -0.68542E-02
        -0.68542E-02
        -0.68542E-02
        -0.68542E-02
        -0.68542E-02
        -0.68542E-02
        -0.68542E-02
        -0.68542E-02
        -0.68542E-02
        -0.68542E-02
        -0.68542E-02
        -0.68542E-02
        -0.68542E-02
        -0.68542E-02
        -0.68542E-02
        -0.68542E-02
        -0.68542E-02
        -0.68542E-02
        -0.68542E-02
        -0.58750E-02
        -0.58750E-02
        -0.58750E-02
        -0.58750E-02
        -0.58750E-02
        -0.58750E-02
        -0.58750E-02
        -0.58750E-02
        -0.58750E-02
        -0.58750E-02
        -0.58750E-02
        -0.58750E-02
        -0.58750E-02
        -0.58750E-02
        -0.58750E-02
        -0.58750E-02
        -0.58750E-02
        -0.58750E-02
        -0.58750E-02
        -0.58750E-02
        -0.58750E-02
        -0.58750E-02
        -0.58750E-02
        -0.58750E-02
        -0.58750E-02
        -0.58750E-02
        -0.58750E-02
        -0.58750E-02
        -0.58750E-02
        -0.58750E-02
        -0.58750E-02
        -0.58750E-02
        -0.58750E-02
        -0.58750E-02
        -0.58750E-02
        -0.58750E-02
        -0.58750E-02
        -0.58750E-02
        -0.58750E-02
        -0.58750E-02
        -0.58750E-02
        -0.58750E-02
        -0.58750E-02
        -0.58750E-02
        -0.58750E-02
        -0.58750E-02
        -0.58750E-02
        -0.58750E-02
        -0.58750E-02
        -0.58750E-02
        -0.58750E-02
        -0.58750E-02
        -0.58750E-02
        -0.58750E-02
        -0.58750E-02
        -0.58750E-02
        -0.58750E-02
        -0.58750E-02
        -0.58750E-02
        -0.58750E-02
        -0.58750E-02
        -0.58750E-02
        -0.58750E-02
        -0.58750E-02
        -0.58750E-02
        -0.58750E-02
        -0.58750E-02
        -0.58750E-02
        -0.58750E-02
        -0.58750E-02
        -0.58750E-02
        -0.58750E-02
        -0.58750E-02
        -0.58750E-02
        -0.58750E-02
        -0.58750E-02
        -0.58750E-02
        -0.58750E-02
        -0.48958E-02
        -0.48958E-02
        -0.48958E-02
        -0.48958E-02
        -0.48958E-02
        -0.48958E-02
        -0.48958E-02
        -0.48958E-02
        -0.48958E-02
        -0.48958E-02
        -0.48958E-02
        -0.48958E-02
        -0.48958E-02
        -0.48958E-02
        -0.48958E-02
        -0.48958E-02
        -0.48958E-02
        -0.48958E-02
        -0.48958E-02
        -0.48958E-02
        -0.48958E-02
        -0.48958E-02
        -0.48958E-02
        -0.48958E-02
        -0.48958E-02
        -0.48958E-02
        -0.48958E-02
        -0.48958E-02
        -0.48958E-02
        -0.48958E-02
        -0.48958E-02
        -0.48958E-02
        -0.48958E-02
        -0.48958E-02
        -0.48958E-02
        -0.48958E-02
        -0.48958E-02
        -0.48958E-02
        -0.48958E-02
        -0.48958E-02
        -0.48958E-02
        -0.48958E-02
        -0.48958E-02
        -0.48958E-02
        -0.48958E-02
        -0.48958E-02
        -0.48958E-02
        -0.48958E-02
        -0.48958E-02
        -0.48958E-02
        -0.48958E-02
        -0.48958E-02
        -0.48958E-02
        -0.48958E-02
        -0.48958E-02
        -0.48958E-02
        -0.48958E-02
        -0.48958E-02
        -0.48958E-02
        -0.48958E-02
        -0.48958E-02
        -0.48958E-02
        -0.48958E-02
        -0.48958E-02
        -0.48958E-02
        -0.48958E-02
        -0.48958E-02
        -0.48958E-02
        -0.48958E-02
        -0.48958E-02
        -0.48958E-02
        -0.48958E-02
        -0.48958E-02
        -0.48958E-02
        -0.48958E-02
        -0.48958E-02
        -0.48958E-02
        -0.48958E-02
        -0.39167E-02
        -0.39167E-02
        -0.39167E-02
        -0.39167E-02
        -0.39167E-02
        -0.39167E-02
        -0.39167E-02
        -0.39167E-02
        -0.39167E-02
        -0.39167E-02
        -0.39167E-02
        -0.39167E-02
        -0.39167E-02
        -0.39167E-02
        -0.39167E-02
        -0.39167E-02
        -0.39167E-02
        -0.39167E-02
        -0.39167E-02
        -0.39167E-02
        -0.39167E-02
        -0.39167E-02
        -0.39167E-02
        -0.39167E-02
        -0.39167E-02
        -0.39167E-02
        -0.39167E-02
        -0.39167E-02
        -0.39167E-02
        -0.39167E-02
        -0.39167E-02
        -0.39167E-02
        -0.39167E-02
        -0.39167E-02
        -0.39167E-02
        -0.39167E-02
        -0.39167E-02
        -0.39167E-02
        -0.39167E-02
        -0.39167E-02
        -0.39167E-02
        -0.39167E-02
        -0.39167E-02
        -0.39167E-02
        -0.39167E-02
        -0.39167E-02
        -0.39167E-02
        -0.39167E-02
        -0.39167E-02
        -0.39167E-02
        -0.39167E-02
        -0.39167E-02
        -0.39167E-02
        -0.39167E-02
        -0.39167E-02
        -0.39167E-02
        -0.39167E-02
        -0.39167E-02
        -0.39167E-02
        -0.39167E-02
        -0.39167E-02
        -0.39167E-02
        -0.39167E-02
        -0.39167E-02
        -0.39167E-02
        -0.39167E-02
        -0.39167E-02
        -0.39167E-02
        -0.39167E-02
        -0.39167E-02
        -0.39167E-02
        -0.39167E-02
        -0.39167E-02
        -0.39167E-02
        -0.39167E-02
        -0.39167E-02
        -0.39167E-02
        -0.39167E-02
        -0.29375E-02
        -0.29375E-02
        -0.29375E-02
        -0.29375E-02
        -0.29375E-02
        -0.29375E-02
        -0.29375E-02
        -0.29375E-02
        -0.29375E-02
        -0.29375E-02
        -0.29375E-02
        -0.29375E-02
        -0.29375E-02
        -0.29375E-02
        -0.29375E-02
        -0.29375E-02
        -0.29375E-02
        -0.29375E-02
        -0.29375E-02
        -0.29375E-02
        -0.29375E-02
        -0.29375E-02
        -0.29375E-02
        -0.29375E-02
        -0.29375E-02
        -0.29375E-02
        -0.29375E-02
        -0.29375E-02
        -0.29375E-02
        -0.29375E-02
        -0.29375E-02
        -0.29375E-02
        -0.29375E-02
        -0.29375E-02
        -0.29375E-02
        -0.29375E-02
        -0.29375E-02
        -0.29375E-02
        -0.29375E-02
        -0.29375E-02
        -0.29375E-02
        -0.29375E-02
        -0.29375E-02
        -0.29375E-02
        -0.29375E-02
        -0.29375E-02
        -0.29375E-02
        -0.29375E-02
        -0.29375E-02
        -0.29375E-02
        -0.29375E-02
        -0.29375E-02
        -0.29375E-02
        -0.29375E-02
        -0.29375E-02
        -0.29375E-02
        -0.29375E-02
        -0.29375E-02
        -0.29375E-02
        -0.29375E-02
        -0.29375E-02
        -0.29375E-02
        -0.29375E-02
        -0.29375E-02
        -0.29375E-02
        -0.29375E-02
        -0.29375E-02
        -0.29375E-02
        -0.29375E-02
        -0.29375E-02
        -0.29375E-02
        -0.29375E-02
        -0.29375E-02
        -0.29375E-02
        -0.29375E-02
        -0.29375E-02
        -0.29375E-02
        -0.29375E-02
        -0.19583E-02
        -0.19583E-02
        -0.19583E-02
        -0.19583E-02
        -0.19583E-02
        -0.19583E-02
        -0.19583E-02
        -0.19583E-02
        -0.19583E-02
        -0.19583E-02
        -0.19583E-02
        -0.19583E-02
        -0.19583E-02
        -0.19583E-02
        -0.19583E-02
        -0.19583E-02
        -0.19583E-02
        -0.19583E-02
        -0.19583E-02
        -0.19583E-02
        -0.19583E-02
        -0.19583E-02
        -0.19583E-02
        -0.19583E-02
        -0.19583E-02
        -0.19583E-02
        -0.19583E-02
        -0.19583E-02
        -0.19583E-02
        -0.19583E-02
        -0.19583E-02
        -0.19583E-02
        -0.19583E-02
        -0.19583E-02
        -0.19583E-02
        -0.19583E-02
        -0.19583E-02
        -0.19583E-02
        -0.19583E-02
        -0.19583E-02
        -0.19583E-02
        -0.19583E-02
        -0.19583E-02
        -0.19583E-02
        -0.19583E-02
        -0.19583E-02
        -0.19583E-02
        -0.19583E-02
        -0.19583E-02
        -0.19583E-02
        -0.19583E-02
        -0.19583E-02
        -0.19583E-02
        -0.19583E-02
        -0.19583E-02
        -0.19583E-02
        -0.19583E-02
        -0.19583E-02
        -0.19583E-02
        -0.19583E-02
        -0.19583E-02
        -0.19583E-02
        -0.19583E-02
        -0.19583E-02
        -0.19583E-02
        -0.19583E-02
        -0.19583E-02
        -0.19583E-02
        -0.19583E-02
        -0.19583E-02
        -0.19583E-02
        -0.19583E-02
        -0.19583E-02
        -0.19583E-02
        -0.19583E-02
        -0.19583E-02
        -0.19583E-02
        -0.19583E-02
        -0.97917E-03
        -0.97917E-03
        -0.97917E-03
        -0.97917E-03
        -0.97917E-03
        -0.97917E-03
        -0.97917E-03
        -0.97917E-03
        -0.97917E-03
        -0.97917E-03
        -0.97917E-03
        -0.97917E-03
        -0.97917E-03
        -0.97917E-03
        -0.97917E-03
        -0.97917E-03
        -0.97917E-03
        -0.97917E-03
        -0.97917E-03
        -0.97917E-03
        -0.97917E-03
        -0.97917E-03
        -0.97917E-03
        -0.97917E-03
        -0.97917E-03
        -0.97917E-03
        -0.97917E-03
        -0.97917E-03
        -0.97917E-03
        -0.97917E-03
        -0.97917E-03
        -0.97917E-03
        -0.97917E-03
        -0.97917E-03
        -0.97917E-03
        -0.97917E-03
        -0.97917E-03
        -0.97917E-03
        -0.97917E-03
        -0.97917E-03
        -0.97917E-03
        -0.97917E-03
        -0.97917E-03
        -0.97917E-03
        -0.97917E-03
        -0.97917E-03
        -0.97917E-03
        -0.97917E-03
        -0.97917E-03
        -0.97917E-03
        -0.97917E-03
        -0.97917E-03
        -0.97917E-03
        -0.97917E-03
        -0.97917E-03
        -0.97917E-03
        -0.97917E-03
        -0.97917E-03
        -0.97917E-03
        -0.97917E-03
        -0.97917E-03
        -0.97917E-03
        -0.97917E-03
        -0.97917E-03
        -0.97917E-03
        -0.97917E-03
        -0.97917E-03
        -0.97917E-03
        -0.97917E-03
        -0.97917E-03
        -0.97917E-03
        -0.97917E-03
        -0.97917E-03
        -0.97917E-03
        -0.97917E-03
        -0.97917E-03
        -0.97917E-03
        -0.97917E-03
         0.38917E-18
         0.44621E-18
         0.34485E-18
         0.23671E-18
         0.26613E-18
         0.16162E-18
         0.53980E-18
         0.50579E-18
         0.36337E-18
         0.48798E-18
         0.60712E-18
         0.67611E-18
         0.60634E-18
         0.60658E-18
         0.70997E-18
         0.20892E-18
         0.35894E-18
         0.21887E-18
         0.27638E-18
         0.38382E-18
         0.29058E-18
         0.40326E-18
         0.18564E-18
         0.19650E-18
         0.48570E-18
         0.12837E-18
         0.60589E-18
         0.60416E-18
         0.60524E-18
         0.49621E-18
         0.61582E-19
         0.32255E-19
         0.73874E-19
         0.78478E-19
         0.34514E-18
         0.42054E-18
         0.51644E-18
         0.72521E-18
         0.72233E-18
         0.70722E-18
         0.69126E-18
         0.61573E-18
         0.51484E-18
         0.91170E-19
         0.30347E-20
        -0.66516E-19
        -0.69988E-19
        -0.68643E-19
        -0.59779E-19
        -0.43507E-19
        -0.29471E-19
         0.53205E-19
         0.86819E-18
         0.00000E+00
         0.86819E-18
         0.86819E-18
         0.00000E+00
         0.00000E+00
         0.00000E+00
         0.17364E-17
         0.17364E-17
         0.17364E-17
         0.43410E-18
         0.43410E-18
         0.43410E-18
         0.00000E+00
         0.00000E+00
         0.00000E+00
         0.00000E+00
         0.00000E+00
         0.21705E-18
        -0.21705E-18
         0.00000E+00
         0.00000E+00
         0.00000E+00
        -0.32557E-18
         0.54262E-19
        -0.40697E-18
         0.97917E-03
         0.97917E-03
         0.97917E-03
         0.97917E-03
         0.97917E-03
         0.97917E-03
         0.97917E-03
         0.97917E-03
         0.97917E-03
         0.97917E-03
         0.97917E-03
         0.97917E-03
         0.97917E-03
         0.97917E-03
         0.97917E-03
         0.97917E-03
         0.97917E-03
         0.97917E-03
         0.97917E-03
         0.97917E-03
         0.97917E-03
         0.97917E-03
         0.97917E-03
         0.97917E-03
         0.97917E-03
         0.97917E-03
         0.97917E-03
         0.97917E-03
         0.97917E-03
         0.97917E-03
         0.97917E-03
         0.97917E-03
         0.97917E-03
         0.97917E-03
         0.97917E-03
         0.97917E-03
         0.97917E-03
         0.97917E-03
         0.97917E-03
         0.97917E-03
         0.97917E-03
         0.97917E-03
         0.97917E-03
         0.97917E-03
         0.97917E-03
         0.97917E-03
         0.97917E-03
         0.97917E-03
         0.97917E-03
         0.97917E-03
         0.97917E-03
         0.97917E-03
         0.97917E-03
         0.97917E-03
         0.97917E-03
         0.97917E-03
         0.97917E-03
         0.97917E-03
         0.97917E-03
         0.97917E-03
         0.97917E-03
         0.97917E-03
         0.97917E-03
         0.97917E-03
         0.97917E-03
         0.97917E-03
         0.97917E-03
         0.97917E-03
         0.97917E-03
         0.97917E-03
         0.97917E-03
         0.97917E-03
         0.97917E-03
         0.97917E-03
         0.97917E-03
         0.97917E-03
         0.97917E-03
         0.97917E-03
         0.19583E-02
         0.19583E-02
         0.19583E-02
         0.19583E-02
         0.19583E-02
         0.19583E-02
         0.19583E-02
         0.19583E-02
         0.19583E-02
         0.19583E-02
         0.19583E-02
         0.19583E-02
         0.19583E-02
         0.19583E-02
         0.19583E-02
         0.19583E-02
         0.19583E-02
         0.19583E-02
         0.19583E-02
         0.19583E-02
         0.19583E-02
         0.19583E-02
         0.19583E-02
         0.19583E-02
         0.19583E-02
         0.19583E-02
         0.19583E-02
         0.19583E-02
         0.19583E-02
         0.19583E-02
         0.19583E-02
         0.19583E-02
         0.19583E-02
         0.19583E-02
         0.19583E-02
         0.19583E-02
         0.19583E-02
         0.19583E-02
         0.19583E-02
         0.19583E-02
         0.19583E-02
         0.19583E-02
         0.19583E-02
         0.19583E-02
         0.19583E-02
         0.19583E-02
         0.19583E-02
         0.19583E-02
         0.19583E-02
         0.19583E-02
         0.19583E-02
         0.19583E-02
         0.19583E-02
         0.19583E-02
         0.19583E-02
         0.19583E-02
         0.19583E-02
         0.19583E-02
         0.19583E-02
         0.19583E-02
         0.19583E-02
         0.19583E-02
         0.19583E-02
         0.19583E-02
         0.19583E-02
         0.19583E-02
         0.19583E-02
         0.19583E-02
         0.19583E-02
         0.19583E-02
         0.19583E-02
         0.19583E-02
         0.19583E-02
         0.19583E-02
         0.19583E-02
         0.19583E-02
         0.19583E-02
         0.19583E-02
         0.29375E-02
         0.29375E-02
         0.29375E-02
         0.29375E-02
         0.29375E-02
         0.29375E-02
         0.29375E-02
         0.29375E-02
         0.29375E-02
         0.29375E-02
         0.29375E-02
         0.29375E-02
         0.29375E-02
         0.29375E-02
         0.29375E-02
         0.29375E-02
         0.29375E-02
         0.29375E-02
         0.29375E-02
         0.29375E-02
         0.29375E-02
         0.29375E-02
         0.29375E-02
         0.29375E-02
         0.29375E-02
         0.29375E-02
         0.29375E-02
         0.29375E-02
         0.29375E-02
         0.29375E-02
         0.29375E-02
         0.29375E-02
         0.29375E-02
         0.29375E-02
         0.29375E-02
         0.29375E-02
         0.29375E-02
         0.29375E-02
         0.29375E-02
         0.29375E-02
         0.29375E-02
         0.29375E-02
         0.29375E-02
         0.29375E-02
         0.29375E-02
         0.29375E-02
         0.29375E-02
         0.29375E-02
         0.29375E-02
         0.29375E-02
         0.29375E-02
         0.29375E-02
         0.29375E-02
         0.29375E-02
         0.29375E-02
         0.29375E-02
         0.29375E-02
         0.29375E-02
         0.29375E-02
         0.29375E-02
         0.29375E-02
         0.29375E-02
         0.29375E-02
         0.29375E-02
         0.29375E-02
         0.29375E-02
         0.29375E-02
         0.29375E-02
         0.29375E-02
         0.29375E-02
         0.29375E-02
         0.29375E-02
         0.29375E-02
         0.29375E-02
         0.29375E-02
         0.29375E-02
         0.29375E-02
         0.29375E-02
         0.39167E-02
         0.39167E-02
         0.39167E-02
         0.39167E-02
         0.39167E-02
         0.39167E-02
         0.39167E-02
         0.39167E-02
         0.39167E-02
         0.39167E-02
         0.39167E-02
         0.39167E-02
         0.39167E-02
         0.39167E-02
         0.39167E-02
         0.39167E-02
         0.39167E-02
         0.39167E-02
         0.39167E-02
         0.39167E-02
         0.39167E-02
         0.39167E-02
         0.39167E-02
         0.39167E-02
         0.39167E-02
         0.39167E-02
         0.39167E-02
         0.39167E-02
         0.39167E-02
         0.39167E-02
         0.39167E-02
         0.39167E-02
         0.39167E-02
         0.39167E-02
         0.39167E-02
         0.39167E-02
         0.39167E-02
         0.39167E-02
         0.39167E-02
         0.39167E-02
         0.39167E-02
         0.39167E-02
         0.39167E-02
         0.39167E-02
         0.39167E-02
         0.39167E-02
         0.39167E-02
         0.39167E-02
         0.39167E-02
         0.39167E-02
         0.39167E-02
         0.39167E-02
         0.39167E-02
         0.39167E-02
         0.39167E-02
         0.39167E-02
         0.39167E-02
         0.39167E-02
         0.39167E-02
         0.39167E-02
         0.39167E-02
         0.39167E-02
         0.39167E-02
         0.39167E-02
         0.39167E-02
         0.39167E-02
         0.39167E-02
         0.39167E-02
         0.39167E-02
         0.39167E-02
         0.39167E-02
         0.39167E-02
         0.39167E-02
         0.39167E-02
         0.39167E-02
         0.39167E-02
         0.39167E-02
         0.39167E-02
         0.48958E-02
         0.48958E-02
         0.48958E-02
         0.48958E-02
         0.48958E-02
         0.48958E-02
         0.48958E-02
         0.48958E-02
         0.48958E-02
         0.48958E-02
         0.48958E-02
         0.48958E-02
         0.48958E-02
         0.48958E-02
         0.48958E-02
         0.48958E-02
         0.48958E-02
         0.48958E-02
         0.48958E-02
         0.48958E-02
         0.48958E-02
         0.48958E-02
         0.48958E-02
         0.48958E-02
         0.48958E-02
         0.48958E-02
         0.48958E-02
         0.48958E-02
         0.48958E-02
         0.48958E-02
         0.48958E-02
         0.48958E-02
         0.48958E-02
         0.48958E-02
         0.48958E-02
         0.48958E-02
         0.48958E-02
         0.48958E-02
         0.48958E-02
         0.48958E-02
         0.48958E-02
         0.48958E-02
         0.48958E-02
         0.48958E-02
         0.48958E-02
         0.48958E-02
         0.48958E-02
         0.48958E-02
         0.48958E-02
         0.48958E-02
         0.48958E-02
         0.48958E-02
         0.48958E-02
         0.48958E-02
         0.48958E-02
         0.48958E-02
         0.48958E-02
         0.48958E-02
         0.48958E-02
         0.48958E-02
         0.48958E-02
         0.48958E-02
         0.48958E-02
         0.48958E-02
         0.48958E-02
         0.48958E-02
         0.48958E-02
         0.48958E-02
         0.48958E-02
         0.48958E-02
         0.48958E-02
         0.48958E-02
         0.48958E-02
         0.48958E-02
         0.48958E-02
         0.48958E-02
         0.48958E-02
         0.48958E-02
         0.58750E-02
         0.58750E-02
         0.58750E-02
         0.58750E-02
         0.58750E-02
         0.58750E-02
         0.58750E-02
         0.58750E-02
         0.58750E-02
         0.58750E-02
         0.58750E-02
         0.58750E-02
         0.58750E-02
         0.58750E-02
         0.58750E-02
         0.58750E-02
         0.58750E-02
         0.58750E-02
         0.58750E-02
         0.58750E-02
         0.58750E-02
         0.58750E-02
         0.58750E-02
         0.58750E-02
         0.58750E-02
         0.58750E-02
         0.58750E-02
         0.58750E-02
         0.58750E-02
         0.58750E-02
         0.58750E-02
         0.58750E-02
         0.58750E-02
         0.58750E-02
         0.58750E-02
         0.58750E-02
         0.58750E-02
         0.58750E-02
         0.58750E-02
         0.58750E-02
         0.58750E-02
         0.58750E-02
         0.58750E-02
         0.58750E-02
         0.58750E-02
         0.58750E-02
         0.58750E-02
         0.58750E-02
         0.58750E-02
         0.58750E-02
         0.58750E-02
         0.58750E-02
         0.58750E-02
         0.58750E-02
         0.58750E-02
         0.58750E-02
         0.58750E-02
         0.58750E-02
         0.58750E-02
         0.58750E-02
         0.58750E-02
         0.58750E-02
         0.58750E-02
         0.58750E-02
         0.58750E-02
         0.58750E-02
         0.58750E-02
         0.58750E-02
         0.58750E-02
         0.58750E-02
         0.58750E-02
         0.58750E-02
         0.58750E-02
         0.58750E-02
         0.58750E-02
         0.58750E-02
         0.58750E-02
         0.58750E-02
         0.68542E-02
         0.68542E-02
         0.68542E-02
         0.68542E-02
         0.68542E-02
         0.68542E-02
         0.68542E-02
         0.68542E-02
         0.68542E-02
         0.68542E-02
         0.68542E-02
         0.68542E-02
         0.68542E-02
         0.68542E-02
         0.68542E-02
         0.68542E-02
         0.68542E-02
         0.68542E-02
         0.68542E-02
         0.68542E-02
         0.68542E-02
         0.68542E-02
         0.68542E-02
         0.68542E-02
         0.68542E-02
         0.68542E-02
         0.68542E-02
         0.68542E-02
         0.68542E-02
         0.68542E-02
         0.68542E-02
         0.68542E-02
         0.68542E-02
         0.68542E-02
         0.68542E-02
         0.68542E-02
         0.68542E-02
         0.68542E-02
         0.68542E-02
         0.68542E-02
         0.68542E-02
         0.68542E-02
         0.68542E-02
         0.68542E-02
         0.68542E-02
         0.68542E-02
         0.68542E-02
         0.68542E-02
         0.68542E-02
         0.68542E-02
         0.68542E-02
         0.68542E-02
         0.68542E-02
         0.68542E-02
         0.68542E-02
         0.68542E-02
         0.68542E-02
         0.68542E-02
         0.68542E-02
         0.68542E-02
         0.68542E-02
         0.68542E-02
         0.68542E-02
         0.68542E-02
         0.68542E-02
         0.68542E-02
         0.68542E-02
         0.68542E-02
         0.68542E-02
         0.68542E-02
         0.68542E-02
         0.68542E-02
         0.68542E-02
         0.68542E-02
         0.68542E-02
         0.68542E-02
         0.68542E-02
         0.68542E-02
         0.78333E-02
         0.78333E-02
         0.78333E-02
         0.78333E-02
         0.78333E-02
         0.78333E-02
         0.78333E-02
         0.78333E-02
         0.78333E-02
         0.78333E-02
         0.78333E-02
         0.78333E-02
         0.78333E-02
         0.78333E-02
         0.78333E-02
         0.78333E-02
         0.78333E-02
         0.78333E-02
         0.78333E-02
         0.78333E-02
         0.78333E-02
         0.78333E-02
         0.78333E-02
         0.78333E-02
         0.78333E-02
         0.78333E-02
         0.78333E-02
         0.78333E-02
         0.78333E-02
         0.78333E-02
         0.78333E-02
         0.78333E-02
         0.78333E-02
         0.78333E-02
         0.78333E-02
         0.78333E-02
         0.78333E-02
         0.78333E-02
         0.78333E-02
         0.78333E-02
         0.78333E-02
         0.78333E-02
         0.78333E-02
         0.78333E-02
         0.78333E-02
         0.78333E-02
         0.78333E-02
         0.78333E-02
         0.78333E-02
         0.78333E-02
         0.78333E-02
         0.78333E-02
         0.78333E-02
         0.78333E-02
         0.78333E-02
         0.78333E-02
         0.78333E-02
         0.78333E-02
         0.78333E-02
         0.78333E-02
         0.78333E-02
         0.78333E-02
         0.78333E-02
         0.78333E-02
         0.78333E-02
         0.78333E-02
         0.78333E-02
         0.78333E-02
         0.78333E-02
         0.78333E-02
         0.78333E-02
         0.78333E-02
         0.78333E-02
         0.78333E-02
         0.78333E-02
         0.78333E-02
         0.78333E-02
         0.78333E-02
         0.88125E-02
         0.88125E-02
         0.88125E-02
         0.88125E-02
         0.88125E-02
         0.88125E-02
         0.88125E-02
         0.88125E-02
         0.88125E-02
         0.88125E-02
         0.88125E-02
         0.88125E-02
         0.88125E-02
         0.88125E-02
         0.88125E-02
         0.88125E-02
         0.88125E-02
         0.88125E-02
         0.88125E-02
         0.88125E-02
         0.88125E-02
         0.88125E-02
         0.88125E-02
         0.88125E-02
         0.88125E-02
         0.88125E-02
         0.88125E-02
         0.88125E-02
         0.88125E-02
         0.88125E-02
         0.88125E-02
         0.88125E-02
         0.88125E-02
         0.88125E-02
         0.88125E-02
         0.88125E-02
         0.88125E-02
         0.88125E-02
         0.88125E-02
         0.88125E-02
         0.88125E-02
         0.88125E-02
         0.88125E-02
         0.88125E-02
         0.88125E-02
         0.88125E-02
         0.88125E-02
         0.88125E-02
         0.88125E-02
         0.88125E-02
         0.88125E-02
         0.88125E-02
         0.88125E-02
         0.88125E-02
         0.88125E-02
         0.88125E-02
         0.88125E-02
         0.88125E-02
         0.88125E-02
         0.88125E-02
         0.88125E-02
         0.88125E-02
         0.88125E-02
         0.88125E-02
         0.88125E-02
         0.88125E-02
         0.88125E-02
         0.88125E-02
         0.88125E-02
         0.88125E-02
         0.88125E-02
         0.88125E-02
         0.88125E-02
         0.88125E-02
         0.88125E-02
         0.88125E-02
         0.88125E-02
         0.88125E-02
         0.97917E-02
         0.97917E-02
         0.97917E-02
         0.97917E-02
         0.97917E-02
         0.97917E-02
         0.97917E-02
         0.97917E-02
         0.97917E-02
         0.97917E-02
         0.97917E-02
         0.97917E-02
         0.97917E-02
         0.97917E-02
         0.97917E-02
         0.97917E-02
         0.97917E-02
         0.97917E-02
         0.97917E-02
         0.97917E-02
         0.97917E-02
         0.97917E-02
         0.97917E-02
         0.97917E-02
         0.97917E-02
         0.97917E-02
         0.97917E-02
         0.97917E-02
         0.97917E-02
         0.97917E-02
         0.97917E-02
         0.97917E-02
         0.97917E-02
         0.97917E-02
         0.97917E-02
         0.97917E-02
         0.97917E-02
         0.97917E-02
         0.97917E-02
         0.97917E-02
         0.97917E-02
         0.97917E-02
         0.97917E-02
         0.97917E-02
         0.97917E-02
         0.97917E-02
         0.97917E-02
         0.97917E-02
         0.97917E-02
         0.97917E-02
         0.97917E-02
         0.97917E-02
         0.97917E-02
         0.97917E-02
         0.97917E-02
         0.97917E-02
         0.97917E-02
         0.97917E-02
         0.97917E-02
         0.97917E-02
         0.97917E-02
         0.97917E-02
         0.97917E-02
         0.97917E-02
         0.97917E-02
         0.97917E-02
         0.97917E-02
         0.97917E-02
         0.97917E-02
         0.97917E-02
         0.97917E-02
         0.97917E-02
         0.97917E-02
         0.97917E-02
         0.97917E-02
         0.97917E-02
         0.97917E-02
         0.97917E-02
         0.10771E-01
         0.10771E-01
         0.10771E-01
         0.10771E-01
         0.10771E-01
         0.10771E-01
         0.10771E-01
         0.10771E-01
         0.10771E-01
         0.10771E-01
         0.10771E-01
         0.10771E-01
         0.10771E-01
         0.10771E-01
         0.10771E-01
         0.10771E-01
         0.10771E-01
         0.10771E-01
         0.10771E-01
         0.10771E-01
         0.10771E-01
         0.10771E-01
         0.10771E-01
         0.10771E-01
         0.10771E-01
         0.10771E-01
         0.10771E-01
         0.10771E-01
         0.10771E-01
         0.10771E-01
         0.10771E-01
         0.10771E-01
         0.10771E-01
         0.10771E-01
         0.10771E-01
         0.10771E-01
         0.10771E-01
         0.10771E-01
         0.10771E-01
         0.10771E-01
         0.10771E-01
         0.10771E-01
         0.10771E-01
         0.10771E-01
         0.10771E-01
         0.10771E-01
         0.10771E-01
         0.10771E-01
         0.10771E-01
         0.10771E-01
         0.10771E-01
         0.10771E-01
         0.10771E-01
         0.10771E-01
         0.10771E-01
         0.10771E-01
         0.10771E-01
         0.10771E-01
         0.10771E-01
         0.10771E-01
         0.10771E-01
         0.10771E-01
         0.10771E-01
         0.10771E-01
         0.10771E-01
         0.10771E-01
         0.10771E-01
         0.10771E-01
         0.10771E-01
         0.10771E-01
         0.10771E-01
         0.10771E-01
         0.10771E-01
         0.10771E-01
         0.10771E-01
         0.10771E-01
         0.10771E-01
         0.10771E-01
         0.11750E-01
         0.11750E-01
         0.11750E-01
         0.11750E-01
         0.11750E-01
         0.11750E-01
         0.11750E-01
         0.11750E-01
         0.11750E-01
         0.11750E-01
         0.11750E-01
         0.11750E-01
         0.11750E-01
         0.11750E-01
         0.11750E-01
         0.11750E-01
         0.11750E-01
         0.11750E-01
         0.11750E-01
         0.11750E-01
         0.11750E-01
         0.11750E-01
         0.11750E-01
         0.11750E-01
         0.11750E-01
         0.11750E-01
         0.11750E-01
         0.11750E-01
         0.11750E-01
         0.11750E-01
         0.11750E-01
         0.11750E-01
         0.11750E-01
         0.11750E-01
         0.11750E-01
         0.11750E-01
         0.11750E-01
         0.11750E-01
         0.11750E-01
         0.11750E-01
         0.11750E-01
         0.11750E-01
         0.11750E-01
         0.11750E-01
         0.11750E-01
         0.11750E-01
         0.11750E-01
         0.11750E-01
         0.11750E-01
         0.11750E-01
         0.11750E-01
         0.11750E-01
         0.11750E-01
         0.11750E-01
         0.11750E-01
         0.11750E-01
         0.11750E-01
         0.11750E-01
         0.11750E-01
         0.11750E-01
         0.11750E-01
         0.11750E-01
         0.11750E-01
         0.11750E-01
         0.11750E-01
         0.11750E-01
         0.11750E-01
         0.11750E-01
         0.11750E-01
         0.11750E-01
         0.11750E-01
         0.11750E-01
         0.11750E-01
         0.11750E-01
         0.11750E-01
         0.11750E-01
         0.11750E-01
         0.11750E-01
  
SCALARS                init_velocity_x  double 1
LOOKUP_TABLE default
         0.00000E+00
         0.00000E+00
         0.00000E+00
         0.00000E+00
         0.00000E+00
         0.00000E+00
         0.00000E+00
         0.00000E+00
         0.00000E+00
         0.00000E+00
         0.00000E+00
         0.00000E+00
         0.00000E+00
         0.00000E+00
         0.00000E+00
         0.00000E+00
         0.00000E+00
         0.00000E+00
         0.00000E+00
         0.00000E+00
         0.00000E+00
         0.00000E+00
         0.00000E+00
         0.00000E+00
         0.00000E+00
         0.00000E+00
         0.00000E+00
         0.00000E+00
         0.00000E+00
         0.00000E+00
         0.00000E+00
         0.00000E+00
         0.00000E+00
         0.00000E+00
         0.00000E+00
         0.00000E+00
         0.00000E+00
         0.00000E+00
         0.00000E+00
         0.00000E+00
         0.00000E+00
         0.00000E+00
         0.00000E+00
         0.00000E+00
         0.00000E+00
         0.00000E+00
         0.00000E+00
         0.00000E+00
         0.00000E+00
         0.00000E+00
         0.00000E+00
         0.00000E+00
         0.00000E+00
         0.00000E+00
         0.00000E+00
         0.00000E+00
         0.00000E+00
         0.00000E+00
         0.00000E+00
         0.00000E+00
         0.00000E+00
         0.00000E+00
         0.00000E+00
         0.00000E+00
         0.00000E+00
         0.00000E+00
         0.00000E+00
         0.00000E+00
         0.00000E+00
         0.00000E+00
         0.00000E+00
         0.00000E+00
         0.00000E+00
         0.00000E+00
         0.00000E+00
         0.00000E+00
         0.00000E+00
         0.00000E+00
         0.00000E+00
         0.00000E+00
         0.00000E+00
         0.00000E+00
         0.00000E+00
         0.00000E+00
         0.00000E+00
         0.00000E+00
         0.00000E+00
         0.00000E+00
         0.00000E+00
         0.00000E+00
         0.00000E+00
         0.00000E+00
         0.00000E+00
         0.00000E+00
         0.00000E+00
         0.00000E+00
         0.00000E+00
         0.00000E+00
         0.00000E+00
         0.00000E+00
         0.00000E+00
         0.00000E+00
         0.00000E+00
         0.00000E+00
         0.00000E+00
         0.00000E+00
         0.00000E+00
         0.00000E+00
         0.00000E+00
         0.00000E+00
         0.00000E+00
         0.00000E+00
         0.00000E+00
         0.00000E+00
         0.00000E+00
         0.00000E+00
         0.00000E+00
         0.00000E+00
         0.00000E+00
         0.00000E+00
         0.00000E+00
         0.00000E+00
         0.00000E+00
         0.00000E+00
         0.00000E+00
         0.00000E+00
         0.00000E+00
         0.00000E+00
         0.00000E+00
         0.00000E+00
         0.00000E+00
         0.00000E+00
         0.00000E+00
         0.00000E+00
         0.00000E+00
         0.00000E+00
         0.00000E+00
         0.00000E+00
         0.00000E+00
         0.00000E+00
         0.00000E+00
         0.00000E+00
         0.00000E+00
         0.00000E+00
         0.00000E+00
         0.00000E+00
         0.00000E+00
         0.00000E+00
         0.00000E+00
         0.00000E+00
         0.00000E+00
         0.00000E+00
         0.00000E+00
         0.00000E+00
         0.00000E+00
         0.00000E+00
         0.00000E+00
         0.00000E+00
         0.00000E+00
         0.00000E+00
         0.00000E+00
         0.00000E+00
         0.00000E+00
         0.00000E+00
         0.00000E+00
         0.00000E+00
         0.00000E+00
         0.00000E+00
         0.00000E+00
         0.00000E+00
         0.00000E+00
         0.00000E+00
         0.00000E+00
         0.00000E+00
         0.00000E+00
         0.00000E+00
         0.00000E+00
         0.00000E+00
         0.00000E+00
         0.00000E+00
         0.00000E+00
         0.00000E+00
         0.00000E+00
         0.00000E+00
         0.00000E+00
         0.00000E+00
         0.00000E+00
         0.00000E+00
         0.00000E+00
         0.00000E+00
         0.00000E+00
         0.00000E+00
         0.00000E+00
         0.00000E+00
         0.00000E+00
         0.00000E+00
         0.00000E+00
         0.00000E+00
         0.00000E+00
         0.00000E+00
         0.00000E+00
         0.00000E+00
         0.00000E+00
         0.00000E+00
         0.00000E+00
         0.00000E+00
         0.00000E+00
         0.00000E+00
         0.00000E+00
         0.00000E+00
         0.00000E+00
         0.00000E+00
         0.00000E+00
         0.00000E+00
         0.00000E+00
         0.00000E+00
         0.00000E+00
         0.00000E+00
         0.00000E+00
         0.00000E+00
         0.00000E+00
         0.00000E+00
         0.00000E+00
         0.00000E+00
         0.00000E+00
         0.00000E+00
         0.00000E+00
         0.00000E+00
         0.00000E+00
         0.00000E+00
         0.00000E+00
         0.00000E+00
         0.00000E+00
         0.00000E+00
         0.00000E+00
         0.00000E+00
         0.00000E+00
         0.00000E+00
         0.00000E+00
         0.00000E+00
         0.00000E+00
         0.00000E+00
         0.00000E+00
         0.00000E+00
         0.00000E+00
         0.00000E+00
         0.00000E+00
         0.00000E+00
         0.00000E+00
         0.00000E+00
         0.00000E+00
         0.00000E+00
         0.00000E+00
         0.00000E+00
         0.00000E+00
         0.00000E+00
         0.00000E+00
         0.00000E+00
         0.00000E+00
         0.00000E+00
         0.00000E+00
         0.00000E+00
         0.00000E+00
         0.00000E+00
         0.00000E+00
         0.00000E+00
         0.00000E+00
         0.00000E+00
         0.00000E+00
         0.00000E+00
         0.00000E+00
         0.00000E+00
         0.00000E+00
         0.00000E+00
         0.00000E+00
         0.00000E+00
         0.00000E+00
         0.00000E+00
         0.00000E+00
         0.00000E+00
         0.00000E+00
         0.00000E+00
         0.00000E+00
         0.00000E+00
         0.00000E+00
         0.00000E+00
         0.00000E+00
         0.00000E+00
         0.00000E+00
         0.00000E+00
         0.00000E+00
         0.00000E+00
         0.00000E+00
         0.00000E+00
         0.00000E+00
         0.00000E+00
         0.00000E+00
         0.00000E+00
         0.00000E+00
         0.00000E+00
         0.00000E+00
         0.00000E+00
         0.00000E+00
         0.00000E+00
         0.00000E+00
         0.00000E+00
         0.00000E+00
         0.00000E+00
         0.00000E+00
         0.00000E+00
         0.00000E+00
         0.00000E+00
         0.00000E+00
         0.00000E+00
         0.00000E+00
         0.00000E+00
         0.00000E+00
         0.00000E+00
         0.00000E+00
         0.00000E+00
         0.00000E+00
         0.00000E+00
         0.00000E+00
         0.00000E+00
         0.00000E+00
         0.00000E+00
         0.00000E+00
         0.00000E+00
         0.00000E+00
         0.00000E+00
         0.00000E+00
         0.00000E+00
         0.00000E+00
         0.00000E+00
         0.00000E+00
         0.00000E+00
         0.00000E+00
         0.00000E+00
         0.00000E+00
         0.00000E+00
         0.00000E+00
         0.00000E+00
         0.00000E+00
         0.00000E+00
         0.00000E+00
         0.00000E+00
         0.00000E+00
         0.00000E+00
         0.00000E+00
         0.00000E+00
         0.00000E+00
         0.00000E+00
         0.00000E+00
         0.00000E+00
         0.00000E+00
         0.00000E+00
         0.00000E+00
         0.00000E+00
         0.00000E+00
         0.00000E+00
         0.00000E+00
         0.00000E+00
         0.00000E+00
         0.00000E+00
         0.00000E+00
         0.00000E+00
         0.00000E+00
         0.00000E+00
         0.00000E+00
         0.00000E+00
         0.00000E+00
         0.00000E+00
         0.00000E+00
         0.00000E+00
         0.00000E+00
         0.00000E+00
         0.00000E+00
         0.00000E+00
         0.00000E+00
         0.00000E+00
         0.00000E+00
         0.00000E+00
         0.00000E+00
         0.00000E+00
         0.00000E+00
         0.00000E+00
         0.00000E+00
         0.00000E+00
         0.00000E+00
         0.00000E+00
         0.00000E+00
         0.00000E+00
         0.00000E+00
         0.00000E+00
         0.00000E+00
         0.00000E+00
         0.00000E+00
         0.00000E+00
         0.00000E+00
         0.00000E+00
         0.00000E+00
         0.00000E+00
         0.00000E+00
         0.00000E+00
         0.00000E+00
         0.00000E+00
         0.00000E+00
         0.00000E+00
         0.00000E+00
         0.00000E+00
         0.00000E+00
         0.00000E+00
         0.00000E+00
         0.00000E+00
         0.00000E+00
         0.00000E+00
         0.00000E+00
         0.00000E+00
         0.00000E+00
         0.00000E+00
         0.00000E+00
         0.00000E+00
         0.00000E+00
         0.00000E+00
         0.00000E+00
         0.00000E+00
         0.00000E+00
         0.00000E+00
         0.00000E+00
         0.00000E+00
         0.00000E+00
         0.00000E+00
         0.00000E+00
         0.00000E+00
         0.00000E+00
         0.00000E+00
         0.00000E+00
         0.00000E+00
         0.00000E+00
         0.00000E+00
         0.00000E+00
         0.00000E+00
         0.00000E+00
         0.00000E+00
         0.00000E+00
         0.00000E+00
         0.00000E+00
         0.00000E+00
         0.00000E+00
         0.00000E+00
         0.00000E+00
         0.00000E+00
         0.00000E+00
         0.00000E+00
         0.00000E+00
         0.00000E+00
         0.00000E+00
         0.00000E+00
         0.00000E+00
         0.00000E+00
         0.00000E+00
         0.00000E+00
         0.00000E+00
         0.00000E+00
         0.00000E+00
         0.00000E+00
         0.00000E+00
         0.00000E+00
         0.00000E+00
         0.00000E+00
         0.00000E+00
         0.00000E+00
         0.00000E+00
         0.00000E+00
         0.00000E+00
         0.00000E+00
         0.00000E+00
         0.00000E+00
         0.00000E+00
         0.00000E+00
         0.00000E+00
         0.00000E+00
         0.00000E+00
         0.00000E+00
         0.00000E+00
         0.00000E+00
         0.00000E+00
         0.00000E+00
         0.00000E+00
         0.00000E+00
         0.00000E+00
         0.00000E+00
         0.00000E+00
         0.00000E+00
         0.00000E+00
         0.00000E+00
         0.00000E+00
         0.00000E+00
         0.00000E+00
         0.00000E+00
         0.00000E+00
         0.00000E+00
         0.00000E+00
         0.00000E+00
         0.00000E+00
         0.00000E+00
         0.00000E+00
         0.00000E+00
         0.00000E+00
         0.00000E+00
         0.00000E+00
         0.00000E+00
         0.00000E+00
         0.00000E+00
         0.00000E+00
         0.00000E+00
         0.00000E+00
         0.00000E+00
         0.00000E+00
         0.00000E+00
         0.00000E+00
         0.00000E+00
         0.00000E+00
         0.00000E+00
         0.00000E+00
         0.00000E+00
         0.00000E+00
         0.00000E+00
         0.00000E+00
         0.00000E+00
         0.00000E+00
         0.00000E+00
         0.00000E+00
         0.00000E+00
         0.00000E+00
         0.00000E+00
         0.00000E+00
         0.00000E+00
         0.00000E+00
         0.00000E+00
         0.00000E+00
         0.00000E+00
         0.00000E+00
         0.00000E+00
         0.00000E+00
         0.00000E+00
         0.00000E+00
         0.00000E+00
         0.00000E+00
         0.00000E+00
         0.00000E+00
         0.00000E+00
         0.00000E+00
         0.00000E+00
         0.00000E+00
         0.00000E+00
         0.00000E+00
         0.00000E+00
         0.00000E+00
         0.00000E+00
         0.00000E+00
         0.00000E+00
         0.00000E+00
         0.00000E+00
         0.00000E+00
         0.00000E+00
         0.00000E+00
         0.00000E+00
         0.00000E+00
         0.00000E+00
         0.00000E+00
         0.00000E+00
         0.00000E+00
         0.00000E+00
         0.00000E+00
         0.00000E+00
         0.00000E+00
         0.00000E+00
         0.00000E+00
         0.00000E+00
         0.00000E+00
         0.00000E+00
         0.00000E+00
         0.00000E+00
         0.00000E+00
         0.00000E+00
         0.00000E+00
         0.00000E+00
         0.00000E+00
         0.00000E+00
         0.00000E+00
         0.00000E+00
         0.00000E+00
         0.00000E+00
         0.00000E+00
         0.00000E+00
         0.00000E+00
         0.00000E+00
         0.00000E+00
         0.00000E+00
         0.00000E+00
         0.00000E+00
         0.00000E+00
         0.00000E+00
         0.00000E+00
         0.00000E+00
         0.00000E+00
         0.00000E+00
         0.00000E+00
         0.00000E+00
         0.00000E+00
         0.00000E+00
         0.00000E+00
         0.00000E+00
         0.00000E+00
         0.00000E+00
         0.00000E+00
         0.00000E+00
         0.00000E+00
         0.00000E+00
         0.00000E+00
         0.00000E+00
         0.00000E+00
         0.00000E+00
         0.00000E+00
         0.00000E+00
         0.00000E+00
         0.00000E+00
         0.00000E+00
         0.00000E+00
         0.00000E+00
         0.00000E+00
         0.00000E+00
         0.00000E+00
         0.00000E+00
         0.00000E+00
         0.00000E+00
         0.00000E+00
         0.00000E+00
         0.00000E+00
         0.00000E+00
         0.00000E+00
         0.00000E+00
         0.00000E+00
         0.00000E+00
         0.00000E+00
         0.00000E+00
         0.00000E+00
         0.00000E+00
         0.00000E+00
         0.00000E+00
         0.00000E+00
         0.00000E+00
         0.00000E+00
         0.00000E+00
         0.00000E+00
         0.00000E+00
         0.00000E+00
         0.00000E+00
         0.00000E+00
         0.00000E+00
         0.00000E+00
         0.00000E+00
         0.00000E+00
         0.00000E+00
         0.00000E+00
         0.00000E+00
         0.00000E+00
         0.00000E+00
         0.00000E+00
         0.00000E+00
         0.00000E+00
         0.00000E+00
         0.00000E+00
         0.00000E+00
         0.00000E+00
         0.00000E+00
         0.00000E+00
         0.00000E+00
         0.00000E+00
         0.00000E+00
         0.00000E+00
         0.00000E+00
         0.00000E+00
         0.00000E+00
         0.00000E+00
         0.00000E+00
         0.00000E+00
         0.00000E+00
         0.00000E+00
         0.00000E+00
         0.00000E+00
         0.00000E+00
         0.00000E+00
         0.00000E+00
         0.00000E+00
         0.00000E+00
         0.00000E+00
         0.00000E+00
         0.00000E+00
         0.00000E+00
         0.00000E+00
         0.00000E+00
         0.00000E+00
         0.00000E+00
         0.00000E+00
         0.00000E+00
         0.00000E+00
         0.00000E+00
         0.00000E+00
         0.00000E+00
         0.00000E+00
         0.00000E+00
         0.00000E+00
         0.00000E+00
         0.00000E+00
         0.00000E+00
         0.00000E+00
         0.00000E+00
         0.00000E+00
         0.00000E+00
         0.00000E+00
         0.00000E+00
         0.00000E+00
         0.00000E+00
         0.00000E+00
         0.00000E+00
         0.00000E+00
         0.00000E+00
         0.00000E+00
         0.00000E+00
         0.00000E+00
         0.00000E+00
         0.00000E+00
         0.00000E+00
         0.00000E+00
         0.00000E+00
         0.00000E+00
         0.00000E+00
         0.00000E+00
         0.00000E+00
         0.00000E+00
         0.00000E+00
         0.00000E+00
         0.00000E+00
         0.00000E+00
         0.00000E+00
         0.00000E+00
         0.00000E+00
         0.00000E+00
         0.00000E+00
         0.00000E+00
         0.00000E+00
         0.00000E+00
         0.00000E+00
         0.00000E+00
         0.00000E+00
         0.00000E+00
         0.00000E+00
         0.00000E+00
         0.00000E+00
         0.00000E+00
         0.00000E+00
         0.00000E+00
         0.00000E+00
         0.00000E+00
         0.00000E+00
         0.00000E+00
         0.00000E+00
         0.00000E+00
         0.00000E+00
         0.00000E+00
         0.00000E+00
         0.00000E+00
         0.00000E+00
         0.00000E+00
         0.00000E+00
         0.00000E+00
         0.00000E+00
         0.00000E+00
         0.00000E+00
         0.00000E+00
         0.00000E+00
         0.00000E+00
         0.00000E+00
         0.00000E+00
         0.00000E+00
         0.00000E+00
         0.00000E+00
         0.00000E+00
         0.00000E+00
         0.00000E+00
         0.00000E+00
         0.00000E+00
         0.00000E+00
         0.00000E+00
         0.00000E+00
         0.00000E+00
         0.00000E+00
         0.00000E+00
         0.00000E+00
         0.00000E+00
         0.00000E+00
         0.00000E+00
         0.00000E+00
         0.00000E+00
         0.00000E+00
         0.00000E+00
         0.00000E+00
         0.00000E+00
         0.00000E+00
         0.00000E+00
         0.00000E+00
         0.00000E+00
         0.00000E+00
         0.00000E+00
         0.00000E+00
         0.00000E+00
         0.00000E+00
         0.00000E+00
         0.00000E+00
         0.00000E+00
         0.00000E+00
         0.00000E+00
         0.00000E+00
         0.00000E+00
         0.00000E+00
         0.00000E+00
         0.00000E+00
         0.00000E+00
         0.00000E+00
         0.00000E+00
         0.00000E+00
         0.00000E+00
         0.00000E+00
         0.00000E+00
         0.00000E+00
         0.00000E+00
         0.00000E+00
         0.00000E+00
         0.00000E+00
         0.00000E+00
         0.00000E+00
         0.00000E+00
         0.00000E+00
         0.00000E+00
         0.00000E+00
         0.00000E+00
         0.00000E+00
         0.00000E+00
         0.00000E+00
         0.00000E+00
         0.00000E+00
         0.00000E+00
         0.00000E+00
         0.00000E+00
         0.00000E+00
         0.00000E+00
         0.00000E+00
         0.00000E+00
         0.00000E+00
         0.00000E+00
         0.00000E+00
         0.00000E+00
         0.00000E+00
         0.00000E+00
         0.00000E+00
         0.00000E+00
         0.00000E+00
         0.00000E+00
         0.00000E+00
         0.00000E+00
         0.00000E+00
         0.00000E+00
         0.00000E+00
         0.00000E+00
         0.00000E+00
         0.00000E+00
         0.00000E+00
         0.00000E+00
         0.00000E+00
         0.00000E+00
         0.00000E+00
         0.00000E+00
         0.00000E+00
         0.00000E+00
         0.00000E+00
         0.00000E+00
         0.00000E+00
         0.00000E+00
         0.00000E+00
         0.00000E+00
         0.00000E+00
         0.00000E+00
         0.00000E+00
         0.00000E+00
         0.00000E+00
         0.00000E+00
         0.00000E+00
         0.00000E+00
         0.00000E+00
         0.00000E+00
         0.00000E+00
         0.00000E+00
         0.00000E+00
         0.00000E+00
         0.00000E+00
         0.00000E+00
         0.00000E+00
         0.00000E+00
         0.00000E+00
         0.00000E+00
         0.00000E+00
         0.00000E+00
         0.00000E+00
         0.00000E+00
         0.00000E+00
         0.00000E+00
         0.00000E+00
         0.00000E+00
         0.00000E+00
         0.00000E+00
         0.00000E+00
         0.00000E+00
         0.00000E+00
         0.00000E+00
         0.00000E+00
         0.00000E+00
         0.00000E+00
         0.00000E+00
         0.00000E+00
         0.00000E+00
         0.00000E+00
         0.00000E+00
         0.00000E+00
         0.00000E+00
         0.00000E+00
         0.00000E+00
         0.00000E+00
         0.00000E+00
         0.00000E+00
         0.00000E+00
         0.00000E+00
         0.00000E+00
         0.00000E+00
         0.00000E+00
         0.00000E+00
         0.00000E+00
         0.00000E+00
         0.00000E+00
         0.00000E+00
         0.00000E+00
         0.00000E+00
         0.00000E+00
         0.00000E+00
         0.00000E+00
         0.00000E+00
         0.00000E+00
         0.00000E+00
         0.00000E+00
         0.00000E+00
         0.00000E+00
         0.00000E+00
         0.00000E+00
         0.00000E+00
         0.00000E+00
         0.00000E+00
         0.00000E+00
         0.00000E+00
         0.00000E+00
         0.00000E+00
         0.00000E+00
         0.00000E+00
         0.00000E+00
         0.00000E+00
         0.00000E+00
         0.00000E+00
         0.00000E+00
         0.00000E+00
         0.00000E+00
         0.00000E+00
         0.00000E+00
         0.00000E+00
         0.00000E+00
         0.00000E+00
         0.00000E+00
         0.00000E+00
         0.00000E+00
         0.00000E+00
         0.00000E+00
         0.00000E+00
         0.00000E+00
         0.00000E+00
         0.00000E+00
         0.00000E+00
         0.00000E+00
         0.00000E+00
         0.00000E+00
         0.00000E+00
         0.00000E+00
         0.00000E+00
         0.00000E+00
         0.00000E+00
         0.00000E+00
         0.00000E+00
         0.00000E+00
         0.00000E+00
         0.00000E+00
         0.00000E+00
         0.00000E+00
         0.00000E+00
         0.00000E+00
         0.00000E+00
         0.00000E+00
         0.00000E+00
         0.00000E+00
         0.00000E+00
         0.00000E+00
         0.00000E+00
         0.00000E+00
         0.00000E+00
         0.00000E+00
         0.00000E+00
         0.00000E+00
         0.00000E+00
         0.00000E+00
         0.00000E+00
         0.00000E+00
         0.00000E+00
         0.00000E+00
         0.00000E+00
         0.00000E+00
         0.00000E+00
         0.00000E+00
         0.00000E+00
         0.00000E+00
         0.00000E+00
         0.00000E+00
         0.00000E+00
         0.00000E+00
         0.00000E+00
         0.00000E+00
         0.00000E+00
         0.00000E+00
         0.00000E+00
         0.00000E+00
         0.00000E+00
         0.00000E+00
         0.00000E+00
         0.00000E+00
         0.00000E+00
         0.00000E+00
         0.00000E+00
         0.00000E+00
         0.00000E+00
         0.00000E+00
         0.00000E+00
         0.00000E+00
         0.00000E+00
         0.00000E+00
         0.00000E+00
         0.00000E+00
         0.00000E+00
         0.00000E+00
         0.00000E+00
         0.00000E+00
         0.00000E+00
         0.00000E+00
         0.00000E+00
         0.00000E+00
         0.00000E+00
         0.00000E+00
         0.00000E+00
         0.00000E+00
         0.00000E+00
         0.00000E+00
         0.00000E+00
         0.00000E+00
         0.00000E+00
         0.00000E+00
         0.00000E+00
         0.00000E+00
         0.00000E+00
         0.00000E+00
         0.00000E+00
         0.00000E+00
         0.00000E+00
         0.00000E+00
         0.00000E+00
         0.00000E+00
         0.00000E+00
         0.00000E+00
         0.00000E+00
         0.00000E+00
         0.00000E+00
         0.00000E+00
         0.00000E+00
         0.00000E+00
         0.00000E+00
         0.00000E+00
         0.00000E+00
         0.00000E+00
         0.00000E+00
         0.00000E+00
         0.00000E+00
         0.00000E+00
         0.00000E+00
         0.00000E+00
         0.00000E+00
         0.00000E+00
         0.00000E+00
         0.00000E+00
         0.00000E+00
         0.00000E+00
         0.00000E+00
         0.00000E+00
         0.00000E+00
         0.00000E+00
         0.00000E+00
         0.00000E+00
         0.00000E+00
         0.00000E+00
         0.00000E+00
         0.00000E+00
         0.00000E+00
         0.00000E+00
         0.00000E+00
         0.00000E+00
         0.00000E+00
         0.00000E+00
         0.00000E+00
         0.00000E+00
         0.00000E+00
         0.00000E+00
         0.00000E+00
         0.00000E+00
         0.00000E+00
         0.00000E+00
         0.00000E+00
         0.00000E+00
         0.00000E+00
         0.00000E+00
         0.00000E+00
         0.00000E+00
         0.00000E+00
         0.00000E+00
         0.00000E+00
         0.00000E+00
         0.00000E+00
         0.00000E+00
         0.00000E+00
         0.00000E+00
         0.00000E+00
         0.00000E+00
         0.00000E+00
         0.00000E+00
         0.00000E+00
         0.00000E+00
         0.00000E+00
         0.00000E+00
         0.00000E+00
         0.00000E+00
         0.00000E+00
         0.00000E+00
         0.00000E+00
         0.00000E+00
         0.00000E+00
         0.00000E+00
         0.00000E+00
         0.00000E+00
         0.00000E+00
         0.00000E+00
         0.00000E+00
         0.00000E+00
         0.00000E+00
         0.00000E+00
         0.00000E+00
         0.00000E+00
         0.00000E+00
         0.00000E+00
         0.00000E+00
         0.00000E+00
         0.00000E+00
         0.00000E+00
         0.00000E+00
         0.00000E+00
         0.00000E+00
         0.00000E+00
         0.00000E+00
         0.00000E+00
         0.00000E+00
         0.00000E+00
         0.00000E+00
         0.00000E+00
         0.00000E+00
         0.00000E+00
         0.00000E+00
         0.00000E+00
         0.00000E+00
         0.00000E+00
         0.00000E+00
         0.00000E+00
         0.00000E+00
         0.00000E+00
         0.00000E+00
         0.00000E+00
         0.00000E+00
         0.00000E+00
         0.00000E+00
         0.00000E+00
         0.00000E+00
         0.00000E+00
         0.00000E+00
         0.00000E+00
         0.00000E+00
         0.00000E+00
         0.00000E+00
         0.00000E+00
         0.00000E+00
         0.00000E+00
         0.00000E+00
         0.00000E+00
         0.00000E+00
         0.00000E+00
         0.00000E+00
         0.00000E+00
         0.00000E+00
         0.00000E+00
         0.00000E+00
         0.00000E+00
         0.00000E+00
         0.00000E+00
         0.00000E+00
         0.00000E+00
         0.00000E+00
         0.00000E+00
         0.00000E+00
         0.00000E+00
         0.00000E+00
         0.00000E+00
         0.00000E+00
         0.00000E+00
         0.00000E+00
         0.00000E+00
         0.00000E+00
         0.00000E+00
         0.00000E+00
         0.00000E+00
         0.00000E+00
         0.00000E+00
         0.00000E+00
         0.00000E+00
         0.00000E+00
         0.00000E+00
         0.00000E+00
         0.00000E+00
         0.00000E+00
         0.00000E+00
         0.00000E+00
         0.00000E+00
         0.00000E+00
         0.00000E+00
         0.00000E+00
         0.00000E+00
         0.00000E+00
         0.00000E+00
         0.00000E+00
         0.00000E+00
         0.00000E+00
         0.00000E+00
         0.00000E+00
         0.00000E+00
         0.00000E+00
         0.00000E+00
         0.00000E+00
         0.00000E+00
         0.00000E+00
         0.00000E+00
         0.00000E+00
         0.00000E+00
         0.00000E+00
         0.00000E+00
         0.00000E+00
         0.00000E+00
         0.00000E+00
         0.00000E+00
         0.00000E+00
         0.00000E+00
         0.00000E+00
         0.00000E+00
         0.00000E+00
         0.00000E+00
         0.00000E+00
         0.00000E+00
         0.00000E+00
         0.00000E+00
         0.00000E+00
         0.00000E+00
         0.00000E+00
         0.00000E+00
         0.00000E+00
         0.00000E+00
         0.00000E+00
         0.00000E+00
         0.00000E+00
         0.00000E+00
         0.00000E+00
         0.00000E+00
         0.00000E+00
         0.00000E+00
         0.00000E+00
         0.00000E+00
         0.00000E+00
         0.00000E+00
         0.00000E+00
         0.00000E+00
         0.00000E+00
         0.00000E+00
         0.00000E+00
         0.00000E+00
         0.00000E+00
         0.00000E+00
         0.00000E+00
         0.00000E+00
         0.00000E+00
         0.00000E+00
         0.00000E+00
         0.00000E+00
         0.00000E+00
         0.00000E+00
         0.00000E+00
         0.00000E+00
         0.00000E+00
         0.00000E+00
         0.00000E+00
         0.00000E+00
         0.00000E+00
         0.00000E+00
         0.00000E+00
         0.00000E+00
         0.00000E+00
         0.00000E+00
         0.00000E+00
         0.00000E+00
         0.00000E+00
         0.00000E+00
         0.00000E+00
         0.00000E+00
         0.00000E+00
         0.00000E+00
         0.00000E+00
         0.00000E+00
         0.00000E+00
         0.00000E+00
         0.00000E+00
         0.00000E+00
         0.00000E+00
         0.00000E+00
         0.00000E+00
         0.00000E+00
         0.00000E+00
         0.00000E+00
         0.00000E+00
         0.00000E+00
         0.00000E+00
         0.00000E+00
         0.00000E+00
         0.00000E+00
         0.00000E+00
         0.00000E+00
         0.00000E+00
         0.00000E+00
         0.00000E+00
         0.00000E+00
         0.00000E+00
         0.00000E+00
         0.00000E+00
         0.00000E+00
         0.00000E+00
         0.00000E+00
         0.00000E+00
         0.00000E+00
         0.00000E+00
         0.00000E+00
         0.00000E+00
         0.00000E+00
         0.00000E+00
         0.00000E+00
         0.00000E+00
         0.00000E+00
         0.00000E+00
         0.00000E+00
         0.00000E+00
         0.00000E+00
         0.00000E+00
         0.00000E+00
         0.00000E+00
         0.00000E+00
         0.00000E+00
         0.00000E+00
         0.00000E+00
         0.00000E+00
         0.00000E+00
         0.00000E+00
         0.00000E+00
         0.00000E+00
         0.00000E+00
         0.00000E+00
         0.00000E+00
         0.00000E+00
         0.00000E+00
         0.00000E+00
         0.00000E+00
         0.00000E+00
         0.00000E+00
         0.00000E+00
         0.00000E+00
         0.00000E+00
         0.00000E+00
         0.00000E+00
         0.00000E+00
         0.00000E+00
         0.00000E+00
         0.00000E+00
         0.00000E+00
         0.00000E+00
         0.00000E+00
         0.00000E+00
         0.00000E+00
         0.00000E+00
         0.00000E+00
         0.00000E+00
         0.00000E+00
         0.00000E+00
         0.00000E+00
         0.00000E+00
         0.00000E+00
         0.00000E+00
         0.00000E+00
         0.00000E+00
         0.00000E+00
         0.00000E+00
         0.00000E+00
         0.00000E+00
         0.00000E+00
         0.00000E+00
         0.00000E+00
         0.00000E+00
         0.00000E+00
         0.00000E+00
         0.00000E+00
         0.00000E+00
         0.00000E+00
         0.00000E+00
         0.00000E+00
         0.00000E+00
         0.00000E+00
         0.00000E+00
         0.00000E+00
         0.00000E+00
         0.00000E+00
         0.00000E+00
         0.00000E+00
         0.00000E+00
         0.00000E+00
         0.00000E+00
         0.00000E+00
         0.00000E+00
         0.00000E+00
         0.00000E+00
         0.00000E+00
         0.00000E+00
         0.00000E+00
         0.00000E+00
         0.00000E+00
         0.00000E+00
         0.00000E+00
         0.00000E+00
         0.00000E+00
         0.00000E+00
         0.00000E+00
         0.00000E+00
         0.00000E+00
         0.00000E+00
         0.00000E+00
         0.00000E+00
         0.00000E+00
         0.00000E+00
         0.00000E+00
         0.00000E+00
         0.00000E+00
         0.00000E+00
         0.00000E+00
         0.00000E+00
         0.00000E+00
         0.00000E+00
         0.00000E+00
         0.00000E+00
         0.00000E+00
         0.00000E+00
         0.00000E+00
         0.00000E+00
         0.00000E+00
         0.00000E+00
         0.00000E+00
         0.00000E+00
         0.00000E+00
         0.00000E+00
         0.00000E+00
         0.00000E+00
         0.00000E+00
         0.00000E+00
         0.00000E+00
         0.00000E+00
         0.00000E+00
         0.00000E+00
         0.00000E+00
         0.00000E+00
         0.00000E+00
         0.00000E+00
         0.00000E+00
         0.00000E+00
         0.00000E+00
         0.00000E+00
         0.00000E+00
         0.00000E+00
         0.00000E+00
         0.00000E+00
         0.00000E+00
         0.00000E+00
         0.00000E+00
         0.00000E+00
         0.00000E+00
         0.00000E+00
         0.00000E+00
         0.00000E+00
         0.00000E+00
         0.00000E+00
         0.00000E+00
         0.00000E+00
         0.00000E+00
         0.00000E+00
         0.00000E+00
         0.00000E+00
         0.00000E+00
         0.00000E+00
         0.00000E+00
         0.00000E+00
         0.00000E+00
         0.00000E+00
         0.00000E+00
         0.00000E+00
         0.00000E+00
         0.00000E+00
         0.00000E+00
         0.00000E+00
         0.00000E+00
         0.00000E+00
         0.00000E+00
         0.00000E+00
         0.00000E+00
         0.00000E+00
         0.00000E+00
         0.00000E+00
         0.00000E+00
         0.00000E+00
         0.00000E+00
         0.00000E+00
         0.00000E+00
         0.00000E+00
         0.00000E+00
         0.00000E+00
         0.00000E+00
         0.00000E+00
         0.00000E+00
         0.00000E+00
         0.00000E+00
         0.00000E+00
         0.00000E+00
         0.00000E+00
         0.00000E+00
         0.00000E+00
         0.00000E+00
         0.00000E+00
         0.00000E+00
         0.00000E+00
         0.00000E+00
         0.00000E+00
         0.00000E+00
         0.00000E+00
         0.00000E+00
         0.00000E+00
         0.00000E+00
         0.00000E+00
         0.00000E+00
         0.00000E+00
         0.00000E+00
         0.00000E+00
         0.00000E+00
         0.00000E+00
         0.00000E+00
         0.00000E+00
         0.00000E+00
         0.00000E+00
         0.00000E+00
         0.00000E+00
         0.00000E+00
         0.00000E+00
         0.00000E+00
         0.00000E+00
         0.00000E+00
         0.00000E+00
         0.00000E+00
         0.00000E+00
         0.00000E+00
         0.00000E+00
         0.00000E+00
         0.00000E+00
         0.00000E+00
         0.00000E+00
         0.00000E+00
         0.00000E+00
         0.00000E+00
         0.00000E+00
         0.00000E+00
         0.00000E+00
         0.00000E+00
         0.00000E+00
         0.00000E+00
         0.00000E+00
         0.00000E+00
         0.00000E+00
         0.00000E+00
         0.00000E+00
         0.00000E+00
         0.00000E+00
         0.00000E+00
         0.00000E+00
         0.00000E+00
         0.00000E+00
         0.00000E+00
         0.00000E+00
         0.00000E+00
         0.00000E+00
         0.00000E+00
         0.00000E+00
         0.00000E+00
         0.00000E+00
         0.00000E+00
         0.00000E+00
         0.00000E+00
         0.00000E+00
         0.00000E+00
         0.00000E+00
         0.00000E+00
         0.00000E+00
         0.00000E+00
         0.00000E+00
         0.00000E+00
         0.00000E+00
         0.00000E+00
         0.00000E+00
         0.00000E+00
         0.00000E+00
         0.00000E+00
         0.00000E+00
         0.00000E+00
         0.00000E+00
         0.00000E+00
         0.00000E+00
         0.00000E+00
         0.00000E+00
         0.00000E+00
         0.00000E+00
         0.00000E+00
         0.00000E+00
         0.00000E+00
         0.00000E+00
         0.00000E+00
         0.00000E+00
         0.00000E+00
         0.00000E+00
         0.00000E+00
         0.00000E+00
         0.00000E+00
         0.00000E+00
         0.00000E+00
         0.00000E+00
         0.00000E+00
         0.00000E+00
         0.00000E+00
         0.00000E+00
         0.00000E+00
         0.00000E+00
         0.00000E+00
         0.00000E+00
         0.00000E+00
         0.00000E+00
         0.00000E+00
         0.00000E+00
         0.00000E+00
         0.00000E+00
         0.00000E+00
         0.00000E+00
         0.00000E+00
         0.00000E+00
         0.00000E+00
         0.00000E+00
         0.00000E+00
         0.00000E+00
         0.00000E+00
         0.00000E+00
         0.00000E+00
         0.00000E+00
         0.00000E+00
         0.00000E+00
         0.00000E+00
         0.00000E+00
         0.00000E+00
         0.00000E+00
         0.00000E+00
         0.00000E+00
         0.00000E+00
         0.00000E+00
         0.00000E+00
         0.00000E+00
         0.00000E+00
         0.00000E+00
         0.00000E+00
         0.00000E+00
         0.00000E+00
         0.00000E+00
         0.00000E+00
         0.00000E+00
         0.00000E+00
         0.00000E+00
         0.00000E+00
         0.00000E+00
         0.00000E+00
         0.00000E+00
         0.00000E+00
         0.00000E+00
         0.00000E+00
         0.00000E+00
         0.00000E+00
         0.00000E+00
         0.00000E+00
         0.00000E+00
         0.00000E+00
         0.00000E+00
         0.00000E+00
         0.00000E+00
         0.00000E+00
         0.00000E+00
         0.00000E+00
         0.00000E+00
         0.00000E+00
         0.00000E+00
         0.00000E+00
         0.00000E+00
         0.00000E+00
         0.00000E+00
         0.00000E+00
         0.00000E+00
         0.00000E+00
         0.00000E+00
         0.00000E+00
         0.00000E+00
         0.00000E+00
         0.00000E+00
         0.00000E+00
         0.00000E+00
         0.00000E+00
         0.00000E+00
         0.00000E+00
         0.00000E+00
         0.00000E+00
         0.00000E+00
         0.00000E+00
         0.00000E+00
         0.00000E+00
         0.00000E+00
         0.00000E+00
         0.00000E+00
         0.00000E+00
         0.00000E+00
         0.00000E+00
         0.00000E+00
         0.00000E+00
         0.00000E+00
         0.00000E+00
         0.00000E+00
         0.00000E+00
         0.00000E+00
         0.00000E+00
         0.00000E+00
         0.00000E+00
         0.00000E+00
         0.00000E+00
         0.00000E+00
         0.00000E+00
         0.00000E+00
         0.00000E+00
         0.00000E+00
         0.00000E+00
         0.00000E+00
         0.00000E+00
         0.00000E+00
         0.00000E+00
         0.00000E+00
         0.00000E+00
         0.00000E+00
         0.00000E+00
         0.00000E+00
         0.00000E+00
         0.00000E+00
         0.00000E+00
         0.00000E+00
         0.00000E+00
         0.00000E+00
         0.00000E+00
         0.00000E+00
         0.00000E+00
         0.00000E+00
         0.00000E+00
         0.00000E+00
         0.00000E+00
         0.00000E+00
         0.00000E+00
         0.00000E+00
         0.00000E+00
         0.00000E+00
         0.00000E+00
         0.00000E+00
         0.00000E+00
         0.00000E+00
         0.00000E+00
         0.00000E+00
         0.00000E+00
         0.00000E+00
         0.00000E+00
         0.00000E+00
         0.00000E+00
         0.00000E+00
         0.00000E+00
         0.00000E+00
         0.00000E+00
         0.00000E+00
         0.00000E+00
         0.00000E+00
         0.00000E+00
         0.00000E+00
         0.00000E+00
         0.00000E+00
         0.00000E+00
         0.00000E+00
         0.00000E+00
         0.00000E+00
         0.00000E+00
         0.00000E+00
         0.00000E+00
         0.00000E+00
         0.00000E+00
         0.00000E+00
         0.00000E+00
         0.00000E+00
         0.00000E+00
         0.00000E+00
         0.00000E+00
         0.00000E+00
         0.00000E+00
         0.00000E+00
         0.00000E+00
         0.00000E+00
         0.00000E+00
         0.00000E+00
         0.00000E+00
         0.00000E+00
         0.00000E+00
         0.00000E+00
         0.00000E+00
         0.00000E+00
         0.00000E+00
         0.00000E+00
         0.00000E+00
         0.00000E+00
         0.00000E+00
         0.00000E+00
         0.00000E+00
         0.00000E+00
         0.00000E+00
         0.00000E+00
         0.00000E+00
         0.00000E+00
         0.00000E+00
         0.00000E+00
         0.00000E+00
         0.00000E+00
         0.00000E+00
         0.00000E+00
         0.00000E+00
         0.00000E+00
         0.00000E+00
         0.00000E+00
         0.00000E+00
         0.00000E+00
         0.00000E+00
         0.00000E+00
         0.00000E+00
         0.00000E+00
         0.00000E+00
         0.00000E+00
         0.00000E+00
         0.00000E+00
         0.00000E+00
         0.00000E+00
         0.00000E+00
         0.00000E+00
         0.00000E+00
         0.00000E+00
         0.00000E+00
         0.00000E+00
         0.00000E+00
         0.00000E+00
         0.00000E+00
         0.00000E+00
         0.00000E+00
         0.00000E+00
         0.00000E+00
         0.00000E+00
         0.00000E+00
         0.00000E+00
         0.00000E+00
         0.00000E+00
         0.00000E+00
         0.00000E+00
         0.00000E+00
         0.00000E+00
         0.00000E+00
         0.00000E+00
         0.00000E+00
         0.00000E+00
         0.00000E+00
         0.00000E+00
         0.00000E+00
         0.00000E+00
         0.00000E+00
         0.00000E+00
         0.00000E+00
         0.00000E+00
  
SCALARS                init_velocity_y  double 1
LOOKUP_TABLE default
         0.00000E+00
         0.00000E+00
         0.00000E+00
         0.00000E+00
         0.00000E+00
         0.00000E+00
         0.00000E+00
         0.00000E+00
         0.00000E+00
         0.00000E+00
         0.00000E+00
         0.00000E+00
         0.00000E+00
         0.00000E+00
         0.00000E+00
         0.00000E+00
         0.00000E+00
         0.00000E+00
         0.00000E+00
         0.00000E+00
         0.00000E+00
         0.00000E+00
         0.00000E+00
         0.00000E+00
         0.00000E+00
         0.00000E+00
         0.00000E+00
         0.00000E+00
         0.00000E+00
         0.00000E+00
         0.00000E+00
         0.00000E+00
         0.00000E+00
         0.00000E+00
         0.00000E+00
         0.00000E+00
         0.00000E+00
         0.00000E+00
         0.00000E+00
         0.00000E+00
         0.00000E+00
         0.00000E+00
         0.00000E+00
         0.00000E+00
         0.00000E+00
         0.00000E+00
         0.00000E+00
         0.00000E+00
         0.00000E+00
         0.00000E+00
         0.00000E+00
         0.00000E+00
         0.00000E+00
         0.00000E+00
         0.00000E+00
         0.00000E+00
         0.00000E+00
         0.00000E+00
         0.00000E+00
         0.00000E+00
         0.00000E+00
         0.00000E+00
         0.00000E+00
         0.00000E+00
         0.00000E+00
         0.00000E+00
         0.00000E+00
         0.00000E+00
         0.00000E+00
         0.00000E+00
         0.00000E+00
         0.00000E+00
         0.00000E+00
         0.00000E+00
         0.00000E+00
         0.00000E+00
         0.00000E+00
         0.00000E+00
         0.00000E+00
         0.00000E+00
         0.00000E+00
         0.00000E+00
         0.00000E+00
         0.00000E+00
         0.00000E+00
         0.00000E+00
         0.00000E+00
         0.00000E+00
         0.00000E+00
         0.00000E+00
         0.00000E+00
         0.00000E+00
         0.00000E+00
         0.00000E+00
         0.00000E+00
         0.00000E+00
         0.00000E+00
         0.00000E+00
         0.00000E+00
         0.00000E+00
         0.00000E+00
         0.00000E+00
         0.00000E+00
         0.00000E+00
         0.00000E+00
         0.00000E+00
         0.00000E+00
         0.00000E+00
         0.00000E+00
         0.00000E+00
         0.00000E+00
         0.00000E+00
         0.00000E+00
         0.00000E+00
         0.00000E+00
         0.00000E+00
         0.00000E+00
         0.00000E+00
         0.00000E+00
         0.00000E+00
         0.00000E+00
         0.00000E+00
         0.00000E+00
         0.00000E+00
         0.00000E+00
         0.00000E+00
         0.00000E+00
         0.00000E+00
         0.00000E+00
         0.00000E+00
         0.00000E+00
         0.00000E+00
         0.00000E+00
         0.00000E+00
         0.00000E+00
         0.00000E+00
         0.00000E+00
         0.00000E+00
         0.00000E+00
         0.00000E+00
         0.00000E+00
         0.00000E+00
         0.00000E+00
         0.00000E+00
         0.00000E+00
         0.00000E+00
         0.00000E+00
         0.00000E+00
         0.00000E+00
         0.00000E+00
         0.00000E+00
         0.00000E+00
         0.00000E+00
         0.00000E+00
         0.00000E+00
         0.00000E+00
         0.00000E+00
         0.00000E+00
         0.00000E+00
         0.00000E+00
         0.00000E+00
         0.00000E+00
         0.00000E+00
         0.00000E+00
         0.00000E+00
         0.00000E+00
         0.00000E+00
         0.00000E+00
         0.00000E+00
         0.00000E+00
         0.00000E+00
         0.00000E+00
         0.00000E+00
         0.00000E+00
         0.00000E+00
         0.00000E+00
         0.00000E+00
         0.00000E+00
         0.00000E+00
         0.00000E+00
         0.00000E+00
         0.00000E+00
         0.00000E+00
         0.00000E+00
         0.00000E+00
         0.00000E+00
         0.00000E+00
         0.00000E+00
         0.00000E+00
         0.00000E+00
         0.00000E+00
         0.00000E+00
         0.00000E+00
         0.00000E+00
         0.00000E+00
         0.00000E+00
         0.00000E+00
         0.00000E+00
         0.00000E+00
         0.00000E+00
         0.00000E+00
         0.00000E+00
         0.00000E+00
         0.00000E+00
         0.00000E+00
         0.00000E+00
         0.00000E+00
         0.00000E+00
         0.00000E+00
         0.00000E+00
         0.00000E+00
         0.00000E+00
         0.00000E+00
         0.00000E+00
         0.00000E+00
         0.00000E+00
         0.00000E+00
         0.00000E+00
         0.00000E+00
         0.00000E+00
         0.00000E+00
         0.00000E+00
         0.00000E+00
         0.00000E+00
         0.00000E+00
         0.00000E+00
         0.00000E+00
         0.00000E+00
         0.00000E+00
         0.00000E+00
         0.00000E+00
         0.00000E+00
         0.00000E+00
         0.00000E+00
         0.00000E+00
         0.00000E+00
         0.00000E+00
         0.00000E+00
         0.00000E+00
         0.00000E+00
         0.00000E+00
         0.00000E+00
         0.00000E+00
         0.00000E+00
         0.00000E+00
         0.00000E+00
         0.00000E+00
         0.00000E+00
         0.00000E+00
         0.00000E+00
         0.00000E+00
         0.00000E+00
         0.00000E+00
         0.00000E+00
         0.00000E+00
         0.00000E+00
         0.00000E+00
         0.00000E+00
         0.00000E+00
         0.00000E+00
         0.00000E+00
         0.00000E+00
         0.00000E+00
         0.00000E+00
         0.00000E+00
         0.00000E+00
         0.00000E+00
         0.00000E+00
         0.00000E+00
         0.00000E+00
         0.00000E+00
         0.00000E+00
         0.00000E+00
         0.00000E+00
         0.00000E+00
         0.00000E+00
         0.00000E+00
         0.00000E+00
         0.00000E+00
         0.00000E+00
         0.00000E+00
         0.00000E+00
         0.00000E+00
         0.00000E+00
         0.00000E+00
         0.00000E+00
         0.00000E+00
         0.00000E+00
         0.00000E+00
         0.00000E+00
         0.00000E+00
         0.00000E+00
         0.00000E+00
         0.00000E+00
         0.00000E+00
         0.00000E+00
         0.00000E+00
         0.00000E+00
         0.00000E+00
         0.00000E+00
         0.00000E+00
         0.00000E+00
         0.00000E+00
         0.00000E+00
         0.00000E+00
         0.00000E+00
         0.00000E+00
         0.00000E+00
         0.00000E+00
         0.00000E+00
         0.00000E+00
         0.00000E+00
         0.00000E+00
         0.00000E+00
         0.00000E+00
         0.00000E+00
         0.00000E+00
         0.00000E+00
         0.00000E+00
         0.00000E+00
         0.00000E+00
         0.00000E+00
         0.00000E+00
         0.00000E+00
         0.00000E+00
         0.00000E+00
         0.00000E+00
         0.00000E+00
         0.00000E+00
         0.00000E+00
         0.00000E+00
         0.00000E+00
         0.00000E+00
         0.00000E+00
         0.00000E+00
         0.00000E+00
         0.00000E+00
         0.00000E+00
         0.00000E+00
         0.00000E+00
         0.00000E+00
         0.00000E+00
         0.00000E+00
         0.00000E+00
         0.00000E+00
         0.00000E+00
         0.00000E+00
         0.00000E+00
         0.00000E+00
         0.00000E+00
         0.00000E+00
         0.00000E+00
         0.00000E+00
         0.00000E+00
         0.00000E+00
         0.00000E+00
         0.00000E+00
         0.00000E+00
         0.00000E+00
         0.00000E+00
         0.00000E+00
         0.00000E+00
         0.00000E+00
         0.00000E+00
         0.00000E+00
         0.00000E+00
         0.00000E+00
         0.00000E+00
         0.00000E+00
         0.00000E+00
         0.00000E+00
         0.00000E+00
         0.00000E+00
         0.00000E+00
         0.00000E+00
         0.00000E+00
         0.00000E+00
         0.00000E+00
         0.00000E+00
         0.00000E+00
         0.00000E+00
         0.00000E+00
         0.00000E+00
         0.00000E+00
         0.00000E+00
         0.00000E+00
         0.00000E+00
         0.00000E+00
         0.00000E+00
         0.00000E+00
         0.00000E+00
         0.00000E+00
         0.00000E+00
         0.00000E+00
         0.00000E+00
         0.00000E+00
         0.00000E+00
         0.00000E+00
         0.00000E+00
         0.00000E+00
         0.00000E+00
         0.00000E+00
         0.00000E+00
         0.00000E+00
         0.00000E+00
         0.00000E+00
         0.00000E+00
         0.00000E+00
         0.00000E+00
         0.00000E+00
         0.00000E+00
         0.00000E+00
         0.00000E+00
         0.00000E+00
         0.00000E+00
         0.00000E+00
         0.00000E+00
         0.00000E+00
         0.00000E+00
         0.00000E+00
         0.00000E+00
         0.00000E+00
         0.00000E+00
         0.00000E+00
         0.00000E+00
         0.00000E+00
         0.00000E+00
         0.00000E+00
         0.00000E+00
         0.00000E+00
         0.00000E+00
         0.00000E+00
         0.00000E+00
         0.00000E+00
         0.00000E+00
         0.00000E+00
         0.00000E+00
         0.00000E+00
         0.00000E+00
         0.00000E+00
         0.00000E+00
         0.00000E+00
         0.00000E+00
         0.00000E+00
         0.00000E+00
         0.00000E+00
         0.00000E+00
         0.00000E+00
         0.00000E+00
         0.00000E+00
         0.00000E+00
         0.00000E+00
         0.00000E+00
         0.00000E+00
         0.00000E+00
         0.00000E+00
         0.00000E+00
         0.00000E+00
         0.00000E+00
         0.00000E+00
         0.00000E+00
         0.00000E+00
         0.00000E+00
         0.00000E+00
         0.00000E+00
         0.00000E+00
         0.00000E+00
         0.00000E+00
         0.00000E+00
         0.00000E+00
         0.00000E+00
         0.00000E+00
         0.00000E+00
         0.00000E+00
         0.00000E+00
         0.00000E+00
         0.00000E+00
         0.00000E+00
         0.00000E+00
         0.00000E+00
         0.00000E+00
         0.00000E+00
         0.00000E+00
         0.00000E+00
         0.00000E+00
         0.00000E+00
         0.00000E+00
         0.00000E+00
         0.00000E+00
         0.00000E+00
         0.00000E+00
         0.00000E+00
         0.00000E+00
         0.00000E+00
         0.00000E+00
         0.00000E+00
         0.00000E+00
         0.00000E+00
         0.00000E+00
         0.00000E+00
         0.00000E+00
         0.00000E+00
         0.00000E+00
         0.00000E+00
         0.00000E+00
         0.00000E+00
         0.00000E+00
         0.00000E+00
         0.00000E+00
         0.00000E+00
         0.00000E+00
         0.00000E+00
         0.00000E+00
         0.00000E+00
         0.00000E+00
         0.00000E+00
         0.00000E+00
         0.00000E+00
         0.00000E+00
         0.00000E+00
         0.00000E+00
         0.00000E+00
         0.00000E+00
         0.00000E+00
         0.00000E+00
         0.00000E+00
         0.00000E+00
         0.00000E+00
         0.00000E+00
         0.00000E+00
         0.00000E+00
         0.00000E+00
         0.00000E+00
         0.00000E+00
         0.00000E+00
         0.00000E+00
         0.00000E+00
         0.00000E+00
         0.00000E+00
         0.00000E+00
         0.00000E+00
         0.00000E+00
         0.00000E+00
         0.00000E+00
         0.00000E+00
         0.00000E+00
         0.00000E+00
         0.00000E+00
         0.00000E+00
         0.00000E+00
         0.00000E+00
         0.00000E+00
         0.00000E+00
         0.00000E+00
         0.00000E+00
         0.00000E+00
         0.00000E+00
         0.00000E+00
         0.00000E+00
         0.00000E+00
         0.00000E+00
         0.00000E+00
         0.00000E+00
         0.00000E+00
         0.00000E+00
         0.00000E+00
         0.00000E+00
         0.00000E+00
         0.00000E+00
         0.00000E+00
         0.00000E+00
         0.00000E+00
         0.00000E+00
         0.00000E+00
         0.00000E+00
         0.00000E+00
         0.00000E+00
         0.00000E+00
         0.00000E+00
         0.00000E+00
         0.00000E+00
         0.00000E+00
         0.00000E+00
         0.00000E+00
         0.00000E+00
         0.00000E+00
         0.00000E+00
         0.00000E+00
         0.00000E+00
         0.00000E+00
         0.00000E+00
         0.00000E+00
         0.00000E+00
         0.00000E+00
         0.00000E+00
         0.00000E+00
         0.00000E+00
         0.00000E+00
         0.00000E+00
         0.00000E+00
         0.00000E+00
         0.00000E+00
         0.00000E+00
         0.00000E+00
         0.00000E+00
         0.00000E+00
         0.00000E+00
         0.00000E+00
         0.00000E+00
         0.00000E+00
         0.00000E+00
         0.00000E+00
         0.00000E+00
         0.00000E+00
         0.00000E+00
         0.00000E+00
         0.00000E+00
         0.00000E+00
         0.00000E+00
         0.00000E+00
         0.00000E+00
         0.00000E+00
         0.00000E+00
         0.00000E+00
         0.00000E+00
         0.00000E+00
         0.00000E+00
         0.00000E+00
         0.00000E+00
         0.00000E+00
         0.00000E+00
         0.00000E+00
         0.00000E+00
         0.00000E+00
         0.00000E+00
         0.00000E+00
         0.00000E+00
         0.00000E+00
         0.00000E+00
         0.00000E+00
         0.00000E+00
         0.00000E+00
         0.00000E+00
         0.00000E+00
         0.00000E+00
         0.00000E+00
         0.00000E+00
         0.00000E+00
         0.00000E+00
         0.00000E+00
         0.00000E+00
         0.00000E+00
         0.00000E+00
         0.00000E+00
         0.00000E+00
         0.00000E+00
         0.00000E+00
         0.00000E+00
         0.00000E+00
         0.00000E+00
         0.00000E+00
         0.00000E+00
         0.00000E+00
         0.00000E+00
         0.00000E+00
         0.00000E+00
         0.00000E+00
         0.00000E+00
         0.00000E+00
         0.00000E+00
         0.00000E+00
         0.00000E+00
         0.00000E+00
         0.00000E+00
         0.00000E+00
         0.00000E+00
         0.00000E+00
         0.00000E+00
         0.00000E+00
         0.00000E+00
         0.00000E+00
         0.00000E+00
         0.00000E+00
         0.00000E+00
         0.00000E+00
         0.00000E+00
         0.00000E+00
         0.00000E+00
         0.00000E+00
         0.00000E+00
         0.00000E+00
         0.00000E+00
         0.00000E+00
         0.00000E+00
         0.00000E+00
         0.00000E+00
         0.00000E+00
         0.00000E+00
         0.00000E+00
         0.00000E+00
         0.00000E+00
         0.00000E+00
         0.00000E+00
         0.00000E+00
         0.00000E+00
         0.00000E+00
         0.00000E+00
         0.00000E+00
         0.00000E+00
         0.00000E+00
         0.00000E+00
         0.00000E+00
         0.00000E+00
         0.00000E+00
         0.00000E+00
         0.00000E+00
         0.00000E+00
         0.00000E+00
         0.00000E+00
         0.00000E+00
         0.00000E+00
         0.00000E+00
         0.00000E+00
         0.00000E+00
         0.00000E+00
         0.00000E+00
         0.00000E+00
         0.00000E+00
         0.00000E+00
         0.00000E+00
         0.00000E+00
         0.00000E+00
         0.00000E+00
         0.00000E+00
         0.00000E+00
         0.00000E+00
         0.00000E+00
         0.00000E+00
         0.00000E+00
         0.00000E+00
         0.00000E+00
         0.00000E+00
         0.00000E+00
         0.00000E+00
         0.00000E+00
         0.00000E+00
         0.00000E+00
         0.00000E+00
         0.00000E+00
         0.00000E+00
         0.00000E+00
         0.00000E+00
         0.00000E+00
         0.00000E+00
         0.00000E+00
         0.00000E+00
         0.00000E+00
         0.00000E+00
         0.00000E+00
         0.00000E+00
         0.00000E+00
         0.00000E+00
         0.00000E+00
         0.00000E+00
         0.00000E+00
         0.00000E+00
         0.00000E+00
         0.00000E+00
         0.00000E+00
         0.00000E+00
         0.00000E+00
         0.00000E+00
         0.00000E+00
         0.00000E+00
         0.00000E+00
         0.00000E+00
         0.00000E+00
         0.00000E+00
         0.00000E+00
         0.00000E+00
         0.00000E+00
         0.00000E+00
         0.00000E+00
         0.00000E+00
         0.00000E+00
         0.00000E+00
         0.00000E+00
         0.00000E+00
         0.00000E+00
         0.00000E+00
         0.00000E+00
         0.00000E+00
         0.00000E+00
         0.00000E+00
         0.00000E+00
         0.00000E+00
         0.00000E+00
         0.00000E+00
         0.00000E+00
         0.00000E+00
         0.00000E+00
         0.00000E+00
         0.00000E+00
         0.00000E+00
         0.00000E+00
         0.00000E+00
         0.00000E+00
         0.00000E+00
         0.00000E+00
         0.00000E+00
         0.00000E+00
         0.00000E+00
         0.00000E+00
         0.00000E+00
         0.00000E+00
         0.00000E+00
         0.00000E+00
         0.00000E+00
         0.00000E+00
         0.00000E+00
         0.00000E+00
         0.00000E+00
         0.00000E+00
         0.00000E+00
         0.00000E+00
         0.00000E+00
         0.00000E+00
         0.00000E+00
         0.00000E+00
         0.00000E+00
         0.00000E+00
         0.00000E+00
         0.00000E+00
         0.00000E+00
         0.00000E+00
         0.00000E+00
         0.00000E+00
         0.00000E+00
         0.00000E+00
         0.00000E+00
         0.00000E+00
         0.00000E+00
         0.00000E+00
         0.00000E+00
         0.00000E+00
         0.00000E+00
         0.00000E+00
         0.00000E+00
         0.00000E+00
         0.00000E+00
         0.00000E+00
         0.00000E+00
         0.00000E+00
         0.00000E+00
         0.00000E+00
         0.00000E+00
         0.00000E+00
         0.00000E+00
         0.00000E+00
         0.00000E+00
         0.00000E+00
         0.00000E+00
         0.00000E+00
         0.00000E+00
         0.00000E+00
         0.00000E+00
         0.00000E+00
         0.00000E+00
         0.00000E+00
         0.00000E+00
         0.00000E+00
         0.00000E+00
         0.00000E+00
         0.00000E+00
         0.00000E+00
         0.00000E+00
         0.00000E+00
         0.00000E+00
         0.00000E+00
         0.00000E+00
         0.00000E+00
         0.00000E+00
         0.00000E+00
         0.00000E+00
         0.00000E+00
         0.00000E+00
         0.00000E+00
         0.00000E+00
         0.00000E+00
         0.00000E+00
         0.00000E+00
         0.00000E+00
         0.00000E+00
         0.00000E+00
         0.00000E+00
         0.00000E+00
         0.00000E+00
         0.00000E+00
         0.00000E+00
         0.00000E+00
         0.00000E+00
         0.00000E+00
         0.00000E+00
         0.00000E+00
         0.00000E+00
         0.00000E+00
         0.00000E+00
         0.00000E+00
         0.00000E+00
         0.00000E+00
         0.00000E+00
         0.00000E+00
         0.00000E+00
         0.00000E+00
         0.00000E+00
         0.00000E+00
         0.00000E+00
         0.00000E+00
         0.00000E+00
         0.00000E+00
         0.00000E+00
         0.00000E+00
         0.00000E+00
         0.00000E+00
         0.00000E+00
         0.00000E+00
         0.00000E+00
         0.00000E+00
         0.00000E+00
         0.00000E+00
         0.00000E+00
         0.00000E+00
         0.00000E+00
         0.00000E+00
         0.00000E+00
         0.00000E+00
         0.00000E+00
         0.00000E+00
         0.00000E+00
         0.00000E+00
         0.00000E+00
         0.00000E+00
         0.00000E+00
         0.00000E+00
         0.00000E+00
         0.00000E+00
         0.00000E+00
         0.00000E+00
         0.00000E+00
         0.00000E+00
         0.00000E+00
         0.00000E+00
         0.00000E+00
         0.00000E+00
         0.00000E+00
         0.00000E+00
         0.00000E+00
         0.00000E+00
         0.00000E+00
         0.00000E+00
         0.00000E+00
         0.00000E+00
         0.00000E+00
         0.00000E+00
         0.00000E+00
         0.00000E+00
         0.00000E+00
         0.00000E+00
         0.00000E+00
         0.00000E+00
         0.00000E+00
         0.00000E+00
         0.00000E+00
         0.00000E+00
         0.00000E+00
         0.00000E+00
         0.00000E+00
         0.00000E+00
         0.00000E+00
         0.00000E+00
         0.00000E+00
         0.00000E+00
         0.00000E+00
         0.00000E+00
         0.00000E+00
         0.00000E+00
         0.00000E+00
         0.00000E+00
         0.00000E+00
         0.00000E+00
         0.00000E+00
         0.00000E+00
         0.00000E+00
         0.00000E+00
         0.00000E+00
         0.00000E+00
         0.00000E+00
         0.00000E+00
         0.00000E+00
         0.00000E+00
         0.00000E+00
         0.00000E+00
         0.00000E+00
         0.00000E+00
         0.00000E+00
         0.00000E+00
         0.00000E+00
         0.00000E+00
         0.00000E+00
         0.00000E+00
         0.00000E+00
         0.00000E+00
         0.00000E+00
         0.00000E+00
         0.00000E+00
         0.00000E+00
         0.00000E+00
         0.00000E+00
         0.00000E+00
         0.00000E+00
         0.00000E+00
         0.00000E+00
         0.00000E+00
         0.00000E+00
         0.00000E+00
         0.00000E+00
         0.00000E+00
         0.00000E+00
         0.00000E+00
         0.00000E+00
         0.00000E+00
         0.00000E+00
         0.00000E+00
         0.00000E+00
         0.00000E+00
         0.00000E+00
         0.00000E+00
         0.00000E+00
         0.00000E+00
         0.00000E+00
         0.00000E+00
         0.00000E+00
         0.00000E+00
         0.00000E+00
         0.00000E+00
         0.00000E+00
         0.00000E+00
         0.00000E+00
         0.00000E+00
         0.00000E+00
         0.00000E+00
         0.00000E+00
         0.00000E+00
         0.00000E+00
         0.00000E+00
         0.00000E+00
         0.00000E+00
         0.00000E+00
         0.00000E+00
         0.00000E+00
         0.00000E+00
         0.00000E+00
         0.00000E+00
         0.00000E+00
         0.00000E+00
         0.00000E+00
         0.00000E+00
         0.00000E+00
         0.00000E+00
         0.00000E+00
         0.00000E+00
         0.00000E+00
         0.00000E+00
         0.00000E+00
         0.00000E+00
         0.00000E+00
         0.00000E+00
         0.00000E+00
         0.00000E+00
         0.00000E+00
         0.00000E+00
         0.00000E+00
         0.00000E+00
         0.00000E+00
         0.00000E+00
         0.00000E+00
         0.00000E+00
         0.00000E+00
         0.00000E+00
         0.00000E+00
         0.00000E+00
         0.00000E+00
         0.00000E+00
         0.00000E+00
         0.00000E+00
         0.00000E+00
         0.00000E+00
         0.00000E+00
         0.00000E+00
         0.00000E+00
         0.00000E+00
         0.00000E+00
         0.00000E+00
         0.00000E+00
         0.00000E+00
         0.00000E+00
         0.00000E+00
         0.00000E+00
         0.00000E+00
         0.00000E+00
         0.00000E+00
         0.00000E+00
         0.00000E+00
         0.00000E+00
         0.00000E+00
         0.00000E+00
         0.00000E+00
         0.00000E+00
         0.00000E+00
         0.00000E+00
         0.00000E+00
         0.00000E+00
         0.00000E+00
         0.00000E+00
         0.00000E+00
         0.00000E+00
         0.00000E+00
         0.00000E+00
         0.00000E+00
         0.00000E+00
         0.00000E+00
         0.00000E+00
         0.00000E+00
         0.00000E+00
         0.00000E+00
         0.00000E+00
         0.00000E+00
         0.00000E+00
         0.00000E+00
         0.00000E+00
         0.00000E+00
         0.00000E+00
         0.00000E+00
         0.00000E+00
         0.00000E+00
         0.00000E+00
         0.00000E+00
         0.00000E+00
         0.00000E+00
         0.00000E+00
         0.00000E+00
         0.00000E+00
         0.00000E+00
         0.00000E+00
         0.00000E+00
         0.00000E+00
         0.00000E+00
         0.00000E+00
         0.00000E+00
         0.00000E+00
         0.00000E+00
         0.00000E+00
         0.00000E+00
         0.00000E+00
         0.00000E+00
         0.00000E+00
         0.00000E+00
         0.00000E+00
         0.00000E+00
         0.00000E+00
         0.00000E+00
         0.00000E+00
         0.00000E+00
         0.00000E+00
         0.00000E+00
         0.00000E+00
         0.00000E+00
         0.00000E+00
         0.00000E+00
         0.00000E+00
         0.00000E+00
         0.00000E+00
         0.00000E+00
         0.00000E+00
         0.00000E+00
         0.00000E+00
         0.00000E+00
         0.00000E+00
         0.00000E+00
         0.00000E+00
         0.00000E+00
         0.00000E+00
         0.00000E+00
         0.00000E+00
         0.00000E+00
         0.00000E+00
         0.00000E+00
         0.00000E+00
         0.00000E+00
         0.00000E+00
         0.00000E+00
         0.00000E+00
         0.00000E+00
         0.00000E+00
         0.00000E+00
         0.00000E+00
         0.00000E+00
         0.00000E+00
         0.00000E+00
         0.00000E+00
         0.00000E+00
         0.00000E+00
         0.00000E+00
         0.00000E+00
         0.00000E+00
         0.00000E+00
         0.00000E+00
         0.00000E+00
         0.00000E+00
         0.00000E+00
         0.00000E+00
         0.00000E+00
         0.00000E+00
         0.00000E+00
         0.00000E+00
         0.00000E+00
         0.00000E+00
         0.00000E+00
         0.00000E+00
         0.00000E+00
         0.00000E+00
         0.00000E+00
         0.00000E+00
         0.00000E+00
         0.00000E+00
         0.00000E+00
         0.00000E+00
         0.00000E+00
         0.00000E+00
         0.00000E+00
         0.00000E+00
         0.00000E+00
         0.00000E+00
         0.00000E+00
         0.00000E+00
         0.00000E+00
         0.00000E+00
         0.00000E+00
         0.00000E+00
         0.00000E+00
         0.00000E+00
         0.00000E+00
         0.00000E+00
         0.00000E+00
         0.00000E+00
         0.00000E+00
         0.00000E+00
         0.00000E+00
         0.00000E+00
         0.00000E+00
         0.00000E+00
         0.00000E+00
         0.00000E+00
         0.00000E+00
         0.00000E+00
         0.00000E+00
         0.00000E+00
         0.00000E+00
         0.00000E+00
         0.00000E+00
         0.00000E+00
         0.00000E+00
         0.00000E+00
         0.00000E+00
         0.00000E+00
         0.00000E+00
         0.00000E+00
         0.00000E+00
         0.00000E+00
         0.00000E+00
         0.00000E+00
         0.00000E+00
         0.00000E+00
         0.00000E+00
         0.00000E+00
         0.00000E+00
         0.00000E+00
         0.00000E+00
         0.00000E+00
         0.00000E+00
         0.00000E+00
         0.00000E+00
         0.00000E+00
         0.00000E+00
         0.00000E+00
         0.00000E+00
         0.00000E+00
         0.00000E+00
         0.00000E+00
         0.00000E+00
         0.00000E+00
         0.00000E+00
         0.00000E+00
         0.00000E+00
         0.00000E+00
         0.00000E+00
         0.00000E+00
         0.00000E+00
         0.00000E+00
         0.00000E+00
         0.00000E+00
         0.00000E+00
         0.00000E+00
         0.00000E+00
         0.00000E+00
         0.00000E+00
         0.00000E+00
         0.00000E+00
         0.00000E+00
         0.00000E+00
         0.00000E+00
         0.00000E+00
         0.00000E+00
         0.00000E+00
         0.00000E+00
         0.00000E+00
         0.00000E+00
         0.00000E+00
         0.00000E+00
         0.00000E+00
         0.00000E+00
         0.00000E+00
         0.00000E+00
         0.00000E+00
         0.00000E+00
         0.00000E+00
         0.00000E+00
         0.00000E+00
         0.00000E+00
         0.00000E+00
         0.00000E+00
         0.00000E+00
         0.00000E+00
         0.00000E+00
         0.00000E+00
         0.00000E+00
         0.00000E+00
         0.00000E+00
         0.00000E+00
         0.00000E+00
         0.00000E+00
         0.00000E+00
         0.00000E+00
         0.00000E+00
         0.00000E+00
         0.00000E+00
         0.00000E+00
         0.00000E+00
         0.00000E+00
         0.00000E+00
         0.00000E+00
         0.00000E+00
         0.00000E+00
         0.00000E+00
         0.00000E+00
         0.00000E+00
         0.00000E+00
         0.00000E+00
         0.00000E+00
         0.00000E+00
         0.00000E+00
         0.00000E+00
         0.00000E+00
         0.00000E+00
         0.00000E+00
         0.00000E+00
         0.00000E+00
         0.00000E+00
         0.00000E+00
         0.00000E+00
         0.00000E+00
         0.00000E+00
         0.00000E+00
         0.00000E+00
         0.00000E+00
         0.00000E+00
         0.00000E+00
         0.00000E+00
         0.00000E+00
         0.00000E+00
         0.00000E+00
         0.00000E+00
         0.00000E+00
         0.00000E+00
         0.00000E+00
         0.00000E+00
         0.00000E+00
         0.00000E+00
         0.00000E+00
         0.00000E+00
         0.00000E+00
         0.00000E+00
         0.00000E+00
         0.00000E+00
         0.00000E+00
         0.00000E+00
         0.00000E+00
         0.00000E+00
         0.00000E+00
         0.00000E+00
         0.00000E+00
         0.00000E+00
         0.00000E+00
         0.00000E+00
         0.00000E+00
         0.00000E+00
         0.00000E+00
         0.00000E+00
         0.00000E+00
         0.00000E+00
         0.00000E+00
         0.00000E+00
         0.00000E+00
         0.00000E+00
         0.00000E+00
         0.00000E+00
         0.00000E+00
         0.00000E+00
         0.00000E+00
         0.00000E+00
         0.00000E+00
         0.00000E+00
         0.00000E+00
         0.00000E+00
         0.00000E+00
         0.00000E+00
         0.00000E+00
         0.00000E+00
         0.00000E+00
         0.00000E+00
         0.00000E+00
         0.00000E+00
         0.00000E+00
         0.00000E+00
         0.00000E+00
         0.00000E+00
         0.00000E+00
         0.00000E+00
         0.00000E+00
         0.00000E+00
         0.00000E+00
         0.00000E+00
         0.00000E+00
         0.00000E+00
         0.00000E+00
         0.00000E+00
         0.00000E+00
         0.00000E+00
         0.00000E+00
         0.00000E+00
         0.00000E+00
         0.00000E+00
         0.00000E+00
         0.00000E+00
         0.00000E+00
         0.00000E+00
         0.00000E+00
         0.00000E+00
         0.00000E+00
         0.00000E+00
         0.00000E+00
         0.00000E+00
         0.00000E+00
         0.00000E+00
         0.00000E+00
         0.00000E+00
         0.00000E+00
         0.00000E+00
         0.00000E+00
         0.00000E+00
         0.00000E+00
         0.00000E+00
         0.00000E+00
         0.00000E+00
         0.00000E+00
         0.00000E+00
         0.00000E+00
         0.00000E+00
         0.00000E+00
         0.00000E+00
         0.00000E+00
         0.00000E+00
         0.00000E+00
         0.00000E+00
         0.00000E+00
         0.00000E+00
         0.00000E+00
         0.00000E+00
         0.00000E+00
         0.00000E+00
         0.00000E+00
         0.00000E+00
         0.00000E+00
         0.00000E+00
         0.00000E+00
         0.00000E+00
         0.00000E+00
         0.00000E+00
         0.00000E+00
         0.00000E+00
         0.00000E+00
         0.00000E+00
         0.00000E+00
         0.00000E+00
         0.00000E+00
         0.00000E+00
         0.00000E+00
         0.00000E+00
         0.00000E+00
         0.00000E+00
         0.00000E+00
         0.00000E+00
         0.00000E+00
         0.00000E+00
         0.00000E+00
         0.00000E+00
         0.00000E+00
         0.00000E+00
         0.00000E+00
         0.00000E+00
         0.00000E+00
         0.00000E+00
         0.00000E+00
         0.00000E+00
         0.00000E+00
         0.00000E+00
         0.00000E+00
         0.00000E+00
         0.00000E+00
         0.00000E+00
         0.00000E+00
         0.00000E+00
         0.00000E+00
         0.00000E+00
         0.00000E+00
         0.00000E+00
         0.00000E+00
         0.00000E+00
         0.00000E+00
         0.00000E+00
         0.00000E+00
         0.00000E+00
         0.00000E+00
         0.00000E+00
         0.00000E+00
         0.00000E+00
         0.00000E+00
         0.00000E+00
         0.00000E+00
         0.00000E+00
         0.00000E+00
         0.00000E+00
         0.00000E+00
         0.00000E+00
         0.00000E+00
         0.00000E+00
         0.00000E+00
         0.00000E+00
         0.00000E+00
         0.00000E+00
         0.00000E+00
         0.00000E+00
         0.00000E+00
         0.00000E+00
         0.00000E+00
         0.00000E+00
         0.00000E+00
         0.00000E+00
         0.00000E+00
         0.00000E+00
         0.00000E+00
         0.00000E+00
         0.00000E+00
         0.00000E+00
         0.00000E+00
         0.00000E+00
         0.00000E+00
         0.00000E+00
         0.00000E+00
         0.00000E+00
         0.00000E+00
         0.00000E+00
         0.00000E+00
         0.00000E+00
         0.00000E+00
         0.00000E+00
         0.00000E+00
         0.00000E+00
         0.00000E+00
         0.00000E+00
         0.00000E+00
         0.00000E+00
         0.00000E+00
         0.00000E+00
         0.00000E+00
         0.00000E+00
         0.00000E+00
         0.00000E+00
         0.00000E+00
         0.00000E+00
         0.00000E+00
         0.00000E+00
         0.00000E+00
         0.00000E+00
         0.00000E+00
         0.00000E+00
         0.00000E+00
         0.00000E+00
         0.00000E+00
         0.00000E+00
         0.00000E+00
         0.00000E+00
         0.00000E+00
         0.00000E+00
         0.00000E+00
         0.00000E+00
         0.00000E+00
         0.00000E+00
         0.00000E+00
         0.00000E+00
         0.00000E+00
         0.00000E+00
         0.00000E+00
         0.00000E+00
         0.00000E+00
         0.00000E+00
         0.00000E+00
         0.00000E+00
         0.00000E+00
         0.00000E+00
         0.00000E+00
         0.00000E+00
         0.00000E+00
         0.00000E+00
         0.00000E+00
         0.00000E+00
         0.00000E+00
         0.00000E+00
         0.00000E+00
         0.00000E+00
         0.00000E+00
         0.00000E+00
         0.00000E+00
         0.00000E+00
         0.00000E+00
         0.00000E+00
         0.00000E+00
         0.00000E+00
         0.00000E+00
         0.00000E+00
         0.00000E+00
         0.00000E+00
         0.00000E+00
         0.00000E+00
         0.00000E+00
         0.00000E+00
         0.00000E+00
         0.00000E+00
         0.00000E+00
         0.00000E+00
         0.00000E+00
         0.00000E+00
         0.00000E+00
         0.00000E+00
         0.00000E+00
         0.00000E+00
         0.00000E+00
         0.00000E+00
         0.00000E+00
         0.00000E+00
         0.00000E+00
         0.00000E+00
         0.00000E+00
         0.00000E+00
         0.00000E+00
         0.00000E+00
         0.00000E+00
         0.00000E+00
         0.00000E+00
         0.00000E+00
         0.00000E+00
         0.00000E+00
         0.00000E+00
         0.00000E+00
         0.00000E+00
         0.00000E+00
         0.00000E+00
         0.00000E+00
         0.00000E+00
         0.00000E+00
         0.00000E+00
         0.00000E+00
         0.00000E+00
         0.00000E+00
         0.00000E+00
         0.00000E+00
         0.00000E+00
         0.00000E+00
         0.00000E+00
         0.00000E+00
         0.00000E+00
         0.00000E+00
         0.00000E+00
         0.00000E+00
         0.00000E+00
         0.00000E+00
         0.00000E+00
         0.00000E+00
         0.00000E+00
         0.00000E+00
         0.00000E+00
         0.00000E+00
         0.00000E+00
         0.00000E+00
         0.00000E+00
         0.00000E+00
         0.00000E+00
         0.00000E+00
         0.00000E+00
         0.00000E+00
         0.00000E+00
         0.00000E+00
         0.00000E+00
         0.00000E+00
         0.00000E+00
         0.00000E+00
         0.00000E+00
         0.00000E+00
         0.00000E+00
         0.00000E+00
         0.00000E+00
         0.00000E+00
         0.00000E+00
         0.00000E+00
         0.00000E+00
         0.00000E+00
         0.00000E+00
         0.00000E+00
         0.00000E+00
         0.00000E+00
         0.00000E+00
         0.00000E+00
         0.00000E+00
         0.00000E+00
         0.00000E+00
         0.00000E+00
         0.00000E+00
         0.00000E+00
         0.00000E+00
         0.00000E+00
         0.00000E+00
         0.00000E+00
         0.00000E+00
         0.00000E+00
         0.00000E+00
         0.00000E+00
         0.00000E+00
         0.00000E+00
         0.00000E+00
         0.00000E+00
         0.00000E+00
         0.00000E+00
         0.00000E+00
         0.00000E+00
         0.00000E+00
         0.00000E+00
         0.00000E+00
         0.00000E+00
         0.00000E+00
         0.00000E+00
         0.00000E+00
         0.00000E+00
         0.00000E+00
         0.00000E+00
         0.00000E+00
         0.00000E+00
         0.00000E+00
         0.00000E+00
         0.00000E+00
         0.00000E+00
         0.00000E+00
         0.00000E+00
         0.00000E+00
         0.00000E+00
         0.00000E+00
         0.00000E+00
         0.00000E+00
         0.00000E+00
         0.00000E+00
         0.00000E+00
         0.00000E+00
         0.00000E+00
         0.00000E+00
         0.00000E+00
         0.00000E+00
         0.00000E+00
         0.00000E+00
         0.00000E+00
         0.00000E+00
         0.00000E+00
         0.00000E+00
         0.00000E+00
         0.00000E+00
         0.00000E+00
         0.00000E+00
         0.00000E+00
         0.00000E+00
         0.00000E+00
         0.00000E+00
         0.00000E+00
         0.00000E+00
         0.00000E+00
         0.00000E+00
         0.00000E+00
         0.00000E+00
         0.00000E+00
         0.00000E+00
         0.00000E+00
         0.00000E+00
         0.00000E+00
         0.00000E+00
         0.00000E+00
         0.00000E+00
         0.00000E+00
         0.00000E+00
         0.00000E+00
         0.00000E+00
         0.00000E+00
         0.00000E+00
         0.00000E+00
         0.00000E+00
         0.00000E+00
         0.00000E+00
         0.00000E+00
         0.00000E+00
         0.00000E+00
         0.00000E+00
         0.00000E+00
         0.00000E+00
         0.00000E+00
         0.00000E+00
         0.00000E+00
         0.00000E+00
         0.00000E+00
         0.00000E+00
         0.00000E+00
         0.00000E+00
         0.00000E+00
         0.00000E+00
         0.00000E+00
         0.00000E+00
         0.00000E+00
         0.00000E+00
         0.00000E+00
         0.00000E+00
         0.00000E+00
         0.00000E+00
         0.00000E+00
         0.00000E+00
         0.00000E+00
         0.00000E+00
         0.00000E+00
         0.00000E+00
         0.00000E+00
         0.00000E+00
         0.00000E+00
         0.00000E+00
         0.00000E+00
         0.00000E+00
         0.00000E+00
         0.00000E+00
         0.00000E+00
         0.00000E+00
         0.00000E+00
         0.00000E+00
         0.00000E+00
         0.00000E+00
         0.00000E+00
         0.00000E+00
         0.00000E+00
         0.00000E+00
         0.00000E+00
         0.00000E+00
         0.00000E+00
         0.00000E+00
         0.00000E+00
         0.00000E+00
         0.00000E+00
         0.00000E+00
         0.00000E+00
         0.00000E+00
         0.00000E+00
         0.00000E+00
         0.00000E+00
         0.00000E+00
         0.00000E+00
         0.00000E+00
         0.00000E+00
         0.00000E+00
         0.00000E+00
         0.00000E+00
         0.00000E+00
         0.00000E+00
         0.00000E+00
         0.00000E+00
         0.00000E+00
         0.00000E+00
         0.00000E+00
         0.00000E+00
         0.00000E+00
         0.00000E+00
         0.00000E+00
         0.00000E+00
         0.00000E+00
         0.00000E+00
         0.00000E+00
         0.00000E+00
         0.00000E+00
         0.00000E+00
         0.00000E+00
         0.00000E+00
         0.00000E+00
         0.00000E+00
         0.00000E+00
         0.00000E+00
         0.00000E+00
         0.00000E+00
         0.00000E+00
         0.00000E+00
         0.00000E+00
         0.00000E+00
         0.00000E+00
         0.00000E+00
         0.00000E+00
         0.00000E+00
         0.00000E+00
         0.00000E+00
         0.00000E+00
         0.00000E+00
         0.00000E+00
  
SCALARS                init_velocity_z  double 1
LOOKUP_TABLE default
        -0.37300E+03
        -0.37300E+03
        -0.37300E+03
        -0.37300E+03
        -0.37300E+03
        -0.37300E+03
        -0.37300E+03
        -0.37300E+03
        -0.37300E+03
        -0.37300E+03
        -0.37300E+03
        -0.37300E+03
        -0.37300E+03
        -0.37300E+03
        -0.37300E+03
        -0.37300E+03
        -0.37300E+03
        -0.37300E+03
        -0.37300E+03
        -0.37300E+03
        -0.37300E+03
        -0.37300E+03
        -0.37300E+03
        -0.37300E+03
        -0.37300E+03
        -0.37300E+03
        -0.37300E+03
        -0.37300E+03
        -0.37300E+03
        -0.37300E+03
        -0.37300E+03
        -0.37300E+03
        -0.37300E+03
        -0.37300E+03
        -0.37300E+03
        -0.37300E+03
        -0.37300E+03
        -0.37300E+03
        -0.37300E+03
        -0.37300E+03
        -0.37300E+03
        -0.37300E+03
        -0.37300E+03
        -0.37300E+03
        -0.37300E+03
        -0.37300E+03
        -0.37300E+03
        -0.37300E+03
        -0.37300E+03
        -0.37300E+03
        -0.37300E+03
        -0.37300E+03
        -0.37300E+03
        -0.37300E+03
        -0.37300E+03
        -0.37300E+03
        -0.37300E+03
        -0.37300E+03
        -0.37300E+03
        -0.37300E+03
        -0.37300E+03
        -0.37300E+03
        -0.37300E+03
        -0.37300E+03
        -0.37300E+03
        -0.37300E+03
        -0.37300E+03
        -0.37300E+03
        -0.37300E+03
        -0.37300E+03
        -0.37300E+03
        -0.37300E+03
        -0.37300E+03
        -0.37300E+03
        -0.37300E+03
        -0.37300E+03
        -0.37300E+03
        -0.37300E+03
        -0.37300E+03
        -0.37300E+03
        -0.37300E+03
        -0.37300E+03
        -0.37300E+03
        -0.37300E+03
        -0.37300E+03
        -0.37300E+03
        -0.37300E+03
        -0.37300E+03
        -0.37300E+03
        -0.37300E+03
        -0.37300E+03
        -0.37300E+03
        -0.37300E+03
        -0.37300E+03
        -0.37300E+03
        -0.37300E+03
        -0.37300E+03
        -0.37300E+03
        -0.37300E+03
        -0.37300E+03
        -0.37300E+03
        -0.37300E+03
        -0.37300E+03
        -0.37300E+03
        -0.37300E+03
        -0.37300E+03
        -0.37300E+03
        -0.37300E+03
        -0.37300E+03
        -0.37300E+03
        -0.37300E+03
        -0.37300E+03
        -0.37300E+03
        -0.37300E+03
        -0.37300E+03
        -0.37300E+03
        -0.37300E+03
        -0.37300E+03
        -0.37300E+03
        -0.37300E+03
        -0.37300E+03
        -0.37300E+03
        -0.37300E+03
        -0.37300E+03
        -0.37300E+03
        -0.37300E+03
        -0.37300E+03
        -0.37300E+03
        -0.37300E+03
        -0.37300E+03
        -0.37300E+03
        -0.37300E+03
        -0.37300E+03
        -0.37300E+03
        -0.37300E+03
        -0.37300E+03
        -0.37300E+03
        -0.37300E+03
        -0.37300E+03
        -0.37300E+03
        -0.37300E+03
        -0.37300E+03
        -0.37300E+03
        -0.37300E+03
        -0.37300E+03
        -0.37300E+03
        -0.37300E+03
        -0.37300E+03
        -0.37300E+03
        -0.37300E+03
        -0.37300E+03
        -0.37300E+03
        -0.37300E+03
        -0.37300E+03
        -0.37300E+03
        -0.37300E+03
        -0.37300E+03
        -0.37300E+03
        -0.37300E+03
        -0.37300E+03
        -0.37300E+03
        -0.37300E+03
        -0.37300E+03
        -0.37300E+03
        -0.37300E+03
        -0.37300E+03
        -0.37300E+03
        -0.37300E+03
        -0.37300E+03
        -0.37300E+03
        -0.37300E+03
        -0.37300E+03
        -0.37300E+03
        -0.37300E+03
        -0.37300E+03
        -0.37300E+03
        -0.37300E+03
        -0.37300E+03
        -0.37300E+03
        -0.37300E+03
        -0.37300E+03
        -0.37300E+03
        -0.37300E+03
        -0.37300E+03
        -0.37300E+03
        -0.37300E+03
        -0.37300E+03
        -0.37300E+03
        -0.37300E+03
        -0.37300E+03
        -0.37300E+03
        -0.37300E+03
        -0.37300E+03
        -0.37300E+03
        -0.37300E+03
        -0.37300E+03
        -0.37300E+03
        -0.37300E+03
        -0.37300E+03
        -0.37300E+03
        -0.37300E+03
        -0.37300E+03
        -0.37300E+03
        -0.37300E+03
        -0.37300E+03
        -0.37300E+03
        -0.37300E+03
        -0.37300E+03
        -0.37300E+03
        -0.37300E+03
        -0.37300E+03
        -0.37300E+03
        -0.37300E+03
        -0.37300E+03
        -0.37300E+03
        -0.37300E+03
        -0.37300E+03
        -0.37300E+03
        -0.37300E+03
        -0.37300E+03
        -0.37300E+03
        -0.37300E+03
        -0.37300E+03
        -0.37300E+03
        -0.37300E+03
        -0.37300E+03
        -0.37300E+03
        -0.37300E+03
        -0.37300E+03
        -0.37300E+03
        -0.37300E+03
        -0.37300E+03
        -0.37300E+03
        -0.37300E+03
        -0.37300E+03
        -0.37300E+03
        -0.37300E+03
        -0.37300E+03
        -0.37300E+03
        -0.37300E+03
        -0.37300E+03
        -0.37300E+03
        -0.37300E+03
        -0.37300E+03
        -0.37300E+03
        -0.37300E+03
        -0.37300E+03
        -0.37300E+03
        -0.37300E+03
        -0.37300E+03
        -0.37300E+03
        -0.37300E+03
        -0.37300E+03
        -0.37300E+03
        -0.37300E+03
        -0.37300E+03
        -0.37300E+03
        -0.37300E+03
        -0.37300E+03
        -0.37300E+03
        -0.37300E+03
        -0.37300E+03
        -0.37300E+03
        -0.37300E+03
        -0.37300E+03
        -0.37300E+03
        -0.37300E+03
        -0.37300E+03
        -0.37300E+03
        -0.37300E+03
        -0.37300E+03
        -0.37300E+03
        -0.37300E+03
        -0.37300E+03
        -0.37300E+03
        -0.37300E+03
        -0.37300E+03
        -0.37300E+03
        -0.37300E+03
        -0.37300E+03
        -0.37300E+03
        -0.37300E+03
        -0.37300E+03
        -0.37300E+03
        -0.37300E+03
        -0.37300E+03
        -0.37300E+03
        -0.37300E+03
        -0.37300E+03
        -0.37300E+03
        -0.37300E+03
        -0.37300E+03
        -0.37300E+03
        -0.37300E+03
        -0.37300E+03
        -0.37300E+03
        -0.37300E+03
        -0.37300E+03
        -0.37300E+03
        -0.37300E+03
        -0.37300E+03
        -0.37300E+03
        -0.37300E+03
        -0.37300E+03
        -0.37300E+03
        -0.37300E+03
        -0.37300E+03
        -0.37300E+03
        -0.37300E+03
        -0.37300E+03
        -0.37300E+03
        -0.37300E+03
        -0.37300E+03
        -0.37300E+03
        -0.37300E+03
        -0.37300E+03
        -0.37300E+03
        -0.37300E+03
        -0.37300E+03
        -0.37300E+03
        -0.37300E+03
        -0.37300E+03
        -0.37300E+03
        -0.37300E+03
        -0.37300E+03
        -0.37300E+03
        -0.37300E+03
        -0.37300E+03
        -0.37300E+03
        -0.37300E+03
        -0.37300E+03
        -0.37300E+03
        -0.37300E+03
        -0.37300E+03
        -0.37300E+03
        -0.37300E+03
        -0.37300E+03
        -0.37300E+03
        -0.37300E+03
        -0.37300E+03
        -0.37300E+03
        -0.37300E+03
        -0.37300E+03
        -0.37300E+03
        -0.37300E+03
        -0.37300E+03
        -0.37300E+03
        -0.37300E+03
        -0.37300E+03
        -0.37300E+03
        -0.37300E+03
        -0.37300E+03
        -0.37300E+03
        -0.37300E+03
        -0.37300E+03
        -0.37300E+03
        -0.37300E+03
        -0.37300E+03
        -0.37300E+03
        -0.37300E+03
        -0.37300E+03
        -0.37300E+03
        -0.37300E+03
        -0.37300E+03
        -0.37300E+03
        -0.37300E+03
        -0.37300E+03
        -0.37300E+03
        -0.37300E+03
        -0.37300E+03
        -0.37300E+03
        -0.37300E+03
        -0.37300E+03
        -0.37300E+03
        -0.37300E+03
        -0.37300E+03
        -0.37300E+03
        -0.37300E+03
        -0.37300E+03
        -0.37300E+03
        -0.37300E+03
        -0.37300E+03
        -0.37300E+03
        -0.37300E+03
        -0.37300E+03
        -0.37300E+03
        -0.37300E+03
        -0.37300E+03
        -0.37300E+03
        -0.37300E+03
        -0.37300E+03
        -0.37300E+03
        -0.37300E+03
        -0.37300E+03
        -0.37300E+03
        -0.37300E+03
        -0.37300E+03
        -0.37300E+03
        -0.37300E+03
        -0.37300E+03
        -0.37300E+03
        -0.37300E+03
        -0.37300E+03
        -0.37300E+03
        -0.37300E+03
        -0.37300E+03
        -0.37300E+03
        -0.37300E+03
        -0.37300E+03
        -0.37300E+03
        -0.37300E+03
        -0.37300E+03
        -0.37300E+03
        -0.37300E+03
        -0.37300E+03
        -0.37300E+03
        -0.37300E+03
        -0.37300E+03
        -0.37300E+03
        -0.37300E+03
        -0.37300E+03
        -0.37300E+03
        -0.37300E+03
        -0.37300E+03
        -0.37300E+03
        -0.37300E+03
        -0.37300E+03
        -0.37300E+03
        -0.37300E+03
        -0.37300E+03
        -0.37300E+03
        -0.37300E+03
        -0.37300E+03
        -0.37300E+03
        -0.37300E+03
        -0.37300E+03
        -0.37300E+03
        -0.37300E+03
        -0.37300E+03
        -0.37300E+03
        -0.37300E+03
        -0.37300E+03
        -0.37300E+03
        -0.37300E+03
        -0.37300E+03
        -0.37300E+03
        -0.37300E+03
        -0.37300E+03
        -0.37300E+03
        -0.37300E+03
        -0.37300E+03
        -0.37300E+03
        -0.37300E+03
        -0.37300E+03
        -0.37300E+03
        -0.37300E+03
        -0.37300E+03
        -0.37300E+03
        -0.37300E+03
        -0.37300E+03
        -0.37300E+03
        -0.37300E+03
        -0.37300E+03
        -0.37300E+03
        -0.37300E+03
        -0.37300E+03
        -0.37300E+03
        -0.37300E+03
        -0.37300E+03
        -0.37300E+03
        -0.37300E+03
        -0.37300E+03
        -0.37300E+03
        -0.37300E+03
        -0.37300E+03
        -0.37300E+03
        -0.37300E+03
        -0.37300E+03
        -0.37300E+03
        -0.37300E+03
        -0.37300E+03
        -0.37300E+03
        -0.37300E+03
        -0.37300E+03
        -0.37300E+03
        -0.37300E+03
        -0.37300E+03
        -0.37300E+03
        -0.37300E+03
        -0.37300E+03
        -0.37300E+03
        -0.37300E+03
        -0.37300E+03
        -0.37300E+03
        -0.37300E+03
        -0.37300E+03
        -0.37300E+03
        -0.37300E+03
        -0.37300E+03
        -0.37300E+03
        -0.37300E+03
        -0.37300E+03
        -0.37300E+03
        -0.37300E+03
        -0.37300E+03
        -0.37300E+03
        -0.37300E+03
        -0.37300E+03
        -0.37300E+03
        -0.37300E+03
        -0.37300E+03
        -0.37300E+03
        -0.37300E+03
        -0.37300E+03
        -0.37300E+03
        -0.37300E+03
        -0.37300E+03
        -0.37300E+03
        -0.37300E+03
        -0.37300E+03
        -0.37300E+03
        -0.37300E+03
        -0.37300E+03
        -0.37300E+03
        -0.37300E+03
        -0.37300E+03
        -0.37300E+03
        -0.37300E+03
        -0.37300E+03
        -0.37300E+03
        -0.37300E+03
        -0.37300E+03
        -0.37300E+03
        -0.37300E+03
        -0.37300E+03
        -0.37300E+03
        -0.37300E+03
        -0.37300E+03
        -0.37300E+03
        -0.37300E+03
        -0.37300E+03
        -0.37300E+03
        -0.37300E+03
        -0.37300E+03
        -0.37300E+03
        -0.37300E+03
        -0.37300E+03
        -0.37300E+03
        -0.37300E+03
        -0.37300E+03
        -0.37300E+03
        -0.37300E+03
        -0.37300E+03
        -0.37300E+03
        -0.37300E+03
        -0.37300E+03
        -0.37300E+03
        -0.37300E+03
        -0.37300E+03
        -0.37300E+03
        -0.37300E+03
        -0.37300E+03
        -0.37300E+03
        -0.37300E+03
        -0.37300E+03
        -0.37300E+03
        -0.37300E+03
        -0.37300E+03
        -0.37300E+03
        -0.37300E+03
        -0.37300E+03
        -0.37300E+03
        -0.37300E+03
        -0.37300E+03
        -0.37300E+03
        -0.37300E+03
        -0.37300E+03
        -0.37300E+03
        -0.37300E+03
        -0.37300E+03
        -0.37300E+03
        -0.37300E+03
        -0.37300E+03
        -0.37300E+03
        -0.37300E+03
        -0.37300E+03
        -0.37300E+03
        -0.37300E+03
        -0.37300E+03
        -0.37300E+03
        -0.37300E+03
        -0.37300E+03
        -0.37300E+03
        -0.37300E+03
        -0.37300E+03
        -0.37300E+03
        -0.37300E+03
        -0.37300E+03
        -0.37300E+03
        -0.37300E+03
        -0.37300E+03
        -0.37300E+03
        -0.37300E+03
        -0.37300E+03
        -0.37300E+03
        -0.37300E+03
        -0.37300E+03
        -0.37300E+03
        -0.37300E+03
        -0.37300E+03
        -0.37300E+03
        -0.37300E+03
        -0.37300E+03
        -0.37300E+03
        -0.37300E+03
        -0.37300E+03
        -0.37300E+03
        -0.37300E+03
        -0.37300E+03
        -0.37300E+03
        -0.37300E+03
        -0.37300E+03
        -0.37300E+03
        -0.37300E+03
        -0.37300E+03
        -0.37300E+03
        -0.37300E+03
        -0.37300E+03
        -0.37300E+03
        -0.37300E+03
        -0.37300E+03
        -0.37300E+03
        -0.37300E+03
        -0.37300E+03
        -0.37300E+03
        -0.37300E+03
        -0.37300E+03
        -0.37300E+03
        -0.37300E+03
        -0.37300E+03
        -0.37300E+03
        -0.37300E+03
        -0.37300E+03
        -0.37300E+03
        -0.37300E+03
        -0.37300E+03
        -0.37300E+03
        -0.37300E+03
        -0.37300E+03
        -0.37300E+03
        -0.37300E+03
        -0.37300E+03
        -0.37300E+03
        -0.37300E+03
        -0.37300E+03
        -0.37300E+03
        -0.37300E+03
        -0.37300E+03
        -0.37300E+03
        -0.37300E+03
        -0.37300E+03
        -0.37300E+03
        -0.37300E+03
        -0.37300E+03
        -0.37300E+03
        -0.37300E+03
        -0.37300E+03
        -0.37300E+03
        -0.37300E+03
        -0.37300E+03
        -0.37300E+03
        -0.37300E+03
        -0.37300E+03
        -0.37300E+03
        -0.37300E+03
        -0.37300E+03
        -0.37300E+03
        -0.37300E+03
        -0.37300E+03
        -0.37300E+03
        -0.37300E+03
        -0.37300E+03
        -0.37300E+03
        -0.37300E+03
        -0.37300E+03
        -0.37300E+03
        -0.37300E+03
        -0.37300E+03
        -0.37300E+03
        -0.37300E+03
        -0.37300E+03
        -0.37300E+03
        -0.37300E+03
        -0.37300E+03
        -0.37300E+03
        -0.37300E+03
        -0.37300E+03
        -0.37300E+03
        -0.37300E+03
        -0.37300E+03
        -0.37300E+03
        -0.37300E+03
        -0.37300E+03
        -0.37300E+03
        -0.37300E+03
        -0.37300E+03
        -0.37300E+03
        -0.37300E+03
        -0.37300E+03
        -0.37300E+03
        -0.37300E+03
        -0.37300E+03
        -0.37300E+03
        -0.37300E+03
        -0.37300E+03
        -0.37300E+03
        -0.37300E+03
        -0.37300E+03
        -0.37300E+03
        -0.37300E+03
        -0.37300E+03
        -0.37300E+03
        -0.37300E+03
        -0.37300E+03
        -0.37300E+03
        -0.37300E+03
        -0.37300E+03
        -0.37300E+03
        -0.37300E+03
        -0.37300E+03
        -0.37300E+03
        -0.37300E+03
        -0.37300E+03
        -0.37300E+03
        -0.37300E+03
        -0.37300E+03
        -0.37300E+03
        -0.37300E+03
        -0.37300E+03
        -0.37300E+03
        -0.37300E+03
        -0.37300E+03
        -0.37300E+03
        -0.37300E+03
        -0.37300E+03
        -0.37300E+03
        -0.37300E+03
        -0.37300E+03
        -0.37300E+03
        -0.37300E+03
        -0.37300E+03
        -0.37300E+03
        -0.37300E+03
        -0.37300E+03
        -0.37300E+03
        -0.37300E+03
        -0.37300E+03
        -0.37300E+03
        -0.37300E+03
        -0.37300E+03
        -0.37300E+03
        -0.37300E+03
        -0.37300E+03
        -0.37300E+03
        -0.37300E+03
        -0.37300E+03
        -0.37300E+03
        -0.37300E+03
        -0.37300E+03
        -0.37300E+03
        -0.37300E+03
        -0.37300E+03
        -0.37300E+03
        -0.37300E+03
        -0.37300E+03
        -0.37300E+03
        -0.37300E+03
        -0.37300E+03
        -0.37300E+03
        -0.37300E+03
        -0.37300E+03
        -0.37300E+03
        -0.37300E+03
        -0.37300E+03
        -0.37300E+03
        -0.37300E+03
        -0.37300E+03
        -0.37300E+03
        -0.37300E+03
        -0.37300E+03
        -0.37300E+03
        -0.37300E+03
        -0.37300E+03
        -0.37300E+03
        -0.37300E+03
        -0.37300E+03
        -0.37300E+03
        -0.37300E+03
        -0.37300E+03
        -0.37300E+03
        -0.37300E+03
        -0.37300E+03
        -0.37300E+03
        -0.37300E+03
        -0.37300E+03
        -0.37300E+03
        -0.37300E+03
        -0.37300E+03
        -0.37300E+03
        -0.37300E+03
        -0.37300E+03
        -0.37300E+03
        -0.37300E+03
        -0.37300E+03
        -0.37300E+03
        -0.37300E+03
        -0.37300E+03
        -0.37300E+03
        -0.37300E+03
        -0.37300E+03
        -0.37300E+03
        -0.37300E+03
        -0.37300E+03
        -0.37300E+03
        -0.37300E+03
        -0.37300E+03
        -0.37300E+03
        -0.37300E+03
        -0.37300E+03
        -0.37300E+03
        -0.37300E+03
        -0.37300E+03
        -0.37300E+03
        -0.37300E+03
        -0.37300E+03
        -0.37300E+03
        -0.37300E+03
        -0.37300E+03
        -0.37300E+03
        -0.37300E+03
        -0.37300E+03
        -0.37300E+03
        -0.37300E+03
        -0.37300E+03
        -0.37300E+03
        -0.37300E+03
        -0.37300E+03
        -0.37300E+03
        -0.37300E+03
        -0.37300E+03
        -0.37300E+03
        -0.37300E+03
        -0.37300E+03
        -0.37300E+03
        -0.37300E+03
        -0.37300E+03
        -0.37300E+03
        -0.37300E+03
        -0.37300E+03
        -0.37300E+03
        -0.37300E+03
        -0.37300E+03
        -0.37300E+03
        -0.37300E+03
        -0.37300E+03
        -0.37300E+03
        -0.37300E+03
        -0.37300E+03
        -0.37300E+03
        -0.37300E+03
        -0.37300E+03
        -0.37300E+03
        -0.37300E+03
        -0.37300E+03
        -0.37300E+03
        -0.37300E+03
        -0.37300E+03
        -0.37300E+03
        -0.37300E+03
        -0.37300E+03
        -0.37300E+03
        -0.37300E+03
        -0.37300E+03
        -0.37300E+03
        -0.37300E+03
        -0.37300E+03
        -0.37300E+03
        -0.37300E+03
        -0.37300E+03
        -0.37300E+03
        -0.37300E+03
        -0.37300E+03
        -0.37300E+03
        -0.37300E+03
        -0.37300E+03
        -0.37300E+03
        -0.37300E+03
        -0.37300E+03
        -0.37300E+03
        -0.37300E+03
        -0.37300E+03
        -0.37300E+03
        -0.37300E+03
        -0.37300E+03
        -0.37300E+03
        -0.37300E+03
        -0.37300E+03
        -0.37300E+03
        -0.37300E+03
        -0.37300E+03
        -0.37300E+03
        -0.37300E+03
        -0.37300E+03
        -0.37300E+03
        -0.37300E+03
        -0.37300E+03
        -0.37300E+03
        -0.37300E+03
        -0.37300E+03
        -0.37300E+03
        -0.37300E+03
        -0.37300E+03
        -0.37300E+03
        -0.37300E+03
        -0.37300E+03
        -0.37300E+03
        -0.37300E+03
        -0.37300E+03
        -0.37300E+03
        -0.37300E+03
        -0.37300E+03
        -0.37300E+03
        -0.37300E+03
        -0.37300E+03
        -0.37300E+03
        -0.37300E+03
        -0.37300E+03
        -0.37300E+03
        -0.37300E+03
        -0.37300E+03
        -0.37300E+03
        -0.37300E+03
        -0.37300E+03
        -0.37300E+03
        -0.37300E+03
        -0.37300E+03
        -0.37300E+03
        -0.37300E+03
        -0.37300E+03
        -0.37300E+03
        -0.37300E+03
        -0.37300E+03
        -0.37300E+03
        -0.37300E+03
        -0.37300E+03
        -0.37300E+03
        -0.37300E+03
        -0.37300E+03
        -0.37300E+03
        -0.37300E+03
        -0.37300E+03
        -0.37300E+03
        -0.37300E+03
        -0.37300E+03
        -0.37300E+03
        -0.37300E+03
        -0.37300E+03
        -0.37300E+03
        -0.37300E+03
        -0.37300E+03
        -0.37300E+03
        -0.37300E+03
        -0.37300E+03
        -0.37300E+03
        -0.37300E+03
        -0.37300E+03
        -0.37300E+03
        -0.37300E+03
        -0.37300E+03
        -0.37300E+03
        -0.37300E+03
        -0.37300E+03
        -0.37300E+03
        -0.37300E+03
        -0.37300E+03
        -0.37300E+03
        -0.37300E+03
        -0.37300E+03
        -0.37300E+03
        -0.37300E+03
        -0.37300E+03
        -0.37300E+03
        -0.37300E+03
        -0.37300E+03
        -0.37300E+03
        -0.37300E+03
        -0.37300E+03
        -0.37300E+03
        -0.37300E+03
        -0.37300E+03
        -0.37300E+03
        -0.37300E+03
        -0.37300E+03
        -0.37300E+03
        -0.37300E+03
        -0.37300E+03
        -0.37300E+03
        -0.37300E+03
        -0.37300E+03
        -0.37300E+03
        -0.37300E+03
        -0.37300E+03
        -0.37300E+03
        -0.37300E+03
        -0.37300E+03
        -0.37300E+03
        -0.37300E+03
        -0.37300E+03
        -0.37300E+03
        -0.37300E+03
        -0.37300E+03
        -0.37300E+03
        -0.37300E+03
        -0.37300E+03
        -0.37300E+03
        -0.37300E+03
        -0.37300E+03
        -0.37300E+03
        -0.37300E+03
        -0.37300E+03
        -0.37300E+03
        -0.37300E+03
        -0.37300E+03
        -0.37300E+03
        -0.37300E+03
        -0.37300E+03
        -0.37300E+03
        -0.37300E+03
        -0.37300E+03
        -0.37300E+03
        -0.37300E+03
        -0.37300E+03
        -0.37300E+03
        -0.37300E+03
        -0.37300E+03
        -0.37300E+03
        -0.37300E+03
        -0.37300E+03
        -0.37300E+03
        -0.37300E+03
        -0.37300E+03
        -0.37300E+03
        -0.37300E+03
        -0.37300E+03
        -0.37300E+03
        -0.37300E+03
        -0.37300E+03
        -0.37300E+03
        -0.37300E+03
        -0.37300E+03
        -0.37300E+03
        -0.37300E+03
        -0.37300E+03
        -0.37300E+03
        -0.37300E+03
        -0.37300E+03
        -0.37300E+03
        -0.37300E+03
        -0.37300E+03
        -0.37300E+03
        -0.37300E+03
        -0.37300E+03
        -0.37300E+03
        -0.37300E+03
        -0.37300E+03
        -0.37300E+03
        -0.37300E+03
        -0.37300E+03
        -0.37300E+03
        -0.37300E+03
        -0.37300E+03
        -0.37300E+03
        -0.37300E+03
        -0.37300E+03
        -0.37300E+03
        -0.37300E+03
        -0.37300E+03
        -0.37300E+03
        -0.37300E+03
        -0.37300E+03
        -0.37300E+03
        -0.37300E+03
        -0.37300E+03
        -0.37300E+03
        -0.37300E+03
        -0.37300E+03
        -0.37300E+03
        -0.37300E+03
        -0.37300E+03
        -0.37300E+03
        -0.37300E+03
        -0.37300E+03
        -0.37300E+03
        -0.37300E+03
        -0.37300E+03
        -0.37300E+03
        -0.37300E+03
        -0.37300E+03
        -0.37300E+03
        -0.37300E+03
        -0.37300E+03
        -0.37300E+03
        -0.37300E+03
        -0.37300E+03
        -0.37300E+03
        -0.37300E+03
        -0.37300E+03
        -0.37300E+03
        -0.37300E+03
        -0.37300E+03
        -0.37300E+03
        -0.37300E+03
        -0.37300E+03
        -0.37300E+03
        -0.37300E+03
        -0.37300E+03
        -0.37300E+03
        -0.37300E+03
        -0.37300E+03
        -0.37300E+03
        -0.37300E+03
        -0.37300E+03
        -0.37300E+03
        -0.37300E+03
        -0.37300E+03
        -0.37300E+03
        -0.37300E+03
        -0.37300E+03
        -0.37300E+03
        -0.37300E+03
        -0.37300E+03
        -0.37300E+03
        -0.37300E+03
        -0.37300E+03
        -0.37300E+03
        -0.37300E+03
        -0.37300E+03
        -0.37300E+03
        -0.37300E+03
        -0.37300E+03
        -0.37300E+03
        -0.37300E+03
        -0.37300E+03
        -0.37300E+03
        -0.37300E+03
        -0.37300E+03
        -0.37300E+03
        -0.37300E+03
        -0.37300E+03
        -0.37300E+03
        -0.37300E+03
        -0.37300E+03
        -0.37300E+03
        -0.37300E+03
        -0.37300E+03
        -0.37300E+03
        -0.37300E+03
        -0.37300E+03
        -0.37300E+03
        -0.37300E+03
        -0.37300E+03
        -0.37300E+03
        -0.37300E+03
        -0.37300E+03
        -0.37300E+03
        -0.37300E+03
        -0.37300E+03
        -0.37300E+03
        -0.37300E+03
        -0.37300E+03
        -0.37300E+03
        -0.37300E+03
        -0.37300E+03
        -0.37300E+03
        -0.37300E+03
        -0.37300E+03
        -0.37300E+03
        -0.37300E+03
        -0.37300E+03
        -0.37300E+03
        -0.37300E+03
        -0.37300E+03
        -0.37300E+03
        -0.37300E+03
        -0.37300E+03
        -0.37300E+03
        -0.37300E+03
        -0.37300E+03
        -0.37300E+03
        -0.37300E+03
        -0.37300E+03
        -0.37300E+03
        -0.37300E+03
        -0.37300E+03
        -0.37300E+03
        -0.37300E+03
        -0.37300E+03
        -0.37300E+03
        -0.37300E+03
        -0.37300E+03
        -0.37300E+03
        -0.37300E+03
        -0.37300E+03
        -0.37300E+03
        -0.37300E+03
        -0.37300E+03
        -0.37300E+03
        -0.37300E+03
        -0.37300E+03
        -0.37300E+03
        -0.37300E+03
        -0.37300E+03
        -0.37300E+03
        -0.37300E+03
        -0.37300E+03
        -0.37300E+03
        -0.37300E+03
        -0.37300E+03
        -0.37300E+03
        -0.37300E+03
        -0.37300E+03
        -0.37300E+03
        -0.37300E+03
        -0.37300E+03
        -0.37300E+03
        -0.37300E+03
        -0.37300E+03
        -0.37300E+03
        -0.37300E+03
        -0.37300E+03
        -0.37300E+03
        -0.37300E+03
        -0.37300E+03
        -0.37300E+03
        -0.37300E+03
        -0.37300E+03
        -0.37300E+03
        -0.37300E+03
        -0.37300E+03
        -0.37300E+03
        -0.37300E+03
        -0.37300E+03
        -0.37300E+03
        -0.37300E+03
        -0.37300E+03
        -0.37300E+03
        -0.37300E+03
        -0.37300E+03
        -0.37300E+03
        -0.37300E+03
        -0.37300E+03
        -0.37300E+03
        -0.37300E+03
        -0.37300E+03
        -0.37300E+03
        -0.37300E+03
        -0.37300E+03
        -0.37300E+03
        -0.37300E+03
        -0.37300E+03
        -0.37300E+03
        -0.37300E+03
        -0.37300E+03
        -0.37300E+03
        -0.37300E+03
        -0.37300E+03
        -0.37300E+03
        -0.37300E+03
        -0.37300E+03
        -0.37300E+03
        -0.37300E+03
        -0.37300E+03
        -0.37300E+03
        -0.37300E+03
        -0.37300E+03
        -0.37300E+03
        -0.37300E+03
        -0.37300E+03
        -0.37300E+03
        -0.37300E+03
        -0.37300E+03
        -0.37300E+03
        -0.37300E+03
        -0.37300E+03
        -0.37300E+03
        -0.37300E+03
        -0.37300E+03
        -0.37300E+03
        -0.37300E+03
        -0.37300E+03
        -0.37300E+03
        -0.37300E+03
        -0.37300E+03
        -0.37300E+03
        -0.37300E+03
        -0.37300E+03
        -0.37300E+03
        -0.37300E+03
        -0.37300E+03
        -0.37300E+03
        -0.37300E+03
        -0.37300E+03
        -0.37300E+03
        -0.37300E+03
        -0.37300E+03
        -0.37300E+03
        -0.37300E+03
        -0.37300E+03
        -0.37300E+03
        -0.37300E+03
        -0.37300E+03
        -0.37300E+03
        -0.37300E+03
        -0.37300E+03
        -0.37300E+03
        -0.37300E+03
        -0.37300E+03
        -0.37300E+03
        -0.37300E+03
        -0.37300E+03
        -0.37300E+03
        -0.37300E+03
        -0.37300E+03
        -0.37300E+03
        -0.37300E+03
        -0.37300E+03
        -0.37300E+03
        -0.37300E+03
        -0.37300E+03
        -0.37300E+03
        -0.37300E+03
        -0.37300E+03
        -0.37300E+03
        -0.37300E+03
        -0.37300E+03
        -0.37300E+03
        -0.37300E+03
        -0.37300E+03
        -0.37300E+03
        -0.37300E+03
        -0.37300E+03
        -0.37300E+03
        -0.37300E+03
        -0.37300E+03
        -0.37300E+03
        -0.37300E+03
        -0.37300E+03
        -0.37300E+03
        -0.37300E+03
        -0.37300E+03
        -0.37300E+03
        -0.37300E+03
        -0.37300E+03
        -0.37300E+03
        -0.37300E+03
        -0.37300E+03
        -0.37300E+03
        -0.37300E+03
        -0.37300E+03
        -0.37300E+03
        -0.37300E+03
        -0.37300E+03
        -0.37300E+03
        -0.37300E+03
        -0.37300E+03
        -0.37300E+03
        -0.37300E+03
        -0.37300E+03
        -0.37300E+03
        -0.37300E+03
        -0.37300E+03
        -0.37300E+03
        -0.37300E+03
        -0.37300E+03
        -0.37300E+03
        -0.37300E+03
        -0.37300E+03
        -0.37300E+03
        -0.37300E+03
        -0.37300E+03
        -0.37300E+03
        -0.37300E+03
        -0.37300E+03
        -0.37300E+03
        -0.37300E+03
        -0.37300E+03
        -0.37300E+03
        -0.37300E+03
        -0.37300E+03
        -0.37300E+03
        -0.37300E+03
        -0.37300E+03
        -0.37300E+03
        -0.37300E+03
        -0.37300E+03
        -0.37300E+03
        -0.37300E+03
        -0.37300E+03
        -0.37300E+03
        -0.37300E+03
        -0.37300E+03
        -0.37300E+03
        -0.37300E+03
        -0.37300E+03
        -0.37300E+03
        -0.37300E+03
        -0.37300E+03
        -0.37300E+03
        -0.37300E+03
        -0.37300E+03
        -0.37300E+03
        -0.37300E+03
        -0.37300E+03
        -0.37300E+03
        -0.37300E+03
        -0.37300E+03
        -0.37300E+03
        -0.37300E+03
        -0.37300E+03
        -0.37300E+03
        -0.37300E+03
        -0.37300E+03
        -0.37300E+03
        -0.37300E+03
        -0.37300E+03
        -0.37300E+03
        -0.37300E+03
        -0.37300E+03
        -0.37300E+03
        -0.37300E+03
        -0.37300E+03
        -0.37300E+03
        -0.37300E+03
        -0.37300E+03
        -0.37300E+03
        -0.37300E+03
        -0.37300E+03
        -0.37300E+03
        -0.37300E+03
        -0.37300E+03
        -0.37300E+03
        -0.37300E+03
        -0.37300E+03
        -0.37300E+03
        -0.37300E+03
        -0.37300E+03
        -0.37300E+03
        -0.37300E+03
        -0.37300E+03
        -0.37300E+03
        -0.37300E+03
        -0.37300E+03
        -0.37300E+03
        -0.37300E+03
        -0.37300E+03
        -0.37300E+03
        -0.37300E+03
        -0.37300E+03
        -0.37300E+03
        -0.37300E+03
        -0.37300E+03
        -0.37300E+03
        -0.37300E+03
        -0.37300E+03
        -0.37300E+03
        -0.37300E+03
        -0.37300E+03
        -0.37300E+03
        -0.37300E+03
        -0.37300E+03
        -0.37300E+03
        -0.37300E+03
        -0.37300E+03
        -0.37300E+03
        -0.37300E+03
        -0.37300E+03
        -0.37300E+03
        -0.37300E+03
        -0.37300E+03
        -0.37300E+03
        -0.37300E+03
        -0.37300E+03
        -0.37300E+03
        -0.37300E+03
        -0.37300E+03
        -0.37300E+03
        -0.37300E+03
        -0.37300E+03
        -0.37300E+03
        -0.37300E+03
        -0.37300E+03
        -0.37300E+03
        -0.37300E+03
        -0.37300E+03
        -0.37300E+03
        -0.37300E+03
        -0.37300E+03
        -0.37300E+03
        -0.37300E+03
        -0.37300E+03
        -0.37300E+03
        -0.37300E+03
        -0.37300E+03
        -0.37300E+03
        -0.37300E+03
        -0.37300E+03
        -0.37300E+03
        -0.37300E+03
        -0.37300E+03
        -0.37300E+03
        -0.37300E+03
        -0.37300E+03
        -0.37300E+03
        -0.37300E+03
        -0.37300E+03
        -0.37300E+03
        -0.37300E+03
        -0.37300E+03
        -0.37300E+03
        -0.37300E+03
        -0.37300E+03
        -0.37300E+03
        -0.37300E+03
        -0.37300E+03
        -0.37300E+03
        -0.37300E+03
        -0.37300E+03
        -0.37300E+03
        -0.37300E+03
        -0.37300E+03
        -0.37300E+03
        -0.37300E+03
        -0.37300E+03
        -0.37300E+03
        -0.37300E+03
        -0.37300E+03
        -0.37300E+03
        -0.37300E+03
        -0.37300E+03
        -0.37300E+03
        -0.37300E+03
        -0.37300E+03
        -0.37300E+03
        -0.37300E+03
        -0.37300E+03
        -0.37300E+03
        -0.37300E+03
        -0.37300E+03
        -0.37300E+03
        -0.37300E+03
        -0.37300E+03
        -0.37300E+03
        -0.37300E+03
        -0.37300E+03
        -0.37300E+03
        -0.37300E+03
        -0.37300E+03
        -0.37300E+03
        -0.37300E+03
        -0.37300E+03
        -0.37300E+03
        -0.37300E+03
        -0.37300E+03
        -0.37300E+03
        -0.37300E+03
        -0.37300E+03
        -0.37300E+03
        -0.37300E+03
        -0.37300E+03
        -0.37300E+03
        -0.37300E+03
        -0.37300E+03
        -0.37300E+03
        -0.37300E+03
        -0.37300E+03
        -0.37300E+03
        -0.37300E+03
        -0.37300E+03
        -0.37300E+03
        -0.37300E+03
        -0.37300E+03
        -0.37300E+03
        -0.37300E+03
        -0.37300E+03
        -0.37300E+03
        -0.37300E+03
        -0.37300E+03
        -0.37300E+03
        -0.37300E+03
        -0.37300E+03
        -0.37300E+03
        -0.37300E+03
        -0.37300E+03
        -0.37300E+03
        -0.37300E+03
        -0.37300E+03
        -0.37300E+03
        -0.37300E+03
        -0.37300E+03
        -0.37300E+03
        -0.37300E+03
        -0.37300E+03
        -0.37300E+03
        -0.37300E+03
        -0.37300E+03
        -0.37300E+03
        -0.37300E+03
        -0.37300E+03
        -0.37300E+03
        -0.37300E+03
        -0.37300E+03
        -0.37300E+03
        -0.37300E+03
        -0.37300E+03
        -0.37300E+03
        -0.37300E+03
        -0.37300E+03
        -0.37300E+03
        -0.37300E+03
        -0.37300E+03
        -0.37300E+03
        -0.37300E+03
        -0.37300E+03
        -0.37300E+03
        -0.37300E+03
        -0.37300E+03
        -0.37300E+03
        -0.37300E+03
        -0.37300E+03
        -0.37300E+03
        -0.37300E+03
        -0.37300E+03
        -0.37300E+03
        -0.37300E+03
        -0.37300E+03
        -0.37300E+03
        -0.37300E+03
        -0.37300E+03
        -0.37300E+03
        -0.37300E+03
        -0.37300E+03
        -0.37300E+03
        -0.37300E+03
        -0.37300E+03
        -0.37300E+03
        -0.37300E+03
        -0.37300E+03
        -0.37300E+03
        -0.37300E+03
        -0.37300E+03
        -0.37300E+03
        -0.37300E+03
        -0.37300E+03
        -0.37300E+03
        -0.37300E+03
        -0.37300E+03
        -0.37300E+03
        -0.37300E+03
        -0.37300E+03
        -0.37300E+03
        -0.37300E+03
        -0.37300E+03
        -0.37300E+03
        -0.37300E+03
        -0.37300E+03
        -0.37300E+03
        -0.37300E+03
        -0.37300E+03
        -0.37300E+03
        -0.37300E+03
        -0.37300E+03
        -0.37300E+03
        -0.37300E+03
        -0.37300E+03
        -0.37300E+03
        -0.37300E+03
        -0.37300E+03
        -0.37300E+03
        -0.37300E+03
        -0.37300E+03
        -0.37300E+03
        -0.37300E+03
        -0.37300E+03
        -0.37300E+03
        -0.37300E+03
        -0.37300E+03
        -0.37300E+03
        -0.37300E+03
        -0.37300E+03
        -0.37300E+03
        -0.37300E+03
        -0.37300E+03
        -0.37300E+03
        -0.37300E+03
        -0.37300E+03
        -0.37300E+03
        -0.37300E+03
        -0.37300E+03
        -0.37300E+03
        -0.37300E+03
        -0.37300E+03
        -0.37300E+03
        -0.37300E+03
        -0.37300E+03
        -0.37300E+03
        -0.37300E+03
        -0.37300E+03
        -0.37300E+03
        -0.37300E+03
        -0.37300E+03
        -0.37300E+03
        -0.37300E+03
        -0.37300E+03
        -0.37300E+03
        -0.37300E+03
        -0.37300E+03
        -0.37300E+03
        -0.37300E+03
        -0.37300E+03
        -0.37300E+03
        -0.37300E+03
        -0.37300E+03
        -0.37300E+03
        -0.37300E+03
        -0.37300E+03
        -0.37300E+03
        -0.37300E+03
        -0.37300E+03
        -0.37300E+03
        -0.37300E+03
        -0.37300E+03
        -0.37300E+03
        -0.37300E+03
        -0.37300E+03
        -0.37300E+03
        -0.37300E+03
        -0.37300E+03
        -0.37300E+03
        -0.37300E+03
        -0.37300E+03
        -0.37300E+03
        -0.37300E+03
        -0.37300E+03
        -0.37300E+03
        -0.37300E+03
        -0.37300E+03
        -0.37300E+03
        -0.37300E+03
        -0.37300E+03
        -0.37300E+03
        -0.37300E+03
        -0.37300E+03
        -0.37300E+03
        -0.37300E+03
        -0.37300E+03
        -0.37300E+03
        -0.37300E+03
        -0.37300E+03
        -0.37300E+03
        -0.37300E+03
        -0.37300E+03
        -0.37300E+03
        -0.37300E+03
        -0.37300E+03
        -0.37300E+03
        -0.37300E+03
        -0.37300E+03
        -0.37300E+03
        -0.37300E+03
        -0.37300E+03
        -0.37300E+03
        -0.37300E+03
        -0.37300E+03
        -0.37300E+03
        -0.37300E+03
        -0.37300E+03
        -0.37300E+03
        -0.37300E+03
        -0.37300E+03
        -0.37300E+03
        -0.37300E+03
        -0.37300E+03
        -0.37300E+03
        -0.37300E+03
        -0.37300E+03
        -0.37300E+03
        -0.37300E+03
        -0.37300E+03
        -0.37300E+03
        -0.37300E+03
        -0.37300E+03
        -0.37300E+03
        -0.37300E+03
        -0.37300E+03
        -0.37300E+03
        -0.37300E+03
        -0.37300E+03
        -0.37300E+03
        -0.37300E+03
        -0.37300E+03
        -0.37300E+03
        -0.37300E+03
        -0.37300E+03
        -0.37300E+03
        -0.37300E+03
        -0.37300E+03
        -0.37300E+03
        -0.37300E+03
        -0.37300E+03
        -0.37300E+03
        -0.37300E+03
        -0.37300E+03
        -0.37300E+03
        -0.37300E+03
        -0.37300E+03
        -0.37300E+03
        -0.37300E+03
        -0.37300E+03
        -0.37300E+03
        -0.37300E+03
        -0.37300E+03
        -0.37300E+03
        -0.37300E+03
        -0.37300E+03
        -0.37300E+03
        -0.37300E+03
        -0.37300E+03
        -0.37300E+03
        -0.37300E+03
        -0.37300E+03
        -0.37300E+03
        -0.37300E+03
        -0.37300E+03
        -0.37300E+03
        -0.37300E+03
        -0.37300E+03
        -0.37300E+03
        -0.37300E+03
        -0.37300E+03
        -0.37300E+03
        -0.37300E+03
        -0.37300E+03
        -0.37300E+03
        -0.37300E+03
        -0.37300E+03
        -0.37300E+03
        -0.37300E+03
        -0.37300E+03
        -0.37300E+03
        -0.37300E+03
        -0.37300E+03
        -0.37300E+03
        -0.37300E+03
        -0.37300E+03
        -0.37300E+03
        -0.37300E+03
        -0.37300E+03
        -0.37300E+03
        -0.37300E+03
        -0.37300E+03
        -0.37300E+03
        -0.37300E+03
        -0.37300E+03
        -0.37300E+03
        -0.37300E+03
        -0.37300E+03
        -0.37300E+03
        -0.37300E+03
        -0.37300E+03
        -0.37300E+03
        -0.37300E+03
        -0.37300E+03
        -0.37300E+03
        -0.37300E+03
        -0.37300E+03
        -0.37300E+03
        -0.37300E+03
        -0.37300E+03
        -0.37300E+03
        -0.37300E+03
        -0.37300E+03
        -0.37300E+03
        -0.37300E+03
        -0.37300E+03
        -0.37300E+03
        -0.37300E+03
        -0.37300E+03
        -0.37300E+03
        -0.37300E+03
        -0.37300E+03
        -0.37300E+03
        -0.37300E+03
        -0.37300E+03
        -0.37300E+03
        -0.37300E+03
        -0.37300E+03
        -0.37300E+03
        -0.37300E+03
        -0.37300E+03
        -0.37300E+03
        -0.37300E+03
        -0.37300E+03
        -0.37300E+03
        -0.37300E+03
        -0.37300E+03
        -0.37300E+03
        -0.37300E+03
        -0.37300E+03
        -0.37300E+03
        -0.37300E+03
        -0.37300E+03
        -0.37300E+03
        -0.37300E+03
        -0.37300E+03
        -0.37300E+03
        -0.37300E+03
        -0.37300E+03
        -0.37300E+03
        -0.37300E+03
        -0.37300E+03
        -0.37300E+03
        -0.37300E+03
        -0.37300E+03
        -0.37300E+03
        -0.37300E+03
        -0.37300E+03
        -0.37300E+03
        -0.37300E+03
        -0.37300E+03
        -0.37300E+03
        -0.37300E+03
        -0.37300E+03
        -0.37300E+03
        -0.37300E+03
        -0.37300E+03
        -0.37300E+03
        -0.37300E+03
        -0.37300E+03
        -0.37300E+03
        -0.37300E+03
  
SCALARS              normalized_window  double 1
LOOKUP_TABLE default
         0.27500E+01
         0.27500E+01
         0.27500E+01
         0.27500E+01
         0.27500E+01
         0.27500E+01
         0.27500E+01
         0.27500E+01
         0.27500E+01
         0.27500E+01
         0.27500E+01
         0.27500E+01
         0.27500E+01
         0.27500E+01
         0.27500E+01
         0.27500E+01
         0.27500E+01
         0.27500E+01
         0.27500E+01
         0.27500E+01
         0.27500E+01
         0.27500E+01
         0.27500E+01
         0.27500E+01
         0.27500E+01
         0.27500E+01
         0.27500E+01
         0.27500E+01
         0.27500E+01
         0.27500E+01
         0.27500E+01
         0.27500E+01
         0.27500E+01
         0.27500E+01
         0.27500E+01
         0.27500E+01
         0.27500E+01
         0.27500E+01
         0.27500E+01
         0.27500E+01
         0.27500E+01
         0.27500E+01
         0.27500E+01
         0.27500E+01
         0.27500E+01
         0.27500E+01
         0.27500E+01
         0.27500E+01
         0.27500E+01
         0.27500E+01
         0.27500E+01
         0.27500E+01
         0.27500E+01
         0.27500E+01
         0.27500E+01
         0.27500E+01
         0.27500E+01
         0.27500E+01
         0.27500E+01
         0.27500E+01
         0.27500E+01
         0.27500E+01
         0.27500E+01
         0.27500E+01
         0.27500E+01
         0.27500E+01
         0.27500E+01
         0.27500E+01
         0.27500E+01
         0.27500E+01
         0.27500E+01
         0.27500E+01
         0.27500E+01
         0.27500E+01
         0.27500E+01
         0.27500E+01
         0.27500E+01
         0.27500E+01
         0.27500E+01
         0.27500E+01
         0.27500E+01
         0.27500E+01
         0.27500E+01
         0.27500E+01
         0.27500E+01
         0.27500E+01
         0.27500E+01
         0.27500E+01
         0.27500E+01
         0.27500E+01
         0.27500E+01
         0.27500E+01
         0.27500E+01
         0.27500E+01
         0.27500E+01
         0.27500E+01
         0.27500E+01
         0.27500E+01
         0.27500E+01
         0.27500E+01
         0.27500E+01
         0.27500E+01
         0.27500E+01
         0.27500E+01
         0.27500E+01
         0.27500E+01
         0.27500E+01
         0.27500E+01
         0.27500E+01
         0.27500E+01
         0.27500E+01
         0.27500E+01
         0.27500E+01
         0.27500E+01
         0.27500E+01
         0.27500E+01
         0.27500E+01
         0.27500E+01
         0.27500E+01
         0.27500E+01
         0.27500E+01
         0.27500E+01
         0.27500E+01
         0.27500E+01
         0.27500E+01
         0.27500E+01
         0.27500E+01
         0.27500E+01
         0.27500E+01
         0.27500E+01
         0.27500E+01
         0.27500E+01
         0.27500E+01
         0.27500E+01
         0.27500E+01
         0.27500E+01
         0.27500E+01
         0.27500E+01
         0.27500E+01
         0.27500E+01
         0.27500E+01
         0.27500E+01
         0.27500E+01
         0.27500E+01
         0.27500E+01
         0.27500E+01
         0.27500E+01
         0.27500E+01
         0.27500E+01
         0.27500E+01
         0.27500E+01
         0.27500E+01
         0.27500E+01
         0.27500E+01
         0.27500E+01
         0.27500E+01
         0.27500E+01
         0.27500E+01
         0.27500E+01
         0.27500E+01
         0.27500E+01
         0.27500E+01
         0.27500E+01
         0.27500E+01
         0.27500E+01
         0.27500E+01
         0.27500E+01
         0.27500E+01
         0.27500E+01
         0.27500E+01
         0.27500E+01
         0.27500E+01
         0.27500E+01
         0.27500E+01
         0.27500E+01
         0.27500E+01
         0.27500E+01
         0.27500E+01
         0.27500E+01
         0.27500E+01
         0.27500E+01
         0.27500E+01
         0.27500E+01
         0.27500E+01
         0.27500E+01
         0.27500E+01
         0.27500E+01
         0.27500E+01
         0.27500E+01
         0.27500E+01
         0.27500E+01
         0.27500E+01
         0.27500E+01
         0.27500E+01
         0.27500E+01
         0.27500E+01
         0.27500E+01
         0.27500E+01
         0.27500E+01
         0.27500E+01
         0.27500E+01
         0.27500E+01
         0.27500E+01
         0.27500E+01
         0.27500E+01
         0.27500E+01
         0.27500E+01
         0.27500E+01
         0.27500E+01
         0.27500E+01
         0.27500E+01
         0.27500E+01
         0.27500E+01
         0.27500E+01
         0.27500E+01
         0.27500E+01
         0.27500E+01
         0.27500E+01
         0.27500E+01
         0.27500E+01
         0.27500E+01
         0.27500E+01
         0.27500E+01
         0.27500E+01
         0.27500E+01
         0.27500E+01
         0.27500E+01
         0.27500E+01
         0.27500E+01
         0.27500E+01
         0.27500E+01
         0.27500E+01
         0.27500E+01
         0.27500E+01
         0.27500E+01
         0.27500E+01
         0.27500E+01
         0.27500E+01
         0.27500E+01
         0.27500E+01
         0.27500E+01
         0.27500E+01
         0.27500E+01
         0.27500E+01
         0.27500E+01
         0.27500E+01
         0.27500E+01
         0.27500E+01
         0.27500E+01
         0.27500E+01
         0.27500E+01
         0.27500E+01
         0.27500E+01
         0.27500E+01
         0.27500E+01
         0.27500E+01
         0.27500E+01
         0.27500E+01
         0.27500E+01
         0.27500E+01
         0.27500E+01
         0.27500E+01
         0.27500E+01
         0.27500E+01
         0.27500E+01
         0.27500E+01
         0.27500E+01
         0.27500E+01
         0.27500E+01
         0.27500E+01
         0.27500E+01
         0.27500E+01
         0.27500E+01
         0.27500E+01
         0.27500E+01
         0.27500E+01
         0.27500E+01
         0.27500E+01
         0.27500E+01
         0.27500E+01
         0.27500E+01
         0.27500E+01
         0.27500E+01
         0.27500E+01
         0.27500E+01
         0.27500E+01
         0.27500E+01
         0.27500E+01
         0.27500E+01
         0.27500E+01
         0.27500E+01
         0.27500E+01
         0.27500E+01
         0.27500E+01
         0.27500E+01
         0.27500E+01
         0.27500E+01
         0.27500E+01
         0.27500E+01
         0.27500E+01
         0.27500E+01
         0.27500E+01
         0.27500E+01
         0.27500E+01
         0.27500E+01
         0.27500E+01
         0.27500E+01
         0.27500E+01
         0.27500E+01
         0.27500E+01
         0.27500E+01
         0.27500E+01
         0.27500E+01
         0.27500E+01
         0.27500E+01
         0.27500E+01
         0.27500E+01
         0.27500E+01
         0.27500E+01
         0.27500E+01
         0.27500E+01
         0.27500E+01
         0.27500E+01
         0.27500E+01
         0.27500E+01
         0.27500E+01
         0.27500E+01
         0.27500E+01
         0.27500E+01
         0.27500E+01
         0.27500E+01
         0.27500E+01
         0.27500E+01
         0.27500E+01
         0.27500E+01
         0.27500E+01
         0.27500E+01
         0.27500E+01
         0.27500E+01
         0.27500E+01
         0.27500E+01
         0.27500E+01
         0.27500E+01
         0.27500E+01
         0.27500E+01
         0.27500E+01
         0.27500E+01
         0.27500E+01
         0.27500E+01
         0.27500E+01
         0.27500E+01
         0.27500E+01
         0.27500E+01
         0.27500E+01
         0.27500E+01
         0.27500E+01
         0.27500E+01
         0.27500E+01
         0.27500E+01
         0.27500E+01
         0.27500E+01
         0.27500E+01
         0.27500E+01
         0.27500E+01
         0.27500E+01
         0.27500E+01
         0.27500E+01
         0.27500E+01
         0.27500E+01
         0.27500E+01
         0.27500E+01
         0.27500E+01
         0.27500E+01
         0.27500E+01
         0.27500E+01
         0.27500E+01
         0.27500E+01
         0.27500E+01
         0.27500E+01
         0.27500E+01
         0.27500E+01
         0.27500E+01
         0.27500E+01
         0.27500E+01
         0.27500E+01
         0.27500E+01
         0.27500E+01
         0.27500E+01
         0.27500E+01
         0.27500E+01
         0.27500E+01
         0.27500E+01
         0.27500E+01
         0.27500E+01
         0.27500E+01
         0.27500E+01
         0.27500E+01
         0.27500E+01
         0.27500E+01
         0.27500E+01
         0.27500E+01
         0.27500E+01
         0.27500E+01
         0.27500E+01
         0.27500E+01
         0.27500E+01
         0.27500E+01
         0.27500E+01
         0.27500E+01
         0.27500E+01
         0.27500E+01
         0.27500E+01
         0.27500E+01
         0.27500E+01
         0.27500E+01
         0.27500E+01
         0.27500E+01
         0.27500E+01
         0.27500E+01
         0.27500E+01
         0.27500E+01
         0.27500E+01
         0.27500E+01
         0.27500E+01
         0.27500E+01
         0.27500E+01
         0.27500E+01
         0.27500E+01
         0.27500E+01
         0.27500E+01
         0.27500E+01
         0.27500E+01
         0.27500E+01
         0.27500E+01
         0.27500E+01
         0.27500E+01
         0.27500E+01
         0.27500E+01
         0.27500E+01
         0.27500E+01
         0.27500E+01
         0.27500E+01
         0.27500E+01
         0.27500E+01
         0.27500E+01
         0.27500E+01
         0.27500E+01
         0.27500E+01
         0.27500E+01
         0.27500E+01
         0.27500E+01
         0.27500E+01
         0.27500E+01
         0.27500E+01
         0.27500E+01
         0.27500E+01
         0.27500E+01
         0.27500E+01
         0.27500E+01
         0.27500E+01
         0.27500E+01
         0.27500E+01
         0.27500E+01
         0.27500E+01
         0.27500E+01
         0.27500E+01
         0.27500E+01
         0.27500E+01
         0.27500E+01
         0.27500E+01
         0.27500E+01
         0.27500E+01
         0.27500E+01
         0.27500E+01
         0.27500E+01
         0.27500E+01
         0.27500E+01
         0.27500E+01
         0.27500E+01
         0.27500E+01
         0.27500E+01
         0.27500E+01
         0.27500E+01
         0.27500E+01
         0.27500E+01
         0.27500E+01
         0.27500E+01
         0.27500E+01
         0.27500E+01
         0.27500E+01
         0.27500E+01
         0.27500E+01
         0.27500E+01
         0.27500E+01
         0.27500E+01
         0.27500E+01
         0.27500E+01
         0.27500E+01
         0.27500E+01
         0.27500E+01
         0.27500E+01
         0.27500E+01
         0.27500E+01
         0.27500E+01
         0.27500E+01
         0.27500E+01
         0.27500E+01
         0.27500E+01
         0.27500E+01
         0.27500E+01
         0.27500E+01
         0.27500E+01
         0.27500E+01
         0.27500E+01
         0.27500E+01
         0.27500E+01
         0.27500E+01
         0.27500E+01
         0.27500E+01
         0.27500E+01
         0.27500E+01
         0.27500E+01
         0.27500E+01
         0.27500E+01
         0.27500E+01
         0.27500E+01
         0.27500E+01
         0.27500E+01
         0.27500E+01
         0.27500E+01
         0.27500E+01
         0.27500E+01
         0.27500E+01
         0.27500E+01
         0.27500E+01
         0.27500E+01
         0.27500E+01
         0.27500E+01
         0.27500E+01
         0.27500E+01
         0.27500E+01
         0.27500E+01
         0.27500E+01
         0.27500E+01
         0.27500E+01
         0.27500E+01
         0.27500E+01
         0.27500E+01
         0.27500E+01
         0.27500E+01
         0.27500E+01
         0.27500E+01
         0.27500E+01
         0.27500E+01
         0.27500E+01
         0.27500E+01
         0.27500E+01
         0.27500E+01
         0.27500E+01
         0.27500E+01
         0.27500E+01
         0.27500E+01
         0.27500E+01
         0.27500E+01
         0.27500E+01
         0.27500E+01
         0.27500E+01
         0.27500E+01
         0.27500E+01
         0.27500E+01
         0.27500E+01
         0.27500E+01
         0.27500E+01
         0.27500E+01
         0.27500E+01
         0.27500E+01
         0.27500E+01
         0.27500E+01
         0.27500E+01
         0.27500E+01
         0.27500E+01
         0.27500E+01
         0.27500E+01
         0.27500E+01
         0.27500E+01
         0.27500E+01
         0.27500E+01
         0.27500E+01
         0.27500E+01
         0.27500E+01
         0.27500E+01
         0.27500E+01
         0.27500E+01
         0.27500E+01
         0.27500E+01
         0.27500E+01
         0.27500E+01
         0.27500E+01
         0.27500E+01
         0.27500E+01
         0.27500E+01
         0.27500E+01
         0.27500E+01
         0.27500E+01
         0.27500E+01
         0.27500E+01
         0.27500E+01
         0.27500E+01
         0.27500E+01
         0.27500E+01
         0.27500E+01
         0.27500E+01
         0.27500E+01
         0.27500E+01
         0.27500E+01
         0.27500E+01
         0.27500E+01
         0.27500E+01
         0.27500E+01
         0.27500E+01
         0.27500E+01
         0.27500E+01
         0.27500E+01
         0.27500E+01
         0.27500E+01
         0.27500E+01
         0.27500E+01
         0.27500E+01
         0.27500E+01
         0.27500E+01
         0.27500E+01
         0.27500E+01
         0.27500E+01
         0.27500E+01
         0.27500E+01
         0.27500E+01
         0.27500E+01
         0.27500E+01
         0.27500E+01
         0.27500E+01
         0.27500E+01
         0.27500E+01
         0.27500E+01
         0.27500E+01
         0.27500E+01
         0.27500E+01
         0.27500E+01
         0.27500E+01
         0.27500E+01
         0.27500E+01
         0.27500E+01
         0.27500E+01
         0.27500E+01
         0.27500E+01
         0.27500E+01
         0.27500E+01
         0.27500E+01
         0.27500E+01
         0.27500E+01
         0.27500E+01
         0.27500E+01
         0.27500E+01
         0.27500E+01
         0.27500E+01
         0.27500E+01
         0.27500E+01
         0.27500E+01
         0.27500E+01
         0.27500E+01
         0.27500E+01
         0.27500E+01
         0.27500E+01
         0.27500E+01
         0.27500E+01
         0.27500E+01
         0.27500E+01
         0.27500E+01
         0.27500E+01
         0.27500E+01
         0.27500E+01
         0.27500E+01
         0.27500E+01
         0.27500E+01
         0.27500E+01
         0.27500E+01
         0.27500E+01
         0.27500E+01
         0.27500E+01
         0.27500E+01
         0.27500E+01
         0.27500E+01
         0.27500E+01
         0.27500E+01
         0.27500E+01
         0.27500E+01
         0.27500E+01
         0.27500E+01
         0.27500E+01
         0.27500E+01
         0.27500E+01
         0.27500E+01
         0.27500E+01
         0.27500E+01
         0.27500E+01
         0.27500E+01
         0.27500E+01
         0.27500E+01
         0.27500E+01
         0.27500E+01
         0.27500E+01
         0.27500E+01
         0.27500E+01
         0.27500E+01
         0.27500E+01
         0.27500E+01
         0.27500E+01
         0.27500E+01
         0.27500E+01
         0.27500E+01
         0.27500E+01
         0.27500E+01
         0.27500E+01
         0.27500E+01
         0.27500E+01
         0.27500E+01
         0.27500E+01
         0.27500E+01
         0.27500E+01
         0.27500E+01
         0.27500E+01
         0.27500E+01
         0.27500E+01
         0.27500E+01
         0.27500E+01
         0.27500E+01
         0.27500E+01
         0.27500E+01
         0.27500E+01
         0.27500E+01
         0.27500E+01
         0.27500E+01
         0.27500E+01
         0.27500E+01
         0.27500E+01
         0.27500E+01
         0.27500E+01
         0.27500E+01
         0.27500E+01
         0.27500E+01
         0.27500E+01
         0.27500E+01
         0.27500E+01
         0.27500E+01
         0.27500E+01
         0.27500E+01
         0.27500E+01
         0.27500E+01
         0.27500E+01
         0.27500E+01
         0.27500E+01
         0.27500E+01
         0.27500E+01
         0.27500E+01
         0.27500E+01
         0.27500E+01
         0.27500E+01
         0.27500E+01
         0.27500E+01
         0.27500E+01
         0.27500E+01
         0.27500E+01
         0.27500E+01
         0.27500E+01
         0.27500E+01
         0.27500E+01
         0.27500E+01
         0.27500E+01
         0.27500E+01
         0.27500E+01
         0.27500E+01
         0.27500E+01
         0.27500E+01
         0.27500E+01
         0.27500E+01
         0.27500E+01
         0.27500E+01
         0.27500E+01
         0.27500E+01
         0.27500E+01
         0.27500E+01
         0.27500E+01
         0.27500E+01
         0.27500E+01
         0.27500E+01
         0.27500E+01
         0.27500E+01
         0.27500E+01
         0.27500E+01
         0.27500E+01
         0.27500E+01
         0.27500E+01
         0.27500E+01
         0.27500E+01
         0.27500E+01
         0.27500E+01
         0.27500E+01
         0.27500E+01
         0.27500E+01
         0.27500E+01
         0.27500E+01
         0.27500E+01
         0.27500E+01
         0.27500E+01
         0.27500E+01
         0.27500E+01
         0.27500E+01
         0.27500E+01
         0.27500E+01
         0.27500E+01
         0.27500E+01
         0.27500E+01
         0.27500E+01
         0.27500E+01
         0.27500E+01
         0.27500E+01
         0.27500E+01
         0.27500E+01
         0.27500E+01
         0.27500E+01
         0.27500E+01
         0.27500E+01
         0.27500E+01
         0.27500E+01
         0.27500E+01
         0.27500E+01
         0.27500E+01
         0.27500E+01
         0.27500E+01
         0.27500E+01
         0.27500E+01
         0.27500E+01
         0.27500E+01
         0.27500E+01
         0.27500E+01
         0.27500E+01
         0.27500E+01
         0.27500E+01
         0.27500E+01
         0.27500E+01
         0.27500E+01
         0.27500E+01
         0.27500E+01
         0.27500E+01
         0.27500E+01
         0.27500E+01
         0.27500E+01
         0.27500E+01
         0.27500E+01
         0.27500E+01
         0.27500E+01
         0.27500E+01
         0.27500E+01
         0.27500E+01
         0.27500E+01
         0.27500E+01
         0.27500E+01
         0.27500E+01
         0.27500E+01
         0.27500E+01
         0.27500E+01
         0.27500E+01
         0.27500E+01
         0.27500E+01
         0.27500E+01
         0.27500E+01
         0.27500E+01
         0.27500E+01
         0.27500E+01
         0.27500E+01
         0.27500E+01
         0.27500E+01
         0.27500E+01
         0.27500E+01
         0.27500E+01
         0.27500E+01
         0.27500E+01
         0.27500E+01
         0.27500E+01
         0.27500E+01
         0.27500E+01
         0.27500E+01
         0.27500E+01
         0.27500E+01
         0.27500E+01
         0.27500E+01
         0.27500E+01
         0.27500E+01
         0.27500E+01
         0.27500E+01
         0.27500E+01
         0.27500E+01
         0.27500E+01
         0.27500E+01
         0.27500E+01
         0.27500E+01
         0.27500E+01
         0.27500E+01
         0.27500E+01
         0.27500E+01
         0.27500E+01
         0.27500E+01
         0.27500E+01
         0.27500E+01
         0.27500E+01
         0.27500E+01
         0.27500E+01
         0.27500E+01
         0.27500E+01
         0.27500E+01
         0.27500E+01
         0.27500E+01
         0.27500E+01
         0.27500E+01
         0.27500E+01
         0.27500E+01
         0.27500E+01
         0.27500E+01
         0.27500E+01
         0.27500E+01
         0.27500E+01
         0.27500E+01
         0.27500E+01
         0.27500E+01
         0.27500E+01
         0.27500E+01
         0.27500E+01
         0.27500E+01
         0.27500E+01
         0.27500E+01
         0.27500E+01
         0.27500E+01
         0.27500E+01
         0.27500E+01
         0.27500E+01
         0.27500E+01
         0.27500E+01
         0.27500E+01
         0.27500E+01
         0.27500E+01
         0.27500E+01
         0.27500E+01
         0.27500E+01
         0.27500E+01
         0.27500E+01
         0.27500E+01
         0.27500E+01
         0.27500E+01
         0.27500E+01
         0.27500E+01
         0.27500E+01
         0.27500E+01
         0.27500E+01
         0.27500E+01
         0.27500E+01
         0.27500E+01
         0.27500E+01
         0.27500E+01
         0.27500E+01
         0.27500E+01
         0.27500E+01
         0.27500E+01
         0.27500E+01
         0.27500E+01
         0.27500E+01
         0.27500E+01
         0.27500E+01
         0.27500E+01
         0.27500E+01
         0.27500E+01
         0.27500E+01
         0.27500E+01
         0.27500E+01
         0.27500E+01
         0.27500E+01
         0.27500E+01
         0.27500E+01
         0.27500E+01
         0.27500E+01
         0.27500E+01
         0.27500E+01
         0.27500E+01
         0.27500E+01
         0.27500E+01
         0.27500E+01
         0.27500E+01
         0.27500E+01
         0.27500E+01
         0.27500E+01
         0.27500E+01
         0.27500E+01
         0.27500E+01
         0.27500E+01
         0.27500E+01
         0.27500E+01
         0.27500E+01
         0.27500E+01
         0.27500E+01
         0.27500E+01
         0.27500E+01
         0.27500E+01
         0.27500E+01
         0.27500E+01
         0.27500E+01
         0.27500E+01
         0.27500E+01
         0.27500E+01
         0.27500E+01
         0.27500E+01
         0.27500E+01
         0.27500E+01
         0.27500E+01
         0.27500E+01
         0.27500E+01
         0.27500E+01
         0.27500E+01
         0.27500E+01
         0.27500E+01
         0.27500E+01
         0.27500E+01
         0.27500E+01
         0.27500E+01
         0.27500E+01
         0.27500E+01
         0.27500E+01
         0.27500E+01
         0.27500E+01
         0.27500E+01
         0.27500E+01
         0.27500E+01
         0.27500E+01
         0.27500E+01
         0.27500E+01
         0.27500E+01
         0.27500E+01
         0.27500E+01
         0.27500E+01
         0.27500E+01
         0.27500E+01
         0.27500E+01
         0.27500E+01
         0.27500E+01
         0.27500E+01
         0.27500E+01
         0.27500E+01
         0.27500E+01
         0.27500E+01
         0.27500E+01
         0.27500E+01
         0.27500E+01
         0.27500E+01
         0.27500E+01
         0.27500E+01
         0.27500E+01
         0.27500E+01
         0.27500E+01
         0.27500E+01
         0.27500E+01
         0.27500E+01
         0.27500E+01
         0.27500E+01
         0.27500E+01
         0.27500E+01
         0.27500E+01
         0.27500E+01
         0.27500E+01
         0.27500E+01
         0.27500E+01
         0.27500E+01
         0.27500E+01
         0.27500E+01
         0.27500E+01
         0.27500E+01
         0.27500E+01
         0.27500E+01
         0.27500E+01
         0.27500E+01
         0.27500E+01
         0.27500E+01
         0.27500E+01
         0.27500E+01
         0.27500E+01
         0.27500E+01
         0.27500E+01
         0.27500E+01
         0.27500E+01
         0.27500E+01
         0.27500E+01
         0.27500E+01
         0.27500E+01
         0.27500E+01
         0.27500E+01
         0.27500E+01
         0.27500E+01
         0.27500E+01
         0.27500E+01
         0.27500E+01
         0.27500E+01
         0.27500E+01
         0.27500E+01
         0.27500E+01
         0.27500E+01
         0.27500E+01
         0.27500E+01
         0.27500E+01
         0.27500E+01
         0.27500E+01
         0.27500E+01
         0.27500E+01
         0.27500E+01
         0.27500E+01
         0.27500E+01
         0.27500E+01
         0.27500E+01
         0.27500E+01
         0.27500E+01
         0.27500E+01
         0.27500E+01
         0.27500E+01
         0.27500E+01
         0.27500E+01
         0.27500E+01
         0.27500E+01
         0.27500E+01
         0.27500E+01
         0.27500E+01
         0.27500E+01
         0.27500E+01
         0.27500E+01
         0.27500E+01
         0.27500E+01
         0.27500E+01
         0.27500E+01
         0.27500E+01
         0.27500E+01
         0.27500E+01
         0.27500E+01
         0.27500E+01
         0.27500E+01
         0.27500E+01
         0.27500E+01
         0.27500E+01
         0.27500E+01
         0.27500E+01
         0.27500E+01
         0.27500E+01
         0.27500E+01
         0.27500E+01
         0.27500E+01
         0.27500E+01
         0.27500E+01
         0.27500E+01
         0.27500E+01
         0.27500E+01
         0.27500E+01
         0.27500E+01
         0.27500E+01
         0.27500E+01
         0.27500E+01
         0.27500E+01
         0.27500E+01
         0.27500E+01
         0.27500E+01
         0.27500E+01
         0.27500E+01
         0.27500E+01
         0.27500E+01
         0.27500E+01
         0.27500E+01
         0.27500E+01
         0.27500E+01
         0.27500E+01
         0.27500E+01
         0.27500E+01
         0.27500E+01
         0.27500E+01
         0.27500E+01
         0.27500E+01
         0.27500E+01
         0.27500E+01
         0.27500E+01
         0.27500E+01
         0.27500E+01
         0.27500E+01
         0.27500E+01
         0.27500E+01
         0.27500E+01
         0.27500E+01
         0.27500E+01
         0.27500E+01
         0.27500E+01
         0.27500E+01
         0.27500E+01
         0.27500E+01
         0.27500E+01
         0.27500E+01
         0.27500E+01
         0.27500E+01
         0.27500E+01
         0.27500E+01
         0.27500E+01
         0.27500E+01
         0.27500E+01
         0.27500E+01
         0.27500E+01
         0.27500E+01
         0.27500E+01
         0.27500E+01
         0.27500E+01
         0.27500E+01
         0.27500E+01
         0.27500E+01
         0.27500E+01
         0.27500E+01
         0.27500E+01
         0.27500E+01
         0.27500E+01
         0.27500E+01
         0.27500E+01
         0.27500E+01
         0.27500E+01
         0.27500E+01
         0.27500E+01
         0.27500E+01
         0.27500E+01
         0.27500E+01
         0.27500E+01
         0.27500E+01
         0.27500E+01
         0.27500E+01
         0.27500E+01
         0.27500E+01
         0.27500E+01
         0.27500E+01
         0.27500E+01
         0.27500E+01
         0.27500E+01
         0.27500E+01
         0.27500E+01
         0.27500E+01
         0.27500E+01
         0.27500E+01
         0.27500E+01
         0.27500E+01
         0.27500E+01
         0.27500E+01
         0.27500E+01
         0.27500E+01
         0.27500E+01
         0.27500E+01
         0.27500E+01
         0.27500E+01
         0.27500E+01
         0.27500E+01
         0.27500E+01
         0.27500E+01
         0.27500E+01
         0.27500E+01
         0.27500E+01
         0.27500E+01
         0.27500E+01
         0.27500E+01
         0.27500E+01
         0.27500E+01
         0.27500E+01
         0.27500E+01
         0.27500E+01
         0.27500E+01
         0.27500E+01
         0.27500E+01
         0.27500E+01
         0.27500E+01
         0.27500E+01
         0.27500E+01
         0.27500E+01
         0.27500E+01
         0.27500E+01
         0.27500E+01
         0.27500E+01
         0.27500E+01
         0.27500E+01
         0.27500E+01
         0.27500E+01
         0.27500E+01
         0.27500E+01
         0.27500E+01
         0.27500E+01
         0.27500E+01
         0.27500E+01
         0.27500E+01
         0.27500E+01
         0.27500E+01
         0.27500E+01
         0.27500E+01
         0.27500E+01
         0.27500E+01
         0.27500E+01
         0.27500E+01
         0.27500E+01
         0.27500E+01
         0.27500E+01
         0.27500E+01
         0.27500E+01
         0.27500E+01
         0.27500E+01
         0.27500E+01
         0.27500E+01
         0.27500E+01
         0.27500E+01
         0.27500E+01
         0.27500E+01
         0.27500E+01
         0.27500E+01
         0.27500E+01
         0.27500E+01
         0.27500E+01
         0.27500E+01
         0.27500E+01
         0.27500E+01
         0.27500E+01
         0.27500E+01
         0.27500E+01
         0.27500E+01
         0.27500E+01
         0.27500E+01
         0.27500E+01
         0.27500E+01
         0.27500E+01
         0.27500E+01
         0.27500E+01
         0.27500E+01
         0.27500E+01
         0.27500E+01
         0.27500E+01
         0.27500E+01
         0.27500E+01
         0.27500E+01
         0.27500E+01
         0.27500E+01
         0.27500E+01
         0.27500E+01
         0.27500E+01
         0.27500E+01
         0.27500E+01
         0.27500E+01
         0.27500E+01
         0.27500E+01
         0.27500E+01
         0.27500E+01
         0.27500E+01
         0.27500E+01
         0.27500E+01
         0.27500E+01
         0.27500E+01
         0.27500E+01
         0.27500E+01
         0.27500E+01
         0.27500E+01
         0.27500E+01
         0.27500E+01
         0.27500E+01
         0.27500E+01
         0.27500E+01
         0.27500E+01
         0.27500E+01
         0.27500E+01
         0.27500E+01
         0.27500E+01
         0.27500E+01
         0.27500E+01
         0.27500E+01
         0.27500E+01
         0.27500E+01
         0.27500E+01
         0.27500E+01
         0.27500E+01
         0.27500E+01
         0.27500E+01
         0.27500E+01
         0.27500E+01
         0.27500E+01
         0.27500E+01
         0.27500E+01
         0.27500E+01
         0.27500E+01
         0.27500E+01
         0.27500E+01
         0.27500E+01
         0.27500E+01
         0.27500E+01
         0.27500E+01
         0.27500E+01
         0.27500E+01
         0.27500E+01
         0.27500E+01
         0.27500E+01
         0.27500E+01
         0.27500E+01
         0.27500E+01
         0.27500E+01
         0.27500E+01
         0.27500E+01
         0.27500E+01
         0.27500E+01
         0.27500E+01
         0.27500E+01
         0.27500E+01
         0.27500E+01
         0.27500E+01
         0.27500E+01
         0.27500E+01
         0.27500E+01
         0.27500E+01
         0.27500E+01
         0.27500E+01
         0.27500E+01
         0.27500E+01
         0.27500E+01
         0.27500E+01
         0.27500E+01
         0.27500E+01
         0.27500E+01
         0.27500E+01
         0.27500E+01
         0.27500E+01
         0.27500E+01
         0.27500E+01
         0.27500E+01
         0.27500E+01
         0.27500E+01
         0.27500E+01
         0.27500E+01
         0.27500E+01
         0.27500E+01
         0.27500E+01
         0.27500E+01
         0.27500E+01
         0.27500E+01
         0.27500E+01
         0.27500E+01
         0.27500E+01
         0.27500E+01
         0.27500E+01
         0.27500E+01
         0.27500E+01
         0.27500E+01
         0.27500E+01
         0.27500E+01
         0.27500E+01
         0.27500E+01
         0.27500E+01
         0.27500E+01
         0.27500E+01
         0.27500E+01
         0.27500E+01
         0.27500E+01
         0.27500E+01
         0.27500E+01
         0.27500E+01
         0.27500E+01
         0.27500E+01
         0.27500E+01
         0.27500E+01
         0.27500E+01
         0.27500E+01
         0.27500E+01
         0.27500E+01
         0.27500E+01
         0.27500E+01
         0.27500E+01
         0.27500E+01
         0.27500E+01
         0.27500E+01
         0.27500E+01
         0.27500E+01
         0.27500E+01
         0.27500E+01
         0.27500E+01
         0.27500E+01
         0.27500E+01
         0.27500E+01
         0.27500E+01
         0.27500E+01
         0.27500E+01
         0.27500E+01
         0.27500E+01
         0.27500E+01
         0.27500E+01
         0.27500E+01
         0.27500E+01
         0.27500E+01
         0.27500E+01
         0.27500E+01
         0.27500E+01
         0.27500E+01
         0.27500E+01
         0.27500E+01
         0.27500E+01
         0.27500E+01
         0.27500E+01
         0.27500E+01
         0.27500E+01
         0.27500E+01
         0.27500E+01
         0.27500E+01
         0.27500E+01
         0.27500E+01
         0.27500E+01
         0.27500E+01
         0.27500E+01
         0.27500E+01
         0.27500E+01
         0.27500E+01
         0.27500E+01
         0.27500E+01
         0.27500E+01
         0.27500E+01
         0.27500E+01
         0.27500E+01
         0.27500E+01
         0.27500E+01
         0.27500E+01
         0.27500E+01
         0.27500E+01
         0.27500E+01
         0.27500E+01
         0.27500E+01
         0.27500E+01
         0.27500E+01
         0.27500E+01
         0.27500E+01
         0.27500E+01
         0.27500E+01
         0.27500E+01
         0.27500E+01
         0.27500E+01
         0.27500E+01
         0.27500E+01
         0.27500E+01
         0.27500E+01
         0.27500E+01
         0.27500E+01
         0.27500E+01
         0.27500E+01
         0.27500E+01
         0.27500E+01
         0.27500E+01
         0.27500E+01
         0.27500E+01
         0.27500E+01
         0.27500E+01
         0.27500E+01
         0.27500E+01
         0.27500E+01
         0.27500E+01
         0.27500E+01
         0.27500E+01
         0.27500E+01
         0.27500E+01
         0.27500E+01
         0.27500E+01
         0.27500E+01
         0.27500E+01
         0.27500E+01
         0.27500E+01
         0.27500E+01
         0.27500E+01
         0.27500E+01
         0.27500E+01
         0.27500E+01
         0.27500E+01
         0.27500E+01
         0.27500E+01
         0.27500E+01
         0.27500E+01
         0.27500E+01
         0.27500E+01
         0.27500E+01
         0.27500E+01
         0.27500E+01
         0.27500E+01
         0.27500E+01
         0.27500E+01
         0.27500E+01
         0.27500E+01
         0.27500E+01
         0.27500E+01
         0.27500E+01
         0.27500E+01
         0.27500E+01
         0.27500E+01
         0.27500E+01
         0.27500E+01
         0.27500E+01
         0.27500E+01
         0.27500E+01
         0.27500E+01
         0.27500E+01
         0.27500E+01
         0.27500E+01
         0.27500E+01
         0.27500E+01
         0.27500E+01
         0.27500E+01
         0.27500E+01
         0.27500E+01
         0.27500E+01
         0.27500E+01
         0.27500E+01
         0.27500E+01
         0.27500E+01
         0.27500E+01
         0.27500E+01
         0.27500E+01
         0.27500E+01
         0.27500E+01
         0.27500E+01
         0.27500E+01
         0.27500E+01
         0.27500E+01
         0.27500E+01
         0.27500E+01
         0.27500E+01
         0.27500E+01
         0.27500E+01
         0.27500E+01
         0.27500E+01
         0.27500E+01
         0.27500E+01
         0.27500E+01
         0.27500E+01
         0.27500E+01
         0.27500E+01
         0.27500E+01
         0.27500E+01
         0.27500E+01
         0.27500E+01
         0.27500E+01
         0.27500E+01
         0.27500E+01
         0.27500E+01
         0.27500E+01
         0.27500E+01
         0.27500E+01
         0.27500E+01
         0.27500E+01
         0.27500E+01
         0.27500E+01
         0.27500E+01
         0.27500E+01
         0.27500E+01
         0.27500E+01
         0.27500E+01
         0.27500E+01
         0.27500E+01
         0.27500E+01
         0.27500E+01
         0.27500E+01
         0.27500E+01
         0.27500E+01
         0.27500E+01
         0.27500E+01
         0.27500E+01
         0.27500E+01
         0.27500E+01
         0.27500E+01
         0.27500E+01
         0.27500E+01
         0.27500E+01
         0.27500E+01
         0.27500E+01
         0.27500E+01
         0.27500E+01
         0.27500E+01
         0.27500E+01
         0.27500E+01
         0.27500E+01
         0.27500E+01
         0.27500E+01
         0.27500E+01
         0.27500E+01
         0.27500E+01
         0.27500E+01
         0.27500E+01
         0.27500E+01
         0.27500E+01
         0.27500E+01
         0.27500E+01
         0.27500E+01
         0.27500E+01
         0.27500E+01
         0.27500E+01
         0.27500E+01
         0.27500E+01
         0.27500E+01
         0.27500E+01
         0.27500E+01
         0.27500E+01
         0.27500E+01
         0.27500E+01
         0.27500E+01
         0.27500E+01
         0.27500E+01
         0.27500E+01
         0.27500E+01
         0.27500E+01
         0.27500E+01
         0.27500E+01
         0.27500E+01
         0.27500E+01
         0.27500E+01
         0.27500E+01
         0.27500E+01
         0.27500E+01
         0.27500E+01
         0.27500E+01
         0.27500E+01
         0.27500E+01
         0.27500E+01
         0.27500E+01
         0.27500E+01
         0.27500E+01
         0.27500E+01
         0.27500E+01
         0.27500E+01
         0.27500E+01
         0.27500E+01
         0.27500E+01
         0.27500E+01
         0.27500E+01
         0.27500E+01
         0.27500E+01
         0.27500E+01
         0.27500E+01
         0.27500E+01
         0.27500E+01
         0.27500E+01
         0.27500E+01
         0.27500E+01
         0.27500E+01
         0.27500E+01
         0.27500E+01
         0.27500E+01
         0.27500E+01
         0.27500E+01
         0.27500E+01
         0.27500E+01
         0.27500E+01
         0.27500E+01
         0.27500E+01
         0.27500E+01
         0.27500E+01
         0.27500E+01
         0.27500E+01
         0.27500E+01
         0.27500E+01
         0.27500E+01
         0.27500E+01
         0.27500E+01
         0.27500E+01
         0.27500E+01
         0.27500E+01
         0.27500E+01
         0.27500E+01
         0.27500E+01
         0.27500E+01
         0.27500E+01
         0.27500E+01
         0.27500E+01
         0.27500E+01
         0.27500E+01
         0.27500E+01
         0.27500E+01
         0.27500E+01
         0.27500E+01
         0.27500E+01
         0.27500E+01
         0.27500E+01
         0.27500E+01
         0.27500E+01
         0.27500E+01
         0.27500E+01
         0.27500E+01
         0.27500E+01
         0.27500E+01
         0.27500E+01
         0.27500E+01
         0.27500E+01
         0.27500E+01
         0.27500E+01
         0.27500E+01
         0.27500E+01
         0.27500E+01
         0.27500E+01
         0.27500E+01
         0.27500E+01
         0.27500E+01
         0.27500E+01
         0.27500E+01
         0.27500E+01
         0.27500E+01
         0.27500E+01
         0.27500E+01
         0.27500E+01
         0.27500E+01
         0.27500E+01
         0.27500E+01
         0.27500E+01
         0.27500E+01
         0.27500E+01
         0.27500E+01
         0.27500E+01
         0.27500E+01
         0.27500E+01
         0.27500E+01
         0.27500E+01
         0.27500E+01
         0.27500E+01
         0.27500E+01
         0.27500E+01
         0.27500E+01
         0.27500E+01
         0.27500E+01
         0.27500E+01
         0.27500E+01
         0.27500E+01
         0.27500E+01
         0.27500E+01
         0.27500E+01
         0.27500E+01
         0.27500E+01
         0.27500E+01
         0.27500E+01
         0.27500E+01
         0.27500E+01
         0.27500E+01
         0.27500E+01
         0.27500E+01
         0.27500E+01
         0.27500E+01
         0.27500E+01
         0.27500E+01
         0.27500E+01
         0.27500E+01
         0.27500E+01
         0.27500E+01
         0.27500E+01
         0.27500E+01
         0.27500E+01
         0.27500E+01
         0.27500E+01
         0.27500E+01
         0.27500E+01
         0.27500E+01
         0.27500E+01
         0.27500E+01
         0.27500E+01
         0.27500E+01
         0.27500E+01
         0.27500E+01
         0.27500E+01
         0.27500E+01
         0.27500E+01
         0.27500E+01
         0.27500E+01
         0.27500E+01
         0.27500E+01
         0.27500E+01
         0.27500E+01
         0.27500E+01
         0.27500E+01
         0.27500E+01
         0.27500E+01
         0.27500E+01
         0.27500E+01
         0.27500E+01
         0.27500E+01
         0.27500E+01
         0.27500E+01
         0.27500E+01
         0.27500E+01
         0.27500E+01
         0.27500E+01
         0.27500E+01
         0.27500E+01
         0.27500E+01
         0.27500E+01
         0.27500E+01
         0.27500E+01
         0.27500E+01
         0.27500E+01
         0.27500E+01
         0.27500E+01
         0.27500E+01
         0.27500E+01
         0.27500E+01
         0.27500E+01
         0.27500E+01
         0.27500E+01
         0.27500E+01
         0.27500E+01
         0.27500E+01
         0.27500E+01
         0.27500E+01
         0.27500E+01
         0.27500E+01
         0.27500E+01
         0.27500E+01
         0.27500E+01
         0.27500E+01
         0.27500E+01
         0.27500E+01
         0.27500E+01
         0.27500E+01
         0.27500E+01
         0.27500E+01
         0.27500E+01
         0.27500E+01
         0.27500E+01
         0.27500E+01
         0.27500E+01
         0.27500E+01
         0.27500E+01
         0.27500E+01
         0.27500E+01
         0.27500E+01
         0.27500E+01
         0.27500E+01
         0.27500E+01
         0.27500E+01
         0.27500E+01
         0.27500E+01
         0.27500E+01
         0.27500E+01
         0.27500E+01
         0.27500E+01
         0.27500E+01
         0.27500E+01
         0.27500E+01
         0.27500E+01
         0.27500E+01
  
SCALARS              physical_window_x  double 1
LOOKUP_TABLE default
         0.42419E-02
         0.35201E-02
         0.37624E-02
         0.42419E-02
         0.42417E-02
         0.35201E-02
         0.37618E-02
         0.42417E-02
         0.37624E-02
         0.37624E-02
         0.37618E-02
         0.37618E-02
         0.30086E-02
         0.32069E-02
         0.30084E-02
         0.32067E-02
         0.42419E-02
         0.32069E-02
         0.42417E-02
         0.32067E-02
         0.24180E-02
         0.29942E-02
         0.32396E-02
         0.24180E-02
         0.29933E-02
         0.32385E-02
         0.26608E-02
         0.27190E-02
         0.26608E-02
         0.27190E-02
         0.42687E-02
         0.36511E-02
         0.42687E-02
         0.42687E-02
         0.36511E-02
         0.42687E-02
         0.32069E-02
         0.29739E-02
         0.32066E-02
         0.29739E-02
         0.34652E-02
         0.32621E-02
         0.34652E-02
         0.32621E-02
         0.37123E-02
         0.32069E-02
         0.37123E-02
         0.32066E-02
         0.30844E-02
         0.30844E-02
         0.35191E-02
         0.35189E-02
         0.26925E-02
         0.26925E-02
         0.26925E-02
         0.26925E-02
         0.24643E-02
         0.27651E-02
         0.24643E-02
         0.27651E-02
         0.42687E-02
         0.35191E-02
         0.42687E-02
         0.35189E-02
         0.42687E-02
         0.42687E-02
         0.34658E-02
         0.34648E-02
         0.27274E-02
         0.31799E-02
         0.27273E-02
         0.31796E-02
         0.32396E-02
         0.32385E-02
         0.26964E-02
         0.26960E-02
         0.27828E-02
         0.27828E-02
         0.27828E-02
         0.27828E-02
         0.27004E-02
         0.31883E-02
         0.27003E-02
         0.31880E-02
         0.31883E-02
         0.31880E-02
         0.37123E-02
         0.37123E-02
         0.36245E-02
         0.36245E-02
         0.28253E-02
         0.31642E-02
         0.28253E-02
         0.31636E-02
         0.33485E-02
         0.33485E-02
         0.33485E-02
         0.33485E-02
         0.31978E-02
         0.31969E-02
         0.29849E-02
         0.32843E-02
         0.29849E-02
         0.32843E-02
         0.27274E-02
         0.31109E-02
         0.27273E-02
         0.31109E-02
         0.31799E-02
         0.31796E-02
         0.32396E-02
         0.32385E-02
         0.32396E-02
         0.32385E-02
         0.29942E-02
         0.29933E-02
         0.27190E-02
         0.27190E-02
         0.26964E-02
         0.26960E-02
         0.27828E-02
         0.27828E-02
         0.27828E-02
         0.27828E-02
         0.27004E-02
         0.27003E-02
         0.31883E-02
         0.31880E-02
         0.31883E-02
         0.31880E-02
         0.32621E-02
         0.32621E-02
         0.34652E-02
         0.34652E-02
         0.37123E-02
         0.37123E-02
         0.37123E-02
         0.37123E-02
         0.36245E-02
         0.36245E-02
         0.28253E-02
         0.28253E-02
         0.29097E-02
         0.29087E-02
         0.32389E-02
         0.32378E-02
         0.32389E-02
         0.32378E-02
         0.31978E-02
         0.31969E-02
         0.29849E-02
         0.29849E-02
         0.32843E-02
         0.32843E-02
         0.32843E-02
         0.32843E-02
         0.42420E-02
         0.35201E-02
         0.37629E-02
         0.42420E-02
         0.37629E-02
         0.37629E-02
         0.30087E-02
         0.32071E-02
         0.42420E-02
         0.32071E-02
         0.24178E-02
         0.29952E-02
         0.32407E-02
         0.26596E-02
         0.27191E-02
         0.42679E-02
         0.36502E-02
         0.42679E-02
         0.32071E-02
         0.29727E-02
         0.34648E-02
         0.32622E-02
         0.37119E-02
         0.32071E-02
         0.30833E-02
         0.35193E-02
         0.26910E-02
         0.26910E-02
         0.24638E-02
         0.27644E-02
         0.42679E-02
         0.35193E-02
         0.42679E-02
         0.34670E-02
         0.27274E-02
         0.31802E-02
         0.32407E-02
         0.26968E-02
         0.27828E-02
         0.27828E-02
         0.27005E-02
         0.31885E-02
         0.31885E-02
         0.37119E-02
         0.36244E-02
         0.28250E-02
         0.31647E-02
         0.33484E-02
         0.33484E-02
         0.31986E-02
         0.29848E-02
         0.32841E-02
         0.27274E-02
         0.31099E-02
         0.31802E-02
         0.32407E-02
         0.32407E-02
         0.29952E-02
         0.27191E-02
         0.26968E-02
         0.27828E-02
         0.27828E-02
         0.27005E-02
         0.31885E-02
         0.31885E-02
         0.32622E-02
         0.34648E-02
         0.37119E-02
         0.37119E-02
         0.36244E-02
         0.28250E-02
         0.29106E-02
         0.32401E-02
         0.32401E-02
         0.31986E-02
         0.29848E-02
         0.32841E-02
         0.32841E-02
         0.42421E-02
         0.35201E-02
         0.37634E-02
         0.42421E-02
         0.37634E-02
         0.37634E-02
         0.30089E-02
         0.32073E-02
         0.42421E-02
         0.32073E-02
         0.24177E-02
         0.29961E-02
         0.32418E-02
         0.26584E-02
         0.27191E-02
         0.42670E-02
         0.36493E-02
         0.42670E-02
         0.32073E-02
         0.29714E-02
         0.34644E-02
         0.32623E-02
         0.37115E-02
         0.32073E-02
         0.30822E-02
         0.35195E-02
         0.26896E-02
         0.26896E-02
         0.24633E-02
         0.27638E-02
         0.42670E-02
         0.35195E-02
         0.42670E-02
         0.34681E-02
         0.27275E-02
         0.31805E-02
         0.32418E-02
         0.26972E-02
         0.27828E-02
         0.27828E-02
         0.27006E-02
         0.31888E-02
         0.31888E-02
         0.37115E-02
         0.36243E-02
         0.28247E-02
         0.31652E-02
         0.33483E-02
         0.33483E-02
         0.31995E-02
         0.29847E-02
         0.32839E-02
         0.27275E-02
         0.31090E-02
         0.31805E-02
         0.32418E-02
         0.32418E-02
         0.29961E-02
         0.27191E-02
         0.26972E-02
         0.27828E-02
         0.27828E-02
         0.27006E-02
         0.31888E-02
         0.31888E-02
         0.32623E-02
         0.34644E-02
         0.37115E-02
         0.37115E-02
         0.36243E-02
         0.28247E-02
         0.29116E-02
         0.32412E-02
         0.32412E-02
         0.31995E-02
         0.29847E-02
         0.32839E-02
         0.32839E-02
         0.42423E-02
         0.35200E-02
         0.37639E-02
         0.42423E-02
         0.37639E-02
         0.37639E-02
         0.30091E-02
         0.32075E-02
         0.42423E-02
         0.32075E-02
         0.24176E-02
         0.29970E-02
         0.32428E-02
         0.26572E-02
         0.27192E-02
         0.42662E-02
         0.36483E-02
         0.42662E-02
         0.32075E-02
         0.29702E-02
         0.34639E-02
         0.32624E-02
         0.37111E-02
         0.32075E-02
         0.30811E-02
         0.35197E-02
         0.26881E-02
         0.26881E-02
         0.24628E-02
         0.27631E-02
         0.42662E-02
         0.35197E-02
         0.42662E-02
         0.34692E-02
         0.27276E-02
         0.31808E-02
         0.32428E-02
         0.26975E-02
         0.27828E-02
         0.27828E-02
         0.27007E-02
         0.31890E-02
         0.31890E-02
         0.37111E-02
         0.36242E-02
         0.28243E-02
         0.31658E-02
         0.33482E-02
         0.33482E-02
         0.32003E-02
         0.29846E-02
         0.32837E-02
         0.27276E-02
         0.31081E-02
         0.31808E-02
         0.32428E-02
         0.32428E-02
         0.29970E-02
         0.27192E-02
         0.26975E-02
         0.27828E-02
         0.27828E-02
         0.27007E-02
         0.31890E-02
         0.31890E-02
         0.32624E-02
         0.34639E-02
         0.37111E-02
         0.37111E-02
         0.36242E-02
         0.28243E-02
         0.29125E-02
         0.32423E-02
         0.32423E-02
         0.32003E-02
         0.29846E-02
         0.32837E-02
         0.32837E-02
         0.42424E-02
         0.35200E-02
         0.37644E-02
         0.42424E-02
         0.37644E-02
         0.37644E-02
         0.30093E-02
         0.32077E-02
         0.42424E-02
         0.32077E-02
         0.24174E-02
         0.29979E-02
         0.32439E-02
         0.26559E-02
         0.27192E-02
         0.42653E-02
         0.36474E-02
         0.42653E-02
         0.32077E-02
         0.29690E-02
         0.34635E-02
         0.32624E-02
         0.37108E-02
         0.32077E-02
         0.30799E-02
         0.35199E-02
         0.26867E-02
         0.26867E-02
         0.24623E-02
         0.27625E-02
         0.42653E-02
         0.35199E-02
         0.42653E-02
         0.34703E-02
         0.27276E-02
         0.31812E-02
         0.32439E-02
         0.26979E-02
         0.27828E-02
         0.27828E-02
         0.27008E-02
         0.31893E-02
         0.31893E-02
         0.37108E-02
         0.36241E-02
         0.28240E-02
         0.31663E-02
         0.33481E-02
         0.33481E-02
         0.32012E-02
         0.29844E-02
         0.32835E-02
         0.27276E-02
         0.31071E-02
         0.31812E-02
         0.32439E-02
         0.32439E-02
         0.29979E-02
         0.27192E-02
         0.26979E-02
         0.27828E-02
         0.27828E-02
         0.27008E-02
         0.31893E-02
         0.31893E-02
         0.32624E-02
         0.34635E-02
         0.37108E-02
         0.37108E-02
         0.36241E-02
         0.28240E-02
         0.29135E-02
         0.32434E-02
         0.32434E-02
         0.32012E-02
         0.29844E-02
         0.32835E-02
         0.32835E-02
         0.42425E-02
         0.35200E-02
         0.37649E-02
         0.42425E-02
         0.37649E-02
         0.37649E-02
         0.30095E-02
         0.32079E-02
         0.42425E-02
         0.32079E-02
         0.24173E-02
         0.29989E-02
         0.32450E-02
         0.26547E-02
         0.27193E-02
         0.42645E-02
         0.36465E-02
         0.42645E-02
         0.32079E-02
         0.29677E-02
         0.34631E-02
         0.32625E-02
         0.37104E-02
         0.32079E-02
         0.30788E-02
         0.35201E-02
         0.26852E-02
         0.26852E-02
         0.24618E-02
         0.27618E-02
         0.42645E-02
         0.35201E-02
         0.42645E-02
         0.34715E-02
         0.27277E-02
         0.31815E-02
         0.32450E-02
         0.26983E-02
         0.27828E-02
         0.27828E-02
         0.27009E-02
         0.31895E-02
         0.31895E-02
         0.37104E-02
         0.36239E-02
         0.28237E-02
         0.31668E-02
         0.33480E-02
         0.33480E-02
         0.32020E-02
         0.29843E-02
         0.32833E-02
         0.27277E-02
         0.31062E-02
         0.31815E-02
         0.32450E-02
         0.32450E-02
         0.29989E-02
         0.27193E-02
         0.26983E-02
         0.27828E-02
         0.27828E-02
         0.27009E-02
         0.31895E-02
         0.31895E-02
         0.32625E-02
         0.34631E-02
         0.37104E-02
         0.37104E-02
         0.36239E-02
         0.28237E-02
         0.29145E-02
         0.32445E-02
         0.32445E-02
         0.32020E-02
         0.29843E-02
         0.32833E-02
         0.32833E-02
         0.42427E-02
         0.35200E-02
         0.37654E-02
         0.42427E-02
         0.37654E-02
         0.37654E-02
         0.30097E-02
         0.32081E-02
         0.42427E-02
         0.32081E-02
         0.24171E-02
         0.29998E-02
         0.32461E-02
         0.26535E-02
         0.27193E-02
         0.42636E-02
         0.36455E-02
         0.42636E-02
         0.32081E-02
         0.29665E-02
         0.34626E-02
         0.32626E-02
         0.37100E-02
         0.32081E-02
         0.30777E-02
         0.35203E-02
         0.26838E-02
         0.26838E-02
         0.24613E-02
         0.27611E-02
         0.42636E-02
         0.35203E-02
         0.42636E-02
         0.34726E-02
         0.27278E-02
         0.31818E-02
         0.32461E-02
         0.26987E-02
         0.27827E-02
         0.27827E-02
         0.27010E-02
         0.31898E-02
         0.31898E-02
         0.37100E-02
         0.36238E-02
         0.28234E-02
         0.31673E-02
         0.33479E-02
         0.33479E-02
         0.32029E-02
         0.29842E-02
         0.32831E-02
         0.27278E-02
         0.31052E-02
         0.31818E-02
         0.32461E-02
         0.32461E-02
         0.29998E-02
         0.27193E-02
         0.26987E-02
         0.27827E-02
         0.27827E-02
         0.27010E-02
         0.31898E-02
         0.31898E-02
         0.32626E-02
         0.34626E-02
         0.37100E-02
         0.37100E-02
         0.36238E-02
         0.28234E-02
         0.29154E-02
         0.32457E-02
         0.32457E-02
         0.32029E-02
         0.29842E-02
         0.32831E-02
         0.32831E-02
         0.42428E-02
         0.35199E-02
         0.37660E-02
         0.42428E-02
         0.37660E-02
         0.37660E-02
         0.30099E-02
         0.32083E-02
         0.42428E-02
         0.32083E-02
         0.24170E-02
         0.30007E-02
         0.32471E-02
         0.26523E-02
         0.27194E-02
         0.42628E-02
         0.36446E-02
         0.42628E-02
         0.32083E-02
         0.29652E-02
         0.34622E-02
         0.32627E-02
         0.37096E-02
         0.32083E-02
         0.30766E-02
         0.35205E-02
         0.26823E-02
         0.26823E-02
         0.24608E-02
         0.27605E-02
         0.42628E-02
         0.35205E-02
         0.42628E-02
         0.34737E-02
         0.27279E-02
         0.31821E-02
         0.32471E-02
         0.26991E-02
         0.27827E-02
         0.27827E-02
         0.27011E-02
         0.31900E-02
         0.31900E-02
         0.37096E-02
         0.36237E-02
         0.28231E-02
         0.31679E-02
         0.33478E-02
         0.33478E-02
         0.32038E-02
         0.29841E-02
         0.32829E-02
         0.27279E-02
         0.31043E-02
         0.31821E-02
         0.32471E-02
         0.32471E-02
         0.30007E-02
         0.27194E-02
         0.26991E-02
         0.27827E-02
         0.27827E-02
         0.27011E-02
         0.31900E-02
         0.31900E-02
         0.32627E-02
         0.34622E-02
         0.37096E-02
         0.37096E-02
         0.36237E-02
         0.28231E-02
         0.29164E-02
         0.32468E-02
         0.32468E-02
         0.32038E-02
         0.29841E-02
         0.32829E-02
         0.32829E-02
         0.42429E-02
         0.35199E-02
         0.37665E-02
         0.42429E-02
         0.37665E-02
         0.37665E-02
         0.30101E-02
         0.32085E-02
         0.42429E-02
         0.32085E-02
         0.24168E-02
         0.30017E-02
         0.32482E-02
         0.26510E-02
         0.27194E-02
         0.42619E-02
         0.36437E-02
         0.42619E-02
         0.32085E-02
         0.29640E-02
         0.34618E-02
         0.32627E-02
         0.37092E-02
         0.32085E-02
         0.30755E-02
         0.35207E-02
         0.26808E-02
         0.26808E-02
         0.24603E-02
         0.27599E-02
         0.42619E-02
         0.35207E-02
         0.42619E-02
         0.34748E-02
         0.27279E-02
         0.31824E-02
         0.32482E-02
         0.26994E-02
         0.27827E-02
         0.27827E-02
         0.27012E-02
         0.31902E-02
         0.31902E-02
         0.37092E-02
         0.36236E-02
         0.28227E-02
         0.31684E-02
         0.33477E-02
         0.33477E-02
         0.32046E-02
         0.29840E-02
         0.32827E-02
         0.27279E-02
         0.31034E-02
         0.31824E-02
         0.32482E-02
         0.32482E-02
         0.30017E-02
         0.27194E-02
         0.26994E-02
         0.27827E-02
         0.27827E-02
         0.27012E-02
         0.31902E-02
         0.31902E-02
         0.32627E-02
         0.34618E-02
         0.37092E-02
         0.37092E-02
         0.36236E-02
         0.28227E-02
         0.29173E-02
         0.32479E-02
         0.32479E-02
         0.32046E-02
         0.29840E-02
         0.32827E-02
         0.32827E-02
         0.42431E-02
         0.35199E-02
         0.37670E-02
         0.42431E-02
         0.37670E-02
         0.37670E-02
         0.30102E-02
         0.32087E-02
         0.42431E-02
         0.32087E-02
         0.24167E-02
         0.30026E-02
         0.32493E-02
         0.26498E-02
         0.27194E-02
         0.42611E-02
         0.36427E-02
         0.42611E-02
         0.32087E-02
         0.29628E-02
         0.34613E-02
         0.32628E-02
         0.37089E-02
         0.32087E-02
         0.30744E-02
         0.35209E-02
         0.26794E-02
         0.26794E-02
         0.24598E-02
         0.27592E-02
         0.42611E-02
         0.35209E-02
         0.42611E-02
         0.34759E-02
         0.27280E-02
         0.31827E-02
         0.32493E-02
         0.26998E-02
         0.27827E-02
         0.27827E-02
         0.27013E-02
         0.31905E-02
         0.31905E-02
         0.37089E-02
         0.36235E-02
         0.28224E-02
         0.31689E-02
         0.33476E-02
         0.33476E-02
         0.32055E-02
         0.29839E-02
         0.32825E-02
         0.27280E-02
         0.31024E-02
         0.31827E-02
         0.32493E-02
         0.32493E-02
         0.30026E-02
         0.27194E-02
         0.26998E-02
         0.27827E-02
         0.27827E-02
         0.27013E-02
         0.31905E-02
         0.31905E-02
         0.32628E-02
         0.34613E-02
         0.37089E-02
         0.37089E-02
         0.36235E-02
         0.28224E-02
         0.29183E-02
         0.32490E-02
         0.32490E-02
         0.32055E-02
         0.29839E-02
         0.32825E-02
         0.32825E-02
         0.42432E-02
         0.35199E-02
         0.37675E-02
         0.42432E-02
         0.37675E-02
         0.37675E-02
         0.30104E-02
         0.32089E-02
         0.42432E-02
         0.32089E-02
         0.24166E-02
         0.30035E-02
         0.32504E-02
         0.26486E-02
         0.27195E-02
         0.42603E-02
         0.36418E-02
         0.42603E-02
         0.32089E-02
         0.29615E-02
         0.34609E-02
         0.32629E-02
         0.37085E-02
         0.32089E-02
         0.30732E-02
         0.35211E-02
         0.26779E-02
         0.26779E-02
         0.24593E-02
         0.27585E-02
         0.42603E-02
         0.35211E-02
         0.42603E-02
         0.34771E-02
         0.27281E-02
         0.31830E-02
         0.32504E-02
         0.27002E-02
         0.27827E-02
         0.27827E-02
         0.27014E-02
         0.31907E-02
         0.31907E-02
         0.37085E-02
         0.36233E-02
         0.28221E-02
         0.31694E-02
         0.33475E-02
         0.33475E-02
         0.32063E-02
         0.29838E-02
         0.32823E-02
         0.27281E-02
         0.31015E-02
         0.31830E-02
         0.32504E-02
         0.32504E-02
         0.30035E-02
         0.27195E-02
         0.27002E-02
         0.27827E-02
         0.27827E-02
         0.27014E-02
         0.31907E-02
         0.31907E-02
         0.32629E-02
         0.34609E-02
         0.37085E-02
         0.37085E-02
         0.36233E-02
         0.28221E-02
         0.29193E-02
         0.32501E-02
         0.32501E-02
         0.32063E-02
         0.29838E-02
         0.32823E-02
         0.32823E-02
         0.42433E-02
         0.35199E-02
         0.37680E-02
         0.42433E-02
         0.37680E-02
         0.37680E-02
         0.30106E-02
         0.32091E-02
         0.42433E-02
         0.32091E-02
         0.24164E-02
         0.30045E-02
         0.32514E-02
         0.26474E-02
         0.27195E-02
         0.42594E-02
         0.36409E-02
         0.42594E-02
         0.32091E-02
         0.29603E-02
         0.34605E-02
         0.32630E-02
         0.37081E-02
         0.32091E-02
         0.30721E-02
         0.35213E-02
         0.26765E-02
         0.26765E-02
         0.24588E-02
         0.27579E-02
         0.42594E-02
         0.35213E-02
         0.42594E-02
         0.34782E-02
         0.27281E-02
         0.31833E-02
         0.32514E-02
         0.27006E-02
         0.27826E-02
         0.27826E-02
         0.27015E-02
         0.31910E-02
         0.31910E-02
         0.37081E-02
         0.36232E-02
         0.28218E-02
         0.31700E-02
         0.33474E-02
         0.33474E-02
         0.32072E-02
         0.29836E-02
         0.32821E-02
         0.27281E-02
         0.31005E-02
         0.31833E-02
         0.32514E-02
         0.32514E-02
         0.30045E-02
         0.27195E-02
         0.27006E-02
         0.27826E-02
         0.27826E-02
         0.27015E-02
         0.31910E-02
         0.31910E-02
         0.32630E-02
         0.34605E-02
         0.37081E-02
         0.37081E-02
         0.36232E-02
         0.28218E-02
         0.29202E-02
         0.32512E-02
         0.32512E-02
         0.32072E-02
         0.29836E-02
         0.32821E-02
         0.32821E-02
         0.42435E-02
         0.35199E-02
         0.37685E-02
         0.42435E-02
         0.37685E-02
         0.37685E-02
         0.30108E-02
         0.32093E-02
         0.42435E-02
         0.32093E-02
         0.24163E-02
         0.30054E-02
         0.32525E-02
         0.26461E-02
         0.27196E-02
         0.42586E-02
         0.36399E-02
         0.42586E-02
         0.32093E-02
         0.29591E-02
         0.34601E-02
         0.32630E-02
         0.37077E-02
         0.32093E-02
         0.30710E-02
         0.35215E-02
         0.26750E-02
         0.26750E-02
         0.24583E-02
         0.27572E-02
         0.42586E-02
         0.35215E-02
         0.42586E-02
         0.34793E-02
         0.27282E-02
         0.31836E-02
         0.32525E-02
         0.27010E-02
         0.27826E-02
         0.27826E-02
         0.27016E-02
         0.31912E-02
         0.31912E-02
         0.37077E-02
         0.36231E-02
         0.28215E-02
         0.31705E-02
         0.33473E-02
         0.33473E-02
         0.32080E-02
         0.29835E-02
         0.32819E-02
         0.27282E-02
         0.30996E-02
         0.31836E-02
         0.32525E-02
         0.32525E-02
         0.30054E-02
         0.27196E-02
         0.27010E-02
         0.27826E-02
         0.27826E-02
         0.27016E-02
         0.31912E-02
         0.31912E-02
         0.32630E-02
         0.34601E-02
         0.37077E-02
         0.37077E-02
         0.36231E-02
         0.28215E-02
         0.29212E-02
         0.32524E-02
         0.32524E-02
         0.32080E-02
         0.29835E-02
         0.32819E-02
         0.32819E-02
         0.42436E-02
         0.35198E-02
         0.37690E-02
         0.42436E-02
         0.37690E-02
         0.37690E-02
         0.30110E-02
         0.32095E-02
         0.42436E-02
         0.32095E-02
         0.24162E-02
         0.30064E-02
         0.32536E-02
         0.26449E-02
         0.27196E-02
         0.42577E-02
         0.36390E-02
         0.42577E-02
         0.32096E-02
         0.29578E-02
         0.34596E-02
         0.32631E-02
         0.37074E-02
         0.32096E-02
         0.30699E-02
         0.35217E-02
         0.26735E-02
         0.26735E-02
         0.24578E-02
         0.27566E-02
         0.42577E-02
         0.35217E-02
         0.42577E-02
         0.34804E-02
         0.27283E-02
         0.31839E-02
         0.32536E-02
         0.27013E-02
         0.27826E-02
         0.27826E-02
         0.27017E-02
         0.31915E-02
         0.31915E-02
         0.37074E-02
         0.36230E-02
         0.28211E-02
         0.31710E-02
         0.33472E-02
         0.33472E-02
         0.32089E-02
         0.29834E-02
         0.32817E-02
         0.27283E-02
         0.30986E-02
         0.31839E-02
         0.32536E-02
         0.32536E-02
         0.30064E-02
         0.27196E-02
         0.27013E-02
         0.27826E-02
         0.27826E-02
         0.27017E-02
         0.31915E-02
         0.31915E-02
         0.32631E-02
         0.34596E-02
         0.37074E-02
         0.37074E-02
         0.36230E-02
         0.28211E-02
         0.29221E-02
         0.32535E-02
         0.32535E-02
         0.32089E-02
         0.29834E-02
         0.32817E-02
         0.32817E-02
         0.42437E-02
         0.35198E-02
         0.37695E-02
         0.42437E-02
         0.37695E-02
         0.37695E-02
         0.30112E-02
         0.32097E-02
         0.42437E-02
         0.32097E-02
         0.24160E-02
         0.30073E-02
         0.32547E-02
         0.26437E-02
         0.27197E-02
         0.42569E-02
         0.36381E-02
         0.42569E-02
         0.32098E-02
         0.29566E-02
         0.34592E-02
         0.32632E-02
         0.37070E-02
         0.32098E-02
         0.30688E-02
         0.35219E-02
         0.26721E-02
         0.26721E-02
         0.24573E-02
         0.27560E-02
         0.42569E-02
         0.35219E-02
         0.42569E-02
         0.34815E-02
         0.27284E-02
         0.31843E-02
         0.32547E-02
         0.27017E-02
         0.27826E-02
         0.27826E-02
         0.27018E-02
         0.31917E-02
         0.31917E-02
         0.37070E-02
         0.36229E-02
         0.28208E-02
         0.31716E-02
         0.33471E-02
         0.33471E-02
         0.32097E-02
         0.29833E-02
         0.32815E-02
         0.27284E-02
         0.30977E-02
         0.31843E-02
         0.32547E-02
         0.32547E-02
         0.30073E-02
         0.27197E-02
         0.27017E-02
         0.27826E-02
         0.27826E-02
         0.27018E-02
         0.31917E-02
         0.31917E-02
         0.32632E-02
         0.34592E-02
         0.37070E-02
         0.37070E-02
         0.36229E-02
         0.28208E-02
         0.29231E-02
         0.32546E-02
         0.32546E-02
         0.32097E-02
         0.29833E-02
         0.32815E-02
         0.32815E-02
         0.42439E-02
         0.35198E-02
         0.37701E-02
         0.42439E-02
         0.37701E-02
         0.37701E-02
         0.30113E-02
         0.32099E-02
         0.42439E-02
         0.32099E-02
         0.24159E-02
         0.30082E-02
         0.32558E-02
         0.26425E-02
         0.27197E-02
         0.42560E-02
         0.36371E-02
         0.42560E-02
         0.32100E-02
         0.29554E-02
         0.34588E-02
         0.32633E-02
         0.37066E-02
         0.32100E-02
         0.30677E-02
         0.35221E-02
         0.26706E-02
         0.26706E-02
         0.24568E-02
         0.27553E-02
         0.42560E-02
         0.35221E-02
         0.42560E-02
         0.34827E-02
         0.27284E-02
         0.31846E-02
         0.32558E-02
         0.27021E-02
         0.27826E-02
         0.27826E-02
         0.27019E-02
         0.31920E-02
         0.31920E-02
         0.37066E-02
         0.36227E-02
         0.28205E-02
         0.31721E-02
         0.33470E-02
         0.33470E-02
         0.32106E-02
         0.29831E-02
         0.32813E-02
         0.27284E-02
         0.30968E-02
         0.31846E-02
         0.32558E-02
         0.32558E-02
         0.30082E-02
         0.27197E-02
         0.27021E-02
         0.27826E-02
         0.27826E-02
         0.27019E-02
         0.31920E-02
         0.31920E-02
         0.32633E-02
         0.34588E-02
         0.37066E-02
         0.37066E-02
         0.36227E-02
         0.28205E-02
         0.29241E-02
         0.32557E-02
         0.32557E-02
         0.32106E-02
         0.29831E-02
         0.32813E-02
         0.32813E-02
         0.42440E-02
         0.35198E-02
         0.37706E-02
         0.42440E-02
         0.37706E-02
         0.37706E-02
         0.30115E-02
         0.32101E-02
         0.42440E-02
         0.32101E-02
         0.24158E-02
         0.30091E-02
         0.32568E-02
         0.26412E-02
         0.27198E-02
         0.42552E-02
         0.36362E-02
         0.42552E-02
         0.32102E-02
         0.29541E-02
         0.34583E-02
         0.32633E-02
         0.37062E-02
         0.32102E-02
         0.30665E-02
         0.35223E-02
         0.26692E-02
         0.26692E-02
         0.24563E-02
         0.27546E-02
         0.42552E-02
         0.35223E-02
         0.42552E-02
         0.34838E-02
         0.27285E-02
         0.31849E-02
         0.32568E-02
         0.27025E-02
         0.27826E-02
         0.27826E-02
         0.27020E-02
         0.31922E-02
         0.31922E-02
         0.37062E-02
         0.36226E-02
         0.28202E-02
         0.31726E-02
         0.33469E-02
         0.33469E-02
         0.32114E-02
         0.29830E-02
         0.32811E-02
         0.27285E-02
         0.30958E-02
         0.31849E-02
         0.32568E-02
         0.32568E-02
         0.30091E-02
         0.27198E-02
         0.27025E-02
         0.27826E-02
         0.27826E-02
         0.27020E-02
         0.31922E-02
         0.31922E-02
         0.32633E-02
         0.34583E-02
         0.37062E-02
         0.37062E-02
         0.36226E-02
         0.28202E-02
         0.29250E-02
         0.32568E-02
         0.32568E-02
         0.32114E-02
         0.29830E-02
         0.32811E-02
         0.32811E-02
         0.42441E-02
         0.35198E-02
         0.37711E-02
         0.42441E-02
         0.37711E-02
         0.37711E-02
         0.30117E-02
         0.32103E-02
         0.42441E-02
         0.32103E-02
         0.24156E-02
         0.30101E-02
         0.32579E-02
         0.26400E-02
         0.27198E-02
         0.42543E-02
         0.36353E-02
         0.42543E-02
         0.32104E-02
         0.29529E-02
         0.34579E-02
         0.32634E-02
         0.37058E-02
         0.32104E-02
         0.30654E-02
         0.35225E-02
         0.26677E-02
         0.26677E-02
         0.24558E-02
         0.27540E-02
         0.42543E-02
         0.35225E-02
         0.42543E-02
         0.34849E-02
         0.27286E-02
         0.31852E-02
         0.32579E-02
         0.27029E-02
         0.27826E-02
         0.27826E-02
         0.27021E-02
         0.31924E-02
         0.31924E-02
         0.37058E-02
         0.36225E-02
         0.28198E-02
         0.31731E-02
         0.33468E-02
         0.33468E-02
         0.32123E-02
         0.29829E-02
         0.32809E-02
         0.27286E-02
         0.30949E-02
         0.31852E-02
         0.32579E-02
         0.32579E-02
         0.30101E-02
         0.27198E-02
         0.27029E-02
         0.27826E-02
         0.27826E-02
         0.27021E-02
         0.31924E-02
         0.31924E-02
         0.32634E-02
         0.34579E-02
         0.37058E-02
         0.37058E-02
         0.36225E-02
         0.28198E-02
         0.29260E-02
         0.32579E-02
         0.32579E-02
         0.32123E-02
         0.29829E-02
         0.32809E-02
         0.32809E-02
         0.42443E-02
         0.35197E-02
         0.37716E-02
         0.42443E-02
         0.37716E-02
         0.37716E-02
         0.30119E-02
         0.32105E-02
         0.42443E-02
         0.32105E-02
         0.24155E-02
         0.30110E-02
         0.32590E-02
         0.26388E-02
         0.27199E-02
         0.42535E-02
         0.36343E-02
         0.42535E-02
         0.32106E-02
         0.29517E-02
         0.34575E-02
         0.32635E-02
         0.37055E-02
         0.32106E-02
         0.30643E-02
         0.35227E-02
         0.26663E-02
         0.26663E-02
         0.24553E-02
         0.27533E-02
         0.42535E-02
         0.35227E-02
         0.42535E-02
         0.34860E-02
         0.27286E-02
         0.31855E-02
         0.32590E-02
         0.27032E-02
         0.27826E-02
         0.27826E-02
         0.27022E-02
         0.31927E-02
         0.31927E-02
         0.37055E-02
         0.36224E-02
         0.28195E-02
         0.31737E-02
         0.33467E-02
         0.33467E-02
         0.32132E-02
         0.29828E-02
         0.32807E-02
         0.27286E-02
         0.30939E-02
         0.31855E-02
         0.32590E-02
         0.32590E-02
         0.30110E-02
         0.27199E-02
         0.27032E-02
         0.27826E-02
         0.27826E-02
         0.27022E-02
         0.31927E-02
         0.31927E-02
         0.32635E-02
         0.34575E-02
         0.37055E-02
         0.37055E-02
         0.36224E-02
         0.28195E-02
         0.29269E-02
         0.32591E-02
         0.32591E-02
         0.32132E-02
         0.29828E-02
         0.32807E-02
         0.32807E-02
         0.42444E-02
         0.35197E-02
         0.37721E-02
         0.42444E-02
         0.37721E-02
         0.37721E-02
         0.30121E-02
         0.32107E-02
         0.42444E-02
         0.32107E-02
         0.24154E-02
         0.30119E-02
         0.32601E-02
         0.26376E-02
         0.27199E-02
         0.42527E-02
         0.36334E-02
         0.42527E-02
         0.32108E-02
         0.29504E-02
         0.34571E-02
         0.32636E-02
         0.37051E-02
         0.32108E-02
         0.30632E-02
         0.35229E-02
         0.26648E-02
         0.26648E-02
         0.24552E-02
         0.27527E-02
         0.42527E-02
         0.35229E-02
         0.42527E-02
         0.34871E-02
         0.27287E-02
         0.31858E-02
         0.32601E-02
         0.27036E-02
         0.27825E-02
         0.27825E-02
         0.27023E-02
         0.31929E-02
         0.31929E-02
         0.37051E-02
         0.36223E-02
         0.28192E-02
         0.31742E-02
         0.33466E-02
         0.33466E-02
         0.32140E-02
         0.29827E-02
         0.32805E-02
         0.27287E-02
         0.30930E-02
         0.31858E-02
         0.32601E-02
         0.32601E-02
         0.30119E-02
         0.27199E-02
         0.27036E-02
         0.27825E-02
         0.27825E-02
         0.27023E-02
         0.31929E-02
         0.31929E-02
         0.32636E-02
         0.34571E-02
         0.37051E-02
         0.37051E-02
         0.36223E-02
         0.28192E-02
         0.29279E-02
         0.32602E-02
         0.32602E-02
         0.32140E-02
         0.29827E-02
         0.32805E-02
         0.32805E-02
         0.42445E-02
         0.35197E-02
         0.37726E-02
         0.42445E-02
         0.37726E-02
         0.37726E-02
         0.30123E-02
         0.32108E-02
         0.42445E-02
         0.32108E-02
         0.24152E-02
         0.30129E-02
         0.32611E-02
         0.26363E-02
         0.27200E-02
         0.42518E-02
         0.36325E-02
         0.42518E-02
         0.32110E-02
         0.29492E-02
         0.34566E-02
         0.32636E-02
         0.37047E-02
         0.32110E-02
         0.30621E-02
         0.35231E-02
         0.26633E-02
         0.26633E-02
         0.24554E-02
         0.27520E-02
         0.42518E-02
         0.35231E-02
         0.42518E-02
         0.34882E-02
         0.27288E-02
         0.31861E-02
         0.32611E-02
         0.27040E-02
         0.27825E-02
         0.27825E-02
         0.27024E-02
         0.31932E-02
         0.31932E-02
         0.37047E-02
         0.36222E-02
         0.28189E-02
         0.31747E-02
         0.33465E-02
         0.33465E-02
         0.32149E-02
         0.29826E-02
         0.32803E-02
         0.27288E-02
         0.30921E-02
         0.31861E-02
         0.32611E-02
         0.32611E-02
         0.30129E-02
         0.27200E-02
         0.27040E-02
         0.27825E-02
         0.27825E-02
         0.27024E-02
         0.31932E-02
         0.31932E-02
         0.32636E-02
         0.34566E-02
         0.37047E-02
         0.37047E-02
         0.36222E-02
         0.28189E-02
         0.29289E-02
         0.32613E-02
         0.32613E-02
         0.32149E-02
         0.29826E-02
         0.32803E-02
         0.32803E-02
         0.42447E-02
         0.35196E-02
         0.37732E-02
         0.42447E-02
         0.37732E-02
         0.37732E-02
         0.30125E-02
         0.32111E-02
         0.42447E-02
         0.32111E-02
         0.24151E-02
         0.30138E-02
         0.32622E-02
         0.26351E-02
         0.27200E-02
         0.42510E-02
         0.36315E-02
         0.42510E-02
         0.32112E-02
         0.29480E-02
         0.34562E-02
         0.32637E-02
         0.37043E-02
         0.32112E-02
         0.30610E-02
         0.35233E-02
         0.26619E-02
         0.26619E-02
         0.24557E-02
         0.27514E-02
         0.42510E-02
         0.35233E-02
         0.42510E-02
         0.34894E-02
         0.27289E-02
         0.31864E-02
         0.32622E-02
         0.27044E-02
         0.27825E-02
         0.27825E-02
         0.27025E-02
         0.31934E-02
         0.31934E-02
         0.37043E-02
         0.36220E-02
         0.28186E-02
         0.31753E-02
         0.33464E-02
         0.33464E-02
         0.32157E-02
         0.29824E-02
         0.32801E-02
         0.27289E-02
         0.30911E-02
         0.31864E-02
         0.32622E-02
         0.32622E-02
         0.30138E-02
         0.27200E-02
         0.27044E-02
         0.27825E-02
         0.27825E-02
         0.27025E-02
         0.31934E-02
         0.31934E-02
         0.32637E-02
         0.34562E-02
         0.37043E-02
         0.37043E-02
         0.36220E-02
         0.28186E-02
         0.29298E-02
         0.32624E-02
         0.32624E-02
         0.32157E-02
         0.29824E-02
         0.32801E-02
         0.32801E-02
         0.42448E-02
         0.35196E-02
         0.37737E-02
         0.42448E-02
         0.37737E-02
         0.37737E-02
         0.30126E-02
         0.32112E-02
         0.42448E-02
         0.32112E-02
         0.24150E-02
         0.30147E-02
         0.32633E-02
         0.26339E-02
         0.27200E-02
         0.42501E-02
         0.36306E-02
         0.42501E-02
         0.32114E-02
         0.29467E-02
         0.34558E-02
         0.32638E-02
         0.37039E-02
         0.32114E-02
         0.30598E-02
         0.35235E-02
         0.26604E-02
         0.26604E-02
         0.24559E-02
         0.27507E-02
         0.42501E-02
         0.35235E-02
         0.42501E-02
         0.34905E-02
         0.27289E-02
         0.31867E-02
         0.32633E-02
         0.27048E-02
         0.27825E-02
         0.27825E-02
         0.27026E-02
         0.31937E-02
         0.31937E-02
         0.37039E-02
         0.36219E-02
         0.28183E-02
         0.31758E-02
         0.33463E-02
         0.33463E-02
         0.32166E-02
         0.29823E-02
         0.32799E-02
         0.27289E-02
         0.30902E-02
         0.31867E-02
         0.32633E-02
         0.32633E-02
         0.30147E-02
         0.27200E-02
         0.27048E-02
         0.27825E-02
         0.27825E-02
         0.27026E-02
         0.31937E-02
         0.31937E-02
         0.32638E-02
         0.34558E-02
         0.37039E-02
         0.37039E-02
         0.36219E-02
         0.28183E-02
         0.29308E-02
         0.32635E-02
         0.32635E-02
         0.32166E-02
         0.29823E-02
         0.32799E-02
         0.32799E-02
         0.42448E-02
         0.35196E-02
         0.37737E-02
         0.42448E-02
         0.37737E-02
         0.37737E-02
         0.30126E-02
         0.32112E-02
         0.42448E-02
         0.32112E-02
         0.24148E-02
         0.30147E-02
         0.32633E-02
         0.26327E-02
         0.27200E-02
         0.42493E-02
         0.36297E-02
         0.42493E-02
         0.32114E-02
         0.29455E-02
         0.34553E-02
         0.32638E-02
         0.37036E-02
         0.32114E-02
         0.30587E-02
         0.35235E-02
         0.26590E-02
         0.26590E-02
         0.24559E-02
         0.27501E-02
         0.42493E-02
         0.35235E-02
         0.42493E-02
         0.34905E-02
         0.27289E-02
         0.31867E-02
         0.32633E-02
         0.27048E-02
         0.27825E-02
         0.27825E-02
         0.27026E-02
         0.31937E-02
         0.31937E-02
         0.37036E-02
         0.36218E-02
         0.28180E-02
         0.31758E-02
         0.33462E-02
         0.33462E-02
         0.32166E-02
         0.29822E-02
         0.32797E-02
         0.27289E-02
         0.30892E-02
         0.31867E-02
         0.32633E-02
         0.32633E-02
         0.30147E-02
         0.27200E-02
         0.27048E-02
         0.27825E-02
         0.27825E-02
         0.27026E-02
         0.31937E-02
         0.31937E-02
         0.32638E-02
         0.34553E-02
         0.37036E-02
         0.37036E-02
         0.36218E-02
         0.28180E-02
         0.29308E-02
         0.32635E-02
         0.32635E-02
         0.32166E-02
         0.29822E-02
         0.32797E-02
         0.32797E-02
  
SCALARS              physical_window_y  double 1
LOOKUP_TABLE default
         0.43155E-02
         0.43155E-02
         0.43155E-02
         0.43155E-02
         0.43155E-02
         0.43155E-02
         0.43155E-02
         0.43155E-02
         0.34883E-02
         0.34883E-02
         0.34882E-02
         0.34882E-02
         0.32826E-02
         0.32142E-02
         0.32826E-02
         0.32142E-02
         0.37863E-02
         0.31884E-02
         0.37863E-02
         0.31884E-02
         0.27172E-02
         0.33887E-02
         0.37164E-02
         0.27172E-02
         0.33887E-02
         0.37164E-02
         0.27582E-02
         0.28966E-02
         0.27582E-02
         0.28954E-02
         0.37007E-02
         0.35859E-02
         0.37863E-02
         0.37007E-02
         0.35824E-02
         0.37863E-02
         0.29875E-02
         0.29875E-02
         0.29867E-02
         0.29867E-02
         0.28561E-02
         0.26860E-02
         0.28556E-02
         0.26852E-02
         0.29518E-02
         0.28068E-02
         0.29517E-02
         0.28066E-02
         0.29975E-02
         0.29949E-02
         0.37007E-02
         0.37007E-02
         0.28693E-02
         0.28693E-02
         0.28693E-02
         0.28693E-02
         0.27602E-02
         0.26193E-02
         0.27602E-02
         0.26193E-02
         0.37007E-02
         0.37007E-02
         0.37007E-02
         0.37007E-02
         0.37685E-02
         0.37665E-02
         0.37685E-02
         0.37665E-02
         0.30230E-02
         0.37003E-02
         0.30229E-02
         0.37003E-02
         0.37164E-02
         0.37164E-02
         0.31934E-02
         0.31921E-02
         0.32777E-02
         0.32771E-02
         0.32777E-02
         0.32771E-02
         0.27006E-02
         0.25920E-02
         0.27006E-02
         0.25920E-02
         0.25916E-02
         0.25916E-02
         0.29715E-02
         0.29715E-02
         0.29715E-02
         0.29715E-02
         0.26477E-02
         0.29102E-02
         0.26477E-02
         0.29102E-02
         0.34085E-02
         0.34085E-02
         0.35350E-02
         0.35350E-02
         0.35350E-02
         0.35350E-02
         0.29766E-02
         0.32272E-02
         0.29763E-02
         0.32254E-02
         0.29087E-02
         0.29835E-02
         0.29087E-02
         0.29825E-02
         0.37003E-02
         0.37003E-02
         0.37164E-02
         0.37164E-02
         0.37164E-02
         0.37164E-02
         0.33887E-02
         0.33887E-02
         0.28966E-02
         0.28954E-02
         0.31934E-02
         0.31921E-02
         0.32777E-02
         0.32771E-02
         0.32777E-02
         0.32771E-02
         0.27006E-02
         0.27006E-02
         0.25920E-02
         0.25920E-02
         0.25916E-02
         0.25916E-02
         0.26860E-02
         0.26852E-02
         0.28561E-02
         0.28556E-02
         0.29518E-02
         0.29517E-02
         0.29715E-02
         0.29715E-02
         0.29715E-02
         0.29715E-02
         0.26477E-02
         0.26477E-02
         0.27685E-02
         0.27685E-02
         0.34085E-02
         0.34085E-02
         0.35350E-02
         0.35350E-02
         0.35350E-02
         0.35350E-02
         0.29766E-02
         0.29763E-02
         0.31381E-02
         0.31368E-02
         0.31381E-02
         0.31368E-02
         0.43153E-02
         0.43153E-02
         0.43153E-02
         0.43153E-02
         0.34883E-02
         0.34883E-02
         0.32812E-02
         0.32132E-02
         0.37858E-02
         0.31880E-02
         0.27155E-02
         0.33883E-02
         0.37163E-02
         0.27535E-02
         0.28978E-02
         0.37004E-02
         0.35894E-02
         0.37858E-02
         0.29882E-02
         0.29882E-02
         0.28566E-02
         0.26867E-02
         0.29519E-02
         0.28071E-02
         0.30001E-02
         0.37004E-02
         0.28667E-02
         0.28667E-02
         0.27589E-02
         0.26183E-02
         0.37004E-02
         0.37004E-02
         0.37706E-02
         0.37706E-02
         0.30232E-02
         0.36991E-02
         0.37163E-02
         0.31947E-02
         0.32784E-02
         0.32784E-02
         0.27006E-02
         0.25920E-02
         0.25909E-02
         0.29715E-02
         0.29715E-02
         0.26476E-02
         0.29101E-02
         0.34078E-02
         0.35344E-02
         0.35344E-02
         0.29769E-02
         0.32290E-02
         0.29059E-02
         0.29845E-02
         0.36991E-02
         0.37163E-02
         0.37163E-02
         0.33883E-02
         0.28978E-02
         0.31947E-02
         0.32784E-02
         0.32784E-02
         0.27006E-02
         0.25920E-02
         0.25909E-02
         0.26867E-02
         0.28566E-02
         0.29519E-02
         0.29715E-02
         0.29715E-02
         0.26476E-02
         0.27685E-02
         0.34078E-02
         0.35344E-02
         0.35344E-02
         0.29769E-02
         0.31395E-02
         0.31395E-02
         0.43150E-02
         0.43150E-02
         0.43150E-02
         0.43150E-02
         0.34884E-02
         0.34884E-02
         0.32798E-02
         0.32122E-02
         0.37853E-02
         0.31876E-02
         0.27137E-02
         0.33879E-02
         0.37162E-02
         0.27488E-02
         0.28990E-02
         0.37001E-02
         0.35930E-02
         0.37853E-02
         0.29889E-02
         0.29889E-02
         0.28571E-02
         0.26875E-02
         0.29521E-02
         0.28074E-02
         0.30027E-02
         0.37001E-02
         0.28641E-02
         0.28641E-02
         0.27576E-02
         0.26173E-02
         0.37001E-02
         0.37001E-02
         0.37727E-02
         0.37727E-02
         0.30234E-02
         0.36979E-02
         0.37162E-02
         0.31960E-02
         0.32790E-02
         0.32790E-02
         0.27006E-02
         0.25920E-02
         0.25902E-02
         0.29715E-02
         0.29715E-02
         0.26476E-02
         0.29100E-02
         0.34071E-02
         0.35339E-02
         0.35339E-02
         0.29772E-02
         0.32307E-02
         0.29032E-02
         0.29855E-02
         0.36979E-02
         0.37162E-02
         0.37162E-02
         0.33879E-02
         0.28990E-02
         0.31960E-02
         0.32790E-02
         0.32790E-02
         0.27006E-02
         0.25920E-02
         0.25902E-02
         0.26875E-02
         0.28571E-02
         0.29521E-02
         0.29715E-02
         0.29715E-02
         0.26476E-02
         0.27684E-02
         0.34071E-02
         0.35339E-02
         0.35339E-02
         0.29772E-02
         0.31408E-02
         0.31408E-02
         0.43148E-02
         0.43148E-02
         0.43148E-02
         0.43148E-02
         0.34885E-02
         0.34885E-02
         0.32783E-02
         0.32112E-02
         0.37849E-02
         0.31872E-02
         0.27120E-02
         0.33875E-02
         0.37161E-02
         0.27441E-02
         0.29003E-02
         0.36998E-02
         0.35965E-02
         0.37849E-02
         0.29896E-02
         0.29896E-02
         0.28575E-02
         0.26882E-02
         0.29522E-02
         0.28077E-02
         0.30053E-02
         0.36998E-02
         0.28615E-02
         0.28615E-02
         0.27563E-02
         0.26163E-02
         0.36998E-02
         0.36998E-02
         0.37747E-02
         0.37747E-02
         0.30236E-02
         0.36967E-02
         0.37161E-02
         0.31973E-02
         0.32796E-02
         0.32796E-02
         0.27006E-02
         0.25920E-02
         0.25895E-02
         0.29714E-02
         0.29714E-02
         0.26475E-02
         0.29099E-02
         0.34063E-02
         0.35333E-02
         0.35333E-02
         0.29775E-02
         0.32325E-02
         0.29004E-02
         0.29865E-02
         0.36967E-02
         0.37161E-02
         0.37161E-02
         0.33875E-02
         0.29003E-02
         0.31973E-02
         0.32796E-02
         0.32796E-02
         0.27006E-02
         0.25920E-02
         0.25895E-02
         0.26882E-02
         0.28575E-02
         0.29522E-02
         0.29714E-02
         0.29714E-02
         0.26475E-02
         0.27684E-02
         0.34063E-02
         0.35333E-02
         0.35333E-02
         0.29775E-02
         0.31422E-02
         0.31422E-02
         0.43145E-02
         0.43145E-02
         0.43145E-02
         0.43145E-02
         0.34886E-02
         0.34886E-02
         0.32769E-02
         0.32102E-02
         0.37844E-02
         0.31868E-02
         0.27103E-02
         0.33871E-02
         0.37160E-02
         0.27394E-02
         0.29015E-02
         0.36995E-02
         0.36000E-02
         0.37844E-02
         0.29903E-02
         0.29903E-02
         0.28580E-02
         0.26890E-02
         0.29523E-02
         0.28079E-02
         0.30079E-02
         0.36995E-02
         0.28589E-02
         0.28589E-02
         0.27550E-02
         0.26152E-02
         0.36995E-02
         0.36995E-02
         0.37768E-02
         0.37768E-02
         0.30238E-02
         0.36956E-02
         0.37160E-02
         0.31986E-02
         0.32802E-02
         0.32802E-02
         0.27006E-02
         0.25920E-02
         0.25887E-02
         0.29714E-02
         0.29714E-02
         0.26475E-02
         0.29098E-02
         0.34056E-02
         0.35327E-02
         0.35327E-02
         0.29778E-02
         0.32342E-02
         0.28977E-02
         0.29875E-02
         0.36956E-02
         0.37160E-02
         0.37160E-02
         0.33871E-02
         0.29015E-02
         0.31986E-02
         0.32802E-02
         0.32802E-02
         0.27006E-02
         0.25920E-02
         0.25887E-02
         0.26890E-02
         0.28580E-02
         0.29523E-02
         0.29714E-02
         0.29714E-02
         0.26475E-02
         0.27683E-02
         0.34056E-02
         0.35327E-02
         0.35327E-02
         0.29778E-02
         0.31435E-02
         0.31435E-02
         0.43143E-02
         0.43143E-02
         0.43143E-02
         0.43143E-02
         0.34887E-02
         0.34887E-02
         0.32755E-02
         0.32091E-02
         0.37839E-02
         0.31864E-02
         0.27086E-02
         0.33867E-02
         0.37159E-02
         0.27347E-02
         0.29027E-02
         0.36991E-02
         0.36036E-02
         0.37839E-02
         0.29920E-02
         0.29920E-02
         0.28585E-02
         0.26897E-02
         0.29525E-02
         0.28082E-02
         0.30105E-02
         0.36991E-02
         0.28563E-02
         0.28563E-02
         0.27537E-02
         0.26142E-02
         0.36991E-02
         0.36991E-02
         0.37789E-02
         0.37789E-02
         0.30240E-02
         0.36944E-02
         0.37159E-02
         0.31999E-02
         0.32808E-02
         0.32808E-02
         0.27006E-02
         0.25920E-02
         0.25880E-02
         0.29714E-02
         0.29714E-02
         0.26474E-02
         0.29097E-02
         0.34049E-02
         0.35322E-02
         0.35322E-02
         0.29781E-02
         0.32360E-02
         0.28949E-02
         0.29885E-02
         0.36944E-02
         0.37159E-02
         0.37159E-02
         0.33867E-02
         0.29027E-02
         0.31999E-02
         0.32808E-02
         0.32808E-02
         0.27006E-02
         0.25920E-02
         0.25880E-02
         0.26897E-02
         0.28585E-02
         0.29525E-02
         0.29714E-02
         0.29714E-02
         0.26474E-02
         0.27683E-02
         0.34049E-02
         0.35322E-02
         0.35322E-02
         0.29781E-02
         0.31449E-02
         0.31449E-02
         0.43140E-02
         0.43140E-02
         0.43140E-02
         0.43140E-02
         0.34888E-02
         0.34888E-02
         0.32740E-02
         0.32081E-02
         0.37834E-02
         0.31860E-02
         0.27069E-02
         0.33863E-02
         0.37158E-02
         0.27299E-02
         0.29039E-02
         0.36988E-02
         0.36071E-02
         0.37834E-02
         0.29946E-02
         0.29946E-02
         0.28589E-02
         0.26905E-02
         0.29526E-02
         0.28085E-02
         0.30131E-02
         0.36988E-02
         0.28538E-02
         0.28538E-02
         0.27524E-02
         0.26132E-02
         0.36988E-02
         0.36988E-02
         0.37809E-02
         0.37809E-02
         0.30241E-02
         0.36932E-02
         0.37158E-02
         0.32012E-02
         0.32814E-02
         0.32814E-02
         0.27006E-02
         0.25920E-02
         0.25873E-02
         0.29714E-02
         0.29714E-02
         0.26473E-02
         0.29097E-02
         0.34041E-02
         0.35316E-02
         0.35316E-02
         0.29784E-02
         0.32378E-02
         0.28921E-02
         0.29895E-02
         0.36932E-02
         0.37158E-02
         0.37158E-02
         0.33863E-02
         0.29039E-02
         0.32012E-02
         0.32814E-02
         0.32814E-02
         0.27006E-02
         0.25920E-02
         0.25873E-02
         0.26905E-02
         0.28589E-02
         0.29526E-02
         0.29714E-02
         0.29714E-02
         0.26473E-02
         0.27683E-02
         0.34041E-02
         0.35316E-02
         0.35316E-02
         0.29784E-02
         0.31463E-02
         0.31463E-02
         0.43138E-02
         0.43138E-02
         0.43138E-02
         0.43138E-02
         0.34888E-02
         0.34888E-02
         0.32726E-02
         0.32071E-02
         0.37830E-02
         0.31856E-02
         0.27051E-02
         0.33859E-02
         0.37157E-02
         0.27252E-02
         0.29051E-02
         0.36985E-02
         0.36106E-02
         0.37830E-02
         0.29972E-02
         0.29972E-02
         0.28594E-02
         0.26912E-02
         0.29528E-02
         0.28087E-02
         0.30156E-02
         0.36985E-02
         0.28512E-02
         0.28512E-02
         0.27512E-02
         0.26122E-02
         0.36985E-02
         0.36985E-02
         0.37830E-02
         0.37830E-02
         0.30243E-02
         0.36920E-02
         0.37157E-02
         0.32025E-02
         0.32821E-02
         0.32821E-02
         0.27006E-02
         0.25920E-02
         0.25866E-02
         0.29714E-02
         0.29714E-02
         0.26473E-02
         0.29096E-02
         0.34034E-02
         0.35310E-02
         0.35310E-02
         0.29787E-02
         0.32396E-02
         0.28894E-02
         0.29905E-02
         0.36920E-02
         0.37157E-02
         0.37157E-02
         0.33859E-02
         0.29051E-02
         0.32025E-02
         0.32821E-02
         0.32821E-02
         0.27006E-02
         0.25920E-02
         0.25866E-02
         0.26912E-02
         0.28594E-02
         0.29528E-02
         0.29714E-02
         0.29714E-02
         0.26473E-02
         0.27682E-02
         0.34034E-02
         0.35310E-02
         0.35310E-02
         0.29787E-02
         0.31476E-02
         0.31476E-02
         0.43135E-02
         0.43135E-02
         0.43135E-02
         0.43135E-02
         0.34889E-02
         0.34889E-02
         0.32712E-02
         0.32061E-02
         0.37825E-02
         0.31852E-02
         0.27034E-02
         0.33856E-02
         0.37156E-02
         0.27205E-02
         0.29063E-02
         0.36982E-02
         0.36142E-02
         0.37851E-02
         0.29998E-02
         0.29998E-02
         0.28599E-02
         0.26920E-02
         0.29529E-02
         0.28090E-02
         0.30182E-02
         0.36982E-02
         0.28486E-02
         0.28486E-02
         0.27499E-02
         0.26112E-02
         0.36982E-02
         0.36982E-02
         0.37851E-02
         0.37851E-02
         0.30245E-02
         0.36908E-02
         0.37156E-02
         0.32038E-02
         0.32827E-02
         0.32827E-02
         0.27006E-02
         0.25920E-02
         0.25859E-02
         0.29714E-02
         0.29714E-02
         0.26472E-02
         0.29095E-02
         0.34027E-02
         0.35304E-02
         0.35304E-02
         0.29790E-02
         0.32413E-02
         0.28866E-02
         0.29915E-02
         0.36908E-02
         0.37156E-02
         0.37156E-02
         0.33856E-02
         0.29063E-02
         0.32038E-02
         0.32827E-02
         0.32827E-02
         0.27006E-02
         0.25920E-02
         0.25859E-02
         0.26920E-02
         0.28599E-02
         0.29529E-02
         0.29714E-02
         0.29714E-02
         0.26472E-02
         0.27682E-02
         0.34027E-02
         0.35304E-02
         0.35304E-02
         0.29790E-02
         0.31490E-02
         0.31490E-02
         0.43133E-02
         0.43133E-02
         0.43133E-02
         0.43133E-02
         0.34890E-02
         0.34890E-02
         0.32698E-02
         0.32051E-02
         0.37820E-02
         0.31848E-02
         0.27017E-02
         0.33851E-02
         0.37155E-02
         0.27158E-02
         0.29075E-02
         0.36979E-02
         0.36177E-02
         0.37871E-02
         0.30024E-02
         0.30024E-02
         0.28603E-02
         0.26927E-02
         0.29530E-02
         0.28093E-02
         0.30208E-02
         0.36979E-02
         0.28460E-02
         0.28460E-02
         0.27486E-02
         0.26101E-02
         0.36979E-02
         0.36979E-02
         0.37871E-02
         0.37871E-02
         0.30247E-02
         0.36896E-02
         0.37155E-02
         0.32051E-02
         0.32833E-02
         0.32833E-02
         0.27006E-02
         0.25920E-02
         0.25851E-02
         0.29714E-02
         0.29714E-02
         0.26472E-02
         0.29094E-02
         0.34019E-02
         0.35299E-02
         0.35299E-02
         0.29793E-02
         0.32431E-02
         0.28838E-02
         0.29925E-02
         0.36896E-02
         0.37155E-02
         0.37155E-02
         0.33851E-02
         0.29075E-02
         0.32051E-02
         0.32833E-02
         0.32833E-02
         0.27006E-02
         0.25920E-02
         0.25851E-02
         0.26927E-02
         0.28603E-02
         0.29530E-02
         0.29714E-02
         0.29714E-02
         0.26472E-02
         0.27681E-02
         0.34019E-02
         0.35299E-02
         0.35299E-02
         0.29793E-02
         0.31503E-02
         0.31503E-02
         0.43130E-02
         0.43130E-02
         0.43130E-02
         0.43130E-02
         0.34891E-02
         0.34891E-02
         0.32683E-02
         0.32041E-02
         0.37816E-02
         0.31844E-02
         0.27000E-02
         0.33848E-02
         0.37154E-02
         0.27111E-02
         0.29087E-02
         0.36976E-02
         0.36213E-02
         0.37892E-02
         0.30050E-02
         0.30050E-02
         0.28608E-02
         0.26935E-02
         0.29532E-02
         0.28096E-02
         0.30234E-02
         0.36976E-02
         0.28434E-02
         0.28434E-02
         0.27472E-02
         0.26091E-02
         0.36976E-02
         0.36976E-02
         0.37892E-02
         0.37892E-02
         0.30249E-02
         0.36885E-02
         0.37154E-02
         0.32064E-02
         0.32839E-02
         0.32839E-02
         0.27006E-02
         0.25920E-02
         0.25844E-02
         0.29714E-02
         0.29714E-02
         0.26471E-02
         0.29094E-02
         0.34012E-02
         0.35293E-02
         0.35293E-02
         0.29797E-02
         0.32449E-02
         0.28811E-02
         0.29935E-02
         0.36885E-02
         0.37154E-02
         0.37154E-02
         0.33848E-02
         0.29087E-02
         0.32064E-02
         0.32839E-02
         0.32839E-02
         0.27006E-02
         0.25920E-02
         0.25844E-02
         0.26935E-02
         0.28608E-02
         0.29532E-02
         0.29714E-02
         0.29714E-02
         0.26471E-02
         0.27681E-02
         0.34012E-02
         0.35293E-02
         0.35293E-02
         0.29797E-02
         0.31517E-02
         0.31517E-02
         0.43128E-02
         0.43128E-02
         0.43128E-02
         0.43128E-02
         0.34892E-02
         0.34892E-02
         0.32669E-02
         0.32031E-02
         0.37811E-02
         0.31840E-02
         0.26982E-02
         0.33844E-02
         0.37152E-02
         0.27063E-02
         0.29099E-02
         0.36973E-02
         0.36248E-02
         0.37913E-02
         0.30076E-02
         0.30076E-02
         0.28613E-02
         0.26942E-02
         0.29533E-02
         0.28099E-02
         0.30260E-02
         0.36973E-02
         0.28408E-02
         0.28408E-02
         0.27460E-02
         0.26081E-02
         0.36973E-02
         0.36973E-02
         0.37913E-02
         0.37913E-02
         0.30250E-02
         0.36873E-02
         0.37152E-02
         0.32077E-02
         0.32845E-02
         0.32845E-02
         0.27006E-02
         0.25920E-02
         0.25837E-02
         0.29714E-02
         0.29714E-02
         0.26471E-02
         0.29093E-02
         0.34005E-02
         0.35287E-02
         0.35287E-02
         0.29800E-02
         0.32467E-02
         0.28783E-02
         0.29945E-02
         0.36873E-02
         0.37152E-02
         0.37152E-02
         0.33844E-02
         0.29099E-02
         0.32077E-02
         0.32845E-02
         0.32845E-02
         0.27006E-02
         0.25920E-02
         0.25837E-02
         0.26942E-02
         0.28613E-02
         0.29533E-02
         0.29714E-02
         0.29714E-02
         0.26471E-02
         0.27681E-02
         0.34005E-02
         0.35287E-02
         0.35287E-02
         0.29800E-02
         0.31530E-02
         0.31530E-02
         0.43125E-02
         0.43125E-02
         0.43125E-02
         0.43125E-02
         0.34893E-02
         0.34893E-02
         0.32655E-02
         0.32021E-02
         0.37806E-02
         0.31836E-02
         0.26965E-02
         0.33840E-02
         0.37151E-02
         0.27016E-02
         0.29111E-02
         0.36969E-02
         0.36283E-02
         0.37933E-02
         0.30102E-02
         0.30102E-02
         0.28617E-02
         0.26950E-02
         0.29535E-02
         0.28101E-02
         0.30286E-02
         0.36969E-02
         0.28382E-02
         0.28382E-02
         0.27447E-02
         0.26071E-02
         0.36969E-02
         0.36969E-02
         0.37933E-02
         0.37933E-02
         0.30252E-02
         0.36861E-02
         0.37151E-02
         0.32090E-02
         0.32852E-02
         0.32852E-02
         0.27006E-02
         0.25920E-02
         0.25830E-02
         0.29714E-02
         0.29714E-02
         0.26470E-02
         0.29092E-02
         0.33997E-02
         0.35282E-02
         0.35282E-02
         0.29803E-02
         0.32484E-02
         0.28755E-02
         0.29955E-02
         0.36861E-02
         0.37151E-02
         0.37151E-02
         0.33840E-02
         0.29111E-02
         0.32090E-02
         0.32852E-02
         0.32852E-02
         0.27006E-02
         0.25920E-02
         0.25830E-02
         0.26950E-02
         0.28617E-02
         0.29535E-02
         0.29714E-02
         0.29714E-02
         0.26470E-02
         0.27680E-02
         0.33997E-02
         0.35282E-02
         0.35282E-02
         0.29803E-02
         0.31544E-02
         0.31544E-02
         0.43123E-02
         0.43123E-02
         0.43123E-02
         0.43123E-02
         0.34893E-02
         0.34893E-02
         0.32640E-02
         0.32011E-02
         0.37801E-02
         0.31832E-02
         0.26948E-02
         0.33836E-02
         0.37150E-02
         0.26969E-02
         0.29123E-02
         0.36966E-02
         0.36319E-02
         0.37954E-02
         0.30128E-02
         0.30128E-02
         0.28622E-02
         0.26957E-02
         0.29536E-02
         0.28104E-02
         0.30312E-02
         0.36966E-02
         0.28357E-02
         0.28357E-02
         0.27434E-02
         0.26061E-02
         0.36966E-02
         0.36966E-02
         0.37954E-02
         0.37954E-02
         0.30254E-02
         0.36849E-02
         0.37150E-02
         0.32103E-02
         0.32858E-02
         0.32858E-02
         0.27006E-02
         0.25920E-02
         0.25823E-02
         0.29714E-02
         0.29714E-02
         0.26470E-02
         0.29091E-02
         0.33990E-02
         0.35276E-02
         0.35276E-02
         0.29806E-02
         0.32502E-02
         0.28728E-02
         0.29965E-02
         0.36849E-02
         0.37150E-02
         0.37150E-02
         0.33836E-02
         0.29123E-02
         0.32103E-02
         0.32858E-02
         0.32858E-02
         0.27006E-02
         0.25920E-02
         0.25823E-02
         0.26957E-02
         0.28622E-02
         0.29536E-02
         0.29714E-02
         0.29714E-02
         0.26470E-02
         0.27680E-02
         0.33990E-02
         0.35276E-02
         0.35276E-02
         0.29806E-02
         0.31557E-02
         0.31557E-02
         0.43120E-02
         0.43120E-02
         0.43120E-02
         0.43120E-02
         0.34894E-02
         0.34894E-02
         0.32626E-02
         0.32001E-02
         0.37797E-02
         0.31828E-02
         0.26931E-02
         0.33832E-02
         0.37149E-02
         0.26922E-02
         0.29135E-02
         0.36963E-02
         0.36354E-02
         0.37975E-02
         0.30154E-02
         0.30154E-02
         0.28627E-02
         0.26965E-02
         0.29537E-02
         0.28107E-02
         0.30338E-02
         0.36963E-02
         0.28331E-02
         0.28331E-02
         0.27421E-02
         0.26051E-02
         0.36963E-02
         0.36963E-02
         0.37975E-02
         0.37975E-02
         0.30256E-02
         0.36838E-02
         0.37149E-02
         0.32116E-02
         0.32864E-02
         0.32864E-02
         0.27006E-02
         0.25920E-02
         0.25815E-02
         0.29714E-02
         0.29714E-02
         0.26469E-02
         0.29090E-02
         0.33983E-02
         0.35270E-02
         0.35270E-02
         0.29809E-02
         0.32519E-02
         0.28700E-02
         0.29975E-02
         0.36838E-02
         0.37149E-02
         0.37149E-02
         0.33832E-02
         0.29135E-02
         0.32116E-02
         0.32864E-02
         0.32864E-02
         0.27006E-02
         0.25920E-02
         0.25815E-02
         0.26965E-02
         0.28627E-02
         0.29537E-02
         0.29714E-02
         0.29714E-02
         0.26469E-02
         0.27680E-02
         0.33983E-02
         0.35270E-02
         0.35270E-02
         0.29809E-02
         0.31571E-02
         0.31571E-02
         0.43118E-02
         0.43118E-02
         0.43118E-02
         0.43118E-02
         0.34895E-02
         0.34895E-02
         0.32612E-02
         0.31990E-02
         0.37792E-02
         0.31824E-02
         0.26913E-02
         0.33828E-02
         0.37148E-02
         0.26875E-02
         0.29148E-02
         0.36960E-02
         0.36390E-02
         0.37995E-02
         0.30180E-02
         0.30180E-02
         0.28631E-02
         0.26972E-02
         0.29539E-02
         0.28110E-02
         0.30364E-02
         0.36960E-02
         0.28305E-02
         0.28305E-02
         0.27408E-02
         0.26040E-02
         0.36960E-02
         0.36960E-02
         0.37995E-02
         0.37995E-02
         0.30258E-02
         0.36826E-02
         0.37148E-02
         0.32129E-02
         0.32870E-02
         0.32870E-02
         0.27006E-02
         0.25920E-02
         0.25808E-02
         0.29713E-02
         0.29713E-02
         0.26468E-02
         0.29089E-02
         0.33975E-02
         0.35264E-02
         0.35264E-02
         0.29812E-02
         0.32537E-02
         0.28672E-02
         0.29985E-02
         0.36826E-02
         0.37148E-02
         0.37148E-02
         0.33828E-02
         0.29148E-02
         0.32129E-02
         0.32870E-02
         0.32870E-02
         0.27006E-02
         0.25920E-02
         0.25808E-02
         0.26972E-02
         0.28631E-02
         0.29539E-02
         0.29713E-02
         0.29713E-02
         0.26468E-02
         0.27679E-02
         0.33975E-02
         0.35264E-02
         0.35264E-02
         0.29812E-02
         0.31585E-02
         0.31585E-02
         0.43115E-02
         0.43115E-02
         0.43115E-02
         0.43115E-02
         0.34896E-02
         0.34896E-02
         0.32597E-02
         0.31980E-02
         0.37787E-02
         0.31820E-02
         0.26896E-02
         0.33824E-02
         0.37147E-02
         0.26827E-02
         0.29160E-02
         0.36957E-02
         0.36425E-02
         0.38016E-02
         0.30206E-02
         0.30206E-02
         0.28636E-02
         0.26980E-02
         0.29540E-02
         0.28112E-02
         0.30390E-02
         0.36957E-02
         0.28279E-02
         0.28279E-02
         0.27395E-02
         0.26030E-02
         0.36957E-02
         0.36957E-02
         0.38016E-02
         0.38016E-02
         0.30260E-02
         0.36814E-02
         0.37147E-02
         0.32141E-02
         0.32876E-02
         0.32876E-02
         0.27006E-02
         0.25920E-02
         0.25801E-02
         0.29713E-02
         0.29713E-02
         0.26468E-02
         0.29089E-02
         0.33968E-02
         0.35259E-02
         0.35259E-02
         0.29815E-02
         0.32555E-02
         0.28645E-02
         0.29995E-02
         0.36814E-02
         0.37147E-02
         0.37147E-02
         0.33824E-02
         0.29160E-02
         0.32141E-02
         0.32876E-02
         0.32876E-02
         0.27006E-02
         0.25920E-02
         0.25801E-02
         0.26980E-02
         0.28636E-02
         0.29540E-02
         0.29713E-02
         0.29713E-02
         0.26468E-02
         0.27679E-02
         0.33968E-02
         0.35259E-02
         0.35259E-02
         0.29815E-02
         0.31598E-02
         0.31598E-02
         0.43113E-02
         0.43113E-02
         0.43113E-02
         0.43113E-02
         0.34897E-02
         0.34897E-02
         0.32583E-02
         0.31970E-02
         0.37783E-02
         0.31816E-02
         0.26879E-02
         0.33820E-02
         0.37146E-02
         0.26780E-02
         0.29172E-02
         0.36954E-02
         0.36460E-02
         0.38037E-02
         0.30232E-02
         0.30232E-02
         0.28641E-02
         0.26987E-02
         0.29542E-02
         0.28115E-02
         0.30416E-02
         0.36954E-02
         0.28253E-02
         0.28253E-02
         0.27382E-02
         0.26020E-02
         0.36954E-02
         0.36954E-02
         0.38037E-02
         0.38037E-02
         0.30261E-02
         0.36802E-02
         0.37146E-02
         0.32154E-02
         0.32882E-02
         0.32882E-02
         0.27006E-02
         0.25921E-02
         0.25794E-02
         0.29713E-02
         0.29713E-02
         0.26467E-02
         0.29088E-02
         0.33961E-02
         0.35253E-02
         0.35253E-02
         0.29818E-02
         0.32573E-02
         0.28617E-02
         0.30005E-02
         0.36802E-02
         0.37146E-02
         0.37146E-02
         0.33820E-02
         0.29172E-02
         0.32154E-02
         0.32882E-02
         0.32882E-02
         0.27006E-02
         0.25921E-02
         0.25794E-02
         0.26987E-02
         0.28641E-02
         0.29542E-02
         0.29713E-02
         0.29713E-02
         0.26467E-02
         0.27678E-02
         0.33961E-02
         0.35253E-02
         0.35253E-02
         0.29818E-02
         0.31612E-02
         0.31612E-02
         0.43110E-02
         0.43110E-02
         0.43110E-02
         0.43110E-02
         0.34898E-02
         0.34898E-02
         0.32569E-02
         0.31960E-02
         0.37778E-02
         0.31812E-02
         0.26862E-02
         0.33816E-02
         0.37145E-02
         0.26733E-02
         0.29184E-02
         0.36950E-02
         0.36495E-02
         0.38057E-02
         0.30258E-02
         0.30258E-02
         0.28645E-02
         0.26995E-02
         0.29543E-02
         0.28118E-02
         0.30442E-02
         0.36950E-02
         0.28227E-02
         0.28227E-02
         0.27369E-02
         0.26010E-02
         0.36950E-02
         0.36950E-02
         0.38057E-02
         0.38057E-02
         0.30263E-02
         0.36790E-02
         0.37145E-02
         0.32167E-02
         0.32889E-02
         0.32889E-02
         0.27006E-02
         0.25921E-02
         0.25787E-02
         0.29713E-02
         0.29713E-02
         0.26467E-02
         0.29087E-02
         0.33953E-02
         0.35247E-02
         0.35247E-02
         0.29821E-02
         0.32590E-02
         0.28589E-02
         0.30015E-02
         0.36790E-02
         0.37145E-02
         0.37145E-02
         0.33816E-02
         0.29184E-02
         0.32167E-02
         0.32889E-02
         0.32889E-02
         0.27006E-02
         0.25921E-02
         0.25787E-02
         0.26995E-02
         0.28645E-02
         0.29543E-02
         0.29713E-02
         0.29713E-02
         0.26467E-02
         0.27678E-02
         0.33953E-02
         0.35247E-02
         0.35247E-02
         0.29821E-02
         0.31625E-02
         0.31625E-02
         0.43108E-02
         0.43108E-02
         0.43108E-02
         0.43108E-02
         0.34898E-02
         0.34898E-02
         0.32555E-02
         0.31950E-02
         0.37773E-02
         0.31808E-02
         0.26845E-02
         0.33812E-02
         0.37144E-02
         0.26686E-02
         0.29196E-02
         0.36948E-02
         0.36531E-02
         0.38078E-02
         0.30285E-02
         0.30285E-02
         0.28650E-02
         0.27002E-02
         0.29544E-02
         0.28120E-02
         0.30467E-02
         0.36948E-02
         0.28201E-02
         0.28201E-02
         0.27356E-02
         0.26000E-02
         0.36948E-02
         0.36948E-02
         0.38078E-02
         0.38078E-02
         0.30265E-02
         0.36779E-02
         0.37144E-02
         0.32181E-02
         0.32895E-02
         0.32895E-02
         0.27006E-02
         0.25921E-02
         0.25779E-02
         0.29713E-02
         0.29713E-02
         0.26466E-02
         0.29086E-02
         0.33946E-02
         0.35242E-02
         0.35242E-02
         0.29824E-02
         0.32608E-02
         0.28562E-02
         0.30025E-02
         0.36779E-02
         0.37144E-02
         0.37144E-02
         0.33812E-02
         0.29196E-02
         0.32181E-02
         0.32895E-02
         0.32895E-02
         0.27006E-02
         0.25921E-02
         0.25779E-02
         0.27002E-02
         0.28650E-02
         0.29544E-02
         0.29713E-02
         0.29713E-02
         0.26466E-02
         0.27678E-02
         0.33946E-02
         0.35242E-02
         0.35242E-02
         0.29824E-02
         0.31639E-02
         0.31639E-02
         0.43105E-02
         0.43105E-02
         0.43105E-02
         0.43105E-02
         0.34899E-02
         0.34899E-02
         0.32540E-02
         0.31940E-02
         0.37768E-02
         0.31804E-02
         0.26827E-02
         0.33808E-02
         0.37143E-02
         0.26639E-02
         0.29208E-02
         0.36944E-02
         0.36566E-02
         0.38099E-02
         0.30311E-02
         0.30311E-02
         0.28655E-02
         0.27010E-02
         0.29546E-02
         0.28123E-02
         0.30493E-02
         0.36944E-02
         0.28175E-02
         0.28175E-02
         0.27343E-02
         0.25990E-02
         0.36944E-02
         0.36944E-02
         0.38099E-02
         0.38099E-02
         0.30267E-02
         0.36767E-02
         0.37143E-02
         0.32193E-02
         0.32901E-02
         0.32901E-02
         0.27006E-02
         0.25921E-02
         0.25772E-02
         0.29713E-02
         0.29713E-02
         0.26466E-02
         0.29085E-02
         0.33939E-02
         0.35236E-02
         0.35236E-02
         0.29827E-02
         0.32626E-02
         0.28534E-02
         0.30035E-02
         0.36767E-02
         0.37143E-02
         0.37143E-02
         0.33808E-02
         0.29208E-02
         0.32193E-02
         0.32901E-02
         0.32901E-02
         0.27006E-02
         0.25921E-02
         0.25772E-02
         0.27010E-02
         0.28655E-02
         0.29546E-02
         0.29713E-02
         0.29713E-02
         0.26466E-02
         0.27677E-02
         0.33939E-02
         0.35236E-02
         0.35236E-02
         0.29827E-02
         0.31652E-02
         0.31652E-02
         0.43103E-02
         0.43103E-02
         0.43103E-02
         0.43103E-02
         0.34900E-02
         0.34900E-02
         0.32526E-02
         0.31930E-02
         0.37764E-02
         0.31800E-02
         0.26810E-02
         0.33804E-02
         0.37142E-02
         0.26591E-02
         0.29220E-02
         0.36941E-02
         0.36602E-02
         0.38119E-02
         0.30337E-02
         0.30337E-02
         0.28660E-02
         0.27017E-02
         0.29547E-02
         0.28126E-02
         0.30519E-02
         0.36941E-02
         0.28150E-02
         0.28150E-02
         0.27330E-02
         0.25979E-02
         0.36941E-02
         0.36941E-02
         0.38119E-02
         0.38119E-02
         0.30269E-02
         0.36755E-02
         0.37142E-02
         0.32206E-02
         0.32907E-02
         0.32907E-02
         0.27006E-02
         0.25921E-02
         0.25765E-02
         0.29713E-02
         0.29713E-02
         0.26465E-02
         0.29085E-02
         0.33931E-02
         0.35230E-02
         0.35230E-02
         0.29830E-02
         0.32643E-02
         0.28507E-02
         0.30045E-02
         0.36755E-02
         0.37142E-02
         0.37142E-02
         0.33804E-02
         0.29220E-02
         0.32206E-02
         0.32907E-02
         0.32907E-02
         0.27006E-02
         0.25921E-02
         0.25765E-02
         0.27017E-02
         0.28660E-02
         0.29547E-02
         0.29713E-02
         0.29713E-02
         0.26465E-02
         0.27677E-02
         0.33931E-02
         0.35230E-02
         0.35230E-02
         0.29830E-02
         0.31666E-02
         0.31666E-02
         0.43100E-02
         0.43100E-02
         0.43100E-02
         0.43100E-02
         0.34901E-02
         0.34901E-02
         0.32512E-02
         0.31920E-02
         0.37759E-02
         0.31796E-02
         0.26793E-02
         0.33800E-02
         0.37141E-02
         0.26544E-02
         0.29232E-02
         0.36938E-02
         0.36637E-02
         0.38140E-02
         0.30363E-02
         0.30363E-02
         0.28664E-02
         0.27025E-02
         0.29548E-02
         0.28129E-02
         0.30545E-02
         0.36938E-02
         0.28124E-02
         0.28124E-02
         0.27317E-02
         0.25969E-02
         0.36938E-02
         0.36938E-02
         0.38140E-02
         0.38140E-02
         0.30271E-02
         0.36743E-02
         0.37141E-02
         0.32219E-02
         0.32913E-02
         0.32913E-02
         0.27006E-02
         0.25921E-02
         0.25758E-02
         0.29713E-02
         0.29713E-02
         0.26465E-02
         0.29084E-02
         0.33924E-02
         0.35224E-02
         0.35224E-02
         0.29833E-02
         0.32661E-02
         0.28479E-02
         0.30055E-02
         0.36743E-02
         0.37141E-02
         0.37141E-02
         0.33800E-02
         0.29232E-02
         0.32219E-02
         0.32913E-02
         0.32913E-02
         0.27006E-02
         0.25921E-02
         0.25758E-02
         0.27025E-02
         0.28664E-02
         0.29548E-02
         0.29713E-02
         0.29713E-02
         0.26465E-02
         0.27677E-02
         0.33924E-02
         0.35224E-02
         0.35224E-02
         0.29833E-02
         0.31680E-02
         0.31680E-02
         0.43098E-02
         0.43098E-02
         0.43098E-02
         0.43098E-02
         0.34901E-02
         0.34901E-02
         0.32498E-02
         0.31910E-02
         0.37754E-02
         0.31792E-02
         0.26776E-02
         0.33796E-02
         0.37140E-02
         0.26497E-02
         0.29232E-02
         0.36935E-02
         0.36637E-02
         0.38140E-02
         0.30363E-02
         0.30363E-02
         0.28664E-02
         0.27025E-02
         0.29548E-02
         0.28129E-02
         0.30545E-02
         0.36935E-02
         0.28098E-02
         0.28098E-02
         0.27304E-02
         0.25959E-02
         0.36935E-02
         0.36935E-02
         0.38140E-02
         0.38140E-02
         0.30271E-02
         0.36731E-02
         0.37140E-02
         0.32219E-02
         0.32913E-02
         0.32913E-02
         0.27006E-02
         0.25921E-02
         0.25751E-02
         0.29713E-02
         0.29713E-02
         0.26464E-02
         0.29083E-02
         0.33916E-02
         0.35219E-02
         0.35219E-02
         0.29833E-02
         0.32661E-02
         0.28451E-02
         0.30055E-02
         0.36731E-02
         0.37140E-02
         0.37140E-02
         0.33796E-02
         0.29232E-02
         0.32219E-02
         0.32913E-02
         0.32913E-02
         0.27006E-02
         0.25921E-02
         0.25751E-02
         0.27025E-02
         0.28664E-02
         0.29548E-02
         0.29713E-02
         0.29713E-02
         0.26464E-02
         0.27676E-02
         0.33916E-02
         0.35219E-02
         0.35219E-02
         0.29833E-02
         0.31680E-02
         0.31680E-02
  
SCALARS              physical_window_z  double 1
LOOKUP_TABLE default
         0.26928E-02
         0.26928E-02
         0.26928E-02
         0.26928E-02
         0.26928E-02
         0.26928E-02
         0.26928E-02
         0.26928E-02
         0.26928E-02
         0.26928E-02
         0.26928E-02
         0.26928E-02
         0.26928E-02
         0.26928E-02
         0.26928E-02
         0.26928E-02
         0.26928E-02
         0.26928E-02
         0.26928E-02
         0.26928E-02
         0.26928E-02
         0.26928E-02
         0.26928E-02
         0.26928E-02
         0.26928E-02
         0.26928E-02
         0.26928E-02
         0.26928E-02
         0.26928E-02
         0.26928E-02
         0.26928E-02
         0.26928E-02
         0.26928E-02
         0.26928E-02
         0.26928E-02
         0.26928E-02
         0.26928E-02
         0.26928E-02
         0.26928E-02
         0.26928E-02
         0.26928E-02
         0.26928E-02
         0.26928E-02
         0.26928E-02
         0.26928E-02
         0.26928E-02
         0.26928E-02
         0.26928E-02
         0.26928E-02
         0.26928E-02
         0.26928E-02
         0.26928E-02
         0.26928E-02
         0.26928E-02
         0.26928E-02
         0.26928E-02
         0.26928E-02
         0.26928E-02
         0.26928E-02
         0.26928E-02
         0.26928E-02
         0.26928E-02
         0.26928E-02
         0.26928E-02
         0.26928E-02
         0.26928E-02
         0.26928E-02
         0.26928E-02
         0.26928E-02
         0.26928E-02
         0.26928E-02
         0.26928E-02
         0.26928E-02
         0.26928E-02
         0.26928E-02
         0.26928E-02
         0.26928E-02
         0.26928E-02
         0.26928E-02
         0.26928E-02
         0.26928E-02
         0.26928E-02
         0.26928E-02
         0.26928E-02
         0.26928E-02
         0.26928E-02
         0.26928E-02
         0.26928E-02
         0.26928E-02
         0.26928E-02
         0.26928E-02
         0.26928E-02
         0.26928E-02
         0.26928E-02
         0.26928E-02
         0.26928E-02
         0.26928E-02
         0.26928E-02
         0.26928E-02
         0.26928E-02
         0.26928E-02
         0.26928E-02
         0.26928E-02
         0.26928E-02
         0.26928E-02
         0.26928E-02
         0.26928E-02
         0.26928E-02
         0.26928E-02
         0.26928E-02
         0.26928E-02
         0.26928E-02
         0.26928E-02
         0.26928E-02
         0.26928E-02
         0.26928E-02
         0.26928E-02
         0.26928E-02
         0.26928E-02
         0.26928E-02
         0.26928E-02
         0.26928E-02
         0.26928E-02
         0.26928E-02
         0.26928E-02
         0.26928E-02
         0.26928E-02
         0.26928E-02
         0.26928E-02
         0.26928E-02
         0.26928E-02
         0.26928E-02
         0.26928E-02
         0.26928E-02
         0.26928E-02
         0.26928E-02
         0.26928E-02
         0.26928E-02
         0.26928E-02
         0.26928E-02
         0.26928E-02
         0.26928E-02
         0.26928E-02
         0.26928E-02
         0.26928E-02
         0.26928E-02
         0.26928E-02
         0.26928E-02
         0.26928E-02
         0.26928E-02
         0.26928E-02
         0.26928E-02
         0.26928E-02
         0.26928E-02
         0.26928E-02
         0.26928E-02
         0.26927E-02
         0.26927E-02
         0.26927E-02
         0.26927E-02
         0.26927E-02
         0.26927E-02
         0.26927E-02
         0.26927E-02
         0.26927E-02
         0.26927E-02
         0.26927E-02
         0.26927E-02
         0.26927E-02
         0.26927E-02
         0.26927E-02
         0.26927E-02
         0.26927E-02
         0.26927E-02
         0.26927E-02
         0.26927E-02
         0.26927E-02
         0.26927E-02
         0.26927E-02
         0.26927E-02
         0.26927E-02
         0.26927E-02
         0.26927E-02
         0.26927E-02
         0.26927E-02
         0.26927E-02
         0.26927E-02
         0.26927E-02
         0.26927E-02
         0.26927E-02
         0.26927E-02
         0.26927E-02
         0.26927E-02
         0.26927E-02
         0.26927E-02
         0.26927E-02
         0.26927E-02
         0.26927E-02
         0.26927E-02
         0.26927E-02
         0.26927E-02
         0.26927E-02
         0.26927E-02
         0.26927E-02
         0.26927E-02
         0.26927E-02
         0.26927E-02
         0.26927E-02
         0.26927E-02
         0.26927E-02
         0.26927E-02
         0.26927E-02
         0.26927E-02
         0.26927E-02
         0.26927E-02
         0.26927E-02
         0.26927E-02
         0.26927E-02
         0.26927E-02
         0.26927E-02
         0.26927E-02
         0.26927E-02
         0.26927E-02
         0.26927E-02
         0.26927E-02
         0.26927E-02
         0.26927E-02
         0.26927E-02
         0.26927E-02
         0.26927E-02
         0.26927E-02
         0.26927E-02
         0.26927E-02
         0.26927E-02
         0.26927E-02
         0.26927E-02
         0.26927E-02
         0.26927E-02
         0.26927E-02
         0.26927E-02
         0.26927E-02
         0.26927E-02
         0.26927E-02
         0.26927E-02
         0.26927E-02
         0.26927E-02
         0.26927E-02
         0.26927E-02
         0.26927E-02
         0.26927E-02
         0.26927E-02
         0.26927E-02
         0.26927E-02
         0.26927E-02
         0.26927E-02
         0.26927E-02
         0.26927E-02
         0.26927E-02
         0.26927E-02
         0.26927E-02
         0.26927E-02
         0.26927E-02
         0.26927E-02
         0.26927E-02
         0.26927E-02
         0.26927E-02
         0.26927E-02
         0.26927E-02
         0.26927E-02
         0.26927E-02
         0.26927E-02
         0.26927E-02
         0.26927E-02
         0.26927E-02
         0.26927E-02
         0.26927E-02
         0.26927E-02
         0.26927E-02
         0.26927E-02
         0.26927E-02
         0.26927E-02
         0.26927E-02
         0.26927E-02
         0.26927E-02
         0.26927E-02
         0.26927E-02
         0.26927E-02
         0.26927E-02
         0.26927E-02
         0.26927E-02
         0.26927E-02
         0.26927E-02
         0.26927E-02
         0.26927E-02
         0.26927E-02
         0.26927E-02
         0.26927E-02
         0.26927E-02
         0.26927E-02
         0.26927E-02
         0.26927E-02
         0.26927E-02
         0.26927E-02
         0.26927E-02
         0.26927E-02
         0.26927E-02
         0.26927E-02
         0.26927E-02
         0.26927E-02
         0.26927E-02
         0.26927E-02
         0.26927E-02
         0.26927E-02
         0.26927E-02
         0.26927E-02
         0.26927E-02
         0.26927E-02
         0.26927E-02
         0.26927E-02
         0.26927E-02
         0.26927E-02
         0.26927E-02
         0.26927E-02
         0.26927E-02
         0.26927E-02
         0.26927E-02
         0.26927E-02
         0.26927E-02
         0.26927E-02
         0.26927E-02
         0.26927E-02
         0.26927E-02
         0.26927E-02
         0.26927E-02
         0.26927E-02
         0.26927E-02
         0.26927E-02
         0.26927E-02
         0.26927E-02
         0.26927E-02
         0.26927E-02
         0.26927E-02
         0.26927E-02
         0.26927E-02
         0.26927E-02
         0.26927E-02
         0.26927E-02
         0.26927E-02
         0.26927E-02
         0.26927E-02
         0.26927E-02
         0.26927E-02
         0.26927E-02
         0.26927E-02
         0.26927E-02
         0.26927E-02
         0.26927E-02
         0.26927E-02
         0.26927E-02
         0.26927E-02
         0.26927E-02
         0.26927E-02
         0.26927E-02
         0.26927E-02
         0.26927E-02
         0.26927E-02
         0.26927E-02
         0.26927E-02
         0.26927E-02
         0.26927E-02
         0.26927E-02
         0.26927E-02
         0.26927E-02
         0.26927E-02
         0.26927E-02
         0.26927E-02
         0.26927E-02
         0.26927E-02
         0.26927E-02
         0.26927E-02
         0.26927E-02
         0.26927E-02
         0.26927E-02
         0.26927E-02
         0.26927E-02
         0.26927E-02
         0.26927E-02
         0.26927E-02
         0.26927E-02
         0.26927E-02
         0.26927E-02
         0.26927E-02
         0.26927E-02
         0.26927E-02
         0.26927E-02
         0.26927E-02
         0.26927E-02
         0.26927E-02
         0.26927E-02
         0.26927E-02
         0.26927E-02
         0.26927E-02
         0.26927E-02
         0.26927E-02
         0.26927E-02
         0.26927E-02
         0.26927E-02
         0.26927E-02
         0.26927E-02
         0.26927E-02
         0.26927E-02
         0.26927E-02
         0.26927E-02
         0.26927E-02
         0.26927E-02
         0.26927E-02
         0.26927E-02
         0.26927E-02
         0.26927E-02
         0.26927E-02
         0.26927E-02
         0.26927E-02
         0.26927E-02
         0.26927E-02
         0.26927E-02
         0.26927E-02
         0.26927E-02
         0.26927E-02
         0.26927E-02
         0.26927E-02
         0.26927E-02
         0.26927E-02
         0.26927E-02
         0.26927E-02
         0.26927E-02
         0.26927E-02
         0.26927E-02
         0.26927E-02
         0.26927E-02
         0.26927E-02
         0.26927E-02
         0.26927E-02
         0.26927E-02
         0.26927E-02
         0.26927E-02
         0.26927E-02
         0.26927E-02
         0.26927E-02
         0.26927E-02
         0.26927E-02
         0.26927E-02
         0.26927E-02
         0.26927E-02
         0.26927E-02
         0.26927E-02
         0.26927E-02
         0.26927E-02
         0.26927E-02
         0.26927E-02
         0.26927E-02
         0.26927E-02
         0.26927E-02
         0.26927E-02
         0.26927E-02
         0.26927E-02
         0.26927E-02
         0.26927E-02
         0.26927E-02
         0.26927E-02
         0.26927E-02
         0.26927E-02
         0.26927E-02
         0.26927E-02
         0.26927E-02
         0.26927E-02
         0.26927E-02
         0.26927E-02
         0.26927E-02
         0.26927E-02
         0.26927E-02
         0.26927E-02
         0.26927E-02
         0.26927E-02
         0.26927E-02
         0.26927E-02
         0.26927E-02
         0.26927E-02
         0.26927E-02
         0.26927E-02
         0.26927E-02
         0.26927E-02
         0.26927E-02
         0.26927E-02
         0.26927E-02
         0.26927E-02
         0.26927E-02
         0.26927E-02
         0.26927E-02
         0.26927E-02
         0.26927E-02
         0.26927E-02
         0.26927E-02
         0.26927E-02
         0.26927E-02
         0.26927E-02
         0.26927E-02
         0.26927E-02
         0.26927E-02
         0.26927E-02
         0.26927E-02
         0.26927E-02
         0.26927E-02
         0.26927E-02
         0.26927E-02
         0.26927E-02
         0.26927E-02
         0.26927E-02
         0.26927E-02
         0.26927E-02
         0.26927E-02
         0.26927E-02
         0.26927E-02
         0.26927E-02
         0.26927E-02
         0.26927E-02
         0.26927E-02
         0.26927E-02
         0.26927E-02
         0.26927E-02
         0.26927E-02
         0.26927E-02
         0.26927E-02
         0.26927E-02
         0.26927E-02
         0.26927E-02
         0.26927E-02
         0.26927E-02
         0.26927E-02
         0.26927E-02
         0.26927E-02
         0.26927E-02
         0.26927E-02
         0.26927E-02
         0.26927E-02
         0.26927E-02
         0.26927E-02
         0.26927E-02
         0.26927E-02
         0.26927E-02
         0.26927E-02
         0.26927E-02
         0.26927E-02
         0.26927E-02
         0.26927E-02
         0.26927E-02
         0.26927E-02
         0.26927E-02
         0.26927E-02
         0.26927E-02
         0.26927E-02
         0.26927E-02
         0.26927E-02
         0.26927E-02
         0.26927E-02
         0.26927E-02
         0.26927E-02
         0.26927E-02
         0.26927E-02
         0.26927E-02
         0.26927E-02
         0.26927E-02
         0.26927E-02
         0.26927E-02
         0.26927E-02
         0.26927E-02
         0.26927E-02
         0.26927E-02
         0.26927E-02
         0.26927E-02
         0.26927E-02
         0.26927E-02
         0.26927E-02
         0.26927E-02
         0.26927E-02
         0.26927E-02
         0.26927E-02
         0.26927E-02
         0.26927E-02
         0.26927E-02
         0.26927E-02
         0.26927E-02
         0.26927E-02
         0.26927E-02
         0.26927E-02
         0.26927E-02
         0.26927E-02
         0.26927E-02
         0.26927E-02
         0.26927E-02
         0.26927E-02
         0.26927E-02
         0.26927E-02
         0.26927E-02
         0.26927E-02
         0.26927E-02
         0.26927E-02
         0.26927E-02
         0.26927E-02
         0.26927E-02
         0.26927E-02
         0.26927E-02
         0.26927E-02
         0.26927E-02
         0.26927E-02
         0.26927E-02
         0.26927E-02
         0.26927E-02
         0.26927E-02
         0.26927E-02
         0.26927E-02
         0.26927E-02
         0.26927E-02
         0.26927E-02
         0.26927E-02
         0.26927E-02
         0.26927E-02
         0.26927E-02
         0.26927E-02
         0.26927E-02
         0.26927E-02
         0.26927E-02
         0.26927E-02
         0.26927E-02
         0.26927E-02
         0.26927E-02
         0.26927E-02
         0.26927E-02
         0.26927E-02
         0.26927E-02
         0.26927E-02
         0.26927E-02
         0.26927E-02
         0.26927E-02
         0.26927E-02
         0.26927E-02
         0.26927E-02
         0.26927E-02
         0.26927E-02
         0.26927E-02
         0.26927E-02
         0.26927E-02
         0.26927E-02
         0.26927E-02
         0.26927E-02
         0.26927E-02
         0.26927E-02
         0.26927E-02
         0.26927E-02
         0.26927E-02
         0.26927E-02
         0.26927E-02
         0.26927E-02
         0.26927E-02
         0.26927E-02
         0.26927E-02
         0.26927E-02
         0.26927E-02
         0.26927E-02
         0.26927E-02
         0.26927E-02
         0.26927E-02
         0.26927E-02
         0.26927E-02
         0.26927E-02
         0.26927E-02
         0.26927E-02
         0.26927E-02
         0.26927E-02
         0.26927E-02
         0.26927E-02
         0.26927E-02
         0.26927E-02
         0.26927E-02
         0.26927E-02
         0.26927E-02
         0.26927E-02
         0.26927E-02
         0.26927E-02
         0.26927E-02
         0.26927E-02
         0.26927E-02
         0.26927E-02
         0.26927E-02
         0.26927E-02
         0.26927E-02
         0.26927E-02
         0.26927E-02
         0.26927E-02
         0.26927E-02
         0.26927E-02
         0.26927E-02
         0.26927E-02
         0.26927E-02
         0.26927E-02
         0.26927E-02
         0.26927E-02
         0.26927E-02
         0.26927E-02
         0.26927E-02
         0.26927E-02
         0.26927E-02
         0.26927E-02
         0.26927E-02
         0.26927E-02
         0.26927E-02
         0.26927E-02
         0.26927E-02
         0.26927E-02
         0.26927E-02
         0.26927E-02
         0.26927E-02
         0.26927E-02
         0.26927E-02
         0.26927E-02
         0.26927E-02
         0.26927E-02
         0.26927E-02
         0.26927E-02
         0.26927E-02
         0.26927E-02
         0.26927E-02
         0.26927E-02
         0.26927E-02
         0.26927E-02
         0.26927E-02
         0.26927E-02
         0.26927E-02
         0.26927E-02
         0.26927E-02
         0.26927E-02
         0.26927E-02
         0.26927E-02
         0.26927E-02
         0.26927E-02
         0.26927E-02
         0.26927E-02
         0.26927E-02
         0.26927E-02
         0.26927E-02
         0.26927E-02
         0.26927E-02
         0.26927E-02
         0.26927E-02
         0.26927E-02
         0.26927E-02
         0.26927E-02
         0.26927E-02
         0.26927E-02
         0.26927E-02
         0.26927E-02
         0.26927E-02
         0.26927E-02
         0.26927E-02
         0.26927E-02
         0.26927E-02
         0.26927E-02
         0.26927E-02
         0.26927E-02
         0.26927E-02
         0.26927E-02
         0.26927E-02
         0.26927E-02
         0.26927E-02
         0.26927E-02
         0.26927E-02
         0.26927E-02
         0.26927E-02
         0.26927E-02
         0.26927E-02
         0.26927E-02
         0.26927E-02
         0.26927E-02
         0.26927E-02
         0.26927E-02
         0.26927E-02
         0.26927E-02
         0.26927E-02
         0.26927E-02
         0.26927E-02
         0.26927E-02
         0.26927E-02
         0.26927E-02
         0.26927E-02
         0.26927E-02
         0.26927E-02
         0.26927E-02
         0.26927E-02
         0.26927E-02
         0.26927E-02
         0.26927E-02
         0.26927E-02
         0.26927E-02
         0.26927E-02
         0.26927E-02
         0.26927E-02
         0.26927E-02
         0.26927E-02
         0.26927E-02
         0.26927E-02
         0.26927E-02
         0.26927E-02
         0.26927E-02
         0.26927E-02
         0.26927E-02
         0.26927E-02
         0.26927E-02
         0.26927E-02
         0.26927E-02
         0.26927E-02
         0.26927E-02
         0.26927E-02
         0.26927E-02
         0.26927E-02
         0.26927E-02
         0.26927E-02
         0.26927E-02
         0.26927E-02
         0.26927E-02
         0.26927E-02
         0.26927E-02
         0.26927E-02
         0.26927E-02
         0.26927E-02
         0.26927E-02
         0.26927E-02
         0.26927E-02
         0.26927E-02
         0.26927E-02
         0.26927E-02
         0.26927E-02
         0.26927E-02
         0.26927E-02
         0.26927E-02
         0.26927E-02
         0.26927E-02
         0.26927E-02
         0.26927E-02
         0.26927E-02
         0.26927E-02
         0.26927E-02
         0.26927E-02
         0.26927E-02
         0.26927E-02
         0.26927E-02
         0.26927E-02
         0.26927E-02
         0.26927E-02
         0.26927E-02
         0.26927E-02
         0.26927E-02
         0.26927E-02
         0.26927E-02
         0.26927E-02
         0.26927E-02
         0.26927E-02
         0.26927E-02
         0.26927E-02
         0.26927E-02
         0.26927E-02
         0.26927E-02
         0.26927E-02
         0.26927E-02
         0.26927E-02
         0.26927E-02
         0.26927E-02
         0.26927E-02
         0.26927E-02
         0.26927E-02
         0.26927E-02
         0.26927E-02
         0.26927E-02
         0.26927E-02
         0.26927E-02
         0.26927E-02
         0.26927E-02
         0.26927E-02
         0.26927E-02
         0.26927E-02
         0.26927E-02
         0.26927E-02
         0.26927E-02
         0.26927E-02
         0.26927E-02
         0.26927E-02
         0.26927E-02
         0.26927E-02
         0.26927E-02
         0.26927E-02
         0.26927E-02
         0.26927E-02
         0.26927E-02
         0.26927E-02
         0.26927E-02
         0.26927E-02
         0.26927E-02
         0.26927E-02
         0.26927E-02
         0.26927E-02
         0.26927E-02
         0.26927E-02
         0.26927E-02
         0.26927E-02
         0.26927E-02
         0.26927E-02
         0.26927E-02
         0.26927E-02
         0.26927E-02
         0.26927E-02
         0.26927E-02
         0.26927E-02
         0.26927E-02
         0.26927E-02
         0.26927E-02
         0.26927E-02
         0.26927E-02
         0.26927E-02
         0.26927E-02
         0.26927E-02
         0.26927E-02
         0.26927E-02
         0.26927E-02
         0.26927E-02
         0.26927E-02
         0.26927E-02
         0.26927E-02
         0.26927E-02
         0.26927E-02
         0.26927E-02
         0.26927E-02
         0.26927E-02
         0.26927E-02
         0.26927E-02
         0.26927E-02
         0.26927E-02
         0.26927E-02
         0.26927E-02
         0.26927E-02
         0.26927E-02
         0.26927E-02
         0.26927E-02
         0.26927E-02
         0.26927E-02
         0.26927E-02
         0.26927E-02
         0.26927E-02
         0.26927E-02
         0.26927E-02
         0.26927E-02
         0.26927E-02
         0.26927E-02
         0.26927E-02
         0.26927E-02
         0.26927E-02
         0.26927E-02
         0.26927E-02
         0.26927E-02
         0.26927E-02
         0.26927E-02
         0.26927E-02
         0.26927E-02
         0.26927E-02
         0.26927E-02
         0.26927E-02
         0.26927E-02
         0.26927E-02
         0.26927E-02
         0.26927E-02
         0.26927E-02
         0.26927E-02
         0.26927E-02
         0.26927E-02
         0.26927E-02
         0.26927E-02
         0.26927E-02
         0.26927E-02
         0.26927E-02
         0.26927E-02
         0.26927E-02
         0.26927E-02
         0.26927E-02
         0.26927E-02
         0.26927E-02
         0.26927E-02
         0.26927E-02
         0.26927E-02
         0.26927E-02
         0.26927E-02
         0.26927E-02
         0.26927E-02
         0.26927E-02
         0.26927E-02
         0.26927E-02
         0.26927E-02
         0.26927E-02
         0.26927E-02
         0.26927E-02
         0.26927E-02
         0.26927E-02
         0.26927E-02
         0.26927E-02
         0.26927E-02
         0.26927E-02
         0.26927E-02
         0.26927E-02
         0.26927E-02
         0.26927E-02
         0.26927E-02
         0.26927E-02
         0.26927E-02
         0.26927E-02
         0.26927E-02
         0.26927E-02
         0.26927E-02
         0.26927E-02
         0.26927E-02
         0.26927E-02
         0.26927E-02
         0.26927E-02
         0.26927E-02
         0.26927E-02
         0.26927E-02
         0.26927E-02
         0.26927E-02
         0.26927E-02
         0.26927E-02
         0.26927E-02
         0.26927E-02
         0.26927E-02
         0.26927E-02
         0.26927E-02
         0.26927E-02
         0.26927E-02
         0.26927E-02
         0.26927E-02
         0.26927E-02
         0.26927E-02
         0.26927E-02
         0.26927E-02
         0.26927E-02
         0.26927E-02
         0.26927E-02
         0.26927E-02
         0.26927E-02
         0.26927E-02
         0.26927E-02
         0.26927E-02
         0.26927E-02
         0.26927E-02
         0.26927E-02
         0.26927E-02
         0.26927E-02
         0.26927E-02
         0.26927E-02
         0.26927E-02
         0.26927E-02
         0.26927E-02
         0.26927E-02
         0.26927E-02
         0.26927E-02
         0.26927E-02
         0.26927E-02
         0.26927E-02
         0.26927E-02
         0.26927E-02
         0.26927E-02
         0.26927E-02
         0.26927E-02
         0.26927E-02
         0.26927E-02
         0.26927E-02
         0.26927E-02
         0.26927E-02
         0.26927E-02
         0.26927E-02
         0.26927E-02
         0.26927E-02
         0.26927E-02
         0.26927E-02
         0.26927E-02
         0.26927E-02
         0.26927E-02
         0.26927E-02
         0.26927E-02
         0.26927E-02
         0.26927E-02
         0.26927E-02
         0.26927E-02
         0.26927E-02
         0.26927E-02
         0.26927E-02
         0.26927E-02
         0.26927E-02
         0.26927E-02
         0.26927E-02
         0.26927E-02
         0.26927E-02
         0.26927E-02
         0.26927E-02
         0.26927E-02
         0.26927E-02
         0.26927E-02
         0.26927E-02
         0.26927E-02
         0.26927E-02
         0.26927E-02
         0.26927E-02
         0.26927E-02
         0.26927E-02
         0.26927E-02
         0.26927E-02
         0.26927E-02
         0.26927E-02
         0.26927E-02
         0.26927E-02
         0.26927E-02
         0.26927E-02
         0.26927E-02
         0.26927E-02
         0.26927E-02
         0.26927E-02
         0.26927E-02
         0.26927E-02
         0.26927E-02
         0.26927E-02
         0.26927E-02
         0.26927E-02
         0.26927E-02
         0.26927E-02
         0.26927E-02
         0.26927E-02
         0.26927E-02
         0.26927E-02
         0.26927E-02
         0.26927E-02
         0.26927E-02
         0.26927E-02
         0.26927E-02
         0.26927E-02
         0.26927E-02
         0.26927E-02
         0.26927E-02
         0.26927E-02
         0.26927E-02
         0.26927E-02
         0.26927E-02
         0.26927E-02
         0.26927E-02
         0.26927E-02
         0.26927E-02
         0.26927E-02
         0.26927E-02
         0.26927E-02
         0.26927E-02
         0.26927E-02
         0.26927E-02
         0.26927E-02
         0.26927E-02
         0.26927E-02
         0.26927E-02
         0.26927E-02
         0.26927E-02
         0.26927E-02
         0.26927E-02
         0.26927E-02
         0.26927E-02
         0.26927E-02
         0.26927E-02
         0.26927E-02
         0.26927E-02
         0.26927E-02
         0.26927E-02
         0.26927E-02
         0.26927E-02
         0.26927E-02
         0.26927E-02
         0.26927E-02
         0.26927E-02
         0.26927E-02
         0.26927E-02
         0.26927E-02
         0.26927E-02
         0.26927E-02
         0.26927E-02
         0.26927E-02
         0.26927E-02
         0.26927E-02
         0.26927E-02
         0.26927E-02
         0.26927E-02
         0.26927E-02
         0.26927E-02
         0.26927E-02
         0.26927E-02
         0.26927E-02
         0.26927E-02
         0.26927E-02
         0.26927E-02
         0.26927E-02
         0.26927E-02
         0.26927E-02
         0.26927E-02
         0.26927E-02
         0.26927E-02
         0.26927E-02
         0.26927E-02
         0.26927E-02
         0.26927E-02
         0.26927E-02
         0.26927E-02
         0.26927E-02
         0.26927E-02
         0.26927E-02
         0.26927E-02
         0.26927E-02
         0.26927E-02
         0.26927E-02
         0.26927E-02
         0.26927E-02
         0.26927E-02
         0.26927E-02
         0.26927E-02
         0.26927E-02
         0.26927E-02
         0.26927E-02
         0.26927E-02
         0.26927E-02
         0.26927E-02
         0.26927E-02
         0.26927E-02
         0.26927E-02
         0.26927E-02
         0.26927E-02
         0.26927E-02
         0.26927E-02
         0.26927E-02
         0.26927E-02
         0.26927E-02
         0.26927E-02
         0.26927E-02
         0.26927E-02
         0.26927E-02
         0.26927E-02
         0.26927E-02
         0.26927E-02
         0.26927E-02
         0.26927E-02
         0.26927E-02
         0.26927E-02
         0.26927E-02
         0.26927E-02
         0.26927E-02
         0.26927E-02
         0.26927E-02
         0.26927E-02
         0.26927E-02
         0.26927E-02
         0.26927E-02
         0.26927E-02
         0.26927E-02
         0.26927E-02
         0.26927E-02
         0.26927E-02
         0.26927E-02
         0.26927E-02
         0.26927E-02
         0.26927E-02
         0.26927E-02
         0.26927E-02
         0.26927E-02
         0.26927E-02
         0.26927E-02
         0.26927E-02
         0.26927E-02
         0.26927E-02
         0.26927E-02
         0.26927E-02
         0.26927E-02
         0.26927E-02
         0.26927E-02
         0.26927E-02
         0.26927E-02
         0.26927E-02
         0.26927E-02
         0.26927E-02
         0.26927E-02
         0.26927E-02
         0.26927E-02
         0.26927E-02
         0.26927E-02
         0.26927E-02
         0.26927E-02
         0.26927E-02
         0.26927E-02
         0.26927E-02
         0.26927E-02
         0.26927E-02
         0.26927E-02
         0.26927E-02
         0.26927E-02
         0.26927E-02
         0.26927E-02
         0.26927E-02
         0.26927E-02
         0.26927E-02
         0.26927E-02
         0.26927E-02
         0.26927E-02
         0.26927E-02
         0.26927E-02
         0.26927E-02
         0.26927E-02
         0.26927E-02
         0.26927E-02
         0.26927E-02
         0.26927E-02
         0.26927E-02
         0.26927E-02
         0.26927E-02
         0.26927E-02
         0.26927E-02
         0.26927E-02
         0.26927E-02
         0.26927E-02
         0.26927E-02
         0.26927E-02
         0.26927E-02
         0.26927E-02
         0.26927E-02
         0.26927E-02
         0.26927E-02
         0.26927E-02
         0.26927E-02
         0.26927E-02
         0.26927E-02
         0.26927E-02
         0.26927E-02
         0.26927E-02
         0.26927E-02
         0.26927E-02
         0.26927E-02
         0.26927E-02
         0.26927E-02
         0.26927E-02
         0.26927E-02
         0.26927E-02
         0.26927E-02
         0.26927E-02
         0.26927E-02
         0.26927E-02
         0.26927E-02
         0.26927E-02
         0.26927E-02
         0.26927E-02
         0.26927E-02
         0.26927E-02
         0.26927E-02
         0.26927E-02
         0.26927E-02
         0.26927E-02
         0.26927E-02
         0.26927E-02
         0.26927E-02
         0.26927E-02
         0.26927E-02
         0.26927E-02
         0.26927E-02
         0.26927E-02
         0.26927E-02
         0.26927E-02
         0.26927E-02
         0.26927E-02
         0.26927E-02
         0.26927E-02
         0.26927E-02
         0.26927E-02
         0.26927E-02
         0.26927E-02
         0.26927E-02
         0.26927E-02
         0.26927E-02
         0.26927E-02
         0.26927E-02
         0.26927E-02
         0.26927E-02
         0.26927E-02
         0.26927E-02
         0.26927E-02
         0.26927E-02
         0.26927E-02
         0.26927E-02
         0.26927E-02
         0.26927E-02
         0.26927E-02
         0.26927E-02
         0.26927E-02
         0.26927E-02
         0.26927E-02
         0.26927E-02
         0.26927E-02
         0.26927E-02
         0.26927E-02
         0.26927E-02
         0.26927E-02
         0.26927E-02
         0.26927E-02
         0.26927E-02
         0.26927E-02
         0.26927E-02
         0.26927E-02
         0.26927E-02
         0.26927E-02
         0.26927E-02
         0.26927E-02
         0.26927E-02
         0.26927E-02
         0.26927E-02
         0.26927E-02
         0.26927E-02
         0.26927E-02
         0.26927E-02
         0.26927E-02
         0.26927E-02
         0.26927E-02
         0.26927E-02
         0.26927E-02
         0.26927E-02
         0.26927E-02
         0.26927E-02
         0.26927E-02
         0.26927E-02
         0.26927E-02
         0.26927E-02
         0.26927E-02
         0.26927E-02
         0.26927E-02
         0.26927E-02
         0.26927E-02
         0.26927E-02
         0.26927E-02
         0.26927E-02
         0.26927E-02
         0.26927E-02
         0.26927E-02
         0.26927E-02
         0.26927E-02
         0.26927E-02
         0.26927E-02
         0.26927E-02
         0.26927E-02
         0.26927E-02
         0.26927E-02
         0.26927E-02
         0.26927E-02
         0.26927E-02
         0.26927E-02
         0.26927E-02
         0.26927E-02
         0.26927E-02
         0.26927E-02
         0.26927E-02
         0.26927E-02
         0.26927E-02
         0.26927E-02
         0.26927E-02
         0.26927E-02
         0.26927E-02
         0.26927E-02
         0.26927E-02
         0.26927E-02
         0.26927E-02
         0.26927E-02
         0.26927E-02
         0.26927E-02
         0.26927E-02
         0.26927E-02
         0.26927E-02
         0.26927E-02
         0.26927E-02
         0.26927E-02
         0.26927E-02
         0.26927E-02
         0.26927E-02
         0.26927E-02
         0.26927E-02
         0.26927E-02
         0.26927E-02
         0.26927E-02
         0.26927E-02
         0.26927E-02
         0.26927E-02
         0.26927E-02
         0.26927E-02
         0.26927E-02
         0.26927E-02
         0.26927E-02
         0.26927E-02
         0.26927E-02
         0.26927E-02
         0.26927E-02
         0.26927E-02
         0.26927E-02
         0.26927E-02
         0.26927E-02
         0.26927E-02
         0.26927E-02
         0.26927E-02
         0.26927E-02
         0.26927E-02
         0.26927E-02
         0.26927E-02
         0.26927E-02
         0.26927E-02
         0.26927E-02
         0.26927E-02
         0.26927E-02
         0.26927E-02
         0.26927E-02
         0.26927E-02
         0.26927E-02
         0.26927E-02
         0.26927E-02
         0.26927E-02
         0.26927E-02
         0.26927E-02
         0.26927E-02
         0.26927E-02
         0.26927E-02
         0.26927E-02
         0.26927E-02
         0.26927E-02
         0.26927E-02
         0.26927E-02
         0.26927E-02
         0.26927E-02
         0.26927E-02
         0.26927E-02
         0.26927E-02
         0.26927E-02
         0.26927E-02
         0.26927E-02
         0.26927E-02
         0.26927E-02
         0.26927E-02
         0.26927E-02
         0.26927E-02
         0.26927E-02
         0.26927E-02
         0.26927E-02
         0.26927E-02
         0.26927E-02
         0.26927E-02
         0.26927E-02
         0.26927E-02
         0.26927E-02
         0.26927E-02
         0.26927E-02
         0.26927E-02
         0.26927E-02
         0.26927E-02
         0.26927E-02
         0.26927E-02
         0.26927E-02
         0.26927E-02
         0.26927E-02
         0.26927E-02
         0.26927E-02
         0.26927E-02
         0.26927E-02
         0.26927E-02
         0.26927E-02
         0.26927E-02
         0.26927E-02
         0.26927E-02
         0.26927E-02
         0.26927E-02
         0.26927E-02
         0.26927E-02
         0.26927E-02
         0.26927E-02
         0.26927E-02
         0.26927E-02
         0.26927E-02
         0.26927E-02
         0.26927E-02
         0.26927E-02
         0.26927E-02
         0.26927E-02
         0.26927E-02
         0.26927E-02
         0.26927E-02
         0.26927E-02
         0.26927E-02
         0.26927E-02
         0.26927E-02
         0.26927E-02
         0.26927E-02
         0.26927E-02
         0.26927E-02
         0.26927E-02
         0.26927E-02
         0.26927E-02
         0.26927E-02
         0.26927E-02
         0.26927E-02
         0.26927E-02
         0.26927E-02
         0.26927E-02
         0.26927E-02
         0.26927E-02
         0.26927E-02
         0.26927E-02
         0.26927E-02
         0.26927E-02
         0.26927E-02
         0.26927E-02
         0.26927E-02
         0.26927E-02
         0.26927E-02
         0.26927E-02
         0.26927E-02
         0.26927E-02
         0.26927E-02
         0.26927E-02
         0.26927E-02
         0.26927E-02
         0.26927E-02
         0.26927E-02
         0.26927E-02
         0.26927E-02
         0.26927E-02
         0.26927E-02
         0.26927E-02
         0.26927E-02
         0.26927E-02
         0.26927E-02
         0.26927E-02
         0.26927E-02
         0.26927E-02
         0.26927E-02
         0.26927E-02
         0.26927E-02
         0.26927E-02
         0.26927E-02
         0.26927E-02
         0.26927E-02
         0.26927E-02
         0.26927E-02
         0.26927E-02
         0.26927E-02
         0.26927E-02
         0.26927E-02
         0.26927E-02
         0.26927E-02
         0.26927E-02
         0.26927E-02
         0.26927E-02
         0.26927E-02
         0.26927E-02
         0.26927E-02
         0.26927E-02
         0.26927E-02
         0.26927E-02
         0.26927E-02
         0.26927E-02
         0.26927E-02
         0.26927E-02
         0.26927E-02
         0.26927E-02
         0.26927E-02
         0.26927E-02
         0.26927E-02
         0.26927E-02
         0.26927E-02
         0.26927E-02
         0.26927E-02
         0.26927E-02
         0.26927E-02
         0.26927E-02
         0.26927E-02
         0.26927E-02
         0.26927E-02
         0.26927E-02
         0.26927E-02
         0.26927E-02
         0.26927E-02
         0.26927E-02
         0.26927E-02
         0.26927E-02
         0.26927E-02
         0.26927E-02
         0.26927E-02
         0.26927E-02
         0.26927E-02
         0.26927E-02
         0.26927E-02
         0.26927E-02
         0.26927E-02
         0.26927E-02
         0.26927E-02
         0.26927E-02
         0.26927E-02
         0.26927E-02
         0.26927E-02
         0.26927E-02
         0.26927E-02
         0.26927E-02
         0.26927E-02
         0.26927E-02
         0.26927E-02
         0.26927E-02
         0.26927E-02
         0.26927E-02
         0.26927E-02
         0.26927E-02
         0.26927E-02
         0.26927E-02
         0.26927E-02
         0.26927E-02
         0.26927E-02
         0.26927E-02
         0.26927E-02
         0.26927E-02
         0.26927E-02
         0.26927E-02
         0.26927E-02
         0.26927E-02
         0.26927E-02
         0.26927E-02
         0.26927E-02
         0.26927E-02
         0.26927E-02
         0.26927E-02
         0.26927E-02
         0.26927E-02
         0.26927E-02
         0.26927E-02
         0.26927E-02
         0.26927E-02
         0.26927E-02
         0.26927E-02
         0.26927E-02
         0.26927E-02
         0.26927E-02
         0.26927E-02
         0.26927E-02
         0.26927E-02
         0.26927E-02
         0.26927E-02
         0.26927E-02
         0.26927E-02
         0.26927E-02
         0.26927E-02
         0.26927E-02
         0.26927E-02
         0.26927E-02
         0.26927E-02
         0.26927E-02
         0.26927E-02
         0.26927E-02
         0.26927E-02
         0.26927E-02
         0.26927E-02
         0.26927E-02
         0.26927E-02
         0.26927E-02
         0.26927E-02
         0.26927E-02
         0.26927E-02
         0.26927E-02
         0.26927E-02
         0.26927E-02
         0.26927E-02
         0.26927E-02
         0.26927E-02
         0.26927E-02
         0.26927E-02
         0.26927E-02
         0.26927E-02
         0.26927E-02
         0.26927E-02
         0.26927E-02
         0.26927E-02
         0.26927E-02
         0.26927E-02
         0.26928E-02
         0.26928E-02
         0.26928E-02
         0.26928E-02
         0.26928E-02
         0.26928E-02
         0.26928E-02
         0.26928E-02
         0.26928E-02
         0.26928E-02
         0.26928E-02
         0.26928E-02
         0.26928E-02
         0.26928E-02
         0.26928E-02
         0.26928E-02
         0.26928E-02
         0.26928E-02
         0.26928E-02
         0.26928E-02
         0.26928E-02
         0.26928E-02
         0.26928E-02
         0.26928E-02
         0.26928E-02
         0.26928E-02
         0.26928E-02
         0.26928E-02
         0.26928E-02
         0.26928E-02
         0.26928E-02
         0.26928E-02
         0.26928E-02
         0.26928E-02
         0.26928E-02
         0.26928E-02
         0.26928E-02
         0.26928E-02
         0.26928E-02
         0.26928E-02
         0.26928E-02
         0.26928E-02
         0.26928E-02
         0.26928E-02
         0.26928E-02
         0.26928E-02
         0.26928E-02
         0.26928E-02
         0.26928E-02
         0.26928E-02
         0.26928E-02
         0.26928E-02
         0.26928E-02
         0.26928E-02
         0.26928E-02
         0.26928E-02
         0.26928E-02
         0.26928E-02
         0.26928E-02
         0.26928E-02
         0.26928E-02
         0.26928E-02
         0.26928E-02
         0.26928E-02
         0.26928E-02
         0.26928E-02
         0.26928E-02
         0.26928E-02
         0.26928E-02
         0.26928E-02
         0.26928E-02
         0.26928E-02
         0.26928E-02
         0.26928E-02
         0.26928E-02
         0.26928E-02
         0.26928E-02
         0.26928E-02
         0.26928E-02
         0.26928E-02
         0.26928E-02
         0.26928E-02
         0.26928E-02
         0.26928E-02
         0.26928E-02
         0.26928E-02
         0.26928E-02
         0.26928E-02
         0.26928E-02
         0.26928E-02
         0.26928E-02
         0.26928E-02
         0.26928E-02
         0.26928E-02
         0.26928E-02
         0.26928E-02
         0.26928E-02
         0.26928E-02
         0.26928E-02
         0.26928E-02
         0.26928E-02
         0.26928E-02
         0.26928E-02
         0.26928E-02
         0.26928E-02
         0.26928E-02
         0.26928E-02
         0.26928E-02
         0.26928E-02
         0.26928E-02
         0.26928E-02
         0.26928E-02
         0.26928E-02
         0.26928E-02
         0.26928E-02
         0.26928E-02
         0.26928E-02
         0.26928E-02
         0.26928E-02
         0.26928E-02
         0.26928E-02
         0.26928E-02
         0.26928E-02
         0.26928E-02
         0.26928E-02
         0.26928E-02
         0.26928E-02
         0.26928E-02
         0.26928E-02
         0.26928E-02
         0.26928E-02
         0.26928E-02
         0.26928E-02
         0.26928E-02
         0.26928E-02
         0.26928E-02
         0.26928E-02
         0.26928E-02
         0.26928E-02
         0.26928E-02
         0.26928E-02
         0.26928E-02
         0.26928E-02
         0.26928E-02
         0.26928E-02
         0.26928E-02
         0.26928E-02
         0.26928E-02
         0.26928E-02
         0.26928E-02
         0.26928E-02
         0.26928E-02
         0.26928E-02
         0.26928E-02
         0.26928E-02
         0.26928E-02
  
SCALARS                   nodal_volume  double 1
LOOKUP_TABLE default
         0.91140E-09
         0.72412E-09
         0.77574E-09
         0.13316E-08
         0.45570E-09
         0.36211E-09
         0.38787E-09
         0.66566E-09
         0.71537E-09
         0.91211E-09
         0.35767E-09
         0.45600E-09
         0.51195E-09
         0.61532E-09
         0.25605E-09
         0.30776E-09
         0.10101E-08
         0.74536E-09
         0.50500E-09
         0.37281E-09
         0.30273E-09
         0.57012E-09
         0.62699E-09
         0.15144E-09
         0.28509E-09
         0.31352E-09
         0.51329E-09
         0.64933E-09
         0.25683E-09
         0.32471E-09
         0.12026E-08
         0.93909E-09
         0.11935E-08
         0.60122E-09
         0.46945E-09
         0.59663E-09
         0.70296E-09
         0.80270E-09
         0.35149E-09
         0.40134E-09
         0.75859E-09
         0.84013E-09
         0.37932E-09
         0.42007E-09
         0.64542E-09
         0.40086E-09
         0.32274E-09
         0.20045E-09
         0.76288E-09
         0.38153E-09
         0.63346E-09
         0.31675E-09
         0.66583E-09
         0.33318E-09
         0.68008E-09
         0.34022E-09
         0.58930E-09
         0.71738E-09
         0.29472E-09
         0.35874E-09
         0.90938E-09
         0.64302E-09
         0.45469E-09
         0.32154E-09
         0.10152E-08
         0.50747E-09
         0.88120E-09
         0.44042E-09
         0.40077E-09
         0.61872E-09
         0.20039E-09
         0.30940E-09
         0.70206E-09
         0.35106E-09
         0.74172E-09
         0.37089E-09
         0.71539E-09
         0.35770E-09
         0.56226E-09
         0.28113E-09
         0.35349E-09
         0.58452E-09
         0.17675E-09
         0.29229E-09
         0.77354E-09
         0.38679E-09
         0.62469E-09
         0.31238E-09
         0.54957E-09
         0.27483E-09
         0.36009E-09
         0.61365E-09
         0.18007E-09
         0.30685E-09
         0.83268E-09
         0.41635E-09
         0.87287E-09
         0.43642E-09
         0.70438E-09
         0.35217E-09
         0.43365E-09
         0.74413E-09
         0.21683E-09
         0.37198E-09
         0.27660E-09
         0.35144E-09
         0.13833E-09
         0.17573E-09
         0.32921E-09
         0.16465E-09
         0.38764E-09
         0.19382E-09
         0.37797E-09
         0.18897E-09
         0.36707E-09
         0.18352E-09
         0.39112E-09
         0.19552E-09
         0.41268E-09
         0.20627E-09
         0.38876E-09
         0.19433E-09
         0.30402E-09
         0.15200E-09
         0.24796E-09
         0.12398E-09
         0.31999E-09
         0.16000E-09
         0.42608E-09
         0.21303E-09
         0.46805E-09
         0.23401E-09
         0.44933E-09
         0.22466E-09
         0.40550E-09
         0.20276E-09
         0.36826E-09
         0.18414E-09
         0.29911E-09
         0.14956E-09
         0.25178E-09
         0.12591E-09
         0.32888E-09
         0.16445E-09
         0.43529E-09
         0.21765E-09
         0.44963E-09
         0.22482E-09
         0.36384E-09
         0.18194E-09
         0.29543E-09
         0.14774E-09
         0.36126E-09
         0.18063E-09
         0.42771E-09
         0.21386E-09
         0.91143E-09
         0.72396E-09
         0.77579E-09
         0.13322E-08
         0.71547E-09
         0.91237E-09
         0.51167E-09
         0.61494E-09
         0.10105E-08
         0.74486E-09
         0.30244E-09
         0.57001E-09
         0.62694E-09
         0.51257E-09
         0.64918E-09
         0.12029E-08
         0.93950E-09
         0.11941E-08
         0.70298E-09
         0.80279E-09
         0.75855E-09
         0.84015E-09
         0.64535E-09
         0.40081E-09
         0.76254E-09
         0.63339E-09
         0.66483E-09
         0.67941E-09
         0.58904E-09
         0.71721E-09
         0.90946E-09
         0.64293E-09
         0.10157E-08
         0.88199E-09
         0.40076E-09
         0.61859E-09
         0.70195E-09
         0.74166E-09
         0.71543E-09
         0.56228E-09
         0.35349E-09
         0.58443E-09
         0.77349E-09
         0.62459E-09
         0.54943E-09
         0.35999E-09
         0.61359E-09
         0.83268E-09
         0.87299E-09
         0.70451E-09
         0.43366E-09
         0.74449E-09
         0.27651E-09
         0.35143E-09
         0.32904E-09
         0.38765E-09
         0.37805E-09
         0.36714E-09
         0.39129E-09
         0.41297E-09
         0.38899E-09
         0.30408E-09
         0.24798E-09
         0.31999E-09
         0.42613E-09
         0.46815E-09
         0.44938E-09
         0.40548E-09
         0.36823E-09
         0.29908E-09
         0.25174E-09
         0.32885E-09
         0.43527E-09
         0.44962E-09
         0.36376E-09
         0.29536E-09
         0.36130E-09
         0.42769E-09
         0.91151E-09
         0.72383E-09
         0.77587E-09
         0.13329E-08
         0.71560E-09
         0.91267E-09
         0.51142E-09
         0.61459E-09
         0.10109E-08
         0.74439E-09
         0.30216E-09
         0.56992E-09
         0.62691E-09
         0.51187E-09
         0.64906E-09
         0.12033E-08
         0.93995E-09
         0.11947E-08
         0.70302E-09
         0.80291E-09
         0.75853E-09
         0.84020E-09
         0.64530E-09
         0.40078E-09
         0.76223E-09
         0.63335E-09
         0.66385E-09
         0.67875E-09
         0.58880E-09
         0.71706E-09
         0.90957E-09
         0.64286E-09
         0.10162E-08
         0.88281E-09
         0.40076E-09
         0.61849E-09
         0.70188E-09
         0.74162E-09
         0.71550E-09
         0.56232E-09
         0.35350E-09
         0.58436E-09
         0.77347E-09
         0.62452E-09
         0.54931E-09
         0.35990E-09
         0.61355E-09
         0.83270E-09
         0.87315E-09
         0.70467E-09
         0.43368E-09
         0.74487E-09
         0.27643E-09
         0.35143E-09
         0.32889E-09
         0.38767E-09
         0.37814E-09
         0.36723E-09
         0.39147E-09
         0.41328E-09
         0.38923E-09
         0.30416E-09
         0.24800E-09
         0.32001E-09
         0.42620E-09
         0.46826E-09
         0.44944E-09
         0.40548E-09
         0.36821E-09
         0.29906E-09
         0.25171E-09
         0.32883E-09
         0.43527E-09
         0.44963E-09
         0.36369E-09
         0.29530E-09
         0.36135E-09
         0.42769E-09
         0.91156E-09
         0.72368E-09
         0.77594E-09
         0.13335E-08
         0.71571E-09
         0.91295E-09
         0.51115E-09
         0.61422E-09
         0.10112E-08
         0.74389E-09
         0.30187E-09
         0.56982E-09
         0.62686E-09
         0.51116E-09
         0.64892E-09
         0.12036E-08
         0.94038E-09
         0.11953E-08
         0.70304E-09
         0.80300E-09
         0.75850E-09
         0.84023E-09
         0.64523E-09
         0.40073E-09
         0.76190E-09
         0.63330E-09
         0.66285E-09
         0.67809E-09
         0.58855E-09
         0.71689E-09
         0.90966E-09
         0.64278E-09
         0.10168E-08
         0.88361E-09
         0.40076E-09
         0.61837E-09
         0.70178E-09
         0.74156E-09
         0.71554E-09
         0.56234E-09
         0.35350E-09
         0.58428E-09
         0.77343E-09
         0.62442E-09
         0.54918E-09
         0.35981E-09
         0.61349E-09
         0.83271E-09
         0.87328E-09
         0.70481E-09
         0.43369E-09
         0.74524E-09
         0.27634E-09
         0.35142E-09
         0.32873E-09
         0.38768E-09
         0.37823E-09
         0.36731E-09
         0.39163E-09
         0.41358E-09
         0.38945E-09
         0.30422E-09
         0.24802E-09
         0.32001E-09
         0.42625E-09
         0.46837E-09
         0.44949E-09
         0.40546E-09
         0.36819E-09
         0.29904E-09
         0.25167E-09
         0.32881E-09
         0.43526E-09
         0.44963E-09
         0.36362E-09
         0.29523E-09
         0.36139E-09
         0.42768E-09
         0.91161E-09
         0.72353E-09
         0.77600E-09
         0.13341E-08
         0.71583E-09
         0.91323E-09
         0.51088E-09
         0.61386E-09
         0.10116E-08
         0.74341E-09
         0.30158E-09
         0.56972E-09
         0.62682E-09
         0.51045E-09
         0.64879E-09
         0.12040E-08
         0.94081E-09
         0.11959E-08
         0.70307E-09
         0.80310E-09
         0.75847E-09
         0.84027E-09
         0.64517E-09
         0.40069E-09
         0.76158E-09
         0.63325E-09
         0.66186E-09
         0.67742E-09
         0.58831E-09
         0.71673E-09
         0.90975E-09
         0.64270E-09
         0.10173E-08
         0.88441E-09
         0.40075E-09
         0.61825E-09
         0.70169E-09
         0.74151E-09
         0.71559E-09
         0.56237E-09
         0.35350E-09
         0.58420E-09
         0.77339E-09
         0.62433E-09
         0.54905E-09
         0.35972E-09
         0.61344E-09
         0.83272E-09
         0.87341E-09
         0.70496E-09
         0.43370E-09
         0.74562E-09
         0.27626E-09
         0.35142E-09
         0.32857E-09
         0.38770E-09
         0.37832E-09
         0.36739E-09
         0.39181E-09
         0.41387E-09
         0.38968E-09
         0.30429E-09
         0.24804E-09
         0.32002E-09
         0.42631E-09
         0.46847E-09
         0.44954E-09
         0.40545E-09
         0.36816E-09
         0.29901E-09
         0.25163E-09
         0.32878E-09
         0.43525E-09
         0.44963E-09
         0.36354E-09
         0.29517E-09
         0.36144E-09
         0.42766E-09
         0.91167E-09
         0.72338E-09
         0.77607E-09
         0.13348E-08
         0.71594E-09
         0.91351E-09
         0.51062E-09
         0.61349E-09
         0.10119E-08
         0.74292E-09
         0.30129E-09
         0.56962E-09
         0.62678E-09
         0.50974E-09
         0.64865E-09
         0.12044E-08
         0.94125E-09
         0.11965E-08
         0.70310E-09
         0.80321E-09
         0.75844E-09
         0.84031E-09
         0.64511E-09
         0.40065E-09
         0.76125E-09
         0.63320E-09
         0.66087E-09
         0.67676E-09
         0.58806E-09
         0.71657E-09
         0.90984E-09
         0.64263E-09
         0.10179E-08
         0.88522E-09
         0.40075E-09
         0.61813E-09
         0.70160E-09
         0.74146E-09
         0.71564E-09
         0.56240E-09
         0.35350E-09
         0.58412E-09
         0.77336E-09
         0.62425E-09
         0.54892E-09
         0.35963E-09
         0.61339E-09
         0.83274E-09
         0.87355E-09
         0.70511E-09
         0.43371E-09
         0.74599E-09
         0.27618E-09
         0.35141E-09
         0.32841E-09
         0.38771E-09
         0.37841E-09
         0.36747E-09
         0.39198E-09
         0.41417E-09
         0.38992E-09
         0.30436E-09
         0.24806E-09
         0.32003E-09
         0.42637E-09
         0.46858E-09
         0.44960E-09
         0.40544E-09
         0.36814E-09
         0.29899E-09
         0.25159E-09
         0.32876E-09
         0.43525E-09
         0.44963E-09
         0.36347E-09
         0.29511E-09
         0.36148E-09
         0.42766E-09
         0.91171E-09
         0.72323E-09
         0.77613E-09
         0.13354E-08
         0.71606E-09
         0.91379E-09
         0.51035E-09
         0.61313E-09
         0.10123E-08
         0.74243E-09
         0.30101E-09
         0.56952E-09
         0.62674E-09
         0.50903E-09
         0.64851E-09
         0.12047E-08
         0.94167E-09
         0.11971E-08
         0.70312E-09
         0.80331E-09
         0.75840E-09
         0.84034E-09
         0.64504E-09
         0.40061E-09
         0.76092E-09
         0.63314E-09
         0.65988E-09
         0.67609E-09
         0.58781E-09
         0.71641E-09
         0.90993E-09
         0.64255E-09
         0.10184E-08
         0.88601E-09
         0.40075E-09
         0.61801E-09
         0.70151E-09
         0.74140E-09
         0.71569E-09
         0.56243E-09
         0.35350E-09
         0.58404E-09
         0.77332E-09
         0.62416E-09
         0.54879E-09
         0.35953E-09
         0.61334E-09
         0.83274E-09
         0.87368E-09
         0.70525E-09
         0.43372E-09
         0.74636E-09
         0.27609E-09
         0.35141E-09
         0.32825E-09
         0.38772E-09
         0.37849E-09
         0.36754E-09
         0.39215E-09
         0.41447E-09
         0.39014E-09
         0.30443E-09
         0.24808E-09
         0.32004E-09
         0.42642E-09
         0.46868E-09
         0.44965E-09
         0.40543E-09
         0.36812E-09
         0.29897E-09
         0.25155E-09
         0.32874E-09
         0.43524E-09
         0.44963E-09
         0.36340E-09
         0.29504E-09
         0.36153E-09
         0.42764E-09
         0.91176E-09
         0.72308E-09
         0.77620E-09
         0.13360E-08
         0.71617E-09
         0.91407E-09
         0.51008E-09
         0.61276E-09
         0.10126E-08
         0.74195E-09
         0.30072E-09
         0.56942E-09
         0.62670E-09
         0.50832E-09
         0.64838E-09
         0.12051E-08
         0.94210E-09
         0.11977E-08
         0.70314E-09
         0.80341E-09
         0.75837E-09
         0.84038E-09
         0.64498E-09
         0.40056E-09
         0.76060E-09
         0.63309E-09
         0.65888E-09
         0.67542E-09
         0.58756E-09
         0.71624E-09
         0.91002E-09
         0.64247E-09
         0.10189E-08
         0.88682E-09
         0.40074E-09
         0.61790E-09
         0.70142E-09
         0.74135E-09
         0.71574E-09
         0.56245E-09
         0.35351E-09
         0.58396E-09
         0.77328E-09
         0.62407E-09
         0.54866E-09
         0.35944E-09
         0.61329E-09
         0.83275E-09
         0.87382E-09
         0.70539E-09
         0.43373E-09
         0.74673E-09
         0.27601E-09
         0.35140E-09
         0.32809E-09
         0.38774E-09
         0.37858E-09
         0.36762E-09
         0.39232E-09
         0.41477E-09
         0.39037E-09
         0.30450E-09
         0.24810E-09
         0.32005E-09
         0.42648E-09
         0.46879E-09
         0.44970E-09
         0.40541E-09
         0.36809E-09
         0.29894E-09
         0.25151E-09
         0.32871E-09
         0.43523E-09
         0.44963E-09
         0.36333E-09
         0.29497E-09
         0.36157E-09
         0.42763E-09
         0.91182E-09
         0.72293E-09
         0.77627E-09
         0.13367E-08
         0.71629E-09
         0.91436E-09
         0.50982E-09
         0.61240E-09
         0.10130E-08
         0.74146E-09
         0.30043E-09
         0.56932E-09
         0.62666E-09
         0.50762E-09
         0.64825E-09
         0.12054E-08
         0.94253E-09
         0.11983E-08
         0.70317E-09
         0.80351E-09
         0.75834E-09
         0.84041E-09
         0.64491E-09
         0.40053E-09
         0.76028E-09
         0.63304E-09
         0.65790E-09
         0.67476E-09
         0.58731E-09
         0.71609E-09
         0.91012E-09
         0.64239E-09
         0.10195E-08
         0.88762E-09
         0.40074E-09
         0.61778E-09
         0.70133E-09
         0.74130E-09
         0.71579E-09
         0.56249E-09
         0.35351E-09
         0.58388E-09
         0.77324E-09
         0.62398E-09
         0.54853E-09
         0.35935E-09
         0.61324E-09
         0.83277E-09
         0.87396E-09
         0.70554E-09
         0.43375E-09
         0.74711E-09
         0.27592E-09
         0.35140E-09
         0.32793E-09
         0.38775E-09
         0.37867E-09
         0.36770E-09
         0.39249E-09
         0.41507E-09
         0.39061E-09
         0.30457E-09
         0.24812E-09
         0.32006E-09
         0.42654E-09
         0.46890E-09
         0.44975E-09
         0.40540E-09
         0.36807E-09
         0.29892E-09
         0.25148E-09
         0.32869E-09
         0.43522E-09
         0.44963E-09
         0.36325E-09
         0.29491E-09
         0.36162E-09
         0.42762E-09
         0.91187E-09
         0.72278E-09
         0.77633E-09
         0.13373E-08
         0.71640E-09
         0.91463E-09
         0.50955E-09
         0.61204E-09
         0.10134E-08
         0.74098E-09
         0.30015E-09
         0.56922E-09
         0.62662E-09
         0.50691E-09
         0.64811E-09
         0.12058E-08
         0.94296E-09
         0.11989E-08
         0.70320E-09
         0.80361E-09
         0.75831E-09
         0.84045E-09
         0.64485E-09
         0.40048E-09
         0.75995E-09
         0.63298E-09
         0.65690E-09
         0.67409E-09
         0.58706E-09
         0.71592E-09
         0.91020E-09
         0.64231E-09
         0.10200E-08
         0.88843E-09
         0.40074E-09
         0.61766E-09
         0.70124E-09
         0.74124E-09
         0.71584E-09
         0.56251E-09
         0.35351E-09
         0.58380E-09
         0.77320E-09
         0.62389E-09
         0.54840E-09
         0.35926E-09
         0.61318E-09
         0.83277E-09
         0.87409E-09
         0.70568E-09
         0.43376E-09
         0.74748E-09
         0.27584E-09
         0.35139E-09
         0.32777E-09
         0.38777E-09
         0.37876E-09
         0.36778E-09
         0.39266E-09
         0.41536E-09
         0.39084E-09
         0.30464E-09
         0.24814E-09
         0.32006E-09
         0.42659E-09
         0.46900E-09
         0.44980E-09
         0.40539E-09
         0.36805E-09
         0.29890E-09
         0.25144E-09
         0.32867E-09
         0.43521E-09
         0.44963E-09
         0.36318E-09
         0.29485E-09
         0.36166E-09
         0.42761E-09
         0.91192E-09
         0.72263E-09
         0.77640E-09
         0.13380E-08
         0.71652E-09
         0.91491E-09
         0.50928E-09
         0.61167E-09
         0.10137E-08
         0.74049E-09
         0.29986E-09
         0.56912E-09
         0.62657E-09
         0.50620E-09
         0.64797E-09
         0.12061E-08
         0.94339E-09
         0.11995E-08
         0.70322E-09
         0.80371E-09
         0.75827E-09
         0.84048E-09
         0.64478E-09
         0.40044E-09
         0.75962E-09
         0.63293E-09
         0.65591E-09
         0.67343E-09
         0.58681E-09
         0.71576E-09
         0.91029E-09
         0.64223E-09
         0.10205E-08
         0.88923E-09
         0.40073E-09
         0.61754E-09
         0.70114E-09
         0.74119E-09
         0.71588E-09
         0.56254E-09
         0.35351E-09
         0.58372E-09
         0.77316E-09
         0.62380E-09
         0.54827E-09
         0.35917E-09
         0.61313E-09
         0.83278E-09
         0.87422E-09
         0.70582E-09
         0.43377E-09
         0.74785E-09
         0.27575E-09
         0.35138E-09
         0.32761E-09
         0.38778E-09
         0.37885E-09
         0.36786E-09
         0.39283E-09
         0.41566E-09
         0.39107E-09
         0.30470E-09
         0.24816E-09
         0.32007E-09
         0.42665E-09
         0.46911E-09
         0.44985E-09
         0.40538E-09
         0.36802E-09
         0.29887E-09
         0.25140E-09
         0.32864E-09
         0.43520E-09
         0.44963E-09
         0.36310E-09
         0.29478E-09
         0.36170E-09
         0.42760E-09
         0.91198E-09
         0.72248E-09
         0.77646E-09
         0.13386E-08
         0.71663E-09
         0.91520E-09
         0.50901E-09
         0.61131E-09
         0.10141E-08
         0.74000E-09
         0.29957E-09
         0.56902E-09
         0.62653E-09
         0.50549E-09
         0.64784E-09
         0.12065E-08
         0.94382E-09
         0.12002E-08
         0.70325E-09
         0.80381E-09
         0.75824E-09
         0.84052E-09
         0.64472E-09
         0.40040E-09
         0.75929E-09
         0.63288E-09
         0.65492E-09
         0.67276E-09
         0.58657E-09
         0.71560E-09
         0.91038E-09
         0.64216E-09
         0.10211E-08
         0.89003E-09
         0.40073E-09
         0.61742E-09
         0.70105E-09
         0.74114E-09
         0.71593E-09
         0.56257E-09
         0.35351E-09
         0.58364E-09
         0.77313E-09
         0.62371E-09
         0.54814E-09
         0.35908E-09
         0.61308E-09
         0.83280E-09
         0.87436E-09
         0.70597E-09
         0.43378E-09
         0.74823E-09
         0.27567E-09
         0.35138E-09
         0.32745E-09
         0.38779E-09
         0.37893E-09
         0.36794E-09
         0.39300E-09
         0.41596E-09
         0.39130E-09
         0.30477E-09
         0.24818E-09
         0.32008E-09
         0.42671E-09
         0.46921E-09
         0.44991E-09
         0.40537E-09
         0.36800E-09
         0.29885E-09
         0.25136E-09
         0.32862E-09
         0.43520E-09
         0.44963E-09
         0.36303E-09
         0.29472E-09
         0.36175E-09
         0.42759E-09
         0.91203E-09
         0.72233E-09
         0.77653E-09
         0.13392E-08
         0.71675E-09
         0.91547E-09
         0.50875E-09
         0.61094E-09
         0.10144E-08
         0.73952E-09
         0.29928E-09
         0.56892E-09
         0.62649E-09
         0.50478E-09
         0.64770E-09
         0.12068E-08
         0.94424E-09
         0.12008E-08
         0.70327E-09
         0.80391E-09
         0.75821E-09
         0.84055E-09
         0.64465E-09
         0.40035E-09
         0.75896E-09
         0.63282E-09
         0.65393E-09
         0.67210E-09
         0.58632E-09
         0.71543E-09
         0.91047E-09
         0.64208E-09
         0.10216E-08
         0.89084E-09
         0.40073E-09
         0.61730E-09
         0.70096E-09
         0.74108E-09
         0.71598E-09
         0.56259E-09
         0.35351E-09
         0.58356E-09
         0.77309E-09
         0.62362E-09
         0.54801E-09
         0.35898E-09
         0.61303E-09
         0.83281E-09
         0.87449E-09
         0.70611E-09
         0.43379E-09
         0.74860E-09
         0.27558E-09
         0.35137E-09
         0.32729E-09
         0.38781E-09
         0.37902E-09
         0.36802E-09
         0.39317E-09
         0.41625E-09
         0.39153E-09
         0.30484E-09
         0.24820E-09
         0.32009E-09
         0.42677E-09
         0.46932E-09
         0.44996E-09
         0.40536E-09
         0.36798E-09
         0.29883E-09
         0.25132E-09
         0.32859E-09
         0.43519E-09
         0.44963E-09
         0.36296E-09
         0.29465E-09
         0.36179E-09
         0.42758E-09
         0.91208E-09
         0.72218E-09
         0.77659E-09
         0.13399E-08
         0.71686E-09
         0.91576E-09
         0.50848E-09
         0.61058E-09
         0.10148E-08
         0.73903E-09
         0.29900E-09
         0.56882E-09
         0.62645E-09
         0.50408E-09
         0.64757E-09
         0.12072E-08
         0.94467E-09
         0.12014E-08
         0.70330E-09
         0.80401E-09
         0.75818E-09
         0.84059E-09
         0.64459E-09
         0.40031E-09
         0.75864E-09
         0.63277E-09
         0.65294E-09
         0.67143E-09
         0.58607E-09
         0.71527E-09
         0.91057E-09
         0.64200E-09
         0.10221E-08
         0.89164E-09
         0.40072E-09
         0.61719E-09
         0.70087E-09
         0.74103E-09
         0.71603E-09
         0.56262E-09
         0.35352E-09
         0.58348E-09
         0.77305E-09
         0.62354E-09
         0.54788E-09
         0.35889E-09
         0.61298E-09
         0.83282E-09
         0.87463E-09
         0.70626E-09
         0.43380E-09
         0.74897E-09
         0.27550E-09
         0.35137E-09
         0.32713E-09
         0.38782E-09
         0.37911E-09
         0.36810E-09
         0.39334E-09
         0.41655E-09
         0.39176E-09
         0.30491E-09
         0.24822E-09
         0.32010E-09
         0.42682E-09
         0.46942E-09
         0.45001E-09
         0.40534E-09
         0.36796E-09
         0.29881E-09
         0.25128E-09
         0.32857E-09
         0.43518E-09
         0.44963E-09
         0.36288E-09
         0.29459E-09
         0.36184E-09
         0.42757E-09
         0.91214E-09
         0.72204E-09
         0.77666E-09
         0.13405E-08
         0.71698E-09
         0.91604E-09
         0.50822E-09
         0.61022E-09
         0.10151E-08
         0.73855E-09
         0.29871E-09
         0.56872E-09
         0.62641E-09
         0.50337E-09
         0.64743E-09
         0.12075E-08
         0.94510E-09
         0.12020E-08
         0.70333E-09
         0.80411E-09
         0.75815E-09
         0.84063E-09
         0.64453E-09
         0.40027E-09
         0.75831E-09
         0.63272E-09
         0.65196E-09
         0.67077E-09
         0.58582E-09
         0.71511E-09
         0.91066E-09
         0.64192E-09
         0.10227E-08
         0.89245E-09
         0.40072E-09
         0.61707E-09
         0.70078E-09
         0.74098E-09
         0.71608E-09
         0.56265E-09
         0.35352E-09
         0.58340E-09
         0.77301E-09
         0.62345E-09
         0.54775E-09
         0.35880E-09
         0.61293E-09
         0.83283E-09
         0.87476E-09
         0.70641E-09
         0.43382E-09
         0.74935E-09
         0.27541E-09
         0.35136E-09
         0.32697E-09
         0.38784E-09
         0.37920E-09
         0.36818E-09
         0.39352E-09
         0.41685E-09
         0.39199E-09
         0.30498E-09
         0.24824E-09
         0.32011E-09
         0.42688E-09
         0.46953E-09
         0.45007E-09
         0.40533E-09
         0.36793E-09
         0.29878E-09
         0.25124E-09
         0.32855E-09
         0.43517E-09
         0.44963E-09
         0.36281E-09
         0.29452E-09
         0.36188E-09
         0.42756E-09
         0.91219E-09
         0.72188E-09
         0.77672E-09
         0.13412E-08
         0.71709E-09
         0.91632E-09
         0.50795E-09
         0.60986E-09
         0.10155E-08
         0.73806E-09
         0.29842E-09
         0.56862E-09
         0.62636E-09
         0.50266E-09
         0.64730E-09
         0.12079E-08
         0.94552E-09
         0.12026E-08
         0.70335E-09
         0.80421E-09
         0.75811E-09
         0.84066E-09
         0.64446E-09
         0.40023E-09
         0.75798E-09
         0.63267E-09
         0.65096E-09
         0.67010E-09
         0.58557E-09
         0.71494E-09
         0.91074E-09
         0.64184E-09
         0.10232E-08
         0.89325E-09
         0.40072E-09
         0.61695E-09
         0.70069E-09
         0.74092E-09
         0.71612E-09
         0.56268E-09
         0.35352E-09
         0.58332E-09
         0.77297E-09
         0.62336E-09
         0.54762E-09
         0.35871E-09
         0.61287E-09
         0.83284E-09
         0.87489E-09
         0.70655E-09
         0.43383E-09
         0.74972E-09
         0.27533E-09
         0.35136E-09
         0.32681E-09
         0.38785E-09
         0.37929E-09
         0.36825E-09
         0.39369E-09
         0.41715E-09
         0.39222E-09
         0.30505E-09
         0.24826E-09
         0.32011E-09
         0.42694E-09
         0.46963E-09
         0.45011E-09
         0.40532E-09
         0.36791E-09
         0.29876E-09
         0.25120E-09
         0.32853E-09
         0.43516E-09
         0.44962E-09
         0.36274E-09
         0.29445E-09
         0.36192E-09
         0.42755E-09
         0.91224E-09
         0.72173E-09
         0.77679E-09
         0.13418E-08
         0.71720E-09
         0.91660E-09
         0.50768E-09
         0.60949E-09
         0.10158E-08
         0.73758E-09
         0.29814E-09
         0.56852E-09
         0.62632E-09
         0.50195E-09
         0.64716E-09
         0.12082E-08
         0.94595E-09
         0.12032E-08
         0.70337E-09
         0.80431E-09
         0.75808E-09
         0.84069E-09
         0.64440E-09
         0.40018E-09
         0.75766E-09
         0.63262E-09
         0.64998E-09
         0.66943E-09
         0.58532E-09
         0.71478E-09
         0.91083E-09
         0.64176E-09
         0.10238E-08
         0.89406E-09
         0.40071E-09
         0.61683E-09
         0.70059E-09
         0.74087E-09
         0.71617E-09
         0.56270E-09
         0.35352E-09
         0.58324E-09
         0.77294E-09
         0.62327E-09
         0.54749E-09
         0.35861E-09
         0.61282E-09
         0.83284E-09
         0.87503E-09
         0.70669E-09
         0.43384E-09
         0.75009E-09
         0.27524E-09
         0.35135E-09
         0.32665E-09
         0.38786E-09
         0.37937E-09
         0.36833E-09
         0.39386E-09
         0.41745E-09
         0.39245E-09
         0.30512E-09
         0.24828E-09
         0.32012E-09
         0.42699E-09
         0.46974E-09
         0.45017E-09
         0.40531E-09
         0.36788E-09
         0.29873E-09
         0.25117E-09
         0.32850E-09
         0.43515E-09
         0.44962E-09
         0.36266E-09
         0.29439E-09
         0.36197E-09
         0.42754E-09
         0.91230E-09
         0.72159E-09
         0.77686E-09
         0.13425E-08
         0.71732E-09
         0.91688E-09
         0.50742E-09
         0.60913E-09
         0.10162E-08
         0.73710E-09
         0.29785E-09
         0.56842E-09
         0.62628E-09
         0.50125E-09
         0.64703E-09
         0.12086E-08
         0.94638E-09
         0.12038E-08
         0.70340E-09
         0.80441E-09
         0.75805E-09
         0.84073E-09
         0.64433E-09
         0.40014E-09
         0.75733E-09
         0.63257E-09
         0.64899E-09
         0.66877E-09
         0.58508E-09
         0.71462E-09
         0.91093E-09
         0.64169E-09
         0.10243E-08
         0.89487E-09
         0.40071E-09
         0.61671E-09
         0.70051E-09
         0.74082E-09
         0.71622E-09
         0.56273E-09
         0.35352E-09
         0.58316E-09
         0.77290E-09
         0.62318E-09
         0.54737E-09
         0.35852E-09
         0.61277E-09
         0.83286E-09
         0.87517E-09
         0.70684E-09
         0.43385E-09
         0.75047E-09
         0.27516E-09
         0.35135E-09
         0.32649E-09
         0.38788E-09
         0.37946E-09
         0.36841E-09
         0.39403E-09
         0.41775E-09
         0.39268E-09
         0.30519E-09
         0.24830E-09
         0.32013E-09
         0.42705E-09
         0.46985E-09
         0.45022E-09
         0.40530E-09
         0.36786E-09
         0.29871E-09
         0.25113E-09
         0.32848E-09
         0.43515E-09
         0.44962E-09
         0.36259E-09
         0.29433E-09
         0.36201E-09
         0.42753E-09
         0.91235E-09
         0.72143E-09
         0.77692E-09
         0.13431E-08
         0.71743E-09
         0.91716E-09
         0.50715E-09
         0.60877E-09
         0.10165E-08
         0.73661E-09
         0.29757E-09
         0.56832E-09
         0.62624E-09
         0.50054E-09
         0.64689E-09
         0.12089E-08
         0.94680E-09
         0.12044E-08
         0.70342E-09
         0.80450E-09
         0.75802E-09
         0.84076E-09
         0.64427E-09
         0.40010E-09
         0.75700E-09
         0.63251E-09
         0.64800E-09
         0.66810E-09
         0.58482E-09
         0.71445E-09
         0.91101E-09
         0.64161E-09
         0.10248E-08
         0.89567E-09
         0.40071E-09
         0.61659E-09
         0.70041E-09
         0.74077E-09
         0.71627E-09
         0.56276E-09
         0.35352E-09
         0.58308E-09
         0.77286E-09
         0.62309E-09
         0.54723E-09
         0.35843E-09
         0.61272E-09
         0.83287E-09
         0.87530E-09
         0.70698E-09
         0.43386E-09
         0.75084E-09
         0.27507E-09
         0.35134E-09
         0.32633E-09
         0.38789E-09
         0.37955E-09
         0.36849E-09
         0.39420E-09
         0.41804E-09
         0.39291E-09
         0.30525E-09
         0.24832E-09
         0.32014E-09
         0.42711E-09
         0.46995E-09
         0.45027E-09
         0.40528E-09
         0.36784E-09
         0.29869E-09
         0.25109E-09
         0.32845E-09
         0.43514E-09
         0.44962E-09
         0.36252E-09
         0.29426E-09
         0.36206E-09
         0.42751E-09
         0.91240E-09
         0.72128E-09
         0.77698E-09
         0.13437E-08
         0.71755E-09
         0.91744E-09
         0.50688E-09
         0.60841E-09
         0.10169E-08
         0.73612E-09
         0.29728E-09
         0.56822E-09
         0.62619E-09
         0.49984E-09
         0.64676E-09
         0.12093E-08
         0.94723E-09
         0.12050E-08
         0.70345E-09
         0.80460E-09
         0.75798E-09
         0.84080E-09
         0.64420E-09
         0.40006E-09
         0.75667E-09
         0.63246E-09
         0.64701E-09
         0.66744E-09
         0.58457E-09
         0.71429E-09
         0.91110E-09
         0.64153E-09
         0.10254E-08
         0.89648E-09
         0.40070E-09
         0.61647E-09
         0.70032E-09
         0.74071E-09
         0.71632E-09
         0.56279E-09
         0.35353E-09
         0.58300E-09
         0.77282E-09
         0.62300E-09
         0.54710E-09
         0.35834E-09
         0.61266E-09
         0.83288E-09
         0.87543E-09
         0.70713E-09
         0.43387E-09
         0.75122E-09
         0.27499E-09
         0.35133E-09
         0.32617E-09
         0.38790E-09
         0.37964E-09
         0.36857E-09
         0.39437E-09
         0.41834E-09
         0.39314E-09
         0.30532E-09
         0.24834E-09
         0.32014E-09
         0.42716E-09
         0.47005E-09
         0.45032E-09
         0.40527E-09
         0.36781E-09
         0.29866E-09
         0.25105E-09
         0.32843E-09
         0.43513E-09
         0.44962E-09
         0.36244E-09
         0.29419E-09
         0.36210E-09
         0.42750E-09
         0.91246E-09
         0.72114E-09
         0.77705E-09
         0.13444E-08
         0.71767E-09
         0.91773E-09
         0.50662E-09
         0.60805E-09
         0.10173E-08
         0.73564E-09
         0.29700E-09
         0.56812E-09
         0.62616E-09
         0.49914E-09
         0.64663E-09
         0.12097E-08
         0.94766E-09
         0.12056E-08
         0.70348E-09
         0.80471E-09
         0.75796E-09
         0.84084E-09
         0.64414E-09
         0.40002E-09
         0.75635E-09
         0.63241E-09
         0.64603E-09
         0.66678E-09
         0.58433E-09
         0.71413E-09
         0.91120E-09
         0.64146E-09
         0.10259E-08
         0.89729E-09
         0.40070E-09
         0.61636E-09
         0.70023E-09
         0.74067E-09
         0.71637E-09
         0.56282E-09
         0.35353E-09
         0.58293E-09
         0.77279E-09
         0.62291E-09
         0.54698E-09
         0.35825E-09
         0.61261E-09
         0.83289E-09
         0.87557E-09
         0.70728E-09
         0.43389E-09
         0.75160E-09
         0.27491E-09
         0.35133E-09
         0.32601E-09
         0.38792E-09
         0.37972E-09
         0.36865E-09
         0.39454E-09
         0.41864E-09
         0.39337E-09
         0.30539E-09
         0.24836E-09
         0.32015E-09
         0.42722E-09
         0.47016E-09
         0.45038E-09
         0.40526E-09
         0.36779E-09
         0.29864E-09
         0.25101E-09
         0.32841E-09
         0.43512E-09
         0.44962E-09
         0.36237E-09
         0.29413E-09
         0.36215E-09
         0.42750E-09
         0.91249E-09
         0.72097E-09
         0.77710E-09
         0.13450E-08
         0.71777E-09
         0.91799E-09
         0.50634E-09
         0.60767E-09
         0.10176E-08
         0.73514E-09
         0.29670E-09
         0.56801E-09
         0.62610E-09
         0.49842E-09
         0.64648E-09
         0.12100E-08
         0.94806E-09
         0.12062E-08
         0.70349E-09
         0.80479E-09
         0.75791E-09
         0.84086E-09
         0.64406E-09
         0.39997E-09
         0.75600E-09
         0.63234E-09
         0.64503E-09
         0.66610E-09
         0.58407E-09
         0.71395E-09
         0.91127E-09
         0.64136E-09
         0.10264E-08
         0.89808E-09
         0.40069E-09
         0.61622E-09
         0.70012E-09
         0.74060E-09
         0.71641E-09
         0.56283E-09
         0.35352E-09
         0.58283E-09
         0.77273E-09
         0.62281E-09
         0.54684E-09
         0.35815E-09
         0.61255E-09
         0.83288E-09
         0.87569E-09
         0.70741E-09
         0.43389E-09
         0.75195E-09
         0.27482E-09
         0.35132E-09
         0.32584E-09
         0.38793E-09
         0.37980E-09
         0.36872E-09
         0.39470E-09
         0.41893E-09
         0.39360E-09
         0.30545E-09
         0.24837E-09
         0.32016E-09
         0.42727E-09
         0.47026E-09
         0.45042E-09
         0.40524E-09
         0.36776E-09
         0.29861E-09
         0.25097E-09
         0.32838E-09
         0.43510E-09
         0.44961E-09
         0.36229E-09
         0.29406E-09
         0.36218E-09
         0.42748E-09
         0.91256E-09
         0.72083E-09
         0.77718E-09
         0.13457E-08
         0.71789E-09
         0.91829E-09
         0.50608E-09
         0.60732E-09
         0.10180E-08
         0.73467E-09
         0.29642E-09
         0.56792E-09
         0.62607E-09
         0.49772E-09
         0.64636E-09
         0.12103E-08
         0.94850E-09
         0.12068E-08
         0.70352E-09
         0.80490E-09
         0.75789E-09
         0.84091E-09
         0.64401E-09
         0.39993E-09
         0.75569E-09
         0.63230E-09
         0.64405E-09
         0.66544E-09
         0.58382E-09
         0.71379E-09
         0.91137E-09
         0.64129E-09
         0.10270E-08
         0.89890E-09
         0.40069E-09
         0.61611E-09
         0.70004E-09
         0.74056E-09
         0.71646E-09
         0.56287E-09
         0.35353E-09
         0.58276E-09
         0.77271E-09
         0.62273E-09
         0.54672E-09
         0.35806E-09
         0.61251E-09
         0.83291E-09
         0.87583E-09
         0.70756E-09
         0.43391E-09
         0.75234E-09
         0.27474E-09
         0.35132E-09
         0.32569E-09
         0.38794E-09
         0.37990E-09
         0.36881E-09
         0.39488E-09
         0.41923E-09
         0.39383E-09
         0.30553E-09
         0.24840E-09
         0.32017E-09
         0.42734E-09
         0.47037E-09
         0.45048E-09
         0.40524E-09
         0.36774E-09
         0.29859E-09
         0.25093E-09
         0.32836E-09
         0.43510E-09
         0.44962E-09
         0.36222E-09
         0.29400E-09
         0.36223E-09
         0.42747E-09
         0.45631E-09
         0.36039E-09
         0.38862E-09
         0.67302E-09
         0.35899E-09
         0.45923E-09
         0.25298E-09
         0.30358E-09
         0.50909E-09
         0.36723E-09
         0.14815E-09
         0.28394E-09
         0.31303E-09
         0.24869E-09
         0.32316E-09
         0.60528E-09
         0.47437E-09
         0.60357E-09
         0.35178E-09
         0.40249E-09
         0.37895E-09
         0.42048E-09
         0.32200E-09
         0.19996E-09
         0.37777E-09
         0.31615E-09
         0.32179E-09
         0.33257E-09
         0.29186E-09
         0.35687E-09
         0.45572E-09
         0.32064E-09
         0.51365E-09
         0.44967E-09
         0.20035E-09
         0.30804E-09
         0.35001E-09
         0.37028E-09
         0.35826E-09
         0.28145E-09
         0.17677E-09
         0.29137E-09
         0.38636E-09
         0.31135E-09
         0.27333E-09
         0.17901E-09
         0.30625E-09
         0.41647E-09
         0.43797E-09
         0.35383E-09
         0.21697E-09
         0.37628E-09
         0.13735E-09
         0.17566E-09
         0.16281E-09
         0.19398E-09
         0.18998E-09
         0.18443E-09
         0.19749E-09
         0.20970E-09
         0.19698E-09
         0.15279E-09
         0.12421E-09
         0.16009E-09
         0.21369E-09
         0.23522E-09
         0.22526E-09
         0.20262E-09
         0.18387E-09
         0.14930E-09
         0.12546E-09
         0.16418E-09
         0.21756E-09
         0.22482E-09
         0.18110E-09
         0.14699E-09
         0.18113E-09
         0.21374E-09
  
SCALARS               pre_disp_force_x  double 1
LOOKUP_TABLE default
         0.00000E+00
         0.00000E+00
         0.00000E+00
         0.00000E+00
         0.00000E+00
         0.00000E+00
         0.00000E+00
         0.00000E+00
         0.00000E+00
         0.00000E+00
         0.00000E+00
         0.00000E+00
         0.00000E+00
         0.00000E+00
         0.00000E+00
         0.00000E+00
         0.00000E+00
         0.00000E+00
         0.00000E+00
         0.00000E+00
         0.00000E+00
         0.00000E+00
         0.00000E+00
         0.00000E+00
         0.00000E+00
         0.00000E+00
         0.00000E+00
         0.00000E+00
         0.00000E+00
         0.00000E+00
         0.00000E+00
         0.00000E+00
         0.00000E+00
         0.00000E+00
         0.00000E+00
         0.00000E+00
         0.00000E+00
         0.00000E+00
         0.00000E+00
         0.00000E+00
         0.00000E+00
         0.00000E+00
         0.00000E+00
         0.00000E+00
         0.00000E+00
         0.00000E+00
         0.00000E+00
         0.00000E+00
         0.00000E+00
         0.00000E+00
         0.00000E+00
         0.00000E+00
         0.00000E+00
         0.00000E+00
         0.00000E+00
         0.00000E+00
         0.00000E+00
         0.00000E+00
         0.00000E+00
         0.00000E+00
         0.00000E+00
         0.00000E+00
         0.00000E+00
         0.00000E+00
         0.00000E+00
         0.00000E+00
         0.00000E+00
         0.00000E+00
         0.00000E+00
         0.00000E+00
         0.00000E+00
         0.00000E+00
         0.00000E+00
         0.00000E+00
         0.00000E+00
         0.00000E+00
         0.00000E+00
         0.00000E+00
         0.00000E+00
         0.00000E+00
         0.00000E+00
         0.00000E+00
         0.00000E+00
         0.00000E+00
         0.00000E+00
         0.00000E+00
         0.00000E+00
         0.00000E+00
         0.00000E+00
         0.00000E+00
         0.00000E+00
         0.00000E+00
         0.00000E+00
         0.00000E+00
         0.00000E+00
         0.00000E+00
         0.00000E+00
         0.00000E+00
         0.00000E+00
         0.00000E+00
         0.00000E+00
         0.00000E+00
         0.00000E+00
         0.00000E+00
         0.00000E+00
         0.00000E+00
         0.00000E+00
         0.00000E+00
         0.00000E+00
         0.00000E+00
         0.00000E+00
         0.00000E+00
         0.00000E+00
         0.00000E+00
         0.00000E+00
         0.00000E+00
         0.00000E+00
         0.00000E+00
         0.00000E+00
         0.00000E+00
         0.00000E+00
         0.00000E+00
         0.00000E+00
         0.00000E+00
         0.00000E+00
         0.00000E+00
         0.00000E+00
         0.00000E+00
         0.00000E+00
         0.00000E+00
         0.00000E+00
         0.00000E+00
         0.00000E+00
         0.00000E+00
         0.00000E+00
         0.00000E+00
         0.00000E+00
         0.00000E+00
         0.00000E+00
         0.00000E+00
         0.00000E+00
         0.00000E+00
         0.00000E+00
         0.00000E+00
         0.00000E+00
         0.00000E+00
         0.00000E+00
         0.00000E+00
         0.00000E+00
         0.00000E+00
         0.00000E+00
         0.00000E+00
         0.00000E+00
         0.00000E+00
         0.00000E+00
         0.00000E+00
         0.00000E+00
         0.00000E+00
         0.00000E+00
         0.00000E+00
         0.00000E+00
         0.00000E+00
         0.00000E+00
         0.00000E+00
         0.00000E+00
         0.00000E+00
         0.00000E+00
         0.00000E+00
         0.00000E+00
         0.00000E+00
         0.00000E+00
         0.00000E+00
         0.00000E+00
         0.00000E+00
         0.00000E+00
         0.00000E+00
         0.00000E+00
         0.00000E+00
         0.00000E+00
         0.00000E+00
         0.00000E+00
         0.00000E+00
         0.00000E+00
         0.00000E+00
         0.00000E+00
         0.00000E+00
         0.00000E+00
         0.00000E+00
         0.00000E+00
         0.00000E+00
         0.00000E+00
         0.00000E+00
         0.00000E+00
         0.00000E+00
         0.00000E+00
         0.00000E+00
         0.00000E+00
         0.00000E+00
         0.00000E+00
         0.00000E+00
         0.00000E+00
         0.00000E+00
         0.00000E+00
         0.00000E+00
         0.00000E+00
         0.00000E+00
         0.00000E+00
         0.00000E+00
         0.00000E+00
         0.00000E+00
         0.00000E+00
         0.00000E+00
         0.00000E+00
         0.00000E+00
         0.00000E+00
         0.00000E+00
         0.00000E+00
         0.00000E+00
         0.00000E+00
         0.00000E+00
         0.00000E+00
         0.00000E+00
         0.00000E+00
         0.00000E+00
         0.00000E+00
         0.00000E+00
         0.00000E+00
         0.00000E+00
         0.00000E+00
         0.00000E+00
         0.00000E+00
         0.00000E+00
         0.00000E+00
         0.00000E+00
         0.00000E+00
         0.00000E+00
         0.00000E+00
         0.00000E+00
         0.00000E+00
         0.00000E+00
         0.00000E+00
         0.00000E+00
         0.00000E+00
         0.00000E+00
         0.00000E+00
         0.00000E+00
         0.00000E+00
         0.00000E+00
         0.00000E+00
         0.00000E+00
         0.00000E+00
         0.00000E+00
         0.00000E+00
         0.00000E+00
         0.00000E+00
         0.00000E+00
         0.00000E+00
         0.00000E+00
         0.00000E+00
         0.00000E+00
         0.00000E+00
         0.00000E+00
         0.00000E+00
         0.00000E+00
         0.00000E+00
         0.00000E+00
         0.00000E+00
         0.00000E+00
         0.00000E+00
         0.00000E+00
         0.00000E+00
         0.00000E+00
         0.00000E+00
         0.00000E+00
         0.00000E+00
         0.00000E+00
         0.00000E+00
         0.00000E+00
         0.00000E+00
         0.00000E+00
         0.00000E+00
         0.00000E+00
         0.00000E+00
         0.00000E+00
         0.00000E+00
         0.00000E+00
         0.00000E+00
         0.00000E+00
         0.00000E+00
         0.00000E+00
         0.00000E+00
         0.00000E+00
         0.00000E+00
         0.00000E+00
         0.00000E+00
         0.00000E+00
         0.00000E+00
         0.00000E+00
         0.00000E+00
         0.00000E+00
         0.00000E+00
         0.00000E+00
         0.00000E+00
         0.00000E+00
         0.00000E+00
         0.00000E+00
         0.00000E+00
         0.00000E+00
         0.00000E+00
         0.00000E+00
         0.00000E+00
         0.00000E+00
         0.00000E+00
         0.00000E+00
         0.00000E+00
         0.00000E+00
         0.00000E+00
         0.00000E+00
         0.00000E+00
         0.00000E+00
         0.00000E+00
         0.00000E+00
         0.00000E+00
         0.00000E+00
         0.00000E+00
         0.00000E+00
         0.00000E+00
         0.00000E+00
         0.00000E+00
         0.00000E+00
         0.00000E+00
         0.00000E+00
         0.00000E+00
         0.00000E+00
         0.00000E+00
         0.00000E+00
         0.00000E+00
         0.00000E+00
         0.00000E+00
         0.00000E+00
         0.00000E+00
         0.00000E+00
         0.00000E+00
         0.00000E+00
         0.00000E+00
         0.00000E+00
         0.00000E+00
         0.00000E+00
         0.00000E+00
         0.00000E+00
         0.00000E+00
         0.00000E+00
         0.00000E+00
         0.00000E+00
         0.00000E+00
         0.00000E+00
         0.00000E+00
         0.00000E+00
         0.00000E+00
         0.00000E+00
         0.00000E+00
         0.00000E+00
         0.00000E+00
         0.00000E+00
         0.00000E+00
         0.00000E+00
         0.00000E+00
         0.00000E+00
         0.00000E+00
         0.00000E+00
         0.00000E+00
         0.00000E+00
         0.00000E+00
         0.00000E+00
         0.00000E+00
         0.00000E+00
         0.00000E+00
         0.00000E+00
         0.00000E+00
         0.00000E+00
         0.00000E+00
         0.00000E+00
         0.00000E+00
         0.00000E+00
         0.00000E+00
         0.00000E+00
         0.00000E+00
         0.00000E+00
         0.00000E+00
         0.00000E+00
         0.00000E+00
         0.00000E+00
         0.00000E+00
         0.00000E+00
         0.00000E+00
         0.00000E+00
         0.00000E+00
         0.00000E+00
         0.00000E+00
         0.00000E+00
         0.00000E+00
         0.00000E+00
         0.00000E+00
         0.00000E+00
         0.00000E+00
         0.00000E+00
         0.00000E+00
         0.00000E+00
         0.00000E+00
         0.00000E+00
         0.00000E+00
         0.00000E+00
         0.00000E+00
         0.00000E+00
         0.00000E+00
         0.00000E+00
         0.00000E+00
         0.00000E+00
         0.00000E+00
         0.00000E+00
         0.00000E+00
         0.00000E+00
         0.00000E+00
         0.00000E+00
         0.00000E+00
         0.00000E+00
         0.00000E+00
         0.00000E+00
         0.00000E+00
         0.00000E+00
         0.00000E+00
         0.00000E+00
         0.00000E+00
         0.00000E+00
         0.00000E+00
         0.00000E+00
         0.00000E+00
         0.00000E+00
         0.00000E+00
         0.00000E+00
         0.00000E+00
         0.00000E+00
         0.00000E+00
         0.00000E+00
         0.00000E+00
         0.00000E+00
         0.00000E+00
         0.00000E+00
         0.00000E+00
         0.00000E+00
         0.00000E+00
         0.00000E+00
         0.00000E+00
         0.00000E+00
         0.00000E+00
         0.00000E+00
         0.00000E+00
         0.00000E+00
         0.00000E+00
         0.00000E+00
         0.00000E+00
         0.00000E+00
         0.00000E+00
         0.00000E+00
         0.00000E+00
         0.00000E+00
         0.00000E+00
         0.00000E+00
         0.00000E+00
         0.00000E+00
         0.00000E+00
         0.00000E+00
         0.00000E+00
         0.00000E+00
         0.00000E+00
         0.00000E+00
         0.00000E+00
         0.00000E+00
         0.00000E+00
         0.00000E+00
         0.00000E+00
         0.00000E+00
         0.00000E+00
         0.00000E+00
         0.00000E+00
         0.00000E+00
         0.00000E+00
         0.00000E+00
         0.00000E+00
         0.00000E+00
         0.00000E+00
         0.00000E+00
         0.00000E+00
         0.00000E+00
         0.00000E+00
         0.00000E+00
         0.00000E+00
         0.00000E+00
         0.00000E+00
         0.00000E+00
         0.00000E+00
         0.00000E+00
         0.00000E+00
         0.00000E+00
         0.00000E+00
         0.00000E+00
         0.00000E+00
         0.00000E+00
         0.00000E+00
         0.00000E+00
         0.00000E+00
         0.00000E+00
         0.00000E+00
         0.00000E+00
         0.00000E+00
         0.00000E+00
         0.00000E+00
         0.00000E+00
         0.00000E+00
         0.00000E+00
         0.00000E+00
         0.00000E+00
         0.00000E+00
         0.00000E+00
         0.00000E+00
         0.00000E+00
         0.00000E+00
         0.00000E+00
         0.00000E+00
         0.00000E+00
         0.00000E+00
         0.00000E+00
         0.00000E+00
         0.00000E+00
         0.00000E+00
         0.00000E+00
         0.00000E+00
         0.00000E+00
         0.00000E+00
         0.00000E+00
         0.00000E+00
         0.00000E+00
         0.00000E+00
         0.00000E+00
         0.00000E+00
         0.00000E+00
         0.00000E+00
         0.00000E+00
         0.00000E+00
         0.00000E+00
         0.00000E+00
         0.00000E+00
         0.00000E+00
         0.00000E+00
         0.00000E+00
         0.00000E+00
         0.00000E+00
         0.00000E+00
         0.00000E+00
         0.00000E+00
         0.00000E+00
         0.00000E+00
         0.00000E+00
         0.00000E+00
         0.00000E+00
         0.00000E+00
         0.00000E+00
         0.00000E+00
         0.00000E+00
         0.00000E+00
         0.00000E+00
         0.00000E+00
         0.00000E+00
         0.00000E+00
         0.00000E+00
         0.00000E+00
         0.00000E+00
         0.00000E+00
         0.00000E+00
         0.00000E+00
         0.00000E+00
         0.00000E+00
         0.00000E+00
         0.00000E+00
         0.00000E+00
         0.00000E+00
         0.00000E+00
         0.00000E+00
         0.00000E+00
         0.00000E+00
         0.00000E+00
         0.00000E+00
         0.00000E+00
         0.00000E+00
         0.00000E+00
         0.00000E+00
         0.00000E+00
         0.00000E+00
         0.00000E+00
         0.00000E+00
         0.00000E+00
         0.00000E+00
         0.00000E+00
         0.00000E+00
         0.00000E+00
         0.00000E+00
         0.00000E+00
         0.00000E+00
         0.00000E+00
         0.00000E+00
         0.00000E+00
         0.00000E+00
         0.00000E+00
         0.00000E+00
         0.00000E+00
         0.00000E+00
         0.00000E+00
         0.00000E+00
         0.00000E+00
         0.00000E+00
         0.00000E+00
         0.00000E+00
         0.00000E+00
         0.00000E+00
         0.00000E+00
         0.00000E+00
         0.00000E+00
         0.00000E+00
         0.00000E+00
         0.00000E+00
         0.00000E+00
         0.00000E+00
         0.00000E+00
         0.00000E+00
         0.00000E+00
         0.00000E+00
         0.00000E+00
         0.00000E+00
         0.00000E+00
         0.00000E+00
         0.00000E+00
         0.00000E+00
         0.00000E+00
         0.00000E+00
         0.00000E+00
         0.00000E+00
         0.00000E+00
         0.00000E+00
         0.00000E+00
         0.00000E+00
         0.00000E+00
         0.00000E+00
         0.00000E+00
         0.00000E+00
         0.00000E+00
         0.00000E+00
         0.00000E+00
         0.00000E+00
         0.00000E+00
         0.00000E+00
         0.00000E+00
         0.00000E+00
         0.00000E+00
         0.00000E+00
         0.00000E+00
         0.00000E+00
         0.00000E+00
         0.00000E+00
         0.00000E+00
         0.00000E+00
         0.00000E+00
         0.00000E+00
         0.00000E+00
         0.00000E+00
         0.00000E+00
         0.00000E+00
         0.00000E+00
         0.00000E+00
         0.00000E+00
         0.00000E+00
         0.00000E+00
         0.00000E+00
         0.00000E+00
         0.00000E+00
         0.00000E+00
         0.00000E+00
         0.00000E+00
         0.00000E+00
         0.00000E+00
         0.00000E+00
         0.00000E+00
         0.00000E+00
         0.00000E+00
         0.00000E+00
         0.00000E+00
         0.00000E+00
         0.00000E+00
         0.00000E+00
         0.00000E+00
         0.00000E+00
         0.00000E+00
         0.00000E+00
         0.00000E+00
         0.00000E+00
         0.00000E+00
         0.00000E+00
         0.00000E+00
         0.00000E+00
         0.00000E+00
         0.00000E+00
         0.00000E+00
         0.00000E+00
         0.00000E+00
         0.00000E+00
         0.00000E+00
         0.00000E+00
         0.00000E+00
         0.00000E+00
         0.00000E+00
         0.00000E+00
         0.00000E+00
         0.00000E+00
         0.00000E+00
         0.00000E+00
         0.00000E+00
         0.00000E+00
         0.00000E+00
         0.00000E+00
         0.00000E+00
         0.00000E+00
         0.00000E+00
         0.00000E+00
         0.00000E+00
         0.00000E+00
         0.00000E+00
         0.00000E+00
         0.00000E+00
         0.00000E+00
         0.00000E+00
         0.00000E+00
         0.00000E+00
         0.00000E+00
         0.00000E+00
         0.00000E+00
         0.00000E+00
         0.00000E+00
         0.00000E+00
         0.00000E+00
         0.00000E+00
         0.00000E+00
         0.00000E+00
         0.00000E+00
         0.00000E+00
         0.00000E+00
         0.00000E+00
         0.00000E+00
         0.00000E+00
         0.00000E+00
         0.00000E+00
         0.00000E+00
         0.00000E+00
         0.00000E+00
         0.00000E+00
         0.00000E+00
         0.00000E+00
         0.00000E+00
         0.00000E+00
         0.00000E+00
         0.00000E+00
         0.00000E+00
         0.00000E+00
         0.00000E+00
         0.00000E+00
         0.00000E+00
         0.00000E+00
         0.00000E+00
         0.00000E+00
         0.00000E+00
         0.00000E+00
         0.00000E+00
         0.00000E+00
         0.00000E+00
         0.00000E+00
         0.00000E+00
         0.00000E+00
         0.00000E+00
         0.00000E+00
         0.00000E+00
         0.00000E+00
         0.00000E+00
         0.00000E+00
         0.00000E+00
         0.00000E+00
         0.00000E+00
         0.00000E+00
         0.00000E+00
         0.00000E+00
         0.00000E+00
         0.00000E+00
         0.00000E+00
         0.00000E+00
         0.00000E+00
         0.00000E+00
         0.00000E+00
         0.00000E+00
         0.00000E+00
         0.00000E+00
         0.00000E+00
         0.00000E+00
         0.00000E+00
         0.00000E+00
         0.00000E+00
         0.00000E+00
         0.00000E+00
         0.00000E+00
         0.00000E+00
         0.00000E+00
         0.00000E+00
         0.00000E+00
         0.00000E+00
         0.00000E+00
         0.00000E+00
         0.00000E+00
         0.00000E+00
         0.00000E+00
         0.00000E+00
         0.00000E+00
         0.00000E+00
         0.00000E+00
         0.00000E+00
         0.00000E+00
         0.00000E+00
         0.00000E+00
         0.00000E+00
         0.00000E+00
         0.00000E+00
         0.00000E+00
         0.00000E+00
         0.00000E+00
         0.00000E+00
         0.00000E+00
         0.00000E+00
         0.00000E+00
         0.00000E+00
         0.00000E+00
         0.00000E+00
         0.00000E+00
         0.00000E+00
         0.00000E+00
         0.00000E+00
         0.00000E+00
         0.00000E+00
         0.00000E+00
         0.00000E+00
         0.00000E+00
         0.00000E+00
         0.00000E+00
         0.00000E+00
         0.00000E+00
         0.00000E+00
         0.00000E+00
         0.00000E+00
         0.00000E+00
         0.00000E+00
         0.00000E+00
         0.00000E+00
         0.00000E+00
         0.00000E+00
         0.00000E+00
         0.00000E+00
         0.00000E+00
         0.00000E+00
         0.00000E+00
         0.00000E+00
         0.00000E+00
         0.00000E+00
         0.00000E+00
         0.00000E+00
         0.00000E+00
         0.00000E+00
         0.00000E+00
         0.00000E+00
         0.00000E+00
         0.00000E+00
         0.00000E+00
         0.00000E+00
         0.00000E+00
         0.00000E+00
         0.00000E+00
         0.00000E+00
         0.00000E+00
         0.00000E+00
         0.00000E+00
         0.00000E+00
         0.00000E+00
         0.00000E+00
         0.00000E+00
         0.00000E+00
         0.00000E+00
         0.00000E+00
         0.00000E+00
         0.00000E+00
         0.00000E+00
         0.00000E+00
         0.00000E+00
         0.00000E+00
         0.00000E+00
         0.00000E+00
         0.00000E+00
         0.00000E+00
         0.00000E+00
         0.00000E+00
         0.00000E+00
         0.00000E+00
         0.00000E+00
         0.00000E+00
         0.00000E+00
         0.00000E+00
         0.00000E+00
         0.00000E+00
         0.00000E+00
         0.00000E+00
         0.00000E+00
         0.00000E+00
         0.00000E+00
         0.00000E+00
         0.00000E+00
         0.00000E+00
         0.00000E+00
         0.00000E+00
         0.00000E+00
         0.00000E+00
         0.00000E+00
         0.00000E+00
         0.00000E+00
         0.00000E+00
         0.00000E+00
         0.00000E+00
         0.00000E+00
         0.00000E+00
         0.00000E+00
         0.00000E+00
         0.00000E+00
         0.00000E+00
         0.00000E+00
         0.00000E+00
         0.00000E+00
         0.00000E+00
         0.00000E+00
         0.00000E+00
         0.00000E+00
         0.00000E+00
         0.00000E+00
         0.00000E+00
         0.00000E+00
         0.00000E+00
         0.00000E+00
         0.00000E+00
         0.00000E+00
         0.00000E+00
         0.00000E+00
         0.00000E+00
         0.00000E+00
         0.00000E+00
         0.00000E+00
         0.00000E+00
         0.00000E+00
         0.00000E+00
         0.00000E+00
         0.00000E+00
         0.00000E+00
         0.00000E+00
         0.00000E+00
         0.00000E+00
         0.00000E+00
         0.00000E+00
         0.00000E+00
         0.00000E+00
         0.00000E+00
         0.00000E+00
         0.00000E+00
         0.00000E+00
         0.00000E+00
         0.00000E+00
         0.00000E+00
         0.00000E+00
         0.00000E+00
         0.00000E+00
         0.00000E+00
         0.00000E+00
         0.00000E+00
         0.00000E+00
         0.00000E+00
         0.00000E+00
         0.00000E+00
         0.00000E+00
         0.00000E+00
         0.00000E+00
         0.00000E+00
         0.00000E+00
         0.00000E+00
         0.00000E+00
         0.00000E+00
         0.00000E+00
         0.00000E+00
         0.00000E+00
         0.00000E+00
         0.00000E+00
         0.00000E+00
         0.00000E+00
         0.00000E+00
         0.00000E+00
         0.00000E+00
         0.00000E+00
         0.00000E+00
         0.00000E+00
         0.00000E+00
         0.00000E+00
         0.00000E+00
         0.00000E+00
         0.00000E+00
         0.00000E+00
         0.00000E+00
         0.00000E+00
         0.00000E+00
         0.00000E+00
         0.00000E+00
         0.00000E+00
         0.00000E+00
         0.00000E+00
         0.00000E+00
         0.00000E+00
         0.00000E+00
         0.00000E+00
         0.00000E+00
         0.00000E+00
         0.00000E+00
         0.00000E+00
         0.00000E+00
         0.00000E+00
         0.00000E+00
         0.00000E+00
         0.00000E+00
         0.00000E+00
         0.00000E+00
         0.00000E+00
         0.00000E+00
         0.00000E+00
         0.00000E+00
         0.00000E+00
         0.00000E+00
         0.00000E+00
         0.00000E+00
         0.00000E+00
         0.00000E+00
         0.00000E+00
         0.00000E+00
         0.00000E+00
         0.00000E+00
         0.00000E+00
         0.00000E+00
         0.00000E+00
         0.00000E+00
         0.00000E+00
         0.00000E+00
         0.00000E+00
         0.00000E+00
         0.00000E+00
         0.00000E+00
         0.00000E+00
         0.00000E+00
         0.00000E+00
         0.00000E+00
         0.00000E+00
         0.00000E+00
         0.00000E+00
         0.00000E+00
         0.00000E+00
         0.00000E+00
         0.00000E+00
         0.00000E+00
         0.00000E+00
         0.00000E+00
         0.00000E+00
         0.00000E+00
         0.00000E+00
         0.00000E+00
         0.00000E+00
         0.00000E+00
         0.00000E+00
         0.00000E+00
         0.00000E+00
         0.00000E+00
         0.00000E+00
         0.00000E+00
         0.00000E+00
         0.00000E+00
         0.00000E+00
         0.00000E+00
         0.00000E+00
         0.00000E+00
         0.00000E+00
         0.00000E+00
         0.00000E+00
         0.00000E+00
         0.00000E+00
         0.00000E+00
         0.00000E+00
         0.00000E+00
         0.00000E+00
         0.00000E+00
         0.00000E+00
         0.00000E+00
         0.00000E+00
         0.00000E+00
         0.00000E+00
         0.00000E+00
         0.00000E+00
         0.00000E+00
         0.00000E+00
         0.00000E+00
         0.00000E+00
         0.00000E+00
         0.00000E+00
         0.00000E+00
         0.00000E+00
         0.00000E+00
         0.00000E+00
         0.00000E+00
         0.00000E+00
         0.00000E+00
         0.00000E+00
         0.00000E+00
         0.00000E+00
         0.00000E+00
         0.00000E+00
         0.00000E+00
         0.00000E+00
         0.00000E+00
         0.00000E+00
         0.00000E+00
         0.00000E+00
         0.00000E+00
         0.00000E+00
         0.00000E+00
         0.00000E+00
         0.00000E+00
         0.00000E+00
         0.00000E+00
         0.00000E+00
         0.00000E+00
         0.00000E+00
         0.00000E+00
         0.00000E+00
         0.00000E+00
         0.00000E+00
         0.00000E+00
         0.00000E+00
         0.00000E+00
         0.00000E+00
         0.00000E+00
         0.00000E+00
         0.00000E+00
         0.00000E+00
         0.00000E+00
         0.00000E+00
         0.00000E+00
         0.00000E+00
         0.00000E+00
         0.00000E+00
         0.00000E+00
         0.00000E+00
         0.00000E+00
         0.00000E+00
         0.00000E+00
         0.00000E+00
         0.00000E+00
         0.00000E+00
         0.00000E+00
         0.00000E+00
         0.00000E+00
         0.00000E+00
         0.00000E+00
         0.00000E+00
         0.00000E+00
         0.00000E+00
         0.00000E+00
         0.00000E+00
         0.00000E+00
         0.00000E+00
         0.00000E+00
         0.00000E+00
         0.00000E+00
         0.00000E+00
         0.00000E+00
         0.00000E+00
         0.00000E+00
         0.00000E+00
         0.00000E+00
         0.00000E+00
         0.00000E+00
         0.00000E+00
         0.00000E+00
         0.00000E+00
         0.00000E+00
         0.00000E+00
         0.00000E+00
         0.00000E+00
         0.00000E+00
         0.00000E+00
         0.00000E+00
         0.00000E+00
         0.00000E+00
         0.00000E+00
         0.00000E+00
         0.00000E+00
         0.00000E+00
         0.00000E+00
         0.00000E+00
         0.00000E+00
         0.00000E+00
         0.00000E+00
         0.00000E+00
         0.00000E+00
         0.00000E+00
         0.00000E+00
         0.00000E+00
         0.00000E+00
         0.00000E+00
         0.00000E+00
         0.00000E+00
         0.00000E+00
         0.00000E+00
         0.00000E+00
         0.00000E+00
         0.00000E+00
         0.00000E+00
         0.00000E+00
         0.00000E+00
         0.00000E+00
         0.00000E+00
         0.00000E+00
         0.00000E+00
         0.00000E+00
         0.00000E+00
         0.00000E+00
         0.00000E+00
         0.00000E+00
         0.00000E+00
         0.00000E+00
         0.00000E+00
         0.00000E+00
         0.00000E+00
         0.00000E+00
         0.00000E+00
         0.00000E+00
         0.00000E+00
         0.00000E+00
         0.00000E+00
         0.00000E+00
         0.00000E+00
         0.00000E+00
         0.00000E+00
         0.00000E+00
         0.00000E+00
         0.00000E+00
         0.00000E+00
         0.00000E+00
         0.00000E+00
         0.00000E+00
         0.00000E+00
         0.00000E+00
         0.00000E+00
         0.00000E+00
         0.00000E+00
         0.00000E+00
         0.00000E+00
         0.00000E+00
         0.00000E+00
         0.00000E+00
         0.00000E+00
         0.00000E+00
         0.00000E+00
         0.00000E+00
         0.00000E+00
         0.00000E+00
         0.00000E+00
         0.00000E+00
         0.00000E+00
         0.00000E+00
         0.00000E+00
         0.00000E+00
         0.00000E+00
         0.00000E+00
         0.00000E+00
         0.00000E+00
         0.00000E+00
         0.00000E+00
         0.00000E+00
         0.00000E+00
         0.00000E+00
         0.00000E+00
         0.00000E+00
         0.00000E+00
         0.00000E+00
         0.00000E+00
         0.00000E+00
         0.00000E+00
         0.00000E+00
         0.00000E+00
         0.00000E+00
         0.00000E+00
         0.00000E+00
         0.00000E+00
         0.00000E+00
         0.00000E+00
         0.00000E+00
         0.00000E+00
         0.00000E+00
         0.00000E+00
         0.00000E+00
         0.00000E+00
         0.00000E+00
         0.00000E+00
         0.00000E+00
         0.00000E+00
         0.00000E+00
         0.00000E+00
         0.00000E+00
         0.00000E+00
         0.00000E+00
         0.00000E+00
         0.00000E+00
         0.00000E+00
         0.00000E+00
         0.00000E+00
         0.00000E+00
         0.00000E+00
         0.00000E+00
         0.00000E+00
         0.00000E+00
         0.00000E+00
         0.00000E+00
         0.00000E+00
         0.00000E+00
         0.00000E+00
         0.00000E+00
         0.00000E+00
         0.00000E+00
         0.00000E+00
         0.00000E+00
         0.00000E+00
         0.00000E+00
         0.00000E+00
         0.00000E+00
         0.00000E+00
         0.00000E+00
         0.00000E+00
         0.00000E+00
         0.00000E+00
         0.00000E+00
         0.00000E+00
         0.00000E+00
         0.00000E+00
         0.00000E+00
         0.00000E+00
         0.00000E+00
         0.00000E+00
         0.00000E+00
         0.00000E+00
         0.00000E+00
         0.00000E+00
         0.00000E+00
         0.00000E+00
         0.00000E+00
         0.00000E+00
         0.00000E+00
         0.00000E+00
         0.00000E+00
         0.00000E+00
         0.00000E+00
         0.00000E+00
         0.00000E+00
         0.00000E+00
         0.00000E+00
         0.00000E+00
         0.00000E+00
         0.00000E+00
         0.00000E+00
         0.00000E+00
         0.00000E+00
         0.00000E+00
         0.00000E+00
         0.00000E+00
         0.00000E+00
         0.00000E+00
         0.00000E+00
         0.00000E+00
         0.00000E+00
         0.00000E+00
         0.00000E+00
         0.00000E+00
         0.00000E+00
         0.00000E+00
         0.00000E+00
         0.00000E+00
         0.00000E+00
         0.00000E+00
         0.00000E+00
         0.00000E+00
         0.00000E+00
         0.00000E+00
         0.00000E+00
         0.00000E+00
         0.00000E+00
         0.00000E+00
         0.00000E+00
         0.00000E+00
         0.00000E+00
         0.00000E+00
         0.00000E+00
         0.00000E+00
         0.00000E+00
         0.00000E+00
         0.00000E+00
         0.00000E+00
         0.00000E+00
         0.00000E+00
         0.00000E+00
         0.00000E+00
         0.00000E+00
         0.00000E+00
         0.00000E+00
         0.00000E+00
         0.00000E+00
         0.00000E+00
         0.00000E+00
         0.00000E+00
         0.00000E+00
         0.00000E+00
         0.00000E+00
         0.00000E+00
         0.00000E+00
         0.00000E+00
         0.00000E+00
         0.00000E+00
         0.00000E+00
         0.00000E+00
         0.00000E+00
         0.00000E+00
         0.00000E+00
         0.00000E+00
         0.00000E+00
         0.00000E+00
         0.00000E+00
         0.00000E+00
         0.00000E+00
         0.00000E+00
         0.00000E+00
         0.00000E+00
         0.00000E+00
         0.00000E+00
         0.00000E+00
         0.00000E+00
         0.00000E+00
         0.00000E+00
         0.00000E+00
         0.00000E+00
         0.00000E+00
         0.00000E+00
         0.00000E+00
         0.00000E+00
         0.00000E+00
         0.00000E+00
         0.00000E+00
         0.00000E+00
         0.00000E+00
         0.00000E+00
         0.00000E+00
         0.00000E+00
         0.00000E+00
         0.00000E+00
         0.00000E+00
         0.00000E+00
         0.00000E+00
         0.00000E+00
         0.00000E+00
         0.00000E+00
         0.00000E+00
         0.00000E+00
         0.00000E+00
         0.00000E+00
         0.00000E+00
         0.00000E+00
         0.00000E+00
         0.00000E+00
         0.00000E+00
         0.00000E+00
         0.00000E+00
         0.00000E+00
         0.00000E+00
         0.00000E+00
         0.00000E+00
         0.00000E+00
         0.00000E+00
         0.00000E+00
         0.00000E+00
         0.00000E+00
         0.00000E+00
         0.00000E+00
         0.00000E+00
         0.00000E+00
         0.00000E+00
         0.00000E+00
         0.00000E+00
         0.00000E+00
         0.00000E+00
         0.00000E+00
         0.00000E+00
         0.00000E+00
         0.00000E+00
         0.00000E+00
         0.00000E+00
         0.00000E+00
         0.00000E+00
         0.00000E+00
         0.00000E+00
         0.00000E+00
         0.00000E+00
         0.00000E+00
         0.00000E+00
         0.00000E+00
         0.00000E+00
         0.00000E+00
         0.00000E+00
         0.00000E+00
         0.00000E+00
         0.00000E+00
         0.00000E+00
         0.00000E+00
         0.00000E+00
         0.00000E+00
         0.00000E+00
         0.00000E+00
         0.00000E+00
         0.00000E+00
         0.00000E+00
         0.00000E+00
         0.00000E+00
         0.00000E+00
         0.00000E+00
         0.00000E+00
         0.00000E+00
         0.00000E+00
         0.00000E+00
         0.00000E+00
         0.00000E+00
         0.00000E+00
         0.00000E+00
         0.00000E+00
         0.00000E+00
         0.00000E+00
         0.00000E+00
         0.00000E+00
         0.00000E+00
         0.00000E+00
         0.00000E+00
         0.00000E+00
         0.00000E+00
         0.00000E+00
         0.00000E+00
         0.00000E+00
         0.00000E+00
         0.00000E+00
         0.00000E+00
         0.00000E+00
         0.00000E+00
         0.00000E+00
         0.00000E+00
         0.00000E+00
         0.00000E+00
         0.00000E+00
         0.00000E+00
         0.00000E+00
         0.00000E+00
         0.00000E+00
         0.00000E+00
         0.00000E+00
         0.00000E+00
         0.00000E+00
         0.00000E+00
         0.00000E+00
         0.00000E+00
         0.00000E+00
         0.00000E+00
         0.00000E+00
         0.00000E+00
         0.00000E+00
         0.00000E+00
         0.00000E+00
         0.00000E+00
         0.00000E+00
         0.00000E+00
         0.00000E+00
         0.00000E+00
         0.00000E+00
         0.00000E+00
         0.00000E+00
         0.00000E+00
         0.00000E+00
         0.00000E+00
         0.00000E+00
         0.00000E+00
         0.00000E+00
         0.00000E+00
         0.00000E+00
         0.00000E+00
         0.00000E+00
         0.00000E+00
         0.00000E+00
         0.00000E+00
         0.00000E+00
         0.00000E+00
         0.00000E+00
         0.00000E+00
         0.00000E+00
         0.00000E+00
         0.00000E+00
         0.00000E+00
         0.00000E+00
         0.00000E+00
         0.00000E+00
         0.00000E+00
         0.00000E+00
         0.00000E+00
         0.00000E+00
         0.00000E+00
         0.00000E+00
         0.00000E+00
         0.00000E+00
         0.00000E+00
         0.00000E+00
         0.00000E+00
         0.00000E+00
         0.00000E+00
         0.00000E+00
         0.00000E+00
         0.00000E+00
         0.00000E+00
         0.00000E+00
         0.00000E+00
         0.00000E+00
         0.00000E+00
         0.00000E+00
         0.00000E+00
         0.00000E+00
         0.00000E+00
         0.00000E+00
         0.00000E+00
         0.00000E+00
         0.00000E+00
         0.00000E+00
         0.00000E+00
         0.00000E+00
         0.00000E+00
         0.00000E+00
         0.00000E+00
         0.00000E+00
         0.00000E+00
         0.00000E+00
         0.00000E+00
         0.00000E+00
         0.00000E+00
         0.00000E+00
         0.00000E+00
         0.00000E+00
         0.00000E+00
         0.00000E+00
         0.00000E+00
         0.00000E+00
         0.00000E+00
         0.00000E+00
         0.00000E+00
         0.00000E+00
         0.00000E+00
         0.00000E+00
         0.00000E+00
         0.00000E+00
         0.00000E+00
         0.00000E+00
         0.00000E+00
         0.00000E+00
         0.00000E+00
         0.00000E+00
         0.00000E+00
         0.00000E+00
         0.00000E+00
         0.00000E+00
         0.00000E+00
         0.00000E+00
         0.00000E+00
         0.00000E+00
         0.00000E+00
         0.00000E+00
         0.00000E+00
         0.00000E+00
         0.00000E+00
         0.00000E+00
         0.00000E+00
         0.00000E+00
         0.00000E+00
         0.00000E+00
         0.00000E+00
         0.00000E+00
         0.00000E+00
         0.00000E+00
         0.00000E+00
         0.00000E+00
         0.00000E+00
         0.00000E+00
         0.00000E+00
         0.00000E+00
         0.00000E+00
         0.00000E+00
         0.00000E+00
         0.00000E+00
         0.00000E+00
         0.00000E+00
         0.00000E+00
         0.00000E+00
         0.00000E+00
         0.00000E+00
         0.00000E+00
         0.00000E+00
         0.00000E+00
         0.00000E+00
         0.00000E+00
         0.00000E+00
         0.00000E+00
         0.00000E+00
         0.00000E+00
         0.00000E+00
         0.00000E+00
         0.00000E+00
         0.00000E+00
         0.00000E+00
         0.00000E+00
         0.00000E+00
         0.00000E+00
         0.00000E+00
         0.00000E+00
         0.00000E+00
         0.00000E+00
         0.00000E+00
         0.00000E+00
         0.00000E+00
         0.00000E+00
         0.00000E+00
         0.00000E+00
         0.00000E+00
         0.00000E+00
         0.00000E+00
         0.00000E+00
         0.00000E+00
         0.00000E+00
         0.00000E+00
         0.00000E+00
         0.00000E+00
         0.00000E+00
         0.00000E+00
         0.00000E+00
         0.00000E+00
         0.00000E+00
         0.00000E+00
         0.00000E+00
         0.00000E+00
         0.00000E+00
         0.00000E+00
         0.00000E+00
         0.00000E+00
         0.00000E+00
         0.00000E+00
         0.00000E+00
         0.00000E+00
         0.00000E+00
         0.00000E+00
         0.00000E+00
         0.00000E+00
         0.00000E+00
         0.00000E+00
         0.00000E+00
         0.00000E+00
         0.00000E+00
         0.00000E+00
         0.00000E+00
         0.00000E+00
         0.00000E+00
         0.00000E+00
         0.00000E+00
         0.00000E+00
         0.00000E+00
         0.00000E+00
         0.00000E+00
         0.00000E+00
         0.00000E+00
         0.00000E+00
         0.00000E+00
         0.00000E+00
         0.00000E+00
         0.00000E+00
         0.00000E+00
         0.00000E+00
         0.00000E+00
         0.00000E+00
         0.00000E+00
         0.00000E+00
         0.00000E+00
         0.00000E+00
         0.00000E+00
         0.00000E+00
         0.00000E+00
         0.00000E+00
         0.00000E+00
         0.00000E+00
         0.00000E+00
         0.00000E+00
         0.00000E+00
         0.00000E+00
         0.00000E+00
         0.00000E+00
         0.00000E+00
         0.00000E+00
         0.00000E+00
         0.00000E+00
         0.00000E+00
         0.00000E+00
         0.00000E+00
         0.00000E+00
         0.00000E+00
         0.00000E+00
         0.00000E+00
         0.00000E+00
         0.00000E+00
         0.00000E+00
         0.00000E+00
         0.00000E+00
         0.00000E+00
         0.00000E+00
         0.00000E+00
         0.00000E+00
         0.00000E+00
         0.00000E+00
         0.00000E+00
         0.00000E+00
         0.00000E+00
         0.00000E+00
         0.00000E+00
         0.00000E+00
         0.00000E+00
         0.00000E+00
         0.00000E+00
         0.00000E+00
         0.00000E+00
         0.00000E+00
         0.00000E+00
         0.00000E+00
         0.00000E+00
         0.00000E+00
         0.00000E+00
         0.00000E+00
         0.00000E+00
         0.00000E+00
         0.00000E+00
         0.00000E+00
         0.00000E+00
         0.00000E+00
         0.00000E+00
         0.00000E+00
         0.00000E+00
         0.00000E+00
         0.00000E+00
         0.00000E+00
         0.00000E+00
         0.00000E+00
         0.00000E+00
         0.00000E+00
         0.00000E+00
         0.00000E+00
         0.00000E+00
         0.00000E+00
         0.00000E+00
         0.00000E+00
         0.00000E+00
         0.00000E+00
         0.00000E+00
         0.00000E+00
         0.00000E+00
         0.00000E+00
         0.00000E+00
         0.00000E+00
         0.00000E+00
         0.00000E+00
         0.00000E+00
         0.00000E+00
         0.00000E+00
         0.00000E+00
         0.00000E+00
         0.00000E+00
         0.00000E+00
         0.00000E+00
         0.00000E+00
         0.00000E+00
         0.00000E+00
         0.00000E+00
         0.00000E+00
         0.00000E+00
         0.00000E+00
         0.00000E+00
         0.00000E+00
         0.00000E+00
         0.00000E+00
         0.00000E+00
         0.00000E+00
         0.00000E+00
         0.00000E+00
         0.00000E+00
         0.00000E+00
         0.00000E+00
         0.00000E+00
         0.00000E+00
         0.00000E+00
         0.00000E+00
         0.00000E+00
         0.00000E+00
         0.00000E+00
         0.00000E+00
         0.00000E+00
         0.00000E+00
         0.00000E+00
         0.00000E+00
         0.00000E+00
         0.00000E+00
         0.00000E+00
         0.00000E+00
         0.00000E+00
         0.00000E+00
         0.00000E+00
         0.00000E+00
         0.00000E+00
         0.00000E+00
  
SCALARS               pre_disp_force_y  double 1
LOOKUP_TABLE default
         0.00000E+00
         0.00000E+00
         0.00000E+00
         0.00000E+00
         0.00000E+00
         0.00000E+00
         0.00000E+00
         0.00000E+00
         0.00000E+00
         0.00000E+00
         0.00000E+00
         0.00000E+00
         0.00000E+00
         0.00000E+00
         0.00000E+00
         0.00000E+00
         0.00000E+00
         0.00000E+00
         0.00000E+00
         0.00000E+00
         0.00000E+00
         0.00000E+00
         0.00000E+00
         0.00000E+00
         0.00000E+00
         0.00000E+00
         0.00000E+00
         0.00000E+00
         0.00000E+00
         0.00000E+00
         0.00000E+00
         0.00000E+00
         0.00000E+00
         0.00000E+00
         0.00000E+00
         0.00000E+00
         0.00000E+00
         0.00000E+00
         0.00000E+00
         0.00000E+00
         0.00000E+00
         0.00000E+00
         0.00000E+00
         0.00000E+00
         0.00000E+00
         0.00000E+00
         0.00000E+00
         0.00000E+00
         0.00000E+00
         0.00000E+00
         0.00000E+00
         0.00000E+00
         0.00000E+00
         0.00000E+00
         0.00000E+00
         0.00000E+00
         0.00000E+00
         0.00000E+00
         0.00000E+00
         0.00000E+00
         0.00000E+00
         0.00000E+00
         0.00000E+00
         0.00000E+00
         0.00000E+00
         0.00000E+00
         0.00000E+00
         0.00000E+00
         0.00000E+00
         0.00000E+00
         0.00000E+00
         0.00000E+00
         0.00000E+00
         0.00000E+00
         0.00000E+00
         0.00000E+00
         0.00000E+00
         0.00000E+00
         0.00000E+00
         0.00000E+00
         0.00000E+00
         0.00000E+00
         0.00000E+00
         0.00000E+00
         0.00000E+00
         0.00000E+00
         0.00000E+00
         0.00000E+00
         0.00000E+00
         0.00000E+00
         0.00000E+00
         0.00000E+00
         0.00000E+00
         0.00000E+00
         0.00000E+00
         0.00000E+00
         0.00000E+00
         0.00000E+00
         0.00000E+00
         0.00000E+00
         0.00000E+00
         0.00000E+00
         0.00000E+00
         0.00000E+00
         0.00000E+00
         0.00000E+00
         0.00000E+00
         0.00000E+00
         0.00000E+00
         0.00000E+00
         0.00000E+00
         0.00000E+00
         0.00000E+00
         0.00000E+00
         0.00000E+00
         0.00000E+00
         0.00000E+00
         0.00000E+00
         0.00000E+00
         0.00000E+00
         0.00000E+00
         0.00000E+00
         0.00000E+00
         0.00000E+00
         0.00000E+00
         0.00000E+00
         0.00000E+00
         0.00000E+00
         0.00000E+00
         0.00000E+00
         0.00000E+00
         0.00000E+00
         0.00000E+00
         0.00000E+00
         0.00000E+00
         0.00000E+00
         0.00000E+00
         0.00000E+00
         0.00000E+00
         0.00000E+00
         0.00000E+00
         0.00000E+00
         0.00000E+00
         0.00000E+00
         0.00000E+00
         0.00000E+00
         0.00000E+00
         0.00000E+00
         0.00000E+00
         0.00000E+00
         0.00000E+00
         0.00000E+00
         0.00000E+00
         0.00000E+00
         0.00000E+00
         0.00000E+00
         0.00000E+00
         0.00000E+00
         0.00000E+00
         0.00000E+00
         0.00000E+00
         0.00000E+00
         0.00000E+00
         0.00000E+00
         0.00000E+00
         0.00000E+00
         0.00000E+00
         0.00000E+00
         0.00000E+00
         0.00000E+00
         0.00000E+00
         0.00000E+00
         0.00000E+00
         0.00000E+00
         0.00000E+00
         0.00000E+00
         0.00000E+00
         0.00000E+00
         0.00000E+00
         0.00000E+00
         0.00000E+00
         0.00000E+00
         0.00000E+00
         0.00000E+00
         0.00000E+00
         0.00000E+00
         0.00000E+00
         0.00000E+00
         0.00000E+00
         0.00000E+00
         0.00000E+00
         0.00000E+00
         0.00000E+00
         0.00000E+00
         0.00000E+00
         0.00000E+00
         0.00000E+00
         0.00000E+00
         0.00000E+00
         0.00000E+00
         0.00000E+00
         0.00000E+00
         0.00000E+00
         0.00000E+00
         0.00000E+00
         0.00000E+00
         0.00000E+00
         0.00000E+00
         0.00000E+00
         0.00000E+00
         0.00000E+00
         0.00000E+00
         0.00000E+00
         0.00000E+00
         0.00000E+00
         0.00000E+00
         0.00000E+00
         0.00000E+00
         0.00000E+00
         0.00000E+00
         0.00000E+00
         0.00000E+00
         0.00000E+00
         0.00000E+00
         0.00000E+00
         0.00000E+00
         0.00000E+00
         0.00000E+00
         0.00000E+00
         0.00000E+00
         0.00000E+00
         0.00000E+00
         0.00000E+00
         0.00000E+00
         0.00000E+00
         0.00000E+00
         0.00000E+00
         0.00000E+00
         0.00000E+00
         0.00000E+00
         0.00000E+00
         0.00000E+00
         0.00000E+00
         0.00000E+00
         0.00000E+00
         0.00000E+00
         0.00000E+00
         0.00000E+00
         0.00000E+00
         0.00000E+00
         0.00000E+00
         0.00000E+00
         0.00000E+00
         0.00000E+00
         0.00000E+00
         0.00000E+00
         0.00000E+00
         0.00000E+00
         0.00000E+00
         0.00000E+00
         0.00000E+00
         0.00000E+00
         0.00000E+00
         0.00000E+00
         0.00000E+00
         0.00000E+00
         0.00000E+00
         0.00000E+00
         0.00000E+00
         0.00000E+00
         0.00000E+00
         0.00000E+00
         0.00000E+00
         0.00000E+00
         0.00000E+00
         0.00000E+00
         0.00000E+00
         0.00000E+00
         0.00000E+00
         0.00000E+00
         0.00000E+00
         0.00000E+00
         0.00000E+00
         0.00000E+00
         0.00000E+00
         0.00000E+00
         0.00000E+00
         0.00000E+00
         0.00000E+00
         0.00000E+00
         0.00000E+00
         0.00000E+00
         0.00000E+00
         0.00000E+00
         0.00000E+00
         0.00000E+00
         0.00000E+00
         0.00000E+00
         0.00000E+00
         0.00000E+00
         0.00000E+00
         0.00000E+00
         0.00000E+00
         0.00000E+00
         0.00000E+00
         0.00000E+00
         0.00000E+00
         0.00000E+00
         0.00000E+00
         0.00000E+00
         0.00000E+00
         0.00000E+00
         0.00000E+00
         0.00000E+00
         0.00000E+00
         0.00000E+00
         0.00000E+00
         0.00000E+00
         0.00000E+00
         0.00000E+00
         0.00000E+00
         0.00000E+00
         0.00000E+00
         0.00000E+00
         0.00000E+00
         0.00000E+00
         0.00000E+00
         0.00000E+00
         0.00000E+00
         0.00000E+00
         0.00000E+00
         0.00000E+00
         0.00000E+00
         0.00000E+00
         0.00000E+00
         0.00000E+00
         0.00000E+00
         0.00000E+00
         0.00000E+00
         0.00000E+00
         0.00000E+00
         0.00000E+00
         0.00000E+00
         0.00000E+00
         0.00000E+00
         0.00000E+00
         0.00000E+00
         0.00000E+00
         0.00000E+00
         0.00000E+00
         0.00000E+00
         0.00000E+00
         0.00000E+00
         0.00000E+00
         0.00000E+00
         0.00000E+00
         0.00000E+00
         0.00000E+00
         0.00000E+00
         0.00000E+00
         0.00000E+00
         0.00000E+00
         0.00000E+00
         0.00000E+00
         0.00000E+00
         0.00000E+00
         0.00000E+00
         0.00000E+00
         0.00000E+00
         0.00000E+00
         0.00000E+00
         0.00000E+00
         0.00000E+00
         0.00000E+00
         0.00000E+00
         0.00000E+00
         0.00000E+00
         0.00000E+00
         0.00000E+00
         0.00000E+00
         0.00000E+00
         0.00000E+00
         0.00000E+00
         0.00000E+00
         0.00000E+00
         0.00000E+00
         0.00000E+00
         0.00000E+00
         0.00000E+00
         0.00000E+00
         0.00000E+00
         0.00000E+00
         0.00000E+00
         0.00000E+00
         0.00000E+00
         0.00000E+00
         0.00000E+00
         0.00000E+00
         0.00000E+00
         0.00000E+00
         0.00000E+00
         0.00000E+00
         0.00000E+00
         0.00000E+00
         0.00000E+00
         0.00000E+00
         0.00000E+00
         0.00000E+00
         0.00000E+00
         0.00000E+00
         0.00000E+00
         0.00000E+00
         0.00000E+00
         0.00000E+00
         0.00000E+00
         0.00000E+00
         0.00000E+00
         0.00000E+00
         0.00000E+00
         0.00000E+00
         0.00000E+00
         0.00000E+00
         0.00000E+00
         0.00000E+00
         0.00000E+00
         0.00000E+00
         0.00000E+00
         0.00000E+00
         0.00000E+00
         0.00000E+00
         0.00000E+00
         0.00000E+00
         0.00000E+00
         0.00000E+00
         0.00000E+00
         0.00000E+00
         0.00000E+00
         0.00000E+00
         0.00000E+00
         0.00000E+00
         0.00000E+00
         0.00000E+00
         0.00000E+00
         0.00000E+00
         0.00000E+00
         0.00000E+00
         0.00000E+00
         0.00000E+00
         0.00000E+00
         0.00000E+00
         0.00000E+00
         0.00000E+00
         0.00000E+00
         0.00000E+00
         0.00000E+00
         0.00000E+00
         0.00000E+00
         0.00000E+00
         0.00000E+00
         0.00000E+00
         0.00000E+00
         0.00000E+00
         0.00000E+00
         0.00000E+00
         0.00000E+00
         0.00000E+00
         0.00000E+00
         0.00000E+00
         0.00000E+00
         0.00000E+00
         0.00000E+00
         0.00000E+00
         0.00000E+00
         0.00000E+00
         0.00000E+00
         0.00000E+00
         0.00000E+00
         0.00000E+00
         0.00000E+00
         0.00000E+00
         0.00000E+00
         0.00000E+00
         0.00000E+00
         0.00000E+00
         0.00000E+00
         0.00000E+00
         0.00000E+00
         0.00000E+00
         0.00000E+00
         0.00000E+00
         0.00000E+00
         0.00000E+00
         0.00000E+00
         0.00000E+00
         0.00000E+00
         0.00000E+00
         0.00000E+00
         0.00000E+00
         0.00000E+00
         0.00000E+00
         0.00000E+00
         0.00000E+00
         0.00000E+00
         0.00000E+00
         0.00000E+00
         0.00000E+00
         0.00000E+00
         0.00000E+00
         0.00000E+00
         0.00000E+00
         0.00000E+00
         0.00000E+00
         0.00000E+00
         0.00000E+00
         0.00000E+00
         0.00000E+00
         0.00000E+00
         0.00000E+00
         0.00000E+00
         0.00000E+00
         0.00000E+00
         0.00000E+00
         0.00000E+00
         0.00000E+00
         0.00000E+00
         0.00000E+00
         0.00000E+00
         0.00000E+00
         0.00000E+00
         0.00000E+00
         0.00000E+00
         0.00000E+00
         0.00000E+00
         0.00000E+00
         0.00000E+00
         0.00000E+00
         0.00000E+00
         0.00000E+00
         0.00000E+00
         0.00000E+00
         0.00000E+00
         0.00000E+00
         0.00000E+00
         0.00000E+00
         0.00000E+00
         0.00000E+00
         0.00000E+00
         0.00000E+00
         0.00000E+00
         0.00000E+00
         0.00000E+00
         0.00000E+00
         0.00000E+00
         0.00000E+00
         0.00000E+00
         0.00000E+00
         0.00000E+00
         0.00000E+00
         0.00000E+00
         0.00000E+00
         0.00000E+00
         0.00000E+00
         0.00000E+00
         0.00000E+00
         0.00000E+00
         0.00000E+00
         0.00000E+00
         0.00000E+00
         0.00000E+00
         0.00000E+00
         0.00000E+00
         0.00000E+00
         0.00000E+00
         0.00000E+00
         0.00000E+00
         0.00000E+00
         0.00000E+00
         0.00000E+00
         0.00000E+00
         0.00000E+00
         0.00000E+00
         0.00000E+00
         0.00000E+00
         0.00000E+00
         0.00000E+00
         0.00000E+00
         0.00000E+00
         0.00000E+00
         0.00000E+00
         0.00000E+00
         0.00000E+00
         0.00000E+00
         0.00000E+00
         0.00000E+00
         0.00000E+00
         0.00000E+00
         0.00000E+00
         0.00000E+00
         0.00000E+00
         0.00000E+00
         0.00000E+00
         0.00000E+00
         0.00000E+00
         0.00000E+00
         0.00000E+00
         0.00000E+00
         0.00000E+00
         0.00000E+00
         0.00000E+00
         0.00000E+00
         0.00000E+00
         0.00000E+00
         0.00000E+00
         0.00000E+00
         0.00000E+00
         0.00000E+00
         0.00000E+00
         0.00000E+00
         0.00000E+00
         0.00000E+00
         0.00000E+00
         0.00000E+00
         0.00000E+00
         0.00000E+00
         0.00000E+00
         0.00000E+00
         0.00000E+00
         0.00000E+00
         0.00000E+00
         0.00000E+00
         0.00000E+00
         0.00000E+00
         0.00000E+00
         0.00000E+00
         0.00000E+00
         0.00000E+00
         0.00000E+00
         0.00000E+00
         0.00000E+00
         0.00000E+00
         0.00000E+00
         0.00000E+00
         0.00000E+00
         0.00000E+00
         0.00000E+00
         0.00000E+00
         0.00000E+00
         0.00000E+00
         0.00000E+00
         0.00000E+00
         0.00000E+00
         0.00000E+00
         0.00000E+00
         0.00000E+00
         0.00000E+00
         0.00000E+00
         0.00000E+00
         0.00000E+00
         0.00000E+00
         0.00000E+00
         0.00000E+00
         0.00000E+00
         0.00000E+00
         0.00000E+00
         0.00000E+00
         0.00000E+00
         0.00000E+00
         0.00000E+00
         0.00000E+00
         0.00000E+00
         0.00000E+00
         0.00000E+00
         0.00000E+00
         0.00000E+00
         0.00000E+00
         0.00000E+00
         0.00000E+00
         0.00000E+00
         0.00000E+00
         0.00000E+00
         0.00000E+00
         0.00000E+00
         0.00000E+00
         0.00000E+00
         0.00000E+00
         0.00000E+00
         0.00000E+00
         0.00000E+00
         0.00000E+00
         0.00000E+00
         0.00000E+00
         0.00000E+00
         0.00000E+00
         0.00000E+00
         0.00000E+00
         0.00000E+00
         0.00000E+00
         0.00000E+00
         0.00000E+00
         0.00000E+00
         0.00000E+00
         0.00000E+00
         0.00000E+00
         0.00000E+00
         0.00000E+00
         0.00000E+00
         0.00000E+00
         0.00000E+00
         0.00000E+00
         0.00000E+00
         0.00000E+00
         0.00000E+00
         0.00000E+00
         0.00000E+00
         0.00000E+00
         0.00000E+00
         0.00000E+00
         0.00000E+00
         0.00000E+00
         0.00000E+00
         0.00000E+00
         0.00000E+00
         0.00000E+00
         0.00000E+00
         0.00000E+00
         0.00000E+00
         0.00000E+00
         0.00000E+00
         0.00000E+00
         0.00000E+00
         0.00000E+00
         0.00000E+00
         0.00000E+00
         0.00000E+00
         0.00000E+00
         0.00000E+00
         0.00000E+00
         0.00000E+00
         0.00000E+00
         0.00000E+00
         0.00000E+00
         0.00000E+00
         0.00000E+00
         0.00000E+00
         0.00000E+00
         0.00000E+00
         0.00000E+00
         0.00000E+00
         0.00000E+00
         0.00000E+00
         0.00000E+00
         0.00000E+00
         0.00000E+00
         0.00000E+00
         0.00000E+00
         0.00000E+00
         0.00000E+00
         0.00000E+00
         0.00000E+00
         0.00000E+00
         0.00000E+00
         0.00000E+00
         0.00000E+00
         0.00000E+00
         0.00000E+00
         0.00000E+00
         0.00000E+00
         0.00000E+00
         0.00000E+00
         0.00000E+00
         0.00000E+00
         0.00000E+00
         0.00000E+00
         0.00000E+00
         0.00000E+00
         0.00000E+00
         0.00000E+00
         0.00000E+00
         0.00000E+00
         0.00000E+00
         0.00000E+00
         0.00000E+00
         0.00000E+00
         0.00000E+00
         0.00000E+00
         0.00000E+00
         0.00000E+00
         0.00000E+00
         0.00000E+00
         0.00000E+00
         0.00000E+00
         0.00000E+00
         0.00000E+00
         0.00000E+00
         0.00000E+00
         0.00000E+00
         0.00000E+00
         0.00000E+00
         0.00000E+00
         0.00000E+00
         0.00000E+00
         0.00000E+00
         0.00000E+00
         0.00000E+00
         0.00000E+00
         0.00000E+00
         0.00000E+00
         0.00000E+00
         0.00000E+00
         0.00000E+00
         0.00000E+00
         0.00000E+00
         0.00000E+00
         0.00000E+00
         0.00000E+00
         0.00000E+00
         0.00000E+00
         0.00000E+00
         0.00000E+00
         0.00000E+00
         0.00000E+00
         0.00000E+00
         0.00000E+00
         0.00000E+00
         0.00000E+00
         0.00000E+00
         0.00000E+00
         0.00000E+00
         0.00000E+00
         0.00000E+00
         0.00000E+00
         0.00000E+00
         0.00000E+00
         0.00000E+00
         0.00000E+00
         0.00000E+00
         0.00000E+00
         0.00000E+00
         0.00000E+00
         0.00000E+00
         0.00000E+00
         0.00000E+00
         0.00000E+00
         0.00000E+00
         0.00000E+00
         0.00000E+00
         0.00000E+00
         0.00000E+00
         0.00000E+00
         0.00000E+00
         0.00000E+00
         0.00000E+00
         0.00000E+00
         0.00000E+00
         0.00000E+00
         0.00000E+00
         0.00000E+00
         0.00000E+00
         0.00000E+00
         0.00000E+00
         0.00000E+00
         0.00000E+00
         0.00000E+00
         0.00000E+00
         0.00000E+00
         0.00000E+00
         0.00000E+00
         0.00000E+00
         0.00000E+00
         0.00000E+00
         0.00000E+00
         0.00000E+00
         0.00000E+00
         0.00000E+00
         0.00000E+00
         0.00000E+00
         0.00000E+00
         0.00000E+00
         0.00000E+00
         0.00000E+00
         0.00000E+00
         0.00000E+00
         0.00000E+00
         0.00000E+00
         0.00000E+00
         0.00000E+00
         0.00000E+00
         0.00000E+00
         0.00000E+00
         0.00000E+00
         0.00000E+00
         0.00000E+00
         0.00000E+00
         0.00000E+00
         0.00000E+00
         0.00000E+00
         0.00000E+00
         0.00000E+00
         0.00000E+00
         0.00000E+00
         0.00000E+00
         0.00000E+00
         0.00000E+00
         0.00000E+00
         0.00000E+00
         0.00000E+00
         0.00000E+00
         0.00000E+00
         0.00000E+00
         0.00000E+00
         0.00000E+00
         0.00000E+00
         0.00000E+00
         0.00000E+00
         0.00000E+00
         0.00000E+00
         0.00000E+00
         0.00000E+00
         0.00000E+00
         0.00000E+00
         0.00000E+00
         0.00000E+00
         0.00000E+00
         0.00000E+00
         0.00000E+00
         0.00000E+00
         0.00000E+00
         0.00000E+00
         0.00000E+00
         0.00000E+00
         0.00000E+00
         0.00000E+00
         0.00000E+00
         0.00000E+00
         0.00000E+00
         0.00000E+00
         0.00000E+00
         0.00000E+00
         0.00000E+00
         0.00000E+00
         0.00000E+00
         0.00000E+00
         0.00000E+00
         0.00000E+00
         0.00000E+00
         0.00000E+00
         0.00000E+00
         0.00000E+00
         0.00000E+00
         0.00000E+00
         0.00000E+00
         0.00000E+00
         0.00000E+00
         0.00000E+00
         0.00000E+00
         0.00000E+00
         0.00000E+00
         0.00000E+00
         0.00000E+00
         0.00000E+00
         0.00000E+00
         0.00000E+00
         0.00000E+00
         0.00000E+00
         0.00000E+00
         0.00000E+00
         0.00000E+00
         0.00000E+00
         0.00000E+00
         0.00000E+00
         0.00000E+00
         0.00000E+00
         0.00000E+00
         0.00000E+00
         0.00000E+00
         0.00000E+00
         0.00000E+00
         0.00000E+00
         0.00000E+00
         0.00000E+00
         0.00000E+00
         0.00000E+00
         0.00000E+00
         0.00000E+00
         0.00000E+00
         0.00000E+00
         0.00000E+00
         0.00000E+00
         0.00000E+00
         0.00000E+00
         0.00000E+00
         0.00000E+00
         0.00000E+00
         0.00000E+00
         0.00000E+00
         0.00000E+00
         0.00000E+00
         0.00000E+00
         0.00000E+00
         0.00000E+00
         0.00000E+00
         0.00000E+00
         0.00000E+00
         0.00000E+00
         0.00000E+00
         0.00000E+00
         0.00000E+00
         0.00000E+00
         0.00000E+00
         0.00000E+00
         0.00000E+00
         0.00000E+00
         0.00000E+00
         0.00000E+00
         0.00000E+00
         0.00000E+00
         0.00000E+00
         0.00000E+00
         0.00000E+00
         0.00000E+00
         0.00000E+00
         0.00000E+00
         0.00000E+00
         0.00000E+00
         0.00000E+00
         0.00000E+00
         0.00000E+00
         0.00000E+00
         0.00000E+00
         0.00000E+00
         0.00000E+00
         0.00000E+00
         0.00000E+00
         0.00000E+00
         0.00000E+00
         0.00000E+00
         0.00000E+00
         0.00000E+00
         0.00000E+00
         0.00000E+00
         0.00000E+00
         0.00000E+00
         0.00000E+00
         0.00000E+00
         0.00000E+00
         0.00000E+00
         0.00000E+00
         0.00000E+00
         0.00000E+00
         0.00000E+00
         0.00000E+00
         0.00000E+00
         0.00000E+00
         0.00000E+00
         0.00000E+00
         0.00000E+00
         0.00000E+00
         0.00000E+00
         0.00000E+00
         0.00000E+00
         0.00000E+00
         0.00000E+00
         0.00000E+00
         0.00000E+00
         0.00000E+00
         0.00000E+00
         0.00000E+00
         0.00000E+00
         0.00000E+00
         0.00000E+00
         0.00000E+00
         0.00000E+00
         0.00000E+00
         0.00000E+00
         0.00000E+00
         0.00000E+00
         0.00000E+00
         0.00000E+00
         0.00000E+00
         0.00000E+00
         0.00000E+00
         0.00000E+00
         0.00000E+00
         0.00000E+00
         0.00000E+00
         0.00000E+00
         0.00000E+00
         0.00000E+00
         0.00000E+00
         0.00000E+00
         0.00000E+00
         0.00000E+00
         0.00000E+00
         0.00000E+00
         0.00000E+00
         0.00000E+00
         0.00000E+00
         0.00000E+00
         0.00000E+00
         0.00000E+00
         0.00000E+00
         0.00000E+00
         0.00000E+00
         0.00000E+00
         0.00000E+00
         0.00000E+00
         0.00000E+00
         0.00000E+00
         0.00000E+00
         0.00000E+00
         0.00000E+00
         0.00000E+00
         0.00000E+00
         0.00000E+00
         0.00000E+00
         0.00000E+00
         0.00000E+00
         0.00000E+00
         0.00000E+00
         0.00000E+00
         0.00000E+00
         0.00000E+00
         0.00000E+00
         0.00000E+00
         0.00000E+00
         0.00000E+00
         0.00000E+00
         0.00000E+00
         0.00000E+00
         0.00000E+00
         0.00000E+00
         0.00000E+00
         0.00000E+00
         0.00000E+00
         0.00000E+00
         0.00000E+00
         0.00000E+00
         0.00000E+00
         0.00000E+00
         0.00000E+00
         0.00000E+00
         0.00000E+00
         0.00000E+00
         0.00000E+00
         0.00000E+00
         0.00000E+00
         0.00000E+00
         0.00000E+00
         0.00000E+00
         0.00000E+00
         0.00000E+00
         0.00000E+00
         0.00000E+00
         0.00000E+00
         0.00000E+00
         0.00000E+00
         0.00000E+00
         0.00000E+00
         0.00000E+00
         0.00000E+00
         0.00000E+00
         0.00000E+00
         0.00000E+00
         0.00000E+00
         0.00000E+00
         0.00000E+00
         0.00000E+00
         0.00000E+00
         0.00000E+00
         0.00000E+00
         0.00000E+00
         0.00000E+00
         0.00000E+00
         0.00000E+00
         0.00000E+00
         0.00000E+00
         0.00000E+00
         0.00000E+00
         0.00000E+00
         0.00000E+00
         0.00000E+00
         0.00000E+00
         0.00000E+00
         0.00000E+00
         0.00000E+00
         0.00000E+00
         0.00000E+00
         0.00000E+00
         0.00000E+00
         0.00000E+00
         0.00000E+00
         0.00000E+00
         0.00000E+00
         0.00000E+00
         0.00000E+00
         0.00000E+00
         0.00000E+00
         0.00000E+00
         0.00000E+00
         0.00000E+00
         0.00000E+00
         0.00000E+00
         0.00000E+00
         0.00000E+00
         0.00000E+00
         0.00000E+00
         0.00000E+00
         0.00000E+00
         0.00000E+00
         0.00000E+00
         0.00000E+00
         0.00000E+00
         0.00000E+00
         0.00000E+00
         0.00000E+00
         0.00000E+00
         0.00000E+00
         0.00000E+00
         0.00000E+00
         0.00000E+00
         0.00000E+00
         0.00000E+00
         0.00000E+00
         0.00000E+00
         0.00000E+00
         0.00000E+00
         0.00000E+00
         0.00000E+00
         0.00000E+00
         0.00000E+00
         0.00000E+00
         0.00000E+00
         0.00000E+00
         0.00000E+00
         0.00000E+00
         0.00000E+00
         0.00000E+00
         0.00000E+00
         0.00000E+00
         0.00000E+00
         0.00000E+00
         0.00000E+00
         0.00000E+00
         0.00000E+00
         0.00000E+00
         0.00000E+00
         0.00000E+00
         0.00000E+00
         0.00000E+00
         0.00000E+00
         0.00000E+00
         0.00000E+00
         0.00000E+00
         0.00000E+00
         0.00000E+00
         0.00000E+00
         0.00000E+00
         0.00000E+00
         0.00000E+00
         0.00000E+00
         0.00000E+00
         0.00000E+00
         0.00000E+00
         0.00000E+00
         0.00000E+00
         0.00000E+00
         0.00000E+00
         0.00000E+00
         0.00000E+00
         0.00000E+00
         0.00000E+00
         0.00000E+00
         0.00000E+00
         0.00000E+00
         0.00000E+00
         0.00000E+00
         0.00000E+00
         0.00000E+00
         0.00000E+00
         0.00000E+00
         0.00000E+00
         0.00000E+00
         0.00000E+00
         0.00000E+00
         0.00000E+00
         0.00000E+00
         0.00000E+00
         0.00000E+00
         0.00000E+00
         0.00000E+00
         0.00000E+00
         0.00000E+00
         0.00000E+00
         0.00000E+00
         0.00000E+00
         0.00000E+00
         0.00000E+00
         0.00000E+00
         0.00000E+00
         0.00000E+00
         0.00000E+00
         0.00000E+00
         0.00000E+00
         0.00000E+00
         0.00000E+00
         0.00000E+00
         0.00000E+00
         0.00000E+00
         0.00000E+00
         0.00000E+00
         0.00000E+00
         0.00000E+00
         0.00000E+00
         0.00000E+00
         0.00000E+00
         0.00000E+00
         0.00000E+00
         0.00000E+00
         0.00000E+00
         0.00000E+00
         0.00000E+00
         0.00000E+00
         0.00000E+00
         0.00000E+00
         0.00000E+00
         0.00000E+00
         0.00000E+00
         0.00000E+00
         0.00000E+00
         0.00000E+00
         0.00000E+00
         0.00000E+00
         0.00000E+00
         0.00000E+00
         0.00000E+00
         0.00000E+00
         0.00000E+00
         0.00000E+00
         0.00000E+00
         0.00000E+00
         0.00000E+00
         0.00000E+00
         0.00000E+00
         0.00000E+00
         0.00000E+00
         0.00000E+00
         0.00000E+00
         0.00000E+00
         0.00000E+00
         0.00000E+00
         0.00000E+00
         0.00000E+00
         0.00000E+00
         0.00000E+00
         0.00000E+00
         0.00000E+00
         0.00000E+00
         0.00000E+00
         0.00000E+00
         0.00000E+00
         0.00000E+00
         0.00000E+00
         0.00000E+00
         0.00000E+00
         0.00000E+00
         0.00000E+00
         0.00000E+00
         0.00000E+00
         0.00000E+00
         0.00000E+00
         0.00000E+00
         0.00000E+00
         0.00000E+00
         0.00000E+00
         0.00000E+00
         0.00000E+00
         0.00000E+00
         0.00000E+00
         0.00000E+00
         0.00000E+00
         0.00000E+00
         0.00000E+00
         0.00000E+00
         0.00000E+00
         0.00000E+00
         0.00000E+00
         0.00000E+00
         0.00000E+00
         0.00000E+00
         0.00000E+00
         0.00000E+00
         0.00000E+00
         0.00000E+00
         0.00000E+00
         0.00000E+00
         0.00000E+00
         0.00000E+00
         0.00000E+00
         0.00000E+00
         0.00000E+00
         0.00000E+00
         0.00000E+00
         0.00000E+00
         0.00000E+00
         0.00000E+00
         0.00000E+00
         0.00000E+00
         0.00000E+00
         0.00000E+00
         0.00000E+00
         0.00000E+00
         0.00000E+00
         0.00000E+00
         0.00000E+00
         0.00000E+00
         0.00000E+00
         0.00000E+00
         0.00000E+00
         0.00000E+00
         0.00000E+00
         0.00000E+00
         0.00000E+00
         0.00000E+00
         0.00000E+00
         0.00000E+00
         0.00000E+00
         0.00000E+00
         0.00000E+00
         0.00000E+00
         0.00000E+00
         0.00000E+00
         0.00000E+00
         0.00000E+00
         0.00000E+00
         0.00000E+00
         0.00000E+00
         0.00000E+00
         0.00000E+00
         0.00000E+00
         0.00000E+00
         0.00000E+00
         0.00000E+00
         0.00000E+00
         0.00000E+00
         0.00000E+00
         0.00000E+00
         0.00000E+00
         0.00000E+00
         0.00000E+00
         0.00000E+00
         0.00000E+00
         0.00000E+00
         0.00000E+00
         0.00000E+00
         0.00000E+00
         0.00000E+00
         0.00000E+00
         0.00000E+00
         0.00000E+00
         0.00000E+00
         0.00000E+00
         0.00000E+00
         0.00000E+00
         0.00000E+00
         0.00000E+00
         0.00000E+00
         0.00000E+00
         0.00000E+00
         0.00000E+00
         0.00000E+00
         0.00000E+00
         0.00000E+00
         0.00000E+00
         0.00000E+00
         0.00000E+00
         0.00000E+00
         0.00000E+00
         0.00000E+00
         0.00000E+00
         0.00000E+00
         0.00000E+00
         0.00000E+00
         0.00000E+00
         0.00000E+00
         0.00000E+00
         0.00000E+00
         0.00000E+00
         0.00000E+00
         0.00000E+00
         0.00000E+00
         0.00000E+00
         0.00000E+00
         0.00000E+00
         0.00000E+00
         0.00000E+00
         0.00000E+00
         0.00000E+00
         0.00000E+00
         0.00000E+00
         0.00000E+00
         0.00000E+00
         0.00000E+00
         0.00000E+00
         0.00000E+00
         0.00000E+00
         0.00000E+00
         0.00000E+00
         0.00000E+00
         0.00000E+00
         0.00000E+00
         0.00000E+00
         0.00000E+00
         0.00000E+00
         0.00000E+00
         0.00000E+00
         0.00000E+00
         0.00000E+00
         0.00000E+00
         0.00000E+00
         0.00000E+00
         0.00000E+00
         0.00000E+00
         0.00000E+00
         0.00000E+00
         0.00000E+00
         0.00000E+00
         0.00000E+00
         0.00000E+00
         0.00000E+00
         0.00000E+00
         0.00000E+00
         0.00000E+00
         0.00000E+00
         0.00000E+00
         0.00000E+00
         0.00000E+00
         0.00000E+00
         0.00000E+00
         0.00000E+00
         0.00000E+00
         0.00000E+00
         0.00000E+00
         0.00000E+00
         0.00000E+00
         0.00000E+00
         0.00000E+00
         0.00000E+00
         0.00000E+00
         0.00000E+00
         0.00000E+00
         0.00000E+00
         0.00000E+00
         0.00000E+00
         0.00000E+00
         0.00000E+00
         0.00000E+00
         0.00000E+00
         0.00000E+00
         0.00000E+00
         0.00000E+00
         0.00000E+00
         0.00000E+00
         0.00000E+00
         0.00000E+00
         0.00000E+00
         0.00000E+00
         0.00000E+00
         0.00000E+00
         0.00000E+00
         0.00000E+00
         0.00000E+00
         0.00000E+00
         0.00000E+00
         0.00000E+00
         0.00000E+00
         0.00000E+00
         0.00000E+00
         0.00000E+00
         0.00000E+00
         0.00000E+00
         0.00000E+00
         0.00000E+00
         0.00000E+00
         0.00000E+00
         0.00000E+00
         0.00000E+00
         0.00000E+00
         0.00000E+00
         0.00000E+00
         0.00000E+00
         0.00000E+00
         0.00000E+00
         0.00000E+00
         0.00000E+00
         0.00000E+00
         0.00000E+00
         0.00000E+00
         0.00000E+00
         0.00000E+00
         0.00000E+00
         0.00000E+00
         0.00000E+00
         0.00000E+00
         0.00000E+00
         0.00000E+00
         0.00000E+00
         0.00000E+00
         0.00000E+00
         0.00000E+00
         0.00000E+00
         0.00000E+00
         0.00000E+00
         0.00000E+00
         0.00000E+00
         0.00000E+00
         0.00000E+00
         0.00000E+00
         0.00000E+00
         0.00000E+00
         0.00000E+00
         0.00000E+00
         0.00000E+00
         0.00000E+00
         0.00000E+00
         0.00000E+00
         0.00000E+00
         0.00000E+00
         0.00000E+00
         0.00000E+00
         0.00000E+00
         0.00000E+00
         0.00000E+00
         0.00000E+00
         0.00000E+00
         0.00000E+00
         0.00000E+00
         0.00000E+00
         0.00000E+00
         0.00000E+00
         0.00000E+00
         0.00000E+00
         0.00000E+00
         0.00000E+00
         0.00000E+00
         0.00000E+00
         0.00000E+00
         0.00000E+00
         0.00000E+00
         0.00000E+00
         0.00000E+00
         0.00000E+00
         0.00000E+00
         0.00000E+00
         0.00000E+00
         0.00000E+00
         0.00000E+00
         0.00000E+00
         0.00000E+00
         0.00000E+00
         0.00000E+00
         0.00000E+00
         0.00000E+00
         0.00000E+00
         0.00000E+00
         0.00000E+00
         0.00000E+00
         0.00000E+00
         0.00000E+00
         0.00000E+00
         0.00000E+00
         0.00000E+00
         0.00000E+00
         0.00000E+00
         0.00000E+00
         0.00000E+00
         0.00000E+00
         0.00000E+00
         0.00000E+00
         0.00000E+00
         0.00000E+00
         0.00000E+00
         0.00000E+00
         0.00000E+00
         0.00000E+00
         0.00000E+00
         0.00000E+00
         0.00000E+00
         0.00000E+00
         0.00000E+00
         0.00000E+00
         0.00000E+00
         0.00000E+00
         0.00000E+00
         0.00000E+00
         0.00000E+00
         0.00000E+00
         0.00000E+00
         0.00000E+00
         0.00000E+00
         0.00000E+00
         0.00000E+00
         0.00000E+00
         0.00000E+00
         0.00000E+00
         0.00000E+00
         0.00000E+00
         0.00000E+00
         0.00000E+00
         0.00000E+00
         0.00000E+00
         0.00000E+00
         0.00000E+00
         0.00000E+00
         0.00000E+00
         0.00000E+00
         0.00000E+00
         0.00000E+00
         0.00000E+00
         0.00000E+00
         0.00000E+00
         0.00000E+00
         0.00000E+00
         0.00000E+00
         0.00000E+00
         0.00000E+00
         0.00000E+00
         0.00000E+00
         0.00000E+00
         0.00000E+00
         0.00000E+00
         0.00000E+00
         0.00000E+00
         0.00000E+00
         0.00000E+00
         0.00000E+00
         0.00000E+00
         0.00000E+00
         0.00000E+00
         0.00000E+00
         0.00000E+00
         0.00000E+00
         0.00000E+00
         0.00000E+00
         0.00000E+00
         0.00000E+00
         0.00000E+00
         0.00000E+00
         0.00000E+00
         0.00000E+00
         0.00000E+00
         0.00000E+00
         0.00000E+00
         0.00000E+00
         0.00000E+00
         0.00000E+00
         0.00000E+00
         0.00000E+00
         0.00000E+00
         0.00000E+00
         0.00000E+00
         0.00000E+00
         0.00000E+00
         0.00000E+00
         0.00000E+00
         0.00000E+00
         0.00000E+00
         0.00000E+00
         0.00000E+00
         0.00000E+00
         0.00000E+00
         0.00000E+00
         0.00000E+00
         0.00000E+00
         0.00000E+00
         0.00000E+00
         0.00000E+00
         0.00000E+00
         0.00000E+00
         0.00000E+00
         0.00000E+00
         0.00000E+00
         0.00000E+00
         0.00000E+00
         0.00000E+00
         0.00000E+00
         0.00000E+00
         0.00000E+00
         0.00000E+00
         0.00000E+00
         0.00000E+00
         0.00000E+00
         0.00000E+00
         0.00000E+00
         0.00000E+00
         0.00000E+00
         0.00000E+00
         0.00000E+00
         0.00000E+00
         0.00000E+00
         0.00000E+00
         0.00000E+00
         0.00000E+00
         0.00000E+00
         0.00000E+00
         0.00000E+00
         0.00000E+00
         0.00000E+00
         0.00000E+00
         0.00000E+00
         0.00000E+00
         0.00000E+00
         0.00000E+00
         0.00000E+00
         0.00000E+00
         0.00000E+00
         0.00000E+00
         0.00000E+00
         0.00000E+00
         0.00000E+00
         0.00000E+00
         0.00000E+00
         0.00000E+00
         0.00000E+00
         0.00000E+00
         0.00000E+00
         0.00000E+00
         0.00000E+00
         0.00000E+00
         0.00000E+00
         0.00000E+00
         0.00000E+00
         0.00000E+00
         0.00000E+00
         0.00000E+00
         0.00000E+00
         0.00000E+00
         0.00000E+00
         0.00000E+00
         0.00000E+00
         0.00000E+00
         0.00000E+00
         0.00000E+00
         0.00000E+00
         0.00000E+00
         0.00000E+00
         0.00000E+00
         0.00000E+00
         0.00000E+00
         0.00000E+00
         0.00000E+00
         0.00000E+00
         0.00000E+00
         0.00000E+00
         0.00000E+00
         0.00000E+00
         0.00000E+00
         0.00000E+00
         0.00000E+00
         0.00000E+00
         0.00000E+00
         0.00000E+00
         0.00000E+00
         0.00000E+00
         0.00000E+00
         0.00000E+00
         0.00000E+00
         0.00000E+00
         0.00000E+00
         0.00000E+00
         0.00000E+00
         0.00000E+00
         0.00000E+00
         0.00000E+00
         0.00000E+00
         0.00000E+00
         0.00000E+00
         0.00000E+00
         0.00000E+00
         0.00000E+00
         0.00000E+00
         0.00000E+00
         0.00000E+00
         0.00000E+00
         0.00000E+00
         0.00000E+00
         0.00000E+00
         0.00000E+00
         0.00000E+00
         0.00000E+00
         0.00000E+00
         0.00000E+00
         0.00000E+00
         0.00000E+00
         0.00000E+00
         0.00000E+00
         0.00000E+00
         0.00000E+00
         0.00000E+00
         0.00000E+00
         0.00000E+00
         0.00000E+00
         0.00000E+00
         0.00000E+00
         0.00000E+00
         0.00000E+00
         0.00000E+00
         0.00000E+00
         0.00000E+00
         0.00000E+00
         0.00000E+00
         0.00000E+00
         0.00000E+00
         0.00000E+00
         0.00000E+00
         0.00000E+00
         0.00000E+00
         0.00000E+00
         0.00000E+00
         0.00000E+00
         0.00000E+00
         0.00000E+00
         0.00000E+00
         0.00000E+00
         0.00000E+00
         0.00000E+00
         0.00000E+00
         0.00000E+00
         0.00000E+00
         0.00000E+00
         0.00000E+00
         0.00000E+00
         0.00000E+00
         0.00000E+00
         0.00000E+00
         0.00000E+00
         0.00000E+00
         0.00000E+00
         0.00000E+00
         0.00000E+00
         0.00000E+00
         0.00000E+00
         0.00000E+00
         0.00000E+00
         0.00000E+00
         0.00000E+00
         0.00000E+00
         0.00000E+00
         0.00000E+00
         0.00000E+00
         0.00000E+00
  
SCALARS               pre_disp_force_z  double 1
LOOKUP_TABLE default
         0.00000E+00
         0.00000E+00
         0.00000E+00
         0.00000E+00
        -0.00000E+00
        -0.00000E+00
        -0.00000E+00
        -0.00000E+00
         0.00000E+00
         0.00000E+00
        -0.00000E+00
        -0.00000E+00
         0.00000E+00
         0.00000E+00
        -0.00000E+00
        -0.00000E+00
         0.00000E+00
         0.00000E+00
        -0.00000E+00
        -0.00000E+00
         0.00000E+00
         0.00000E+00
         0.00000E+00
        -0.00000E+00
        -0.00000E+00
        -0.00000E+00
         0.00000E+00
         0.00000E+00
        -0.00000E+00
        -0.00000E+00
         0.00000E+00
         0.00000E+00
         0.00000E+00
        -0.00000E+00
        -0.00000E+00
        -0.00000E+00
         0.00000E+00
         0.00000E+00
        -0.00000E+00
        -0.00000E+00
         0.00000E+00
         0.00000E+00
        -0.00000E+00
        -0.00000E+00
         0.00000E+00
         0.00000E+00
        -0.00000E+00
        -0.00000E+00
         0.00000E+00
        -0.00000E+00
         0.00000E+00
        -0.00000E+00
         0.00000E+00
        -0.00000E+00
         0.00000E+00
        -0.00000E+00
         0.00000E+00
         0.00000E+00
        -0.00000E+00
        -0.00000E+00
         0.00000E+00
         0.00000E+00
        -0.00000E+00
        -0.00000E+00
         0.00000E+00
        -0.00000E+00
         0.00000E+00
        -0.00000E+00
         0.00000E+00
         0.00000E+00
        -0.00000E+00
        -0.00000E+00
         0.00000E+00
        -0.00000E+00
         0.00000E+00
        -0.00000E+00
         0.00000E+00
        -0.00000E+00
         0.00000E+00
        -0.00000E+00
         0.00000E+00
         0.00000E+00
        -0.00000E+00
        -0.00000E+00
         0.00000E+00
        -0.00000E+00
         0.00000E+00
        -0.00000E+00
         0.00000E+00
        -0.00000E+00
         0.00000E+00
         0.00000E+00
        -0.00000E+00
        -0.00000E+00
         0.00000E+00
        -0.00000E+00
         0.00000E+00
        -0.00000E+00
         0.00000E+00
        -0.00000E+00
         0.00000E+00
         0.00000E+00
        -0.00000E+00
        -0.00000E+00
         0.00000E+00
         0.00000E+00
        -0.00000E+00
        -0.00000E+00
         0.00000E+00
        -0.00000E+00
         0.00000E+00
        -0.00000E+00
         0.00000E+00
        -0.00000E+00
         0.00000E+00
        -0.00000E+00
         0.00000E+00
        -0.00000E+00
         0.00000E+00
        -0.00000E+00
         0.00000E+00
        -0.00000E+00
         0.00000E+00
        -0.00000E+00
         0.00000E+00
        -0.00000E+00
         0.00000E+00
        -0.00000E+00
         0.00000E+00
        -0.00000E+00
         0.00000E+00
        -0.00000E+00
         0.00000E+00
        -0.00000E+00
         0.00000E+00
        -0.00000E+00
         0.00000E+00
        -0.00000E+00
         0.00000E+00
        -0.00000E+00
         0.00000E+00
        -0.00000E+00
         0.00000E+00
        -0.00000E+00
         0.00000E+00
        -0.00000E+00
         0.00000E+00
        -0.00000E+00
         0.00000E+00
        -0.00000E+00
         0.00000E+00
        -0.00000E+00
         0.00000E+00
        -0.00000E+00
         0.00000E+00
        -0.00000E+00
         0.00000E+00
         0.00000E+00
         0.00000E+00
         0.00000E+00
         0.00000E+00
         0.00000E+00
         0.00000E+00
         0.00000E+00
         0.00000E+00
         0.00000E+00
         0.00000E+00
         0.00000E+00
         0.00000E+00
         0.00000E+00
         0.00000E+00
         0.00000E+00
         0.00000E+00
         0.00000E+00
         0.00000E+00
         0.00000E+00
         0.00000E+00
         0.00000E+00
         0.00000E+00
         0.00000E+00
         0.00000E+00
         0.00000E+00
         0.00000E+00
         0.00000E+00
         0.00000E+00
         0.00000E+00
         0.00000E+00
         0.00000E+00
         0.00000E+00
         0.00000E+00
         0.00000E+00
         0.00000E+00
         0.00000E+00
         0.00000E+00
         0.00000E+00
         0.00000E+00
         0.00000E+00
         0.00000E+00
         0.00000E+00
         0.00000E+00
         0.00000E+00
         0.00000E+00
         0.00000E+00
         0.00000E+00
         0.00000E+00
         0.00000E+00
         0.00000E+00
         0.00000E+00
         0.00000E+00
         0.00000E+00
         0.00000E+00
         0.00000E+00
         0.00000E+00
         0.00000E+00
         0.00000E+00
         0.00000E+00
         0.00000E+00
         0.00000E+00
         0.00000E+00
         0.00000E+00
         0.00000E+00
         0.00000E+00
         0.00000E+00
         0.00000E+00
         0.00000E+00
         0.00000E+00
         0.00000E+00
         0.00000E+00
         0.00000E+00
         0.00000E+00
         0.00000E+00
         0.00000E+00
         0.00000E+00
         0.00000E+00
         0.00000E+00
         0.00000E+00
         0.00000E+00
         0.00000E+00
         0.00000E+00
         0.00000E+00
         0.00000E+00
         0.00000E+00
         0.00000E+00
         0.00000E+00
         0.00000E+00
         0.00000E+00
         0.00000E+00
         0.00000E+00
         0.00000E+00
         0.00000E+00
         0.00000E+00
         0.00000E+00
         0.00000E+00
         0.00000E+00
         0.00000E+00
         0.00000E+00
         0.00000E+00
         0.00000E+00
         0.00000E+00
         0.00000E+00
         0.00000E+00
         0.00000E+00
         0.00000E+00
         0.00000E+00
         0.00000E+00
         0.00000E+00
         0.00000E+00
         0.00000E+00
         0.00000E+00
         0.00000E+00
         0.00000E+00
         0.00000E+00
         0.00000E+00
         0.00000E+00
         0.00000E+00
         0.00000E+00
         0.00000E+00
         0.00000E+00
         0.00000E+00
         0.00000E+00
         0.00000E+00
         0.00000E+00
         0.00000E+00
         0.00000E+00
         0.00000E+00
         0.00000E+00
         0.00000E+00
         0.00000E+00
         0.00000E+00
         0.00000E+00
         0.00000E+00
         0.00000E+00
         0.00000E+00
         0.00000E+00
         0.00000E+00
         0.00000E+00
         0.00000E+00
         0.00000E+00
         0.00000E+00
         0.00000E+00
         0.00000E+00
         0.00000E+00
         0.00000E+00
         0.00000E+00
         0.00000E+00
         0.00000E+00
         0.00000E+00
         0.00000E+00
         0.00000E+00
         0.00000E+00
         0.00000E+00
         0.00000E+00
         0.00000E+00
         0.00000E+00
         0.00000E+00
         0.00000E+00
         0.00000E+00
         0.00000E+00
         0.00000E+00
         0.00000E+00
         0.00000E+00
         0.00000E+00
         0.00000E+00
         0.00000E+00
         0.00000E+00
         0.00000E+00
         0.00000E+00
         0.00000E+00
         0.00000E+00
         0.00000E+00
         0.00000E+00
         0.00000E+00
         0.00000E+00
         0.00000E+00
         0.00000E+00
         0.00000E+00
         0.00000E+00
         0.00000E+00
         0.00000E+00
         0.00000E+00
         0.00000E+00
         0.00000E+00
         0.00000E+00
         0.00000E+00
         0.00000E+00
         0.00000E+00
         0.00000E+00
         0.00000E+00
         0.00000E+00
         0.00000E+00
         0.00000E+00
         0.00000E+00
         0.00000E+00
         0.00000E+00
         0.00000E+00
         0.00000E+00
         0.00000E+00
         0.00000E+00
         0.00000E+00
         0.00000E+00
         0.00000E+00
         0.00000E+00
         0.00000E+00
         0.00000E+00
         0.00000E+00
         0.00000E+00
         0.00000E+00
         0.00000E+00
         0.00000E+00
         0.00000E+00
         0.00000E+00
         0.00000E+00
         0.00000E+00
         0.00000E+00
         0.00000E+00
         0.00000E+00
         0.00000E+00
         0.00000E+00
         0.00000E+00
         0.00000E+00
         0.00000E+00
         0.00000E+00
         0.00000E+00
         0.00000E+00
         0.00000E+00
         0.00000E+00
         0.00000E+00
         0.00000E+00
         0.00000E+00
         0.00000E+00
         0.00000E+00
         0.00000E+00
         0.00000E+00
         0.00000E+00
         0.00000E+00
         0.00000E+00
         0.00000E+00
         0.00000E+00
         0.00000E+00
         0.00000E+00
         0.00000E+00
         0.00000E+00
         0.00000E+00
         0.00000E+00
         0.00000E+00
         0.00000E+00
         0.00000E+00
         0.00000E+00
         0.00000E+00
         0.00000E+00
         0.00000E+00
         0.00000E+00
         0.00000E+00
         0.00000E+00
         0.00000E+00
         0.00000E+00
         0.00000E+00
         0.00000E+00
         0.00000E+00
         0.00000E+00
         0.00000E+00
         0.00000E+00
         0.00000E+00
         0.00000E+00
         0.00000E+00
         0.00000E+00
         0.00000E+00
         0.00000E+00
         0.00000E+00
         0.00000E+00
         0.00000E+00
         0.00000E+00
         0.00000E+00
         0.00000E+00
         0.00000E+00
         0.00000E+00
         0.00000E+00
         0.00000E+00
         0.00000E+00
         0.00000E+00
         0.00000E+00
         0.00000E+00
         0.00000E+00
         0.00000E+00
         0.00000E+00
         0.00000E+00
         0.00000E+00
         0.00000E+00
         0.00000E+00
         0.00000E+00
         0.00000E+00
         0.00000E+00
         0.00000E+00
         0.00000E+00
         0.00000E+00
         0.00000E+00
         0.00000E+00
         0.00000E+00
         0.00000E+00
         0.00000E+00
         0.00000E+00
         0.00000E+00
         0.00000E+00
         0.00000E+00
         0.00000E+00
         0.00000E+00
         0.00000E+00
         0.00000E+00
         0.00000E+00
         0.00000E+00
         0.00000E+00
         0.00000E+00
         0.00000E+00
         0.00000E+00
         0.00000E+00
         0.00000E+00
         0.00000E+00
         0.00000E+00
         0.00000E+00
         0.00000E+00
         0.00000E+00
         0.00000E+00
         0.00000E+00
         0.00000E+00
         0.00000E+00
         0.00000E+00
         0.00000E+00
         0.00000E+00
         0.00000E+00
         0.00000E+00
         0.00000E+00
         0.00000E+00
         0.00000E+00
         0.00000E+00
         0.00000E+00
         0.00000E+00
         0.00000E+00
         0.00000E+00
         0.00000E+00
         0.00000E+00
         0.00000E+00
         0.00000E+00
         0.00000E+00
         0.00000E+00
         0.00000E+00
         0.00000E+00
         0.00000E+00
         0.00000E+00
         0.00000E+00
         0.00000E+00
         0.00000E+00
         0.00000E+00
         0.00000E+00
         0.00000E+00
         0.00000E+00
         0.00000E+00
         0.00000E+00
         0.00000E+00
         0.00000E+00
         0.00000E+00
         0.00000E+00
         0.00000E+00
         0.00000E+00
         0.00000E+00
         0.00000E+00
         0.00000E+00
         0.00000E+00
         0.00000E+00
         0.00000E+00
         0.00000E+00
         0.00000E+00
         0.00000E+00
         0.00000E+00
         0.00000E+00
         0.00000E+00
         0.00000E+00
         0.00000E+00
         0.00000E+00
         0.00000E+00
         0.00000E+00
         0.00000E+00
         0.00000E+00
         0.00000E+00
         0.00000E+00
         0.00000E+00
         0.00000E+00
         0.00000E+00
         0.00000E+00
         0.00000E+00
         0.00000E+00
         0.00000E+00
         0.00000E+00
         0.00000E+00
         0.00000E+00
         0.00000E+00
         0.00000E+00
         0.00000E+00
         0.00000E+00
         0.00000E+00
         0.00000E+00
         0.00000E+00
         0.00000E+00
         0.00000E+00
         0.00000E+00
         0.00000E+00
         0.00000E+00
         0.00000E+00
         0.00000E+00
         0.00000E+00
         0.00000E+00
         0.00000E+00
         0.00000E+00
         0.00000E+00
         0.00000E+00
         0.00000E+00
         0.00000E+00
         0.00000E+00
         0.00000E+00
         0.00000E+00
         0.00000E+00
         0.00000E+00
         0.00000E+00
         0.00000E+00
         0.00000E+00
         0.00000E+00
         0.00000E+00
         0.00000E+00
         0.00000E+00
         0.00000E+00
         0.00000E+00
         0.00000E+00
         0.00000E+00
         0.00000E+00
         0.00000E+00
         0.00000E+00
         0.00000E+00
         0.00000E+00
         0.00000E+00
         0.00000E+00
         0.00000E+00
         0.00000E+00
         0.00000E+00
         0.00000E+00
         0.00000E+00
         0.00000E+00
         0.00000E+00
         0.00000E+00
         0.00000E+00
         0.00000E+00
         0.00000E+00
         0.00000E+00
         0.00000E+00
         0.00000E+00
         0.00000E+00
         0.00000E+00
         0.00000E+00
         0.00000E+00
         0.00000E+00
         0.00000E+00
         0.00000E+00
         0.00000E+00
         0.00000E+00
         0.00000E+00
         0.00000E+00
         0.00000E+00
         0.00000E+00
         0.00000E+00
         0.00000E+00
         0.00000E+00
         0.00000E+00
         0.00000E+00
         0.00000E+00
         0.00000E+00
         0.00000E+00
         0.00000E+00
         0.00000E+00
         0.00000E+00
         0.00000E+00
         0.00000E+00
         0.00000E+00
         0.00000E+00
         0.00000E+00
         0.00000E+00
         0.00000E+00
         0.00000E+00
         0.00000E+00
         0.00000E+00
         0.00000E+00
         0.00000E+00
         0.00000E+00
         0.00000E+00
         0.00000E+00
         0.00000E+00
         0.00000E+00
         0.00000E+00
         0.00000E+00
         0.00000E+00
         0.00000E+00
         0.00000E+00
         0.00000E+00
         0.00000E+00
         0.00000E+00
         0.00000E+00
         0.00000E+00
         0.00000E+00
         0.00000E+00
         0.00000E+00
         0.00000E+00
         0.00000E+00
         0.00000E+00
         0.00000E+00
         0.00000E+00
         0.00000E+00
         0.00000E+00
         0.00000E+00
         0.00000E+00
         0.00000E+00
         0.00000E+00
         0.00000E+00
         0.00000E+00
         0.00000E+00
         0.00000E+00
         0.00000E+00
         0.00000E+00
         0.00000E+00
         0.00000E+00
         0.00000E+00
         0.00000E+00
         0.00000E+00
         0.00000E+00
         0.00000E+00
         0.00000E+00
         0.00000E+00
         0.00000E+00
         0.00000E+00
         0.00000E+00
         0.00000E+00
         0.00000E+00
         0.00000E+00
         0.00000E+00
         0.00000E+00
         0.00000E+00
         0.00000E+00
         0.00000E+00
         0.00000E+00
         0.00000E+00
         0.00000E+00
         0.00000E+00
         0.00000E+00
         0.00000E+00
         0.00000E+00
         0.00000E+00
         0.00000E+00
         0.00000E+00
         0.00000E+00
         0.00000E+00
         0.00000E+00
         0.00000E+00
         0.00000E+00
         0.00000E+00
         0.00000E+00
         0.00000E+00
         0.00000E+00
         0.00000E+00
         0.00000E+00
         0.00000E+00
         0.00000E+00
         0.00000E+00
         0.00000E+00
         0.00000E+00
         0.00000E+00
         0.00000E+00
         0.00000E+00
         0.00000E+00
         0.00000E+00
         0.00000E+00
         0.00000E+00
         0.00000E+00
         0.00000E+00
         0.00000E+00
         0.00000E+00
         0.00000E+00
         0.00000E+00
         0.00000E+00
         0.00000E+00
         0.00000E+00
         0.00000E+00
         0.00000E+00
         0.00000E+00
         0.00000E+00
         0.00000E+00
         0.00000E+00
         0.00000E+00
         0.00000E+00
         0.00000E+00
         0.00000E+00
         0.00000E+00
         0.00000E+00
         0.00000E+00
         0.00000E+00
         0.00000E+00
         0.00000E+00
         0.00000E+00
         0.00000E+00
         0.00000E+00
         0.00000E+00
         0.00000E+00
         0.00000E+00
         0.00000E+00
         0.00000E+00
         0.00000E+00
         0.00000E+00
         0.00000E+00
         0.00000E+00
         0.00000E+00
         0.00000E+00
         0.00000E+00
         0.00000E+00
         0.00000E+00
         0.00000E+00
         0.00000E+00
         0.00000E+00
         0.00000E+00
         0.00000E+00
         0.00000E+00
         0.00000E+00
         0.00000E+00
         0.00000E+00
         0.00000E+00
         0.00000E+00
         0.00000E+00
         0.00000E+00
         0.00000E+00
         0.00000E+00
         0.00000E+00
         0.00000E+00
         0.00000E+00
         0.00000E+00
         0.00000E+00
         0.00000E+00
         0.00000E+00
         0.00000E+00
         0.00000E+00
         0.00000E+00
         0.00000E+00
         0.00000E+00
         0.00000E+00
         0.00000E+00
         0.00000E+00
         0.00000E+00
         0.00000E+00
         0.00000E+00
         0.00000E+00
         0.00000E+00
         0.00000E+00
         0.00000E+00
         0.00000E+00
         0.00000E+00
         0.00000E+00
         0.00000E+00
         0.00000E+00
         0.00000E+00
         0.00000E+00
         0.00000E+00
         0.00000E+00
         0.00000E+00
         0.00000E+00
         0.00000E+00
         0.00000E+00
         0.00000E+00
         0.00000E+00
         0.00000E+00
         0.00000E+00
         0.00000E+00
         0.00000E+00
         0.00000E+00
         0.00000E+00
         0.00000E+00
         0.00000E+00
         0.00000E+00
         0.00000E+00
         0.00000E+00
         0.00000E+00
         0.00000E+00
         0.00000E+00
         0.00000E+00
         0.00000E+00
         0.00000E+00
         0.00000E+00
         0.00000E+00
         0.00000E+00
         0.00000E+00
         0.00000E+00
         0.00000E+00
         0.00000E+00
         0.00000E+00
         0.00000E+00
         0.00000E+00
         0.00000E+00
         0.00000E+00
         0.00000E+00
         0.00000E+00
         0.00000E+00
         0.00000E+00
         0.00000E+00
         0.00000E+00
         0.00000E+00
         0.00000E+00
         0.00000E+00
         0.00000E+00
         0.00000E+00
         0.00000E+00
         0.00000E+00
         0.00000E+00
         0.00000E+00
         0.00000E+00
         0.00000E+00
         0.00000E+00
         0.00000E+00
         0.00000E+00
         0.00000E+00
         0.00000E+00
         0.00000E+00
         0.00000E+00
         0.00000E+00
         0.00000E+00
         0.00000E+00
         0.00000E+00
         0.00000E+00
         0.00000E+00
         0.00000E+00
         0.00000E+00
         0.00000E+00
         0.00000E+00
         0.00000E+00
         0.00000E+00
         0.00000E+00
         0.00000E+00
         0.00000E+00
         0.00000E+00
         0.00000E+00
         0.00000E+00
         0.00000E+00
         0.00000E+00
         0.00000E+00
         0.00000E+00
         0.00000E+00
         0.00000E+00
         0.00000E+00
         0.00000E+00
         0.00000E+00
         0.00000E+00
         0.00000E+00
         0.00000E+00
         0.00000E+00
         0.00000E+00
         0.00000E+00
         0.00000E+00
         0.00000E+00
         0.00000E+00
         0.00000E+00
         0.00000E+00
         0.00000E+00
         0.00000E+00
         0.00000E+00
         0.00000E+00
         0.00000E+00
         0.00000E+00
         0.00000E+00
         0.00000E+00
         0.00000E+00
         0.00000E+00
         0.00000E+00
         0.00000E+00
         0.00000E+00
         0.00000E+00
         0.00000E+00
         0.00000E+00
         0.00000E+00
         0.00000E+00
         0.00000E+00
         0.00000E+00
         0.00000E+00
         0.00000E+00
         0.00000E+00
         0.00000E+00
         0.00000E+00
         0.00000E+00
         0.00000E+00
         0.00000E+00
         0.00000E+00
         0.00000E+00
         0.00000E+00
         0.00000E+00
         0.00000E+00
         0.00000E+00
         0.00000E+00
         0.00000E+00
         0.00000E+00
         0.00000E+00
         0.00000E+00
         0.00000E+00
         0.00000E+00
         0.00000E+00
         0.00000E+00
         0.00000E+00
         0.00000E+00
         0.00000E+00
         0.00000E+00
         0.00000E+00
         0.00000E+00
         0.00000E+00
         0.00000E+00
         0.00000E+00
         0.00000E+00
         0.00000E+00
         0.00000E+00
         0.00000E+00
         0.00000E+00
         0.00000E+00
         0.00000E+00
         0.00000E+00
         0.00000E+00
         0.00000E+00
         0.00000E+00
         0.00000E+00
         0.00000E+00
         0.00000E+00
         0.00000E+00
         0.00000E+00
         0.00000E+00
         0.00000E+00
         0.00000E+00
         0.00000E+00
         0.00000E+00
         0.00000E+00
         0.00000E+00
         0.00000E+00
         0.00000E+00
         0.00000E+00
         0.00000E+00
         0.00000E+00
         0.00000E+00
         0.00000E+00
         0.00000E+00
         0.00000E+00
         0.00000E+00
         0.00000E+00
         0.00000E+00
         0.00000E+00
         0.00000E+00
         0.00000E+00
         0.00000E+00
         0.00000E+00
         0.00000E+00
         0.00000E+00
         0.00000E+00
         0.00000E+00
         0.00000E+00
         0.00000E+00
         0.00000E+00
         0.00000E+00
         0.00000E+00
         0.00000E+00
         0.00000E+00
         0.00000E+00
         0.00000E+00
         0.00000E+00
         0.00000E+00
         0.00000E+00
         0.00000E+00
         0.00000E+00
         0.00000E+00
         0.00000E+00
         0.00000E+00
         0.00000E+00
         0.00000E+00
         0.00000E+00
         0.00000E+00
         0.00000E+00
         0.00000E+00
         0.00000E+00
         0.00000E+00
         0.00000E+00
         0.00000E+00
         0.00000E+00
         0.00000E+00
         0.00000E+00
         0.00000E+00
         0.00000E+00
         0.00000E+00
         0.00000E+00
         0.00000E+00
         0.00000E+00
         0.00000E+00
         0.00000E+00
         0.00000E+00
         0.00000E+00
         0.00000E+00
         0.00000E+00
         0.00000E+00
         0.00000E+00
         0.00000E+00
         0.00000E+00
         0.00000E+00
         0.00000E+00
         0.00000E+00
         0.00000E+00
         0.00000E+00
         0.00000E+00
         0.00000E+00
         0.00000E+00
         0.00000E+00
         0.00000E+00
         0.00000E+00
         0.00000E+00
         0.00000E+00
         0.00000E+00
         0.00000E+00
         0.00000E+00
         0.00000E+00
         0.00000E+00
         0.00000E+00
         0.00000E+00
         0.00000E+00
         0.00000E+00
         0.00000E+00
         0.00000E+00
         0.00000E+00
         0.00000E+00
         0.00000E+00
         0.00000E+00
         0.00000E+00
         0.00000E+00
         0.00000E+00
         0.00000E+00
         0.00000E+00
         0.00000E+00
         0.00000E+00
         0.00000E+00
         0.00000E+00
         0.00000E+00
         0.00000E+00
         0.00000E+00
         0.00000E+00
         0.00000E+00
         0.00000E+00
         0.00000E+00
         0.00000E+00
         0.00000E+00
         0.00000E+00
         0.00000E+00
         0.00000E+00
         0.00000E+00
         0.00000E+00
         0.00000E+00
         0.00000E+00
         0.00000E+00
         0.00000E+00
         0.00000E+00
         0.00000E+00
         0.00000E+00
         0.00000E+00
         0.00000E+00
         0.00000E+00
         0.00000E+00
         0.00000E+00
         0.00000E+00
         0.00000E+00
         0.00000E+00
         0.00000E+00
         0.00000E+00
         0.00000E+00
         0.00000E+00
         0.00000E+00
         0.00000E+00
         0.00000E+00
         0.00000E+00
         0.00000E+00
         0.00000E+00
         0.00000E+00
         0.00000E+00
         0.00000E+00
         0.00000E+00
         0.00000E+00
         0.00000E+00
         0.00000E+00
         0.00000E+00
         0.00000E+00
         0.00000E+00
         0.00000E+00
         0.00000E+00
         0.00000E+00
         0.00000E+00
         0.00000E+00
         0.00000E+00
         0.00000E+00
         0.00000E+00
         0.00000E+00
         0.00000E+00
         0.00000E+00
         0.00000E+00
         0.00000E+00
         0.00000E+00
         0.00000E+00
         0.00000E+00
         0.00000E+00
         0.00000E+00
         0.00000E+00
         0.00000E+00
         0.00000E+00
         0.00000E+00
         0.00000E+00
         0.00000E+00
         0.00000E+00
         0.00000E+00
         0.00000E+00
         0.00000E+00
         0.00000E+00
         0.00000E+00
         0.00000E+00
         0.00000E+00
         0.00000E+00
         0.00000E+00
         0.00000E+00
         0.00000E+00
         0.00000E+00
         0.00000E+00
         0.00000E+00
         0.00000E+00
         0.00000E+00
         0.00000E+00
         0.00000E+00
         0.00000E+00
         0.00000E+00
         0.00000E+00
         0.00000E+00
         0.00000E+00
         0.00000E+00
         0.00000E+00
         0.00000E+00
         0.00000E+00
         0.00000E+00
         0.00000E+00
         0.00000E+00
         0.00000E+00
         0.00000E+00
         0.00000E+00
         0.00000E+00
         0.00000E+00
         0.00000E+00
         0.00000E+00
         0.00000E+00
         0.00000E+00
         0.00000E+00
         0.00000E+00
         0.00000E+00
         0.00000E+00
         0.00000E+00
         0.00000E+00
         0.00000E+00
         0.00000E+00
         0.00000E+00
         0.00000E+00
         0.00000E+00
         0.00000E+00
         0.00000E+00
         0.00000E+00
         0.00000E+00
         0.00000E+00
         0.00000E+00
         0.00000E+00
         0.00000E+00
         0.00000E+00
         0.00000E+00
         0.00000E+00
         0.00000E+00
         0.00000E+00
         0.00000E+00
         0.00000E+00
         0.00000E+00
         0.00000E+00
         0.00000E+00
         0.00000E+00
         0.00000E+00
         0.00000E+00
         0.00000E+00
         0.00000E+00
         0.00000E+00
         0.00000E+00
         0.00000E+00
         0.00000E+00
         0.00000E+00
         0.00000E+00
         0.00000E+00
         0.00000E+00
         0.00000E+00
         0.00000E+00
         0.00000E+00
         0.00000E+00
         0.00000E+00
         0.00000E+00
         0.00000E+00
         0.00000E+00
         0.00000E+00
         0.00000E+00
         0.00000E+00
         0.00000E+00
         0.00000E+00
         0.00000E+00
         0.00000E+00
         0.00000E+00
         0.00000E+00
         0.00000E+00
         0.00000E+00
         0.00000E+00
         0.00000E+00
         0.00000E+00
         0.00000E+00
         0.00000E+00
         0.00000E+00
         0.00000E+00
         0.00000E+00
         0.00000E+00
         0.00000E+00
         0.00000E+00
         0.00000E+00
         0.00000E+00
         0.00000E+00
         0.00000E+00
         0.00000E+00
         0.00000E+00
         0.00000E+00
         0.00000E+00
         0.00000E+00
         0.00000E+00
         0.00000E+00
         0.00000E+00
         0.00000E+00
         0.00000E+00
         0.00000E+00
         0.00000E+00
         0.00000E+00
         0.00000E+00
         0.00000E+00
         0.00000E+00
         0.00000E+00
         0.00000E+00
         0.00000E+00
         0.00000E+00
         0.00000E+00
         0.00000E+00
         0.00000E+00
         0.00000E+00
         0.00000E+00
         0.00000E+00
         0.00000E+00
         0.00000E+00
         0.00000E+00
         0.00000E+00
         0.00000E+00
         0.00000E+00
         0.00000E+00
         0.00000E+00
         0.00000E+00
         0.00000E+00
         0.00000E+00
         0.00000E+00
         0.00000E+00
         0.00000E+00
         0.00000E+00
         0.00000E+00
         0.00000E+00
         0.00000E+00
         0.00000E+00
         0.00000E+00
         0.00000E+00
         0.00000E+00
         0.00000E+00
         0.00000E+00
         0.00000E+00
         0.00000E+00
         0.00000E+00
         0.00000E+00
         0.00000E+00
         0.00000E+00
         0.00000E+00
         0.00000E+00
         0.00000E+00
         0.00000E+00
         0.00000E+00
         0.00000E+00
         0.00000E+00
         0.00000E+00
         0.00000E+00
         0.00000E+00
         0.00000E+00
         0.00000E+00
         0.00000E+00
         0.00000E+00
         0.00000E+00
         0.00000E+00
         0.00000E+00
         0.00000E+00
         0.00000E+00
         0.00000E+00
         0.00000E+00
         0.00000E+00
         0.00000E+00
         0.00000E+00
         0.00000E+00
         0.00000E+00
         0.00000E+00
         0.00000E+00
         0.00000E+00
         0.00000E+00
         0.00000E+00
         0.00000E+00
         0.00000E+00
         0.00000E+00
         0.00000E+00
         0.00000E+00
         0.00000E+00
         0.00000E+00
         0.00000E+00
         0.00000E+00
         0.00000E+00
         0.00000E+00
         0.00000E+00
         0.00000E+00
         0.00000E+00
         0.00000E+00
         0.00000E+00
         0.00000E+00
         0.00000E+00
         0.00000E+00
         0.00000E+00
         0.00000E+00
         0.00000E+00
         0.00000E+00
         0.00000E+00
         0.00000E+00
         0.00000E+00
         0.00000E+00
         0.00000E+00
         0.00000E+00
         0.00000E+00
         0.00000E+00
         0.00000E+00
         0.00000E+00
         0.00000E+00
         0.00000E+00
         0.00000E+00
         0.00000E+00
         0.00000E+00
         0.00000E+00
         0.00000E+00
         0.00000E+00
         0.00000E+00
         0.00000E+00
         0.00000E+00
         0.00000E+00
         0.00000E+00
         0.00000E+00
         0.00000E+00
         0.00000E+00
         0.00000E+00
         0.00000E+00
         0.00000E+00
         0.00000E+00
         0.00000E+00
         0.00000E+00
         0.00000E+00
         0.00000E+00
         0.00000E+00
         0.00000E+00
         0.00000E+00
         0.00000E+00
         0.00000E+00
         0.00000E+00
         0.00000E+00
         0.00000E+00
         0.00000E+00
         0.00000E+00
         0.00000E+00
         0.00000E+00
         0.00000E+00
         0.00000E+00
         0.00000E+00
         0.00000E+00
         0.00000E+00
         0.00000E+00
         0.00000E+00
         0.00000E+00
         0.00000E+00
         0.00000E+00
         0.00000E+00
         0.00000E+00
         0.00000E+00
         0.00000E+00
         0.00000E+00
         0.00000E+00
         0.00000E+00
         0.00000E+00
         0.00000E+00
         0.00000E+00
         0.00000E+00
         0.00000E+00
         0.00000E+00
         0.00000E+00
         0.00000E+00
         0.00000E+00
         0.00000E+00
         0.00000E+00
         0.00000E+00
         0.00000E+00
         0.00000E+00
         0.00000E+00
         0.00000E+00
         0.00000E+00
         0.00000E+00
         0.00000E+00
         0.00000E+00
         0.00000E+00
         0.00000E+00
         0.00000E+00
         0.00000E+00
         0.00000E+00
         0.00000E+00
         0.00000E+00
         0.00000E+00
         0.00000E+00
         0.00000E+00
         0.00000E+00
         0.00000E+00
         0.00000E+00
         0.00000E+00
         0.00000E+00
         0.00000E+00
         0.00000E+00
         0.00000E+00
         0.00000E+00
         0.00000E+00
         0.00000E+00
         0.00000E+00
         0.00000E+00
         0.00000E+00
         0.00000E+00
         0.00000E+00
         0.00000E+00
         0.00000E+00
         0.00000E+00
         0.00000E+00
         0.00000E+00
         0.00000E+00
         0.00000E+00
         0.00000E+00
         0.00000E+00
         0.00000E+00
         0.00000E+00
         0.00000E+00
         0.00000E+00
         0.00000E+00
         0.00000E+00
         0.00000E+00
         0.00000E+00
         0.00000E+00
         0.00000E+00
         0.00000E+00
         0.00000E+00
         0.00000E+00
         0.00000E+00
         0.00000E+00
         0.00000E+00
         0.00000E+00
         0.00000E+00
         0.00000E+00
         0.00000E+00
         0.00000E+00
         0.00000E+00
         0.00000E+00
         0.00000E+00
         0.00000E+00
         0.00000E+00
         0.00000E+00
         0.00000E+00
         0.00000E+00
         0.00000E+00
         0.00000E+00
         0.00000E+00
         0.00000E+00
         0.00000E+00
         0.00000E+00
         0.00000E+00
         0.00000E+00
         0.00000E+00
         0.00000E+00
         0.00000E+00
         0.00000E+00
         0.00000E+00
         0.00000E+00
         0.00000E+00
         0.00000E+00
         0.00000E+00
         0.00000E+00
         0.00000E+00
         0.00000E+00
         0.00000E+00
         0.00000E+00
         0.00000E+00
         0.00000E+00
         0.00000E+00
         0.00000E+00
         0.00000E+00
         0.00000E+00
         0.00000E+00
         0.00000E+00
         0.00000E+00
         0.00000E+00
         0.00000E+00
         0.00000E+00
         0.00000E+00
         0.00000E+00
         0.00000E+00
         0.00000E+00
         0.00000E+00
         0.00000E+00
         0.00000E+00
         0.00000E+00
         0.00000E+00
         0.00000E+00
         0.00000E+00
         0.00000E+00
         0.00000E+00
         0.00000E+00
         0.00000E+00
         0.00000E+00
         0.00000E+00
         0.00000E+00
         0.00000E+00
         0.00000E+00
         0.00000E+00
         0.00000E+00
         0.00000E+00
         0.00000E+00
         0.00000E+00
         0.00000E+00
         0.00000E+00
         0.00000E+00
         0.00000E+00
         0.00000E+00
         0.00000E+00
         0.00000E+00
         0.00000E+00
         0.00000E+00
         0.00000E+00
         0.00000E+00
         0.00000E+00
         0.00000E+00
         0.00000E+00
         0.00000E+00
         0.00000E+00
         0.00000E+00
         0.00000E+00
         0.00000E+00
         0.00000E+00
         0.00000E+00
         0.00000E+00
         0.00000E+00
         0.00000E+00
         0.00000E+00
         0.00000E+00
         0.00000E+00
         0.00000E+00
         0.00000E+00
         0.00000E+00
         0.00000E+00
         0.00000E+00
         0.00000E+00
         0.00000E+00
         0.00000E+00
         0.00000E+00
         0.00000E+00
         0.00000E+00
         0.00000E+00
         0.00000E+00
         0.00000E+00
         0.00000E+00
         0.00000E+00
         0.00000E+00
         0.00000E+00
         0.00000E+00
         0.00000E+00
         0.00000E+00
         0.00000E+00
         0.00000E+00
         0.00000E+00
         0.00000E+00
         0.00000E+00
         0.00000E+00
         0.00000E+00
         0.00000E+00
         0.00000E+00
         0.00000E+00
         0.00000E+00
         0.00000E+00
         0.00000E+00
         0.00000E+00
         0.00000E+00
         0.00000E+00
         0.00000E+00
         0.00000E+00
         0.00000E+00
         0.00000E+00
         0.00000E+00
         0.00000E+00
         0.00000E+00
         0.00000E+00
         0.00000E+00
         0.00000E+00
         0.00000E+00
         0.00000E+00
         0.00000E+00
         0.00000E+00
         0.00000E+00
         0.00000E+00
         0.00000E+00
         0.00000E+00
         0.00000E+00
         0.00000E+00
         0.00000E+00
         0.00000E+00
         0.00000E+00
         0.00000E+00
         0.00000E+00
         0.00000E+00
         0.00000E+00
         0.00000E+00
         0.00000E+00
         0.00000E+00
         0.00000E+00
         0.00000E+00
         0.00000E+00
         0.00000E+00
         0.00000E+00
         0.00000E+00
         0.00000E+00
         0.00000E+00
         0.00000E+00
         0.00000E+00
         0.00000E+00
         0.00000E+00
         0.00000E+00
         0.00000E+00
         0.00000E+00
         0.00000E+00
         0.00000E+00
         0.00000E+00
         0.00000E+00
         0.00000E+00
         0.00000E+00
         0.00000E+00
         0.00000E+00
         0.00000E+00
         0.00000E+00
         0.00000E+00
         0.00000E+00
         0.00000E+00
         0.00000E+00
         0.00000E+00
         0.00000E+00
         0.00000E+00
         0.00000E+00
         0.00000E+00
         0.00000E+00
         0.00000E+00
         0.00000E+00
         0.00000E+00
         0.00000E+00
         0.00000E+00
         0.00000E+00
         0.00000E+00
         0.00000E+00
         0.00000E+00
         0.00000E+00
         0.00000E+00
         0.00000E+00
         0.00000E+00
         0.00000E+00
         0.00000E+00
         0.00000E+00
         0.00000E+00
         0.00000E+00
         0.00000E+00
         0.00000E+00
         0.00000E+00
         0.00000E+00
         0.00000E+00
         0.00000E+00
         0.00000E+00
         0.00000E+00
         0.00000E+00
         0.00000E+00
         0.00000E+00
         0.00000E+00
         0.00000E+00
         0.00000E+00
         0.00000E+00
         0.00000E+00
         0.00000E+00
         0.00000E+00
         0.00000E+00
         0.00000E+00
         0.00000E+00
         0.00000E+00
         0.00000E+00
         0.00000E+00
         0.00000E+00
         0.00000E+00
         0.00000E+00
         0.00000E+00
         0.00000E+00
         0.00000E+00
         0.00000E+00
         0.00000E+00
         0.00000E+00
         0.00000E+00
         0.00000E+00
         0.00000E+00
         0.00000E+00
         0.00000E+00
         0.00000E+00
         0.00000E+00
         0.00000E+00
         0.00000E+00
         0.00000E+00
         0.00000E+00
         0.00000E+00
         0.00000E+00
         0.00000E+00
         0.00000E+00
         0.00000E+00
         0.00000E+00
         0.00000E+00
         0.00000E+00
         0.00000E+00
         0.00000E+00
         0.00000E+00
         0.00000E+00
         0.00000E+00
         0.00000E+00
         0.00000E+00
         0.00000E+00
         0.00000E+00
         0.00000E+00
         0.00000E+00
         0.00000E+00
         0.00000E+00
         0.00000E+00
         0.00000E+00
         0.00000E+00
         0.00000E+00
         0.00000E+00
         0.00000E+00
         0.00000E+00
         0.00000E+00
         0.00000E+00
         0.00000E+00
         0.00000E+00
         0.00000E+00
         0.00000E+00
         0.00000E+00
         0.00000E+00
         0.00000E+00
         0.00000E+00
         0.00000E+00
         0.00000E+00
         0.00000E+00
         0.00000E+00
         0.00000E+00
         0.00000E+00
         0.00000E+00
         0.00000E+00
         0.00000E+00
         0.00000E+00
         0.00000E+00
         0.00000E+00
         0.00000E+00
         0.00000E+00
         0.00000E+00
         0.00000E+00
         0.00000E+00
         0.00000E+00
         0.00000E+00
         0.00000E+00
         0.00000E+00
         0.00000E+00
         0.00000E+00
         0.00000E+00
         0.00000E+00
         0.00000E+00
         0.00000E+00
         0.00000E+00
         0.00000E+00
         0.00000E+00
         0.00000E+00
         0.00000E+00
         0.00000E+00
         0.00000E+00
         0.00000E+00
         0.00000E+00
         0.00000E+00
         0.00000E+00
         0.00000E+00
         0.00000E+00
         0.00000E+00
         0.00000E+00
         0.00000E+00
         0.00000E+00
         0.00000E+00
         0.00000E+00
         0.00000E+00
         0.00000E+00
         0.00000E+00
         0.00000E+00
         0.00000E+00
         0.00000E+00
         0.00000E+00
         0.00000E+00
         0.00000E+00
         0.00000E+00
         0.00000E+00
         0.00000E+00
         0.00000E+00
         0.00000E+00
         0.00000E+00
         0.00000E+00
         0.00000E+00
         0.00000E+00
         0.00000E+00
         0.00000E+00
         0.00000E+00
         0.00000E+00
         0.00000E+00
         0.00000E+00
         0.00000E+00
         0.00000E+00
         0.00000E+00
         0.00000E+00
         0.00000E+00
         0.00000E+00
         0.00000E+00
         0.00000E+00
         0.00000E+00
         0.00000E+00
         0.00000E+00
         0.00000E+00
         0.00000E+00
         0.00000E+00
         0.00000E+00
         0.00000E+00
         0.00000E+00
         0.00000E+00
         0.00000E+00
         0.00000E+00
         0.00000E+00
         0.00000E+00
         0.00000E+00
         0.00000E+00
         0.00000E+00
         0.00000E+00
         0.00000E+00
         0.00000E+00
         0.00000E+00
         0.00000E+00
         0.00000E+00
         0.00000E+00
         0.00000E+00
         0.00000E+00
         0.00000E+00
         0.00000E+00
         0.00000E+00
         0.00000E+00
         0.00000E+00
         0.00000E+00
         0.00000E+00
         0.00000E+00
         0.00000E+00
         0.00000E+00
         0.00000E+00
  
SCALARS                      stress_xx  double 1
LOOKUP_TABLE default
         0.85207E+12
         0.84080E+12
         0.84795E+12
         0.86076E+12
        -0.15900E+03
        -0.17829E+03
        -0.17072E+03
        -0.15510E+03
         0.84041E+12
         0.84422E+12
        -0.16033E+03
        -0.15516E+03
         0.82446E+12
         0.82386E+12
        -0.19051E+03
        -0.17913E+03
         0.85888E+12
         0.82474E+12
        -0.14077E+03
        -0.15613E+03
         0.81218E+12
         0.80242E+12
         0.81795E+12
        -0.18881E+03
        -0.16489E+03
        -0.17027E+03
         0.80280E+12
         0.78854E+12
        -0.18114E+03
        -0.15276E+03
         0.85826E+12
         0.84342E+12
         0.87264E+12
        -0.15458E+03
        -0.14370E+03
        -0.13972E+03
         0.84968E+12
         0.83075E+12
        -0.16354E+03
        -0.14923E+03
         0.84219E+12
         0.82758E+12
        -0.14134E+03
        -0.12513E+03
         0.85454E+12
         0.86002E+12
        -0.15489E+03
        -0.17307E+03
         0.81586E+12
        -0.15132E+03
         0.85895E+12
        -0.17780E+03
         0.79869E+12
        -0.15979E+03
         0.79421E+12
        -0.15328E+03
         0.79428E+12
         0.81021E+12
        -0.15617E+03
        -0.15209E+03
         0.85796E+12
         0.85226E+12
        -0.15660E+03
        -0.17703E+03
         0.86152E+12
        -0.15111E+03
         0.85475E+12
        -0.16491E+03
         0.83689E+12
         0.83511E+12
        -0.15875E+03
        -0.16634E+03
         0.83107E+12
        -0.16773E+03
         0.78346E+12
        -0.13252E+03
         0.78096E+12
        -0.12863E+03
         0.78221E+12
        -0.13563E+03
         0.78911E+12
         0.79628E+12
        -0.12922E+03
        -0.13472E+03
         0.81072E+12
        -0.12548E+03
         0.85425E+12
        -0.16455E+03
         0.84747E+12
        -0.16841E+03
         0.84190E+12
         0.83884E+12
        -0.16173E+03
        -0.16362E+03
         0.84261E+12
        -0.14861E+03
         0.84529E+12
        -0.14649E+03
         0.84287E+12
        -0.15682E+03
         0.84201E+12
         0.84446E+12
        -0.15378E+03
        -0.15830E+03
         0.82857E+12
         0.83501E+12
        -0.11940E+03
        -0.11230E+03
         0.82734E+12
        -0.11401E+03
         0.83479E+12
        -0.10932E+03
         0.82744E+12
        -0.10779E+03
         0.81117E+12
        -0.10187E+03
         0.79537E+12
        -0.90496E+02
         0.78590E+12
        -0.81487E+02
         0.78494E+12
        -0.80921E+02
         0.78524E+12
        -0.87755E+02
         0.79551E+12
        -0.92227E+02
         0.81468E+12
        -0.84213E+02
         0.83570E+12
        -0.75910E+02
         0.84800E+12
        -0.75823E+02
         0.86014E+12
        -0.84751E+02
         0.86816E+12
        -0.96636E+02
         0.86787E+12
        -0.10382E+03
         0.84838E+12
        -0.11212E+03
         0.83479E+12
        -0.12012E+03
         0.83012E+12
        -0.11004E+03
         0.83741E+12
        -0.96534E+02
         0.84121E+12
        -0.96236E+02
         0.83484E+12
        -0.10529E+03
         0.83493E+12
        -0.11225E+03
         0.83974E+12
        -0.10652E+03
         0.84601E+12
        -0.10298E+03
        -0.31759E+11
        -0.31534E+11
        -0.31570E+11
        -0.31828E+11
        -0.31258E+11
        -0.31600E+11
        -0.31169E+11
        -0.31403E+11
        -0.31795E+11
        -0.31579E+11
        -0.30898E+11
        -0.30811E+11
        -0.31039E+11
        -0.31054E+11
        -0.30909E+11
        -0.31818E+11
        -0.31779E+11
        -0.31885E+11
        -0.31504E+11
        -0.31598E+11
        -0.31463E+11
        -0.31553E+11
        -0.31384E+11
        -0.31429E+11
        -0.31590E+11
        -0.31579E+11
        -0.31296E+11
        -0.31323E+11
        -0.31095E+11
        -0.31433E+11
        -0.31799E+11
        -0.31530E+11
        -0.31798E+11
        -0.31643E+11
        -0.30750E+11
        -0.31064E+11
        -0.31205E+11
        -0.31039E+11
        -0.31017E+11
        -0.30727E+11
        -0.30502E+11
        -0.31030E+11
        -0.31469E+11
        -0.31413E+11
        -0.31191E+11
        -0.30762E+11
        -0.31131E+11
        -0.31486E+11
        -0.31463E+11
        -0.31190E+11
        -0.30884E+11
        -0.31290E+11
        -0.29911E+11
        -0.30361E+11
        -0.30289E+11
        -0.30390E+11
        -0.30364E+11
        -0.30126E+11
        -0.29871E+11
        -0.29785E+11
        -0.29822E+11
        -0.29796E+11
        -0.29682E+11
        -0.30342E+11
        -0.30570E+11
        -0.30655E+11
        -0.30796E+11
        -0.30900E+11
        -0.30895E+11
        -0.30717E+11
        -0.30065E+11
        -0.30228E+11
        -0.30455E+11
        -0.30452E+11
        -0.30414E+11
        -0.30195E+11
        -0.30514E+11
        -0.30627E+11
         0.11872E+07
         0.52964E+06
         0.67014E+06
         0.67120E+06
         0.41349E+06
         0.80442E+06
        -0.44527E+06
        -0.92627E+06
         0.14971E+07
        -0.10200E+07
        -0.11619E+07
        -0.43570E+05
        -0.56184E+05
        -0.34934E+07
        -0.10906E+07
        -0.22823E+06
         0.24455E+06
         0.69857E+06
        -0.17826E+05
        -0.15768E+06
        -0.11878E+07
        -0.53812E+06
        -0.17118E+07
        -0.67633E+06
        -0.11408E+07
        -0.17304E+06
        -0.44697E+07
        -0.23981E+07
        -0.14641E+07
        -0.11134E+07
        -0.12053E+06
        -0.46958E+06
         0.64721E+06
         0.11669E+07
        -0.97947E+06
        -0.67386E+06
        -0.29890E+06
        -0.13761E+07
        -0.90691E+06
        -0.56369E+06
        -0.75710E+06
        -0.13426E+07
        -0.11326E+07
        -0.13987E+07
        -0.10549E+07
        -0.46843E+06
        -0.19981E+06
        -0.22139E+06
         0.63730E+06
         0.10534E+07
         0.43157E+06
         0.57694E+06
        -0.28793E+07
        -0.52436E+06
        -0.16646E+07
         0.44435E+06
         0.22355E+07
         0.35123E+07
         0.29021E+07
         0.31586E+07
         0.25118E+07
         0.13467E+07
         0.37277E+06
        -0.39617E+06
        -0.11152E+07
        -0.17328E+06
        -0.17960E+07
        -0.28504E+07
        -0.23844E+07
        -0.20979E+07
        -0.11305E+07
         0.61972E+06
         0.61721E+06
         0.59135E+05
        -0.93009E+06
        -0.14741E+07
        -0.92797E+06
        -0.12360E+05
         0.11144E+07
         0.45944E+06
         0.60152E+06
         0.61581E+06
         0.32726E+06
         0.72755E+06
        -0.51135E+06
        -0.10087E+07
         0.14252E+07
        -0.11098E+07
        -0.12420E+07
        -0.15748E+06
        -0.15448E+06
        -0.35798E+07
        -0.12034E+07
        -0.30452E+06
         0.17336E+06
         0.64838E+06
        -0.96408E+05
        -0.22786E+06
        -0.12850E+07
        -0.63283E+06
        -0.18118E+07
        -0.75011E+06
        -0.12348E+07
        -0.23942E+06
        -0.45547E+07
        -0.24681E+07
        -0.15442E+07
        -0.12109E+07
        -0.19265E+06
        -0.53380E+06
         0.59066E+06
         0.11123E+07
        -0.10790E+07
        -0.75644E+06
        -0.38432E+06
        -0.14901E+07
        -0.10125E+07
        -0.66746E+06
        -0.86935E+06
        -0.14521E+07
        -0.12365E+07
        -0.14942E+07
        -0.11447E+07
        -0.56869E+06
        -0.28961E+06
        -0.30528E+06
         0.56295E+06
         0.97694E+06
         0.34017E+06
         0.49561E+06
        -0.30633E+07
        -0.70373E+06
        -0.18411E+07
         0.27516E+06
         0.20566E+07
         0.33130E+07
         0.27030E+07
         0.29572E+07
         0.23084E+07
         0.11387E+07
         0.16576E+06
        -0.58753E+06
        -0.12749E+07
        -0.32249E+06
        -0.19524E+07
        -0.30174E+07
        -0.25550E+07
        -0.22763E+07
        -0.13095E+07
         0.43039E+06
         0.43863E+06
        -0.10220E+06
        -0.10916E+07
        -0.16395E+07
        -0.10952E+07
        -0.18271E+06
         0.11313E+07
         0.47320E+06
         0.61608E+06
         0.63160E+06
         0.35065E+06
         0.74902E+06
        -0.50022E+06
        -0.98896E+06
         0.14378E+07
        -0.11056E+07
        -0.12248E+07
        -0.13584E+06
        -0.13605E+06
        -0.35559E+07
        -0.11754E+07
        -0.32033E+06
         0.16959E+06
         0.66342E+06
        -0.11570E+06
        -0.24037E+06
        -0.13008E+07
        -0.63886E+06
        -0.18773E+07
        -0.80336E+06
        -0.12757E+07
        -0.28603E+06
        -0.45382E+07
        -0.24760E+07
        -0.15787E+07
        -0.12791E+07
        -0.19331E+06
        -0.54842E+06
         0.60817E+06
         0.11310E+07
        -0.10534E+07
        -0.73515E+06
        -0.36516E+06
        -0.14709E+07
        -0.99611E+06
        -0.66234E+06
        -0.87226E+06
        -0.14922E+07
        -0.12925E+07
        -0.15581E+07
        -0.11598E+07
        -0.55478E+06
        -0.27320E+06
        -0.28682E+06
         0.58339E+06
         0.10004E+07
         0.36636E+06
         0.51893E+06
        -0.30084E+07
        -0.65448E+06
        -0.17865E+07
         0.31708E+06
         0.20878E+07
         0.33439E+07
         0.27425E+07
         0.29968E+07
         0.23486E+07
         0.11804E+07
         0.19025E+06
        -0.58841E+06
        -0.12723E+07
        -0.29497E+06
        -0.19343E+07
        -0.30512E+07
        -0.25916E+07
        -0.22668E+07
        -0.12602E+07
         0.48733E+06
         0.48963E+06
        -0.50703E+05
        -0.10336E+07
        -0.15909E+07
        -0.10557E+07
        -0.14462E+06
         0.11208E+07
         0.46722E+06
         0.61032E+06
         0.62347E+06
         0.34310E+06
         0.74302E+06
        -0.50773E+06
        -0.99894E+06
         0.14174E+07
        -0.11438E+07
        -0.12324E+07
        -0.14773E+06
        -0.14413E+06
        -0.35642E+07
        -0.11891E+07
        -0.38123E+06
         0.12750E+06
         0.65539E+06
        -0.18440E+06
        -0.29926E+06
        -0.13744E+07
        -0.70428E+06
        -0.20300E+07
        -0.92240E+06
        -0.13875E+07
        -0.39189E+06
        -0.45614E+07
        -0.25325E+07
        -0.16765E+07
        -0.14426E+07
        -0.22885E+06
        -0.60643E+06
         0.60102E+06
         0.11226E+07
        -0.10664E+07
        -0.74312E+06
        -0.37181E+06
        -0.14923E+07
        -0.10225E+07
        -0.70981E+06
        -0.93585E+06
        -0.16163E+07
        -0.14444E+07
        -0.17089E+07
        -0.12340E+07
        -0.59508E+06
        -0.30200E+06
        -0.30272E+06
         0.57082E+06
         0.98600E+06
         0.35276E+06
         0.51026E+06
        -0.30340E+07
        -0.67207E+06
        -0.18143E+07
         0.29267E+06
         0.20715E+07
         0.33250E+07
         0.27108E+07
         0.29623E+07
         0.23155E+07
         0.11402E+07
         0.12648E+06
        -0.69134E+06
        -0.13691E+07
        -0.34087E+06
        -0.19859E+07
        -0.31933E+07
        -0.27420E+07
        -0.23372E+07
        -0.12937E+07
         0.45542E+06
         0.46540E+06
        -0.79386E+05
        -0.10634E+07
        -0.16112E+07
        -0.10712E+07
        -0.16005E+06
         0.11019E+07
         0.45512E+06
         0.60032E+06
         0.61505E+06
         0.33429E+06
         0.73443E+06
        -0.51838E+06
        -0.10161E+07
         0.13928E+07
        -0.11836E+07
        -0.12406E+07
        -0.15517E+06
        -0.15312E+06
        -0.35735E+07
        -0.11956E+07
        -0.42268E+06
         0.94079E+05
         0.64803E+06
        -0.22960E+06
        -0.34136E+06
        -0.14218E+07
        -0.75126E+06
        -0.21237E+07
        -0.99618E+06
        -0.14684E+07
        -0.45982E+06
        -0.45816E+07
        -0.25729E+07
        -0.17451E+07
        -0.15513E+07
        -0.26601E+06
        -0.64871E+06
         0.58529E+06
         0.11106E+07
        -0.10799E+07
        -0.75341E+06
        -0.38190E+06
        -0.15083E+07
        -0.10444E+07
        -0.74596E+06
        -0.98069E+06
        -0.16999E+07
        -0.15441E+07
        -0.18045E+07
        -0.12827E+07
        -0.62162E+06
        -0.32755E+06
        -0.32797E+06
         0.54888E+06
         0.96462E+06
         0.33141E+06
         0.49604E+06
        -0.30571E+07
        -0.68741E+06
        -0.18380E+07
         0.27368E+06
         0.20639E+07
         0.33195E+07
         0.26972E+07
         0.29395E+07
         0.22874E+07
         0.11153E+07
         0.87670E+05
        -0.76254E+06
        -0.14351E+07
        -0.37635E+06
        -0.20224E+07
        -0.32853E+07
        -0.28476E+07
        -0.23876E+07
        -0.13088E+07
         0.42643E+06
         0.43326E+06
        -0.11230E+06
        -0.11019E+07
        -0.16442E+07
        -0.10916E+07
        -0.17545E+06
         0.10562E+07
         0.43192E+06
         0.59044E+06
         0.62361E+06
         0.34669E+06
         0.74958E+06
        -0.52642E+06
        -0.10467E+07
         0.13582E+07
        -0.12376E+07
        -0.12330E+07
        -0.12986E+06
        -0.14356E+06
        -0.35676E+07
        -0.11634E+07
        -0.41599E+06
         0.86158E+05
         0.66341E+06
        -0.22026E+06
        -0.33405E+06
        -0.14077E+07
        -0.73465E+06
        -0.21217E+07
        -0.99774E+06
        -0.15036E+07
        -0.46963E+06
        -0.45864E+07
        -0.25761E+07
        -0.17452E+07
        -0.15554E+07
        -0.31025E+06
        -0.67110E+06
         0.55776E+06
         0.11081E+07
        -0.10688E+07
        -0.75192E+06
        -0.38360E+06
        -0.14888E+07
        -0.10278E+07
        -0.72747E+06
        -0.95887E+06
        -0.16872E+07
        -0.15335E+07
        -0.18103E+07
        -0.12885E+07
        -0.62593E+06
        -0.34962E+06
        -0.37843E+06
         0.49499E+06
         0.93557E+06
         0.32452E+06
         0.50314E+06
        -0.30119E+07
        -0.64076E+06
        -0.17999E+07
         0.29909E+06
         0.20906E+07
         0.33557E+07
         0.27382E+07
         0.29788E+07
         0.23327E+07
         0.11752E+07
         0.13999E+06
        -0.73096E+06
        -0.14003E+07
        -0.34000E+06
        -0.19874E+07
        -0.32574E+07
        -0.28272E+07
        -0.23674E+07
        -0.12844E+07
         0.44321E+06
         0.42966E+06
        -0.13519E+06
        -0.11168E+07
        -0.16365E+07
        -0.10690E+07
        -0.14308E+06
         0.98675E+06
         0.39090E+06
         0.56679E+06
         0.61885E+06
         0.33798E+06
         0.74937E+06
        -0.55459E+06
        -0.11075E+07
         0.12993E+07
        -0.13177E+07
        -0.12518E+07
        -0.13971E+06
        -0.15964E+06
        -0.35936E+07
        -0.11700E+07
        -0.42894E+06
         0.58655E+05
         0.66201E+06
        -0.22815E+06
        -0.34306E+06
        -0.14140E+07
        -0.73921E+06
        -0.21291E+07
        -0.10068E+07
        -0.15530E+07
        -0.48698E+06
        -0.46208E+07
        -0.25960E+07
        -0.17559E+07
        -0.15686E+07
        -0.37173E+06
        -0.70756E+06
         0.51485E+06
         0.10920E+07
        -0.10846E+07
        -0.76890E+06
        -0.40357E+06
        -0.15056E+07
        -0.10438E+07
        -0.73645E+06
        -0.96275E+06
        -0.16895E+07
        -0.15345E+07
        -0.18246E+07
        -0.13153E+07
        -0.66355E+06
        -0.40058E+06
        -0.45403E+06
         0.41812E+06
         0.88482E+06
         0.29590E+06
         0.49357E+06
        -0.30307E+07
        -0.65533E+06
        -0.18110E+07
         0.28628E+06
         0.20722E+07
         0.33335E+07
         0.27198E+07
         0.29630E+07
         0.23170E+07
         0.11634E+07
         0.13056E+06
        -0.74242E+06
        -0.14023E+07
        -0.34283E+06
        -0.19952E+07
        -0.32618E+07
        -0.28360E+07
        -0.23992E+07
        -0.13318E+07
         0.39094E+06
         0.37099E+06
        -0.20770E+06
        -0.11803E+07
        -0.16701E+07
        -0.10872E+07
        -0.15738E+06
         0.96640E+06
         0.37562E+06
         0.55708E+06
         0.61213E+06
         0.32856E+06
         0.74106E+06
        -0.57002E+06
        -0.11278E+07
         0.12824E+07
        -0.13414E+07
        -0.12650E+07
        -0.15351E+06
        -0.17548E+06
        -0.36069E+07
        -0.11814E+07
        -0.44065E+06
         0.47443E+05
         0.65657E+06
        -0.23537E+06
        -0.34994E+06
        -0.14242E+07
        -0.75000E+06
        -0.21388E+07
        -0.10137E+07
        -0.15712E+07
        -0.49694E+06
        -0.46356E+07
        -0.26059E+07
        -0.17718E+07
        -0.15813E+07
        -0.39241E+06
        -0.72202E+06
         0.50243E+06
         0.10832E+07
        -0.10980E+07
        -0.77794E+06
        -0.41569E+06
        -0.15266E+07
        -0.10623E+07
        -0.75494E+06
        -0.98160E+06
        -0.17048E+07
        -0.15441E+07
        -0.18374E+07
        -0.13311E+07
        -0.68112E+06
        -0.41728E+06
        -0.47297E+06
         0.39919E+06
         0.86721E+06
         0.27826E+06
         0.48154E+06
        -0.30565E+07
        -0.68065E+06
        -0.18282E+07
         0.26857E+06
         0.20508E+07
         0.33147E+07
         0.27005E+07
         0.29361E+07
         0.22817E+07
         0.11263E+07
         0.96909E+05
        -0.75763E+06
        -0.14144E+07
        -0.36863E+06
        -0.20224E+07
        -0.32877E+07
        -0.28695E+07
        -0.24314E+07
        -0.13587E+07
         0.36908E+06
         0.35317E+06
        -0.23186E+06
        -0.12122E+07
        -0.16998E+07
        -0.11122E+07
        -0.18228E+06
         0.97909E+06
         0.38581E+06
         0.56454E+06
         0.61540E+06
         0.34005E+06
         0.74444E+06
        -0.56325E+06
        -0.11113E+07
         0.12942E+07
        -0.13258E+07
        -0.12547E+07
        -0.13985E+06
        -0.16566E+06
        -0.35885E+07
        -0.11593E+07
        -0.42706E+06
         0.57870E+05
         0.66427E+06
        -0.22168E+06
        -0.33873E+06
        -0.14098E+07
        -0.73669E+06
        -0.21245E+07
        -0.10017E+07
        -0.15600E+07
        -0.48646E+06
        -0.46147E+07
        -0.25911E+07
        -0.17660E+07
        -0.15697E+07
        -0.38178E+06
        -0.71384E+06
         0.51169E+06
         0.10871E+07
        -0.10835E+07
        -0.76681E+06
        -0.40596E+06
        -0.15122E+07
        -0.10512E+07
        -0.74511E+06
        -0.96876E+06
        -0.16912E+07
        -0.15299E+07
        -0.18243E+07
        -0.13202E+07
        -0.66976E+06
        -0.40606E+06
        -0.46018E+06
         0.41192E+06
         0.87707E+06
         0.28596E+06
         0.48479E+06
        -0.30179E+07
        -0.64271E+06
        -0.18055E+07
         0.27784E+06
         0.20697E+07
         0.33441E+07
         0.27332E+07
         0.29594E+07
         0.22907E+07
         0.11401E+07
         0.12176E+06
        -0.72235E+06
        -0.13835E+07
        -0.34864E+06
        -0.20037E+07
        -0.32660E+07
        -0.28473E+07
        -0.24041E+07
        -0.13327E+07
         0.39952E+06
         0.38464E+06
        -0.20380E+06
        -0.11886E+07
        -0.16790E+07
        -0.10914E+07
        -0.15975E+06
         0.97564E+06
         0.38483E+06
         0.56259E+06
         0.61122E+06
         0.33858E+06
         0.74027E+06
        -0.56713E+06
        -0.11160E+07
         0.12860E+07
        -0.13347E+07
        -0.12601E+07
        -0.14825E+06
        -0.16827E+06
        -0.35939E+07
        -0.11714E+07
        -0.43457E+06
         0.50570E+05
         0.65833E+06
        -0.22763E+06
        -0.34387E+06
        -0.14150E+07
        -0.74354E+06
        -0.21296E+07
        -0.10063E+07
        -0.15661E+07
        -0.49072E+06
        -0.46195E+07
        -0.25909E+07
        -0.17731E+07
        -0.15758E+07
        -0.38885E+06
        -0.71830E+06
         0.50588E+06
         0.10808E+07
        -0.10885E+07
        -0.77069E+06
        -0.40865E+06
        -0.15305E+07
        -0.10618E+07
        -0.75476E+06
        -0.97795E+06
        -0.16974E+07
        -0.15381E+07
        -0.18277E+07
        -0.13235E+07
        -0.67529E+06
        -0.41372E+06
        -0.46894E+06
         0.40456E+06
         0.87018E+06
         0.27913E+06
         0.47797E+06
        -0.30290E+07
        -0.65145E+06
        -0.18234E+07
         0.26249E+06
         0.20676E+07
         0.33332E+07
         0.27080E+07
         0.29312E+07
         0.22744E+07
         0.11154E+07
         0.94789E+05
        -0.73577E+06
        -0.13994E+07
        -0.35734E+06
        -0.20119E+07
        -0.32737E+07
        -0.28485E+07
        -0.24095E+07
        -0.13403E+07
         0.37892E+06
         0.35922E+06
        -0.22342E+06
        -0.11984E+07
        -0.16837E+07
        -0.11026E+07
        -0.17569E+06
         0.96621E+06
         0.37699E+06
         0.55702E+06
         0.60920E+06
         0.33214E+06
         0.73784E+06
        -0.57478E+06
        -0.11234E+07
         0.12786E+07
        -0.13437E+07
        -0.12662E+07
        -0.15938E+06
        -0.17559E+06
        -0.35976E+07
        -0.11837E+07
        -0.44476E+06
         0.44761E+05
         0.65542E+06
        -0.23497E+06
        -0.34748E+06
        -0.14217E+07
        -0.75051E+06
        -0.21373E+07
        -0.10134E+07
        -0.15721E+07
        -0.49856E+06
        -0.46230E+07
        -0.25924E+07
        -0.17807E+07
        -0.15803E+07
        -0.39862E+06
        -0.72558E+06
         0.50348E+06
         0.10802E+07
        -0.11004E+07
        -0.77771E+06
        -0.41507E+06
        -0.15481E+07
        -0.10736E+07
        -0.76325E+06
        -0.98322E+06
        -0.17027E+07
        -0.15456E+07
        -0.18344E+07
        -0.13299E+07
        -0.68279E+06
        -0.42085E+06
        -0.47656E+06
         0.39754E+06
         0.86413E+06
         0.27265E+06
         0.47509E+06
        -0.30513E+07
        -0.66995E+06
        -0.18370E+07
         0.25783E+06
         0.20617E+07
         0.33113E+07
         0.26764E+07
         0.29058E+07
         0.22574E+07
         0.10977E+07
         0.83766E+05
        -0.74902E+06
        -0.14185E+07
        -0.37030E+06
        -0.20256E+07
        -0.32896E+07
        -0.28589E+07
        -0.24219E+07
        -0.13555E+07
         0.36193E+06
         0.33993E+06
        -0.24349E+06
        -0.12127E+07
        -0.16973E+07
        -0.11198E+07
        -0.19382E+06
         0.97215E+06
         0.38011E+06
         0.55976E+06
         0.61443E+06
         0.34010E+06
         0.74520E+06
        -0.57122E+06
        -0.11116E+07
         0.12843E+07
        -0.13369E+07
        -0.12566E+07
        -0.15007E+06
        -0.17274E+06
        -0.35805E+07
        -0.11632E+07
        -0.43744E+06
         0.48856E+05
         0.66309E+06
        -0.22671E+06
        -0.33834E+06
        -0.14101E+07
        -0.73860E+06
        -0.21276E+07
        -0.10060E+07
        -0.15673E+07
        -0.49201E+06
        -0.46096E+07
        -0.25825E+07
        -0.17737E+07
        -0.15676E+07
        -0.39041E+06
        -0.72003E+06
         0.51424E+06
         0.10888E+07
        -0.10915E+07
        -0.77045E+06
        -0.41090E+06
        -0.15366E+07
        -0.10625E+07
        -0.74857E+06
        -0.96889E+06
        -0.16924E+07
        -0.15341E+07
        -0.18263E+07
        -0.13231E+07
        -0.67644E+06
        -0.41394E+06
        -0.46889E+06
         0.40598E+06
         0.87254E+06
         0.28073E+06
         0.48366E+06
        -0.30231E+07
        -0.63937E+06
        -0.18082E+07
         0.27189E+06
         0.20571E+07
         0.33128E+07
         0.26990E+07
         0.29308E+07
         0.22745E+07
         0.11234E+07
         0.10818E+06
        -0.73742E+06
        -0.13979E+07
        -0.34935E+06
        -0.20067E+07
        -0.32750E+07
        -0.28489E+07
        -0.24094E+07
        -0.13437E+07
         0.38025E+06
         0.36165E+06
        -0.22264E+06
        -0.11944E+07
        -0.16819E+07
        -0.10971E+07
        -0.16738E+06
         0.96770E+06
         0.37381E+06
         0.55436E+06
         0.60961E+06
         0.33353E+06
         0.73901E+06
        -0.58032E+06
        -0.11183E+07
         0.12785E+07
        -0.13480E+07
        -0.12656E+07
        -0.16388E+06
        -0.18732E+06
        -0.35882E+07
        -0.11718E+07
        -0.44581E+06
         0.41407E+05
         0.65667E+06
        -0.23571E+06
        -0.34456E+06
        -0.14224E+07
        -0.75124E+06
        -0.21407E+07
        -0.10143E+07
        -0.15786E+07
        -0.49891E+06
        -0.46223E+07
        -0.25920E+07
        -0.17867E+07
        -0.15754E+07
        -0.39958E+06
        -0.72690E+06
         0.50680E+06
         0.10832E+07
        -0.11028E+07
        -0.77871E+06
        -0.42162E+06
        -0.15558E+07
        -0.10811E+07
        -0.76462E+06
        -0.98652E+06
        -0.17091E+07
        -0.15468E+07
        -0.18403E+07
        -0.13351E+07
        -0.68738E+06
        -0.42421E+06
        -0.48073E+06
         0.39687E+06
         0.86573E+06
         0.27203E+06
         0.47587E+06
        -0.30451E+07
        -0.65833E+06
        -0.18298E+07
         0.24682E+06
         0.20280E+07
         0.32849E+07
         0.26819E+07
         0.29087E+07
         0.22457E+07
         0.10949E+07
         0.73377E+05
        -0.77179E+06
        -0.14207E+07
        -0.37299E+06
        -0.20271E+07
        -0.32984E+07
        -0.28849E+07
        -0.24417E+07
        -0.13598E+07
         0.35781E+06
         0.33864E+06
        -0.23446E+06
        -0.12024E+07
        -0.16988E+07
        -0.11203E+07
        -0.19047E+06
         0.96681E+06
         0.37167E+06
         0.55273E+06
         0.60875E+06
         0.33329E+06
         0.73770E+06
        -0.58373E+06
        -0.11179E+07
         0.12794E+07
        -0.13480E+07
        -0.12667E+07
        -0.16586E+06
        -0.18984E+06
        -0.35848E+07
        -0.11709E+07
        -0.44796E+06
         0.41597E+05
         0.65626E+06
        -0.23654E+06
        -0.34420E+06
        -0.14248E+07
        -0.75313E+06
        -0.21436E+07
        -0.10159E+07
        -0.15806E+07
        -0.50106E+06
        -0.46197E+07
        -0.25921E+07
        -0.17931E+07
        -0.15773E+07
        -0.40487E+06
        -0.72965E+06
         0.50505E+06
         0.10826E+07
        -0.11057E+07
        -0.78109E+06
        -0.42471E+06
        -0.15653E+07
        -0.10919E+07
        -0.77144E+06
        -0.98849E+06
        -0.17110E+07
        -0.15486E+07
        -0.18424E+07
        -0.13369E+07
        -0.68992E+06
        -0.42737E+06
        -0.48549E+06
         0.39341E+06
         0.86432E+06
         0.27053E+06
         0.47420E+06
        -0.30456E+07
        -0.65784E+06
        -0.18356E+07
         0.23716E+06
         0.20275E+07
         0.32844E+07
         0.26750E+07
         0.28903E+07
         0.22250E+07
         0.10834E+07
         0.72255E+05
        -0.77515E+06
        -0.14264E+07
        -0.38217E+06
        -0.20378E+07
        -0.33059E+07
        -0.28897E+07
        -0.24460E+07
        -0.13642E+07
         0.34971E+06
         0.32853E+06
        -0.24094E+06
        -0.12029E+07
        -0.17008E+07
        -0.11306E+07
        -0.19986E+06
         0.98581E+06
         0.39113E+06
         0.56896E+06
         0.62095E+06
         0.35546E+06
         0.75384E+06
        -0.56656E+06
        -0.10941E+07
         0.12934E+07
        -0.13300E+07
        -0.12443E+07
        -0.13616E+06
        -0.16429E+06
        -0.35574E+07
        -0.11405E+07
        -0.43134E+06
         0.56008E+05
         0.66952E+06
        -0.21850E+06
        -0.32636E+06
        -0.13996E+07
        -0.72963E+06
        -0.21200E+07
        -0.99982E+06
        -0.15612E+07
        -0.48619E+06
        -0.45932E+07
        -0.25681E+07
        -0.17757E+07
        -0.15537E+07
        -0.38739E+06
        -0.71393E+06
         0.52053E+06
         0.10938E+07
        -0.10815E+07
        -0.76073E+06
        -0.40354E+06
        -0.15468E+07
        -0.10694E+07
        -0.74713E+06
        -0.96451E+06
        -0.16873E+07
        -0.15273E+07
        -0.18179E+07
        -0.13125E+07
        -0.66503E+06
        -0.40572E+06
        -0.46570E+06
         0.41029E+06
         0.87947E+06
         0.28721E+06
         0.48893E+06
        -0.29943E+07
        -0.60679E+06
        -0.17925E+07
         0.26824E+06
         0.20655E+07
         0.33325E+07
         0.27152E+07
         0.29208E+07
         0.22595E+07
         0.11211E+07
         0.10620E+06
        -0.73536E+06
        -0.13949E+07
        -0.34712E+06
        -0.19980E+07
        -0.32644E+07
        -0.28428E+07
        -0.23955E+07
        -0.13208E+07
         0.39499E+06
         0.36721E+06
        -0.21220E+06
        -0.11710E+07
        -0.16630E+07
        -0.10896E+07
        -0.15857E+06
         0.97769E+06
         0.38545E+06
         0.56395E+06
         0.61479E+06
         0.34705E+06
         0.74744E+06
        -0.57491E+06
        -0.11031E+07
         0.12849E+07
        -0.13440E+07
        -0.12532E+07
        -0.14680E+06
        -0.17085E+06
        -0.35657E+07
        -0.11531E+07
        -0.44190E+06
         0.46651E+05
         0.66447E+06
        -0.23040E+06
        -0.33424E+06
        -0.14077E+07
        -0.74116E+06
        -0.21281E+07
        -0.10097E+07
        -0.15743E+07
        -0.49586E+06
        -0.46045E+07
        -0.25742E+07
        -0.17816E+07
        -0.15593E+07
        -0.39432E+06
        -0.72172E+06
         0.51607E+06
         0.10868E+07
        -0.10960E+07
        -0.76818E+06
        -0.40865E+06
        -0.15685E+07
        -0.10847E+07
        -0.75451E+06
        -0.97562E+06
        -0.17003E+07
        -0.15419E+07
        -0.18283E+07
        -0.13229E+07
        -0.67532E+06
        -0.41421E+06
        -0.47242E+06
         0.40268E+06
         0.86924E+06
         0.27677E+06
         0.48092E+06
        -0.30268E+07
        -0.63417E+06
        -0.18176E+07
         0.25500E+06
         0.20610E+07
         0.33200E+07
         0.26878E+07
         0.28877E+07
         0.22276E+07
         0.10927E+07
         0.72656E+05
        -0.77376E+06
        -0.14221E+07
        -0.36061E+06
        -0.20044E+07
        -0.32685E+07
        -0.28558E+07
        -0.24183E+07
        -0.13377E+07
         0.37481E+06
         0.34879E+06
        -0.23297E+06
        -0.11931E+07
        -0.16770E+07
        -0.11028E+07
        -0.18041E+06
         0.96419E+06
         0.37108E+06
         0.55018E+06
         0.60623E+06
         0.33320E+06
         0.73476E+06
        -0.58736E+06
        -0.11139E+07
         0.12724E+07
        -0.13690E+07
        -0.12642E+07
        -0.16396E+06
        -0.18511E+06
        -0.35742E+07
        -0.11691E+07
        -0.45470E+06
         0.32442E+05
         0.65845E+06
        -0.24016E+06
        -0.33749E+06
        -0.14179E+07
        -0.75465E+06
        -0.21379E+07
        -0.10182E+07
        -0.15967E+07
        -0.50535E+06
        -0.46305E+07
        -0.25851E+07
        -0.17604E+07
        -0.15425E+07
        -0.40614E+06
        -0.73265E+06
         0.51167E+06
         0.10822E+07
        -0.11122E+07
        -0.78073E+06
        -0.42126E+06
        -0.16004E+07
        -0.10997E+07
        -0.73212E+06
        -0.97660E+06
        -0.17144E+07
        -0.15615E+07
        -0.18395E+07
        -0.13362E+07
        -0.69187E+06
        -0.42919E+06
        -0.48427E+06
         0.39385E+06
         0.86103E+06
         0.26754E+06
         0.47102E+06
        -0.30485E+07
        -0.65407E+06
        -0.18345E+07
         0.24009E+06
         0.20403E+07
         0.32861E+07
         0.26491E+07
         0.28507E+07
         0.21955E+07
         0.10853E+07
         0.14099E+05
        -0.86583E+06
        -0.14603E+07
        -0.38179E+06
        -0.20234E+07
        -0.32856E+07
        -0.28767E+07
        -0.24422E+07
        -0.13655E+07
         0.34327E+06
         0.32764E+06
        -0.25281E+06
        -0.12156E+07
        -0.16937E+07
        -0.11287E+07
        -0.20949E+06
         0.98228E+06
         0.38896E+06
         0.56780E+06
         0.62090E+06
         0.35671E+06
         0.75214E+06
        -0.57250E+06
        -0.10905E+07
         0.12822E+07
        -0.13728E+07
        -0.12441E+07
        -0.14180E+06
        -0.16622E+06
        -0.35481E+07
        -0.11419E+07
        -0.43788E+06
         0.42328E+05
         0.67095E+06
        -0.21935E+06
        -0.30888E+06
        -0.13968E+07
        -0.73412E+06
        -0.21188E+07
        -0.10009E+07
        -0.15926E+07
        -0.48914E+06
        -0.46348E+07
        -0.25696E+07
        -0.16860E+07
        -0.14692E+07
        -0.39136E+06
        -0.71668E+06
         0.52683E+06
         0.10968E+07
        -0.10862E+07
        -0.75808E+06
        -0.40126E+06
        -0.15991E+07
        -0.10738E+07
        -0.64618E+06
        -0.93045E+06
        -0.16904E+07
        -0.15491E+07
        -0.18185E+07
        -0.13123E+07
        -0.66420E+06
        -0.40662E+06
        -0.46619E+06
         0.41234E+06
         0.88164E+06
         0.28971E+06
         0.48844E+06
        -0.29958E+07
        -0.60221E+06
        -0.17815E+07
         0.27712E+06
         0.20641E+07
         0.33135E+07
         0.26868E+07
         0.28889E+07
         0.22376E+07
         0.11673E+07
        -0.48778E+04
        -0.93992E+06
        -0.14575E+07
        -0.35273E+06
        -0.19991E+07
        -0.32653E+07
        -0.28513E+07
        -0.23999E+07
        -0.13136E+07
         0.39171E+06
         0.36958E+06
        -0.20963E+06
        -0.11668E+07
        -0.16486E+07
        -0.10921E+07
        -0.17124E+06
         0.91425E+06
         0.32285E+06
         0.50432E+06
         0.56616E+06
         0.27591E+06
         0.67910E+06
        -0.63644E+06
        -0.11689E+07
         0.12125E+07
        -0.14707E+07
        -0.13202E+07
        -0.24769E+06
        -0.26436E+06
        -0.36325E+07
        -0.12494E+07
        -0.50447E+06
        -0.24527E+05
         0.62092E+06
        -0.28908E+06
        -0.36481E+06
        -0.14881E+07
        -0.82371E+06
        -0.22073E+07
        -0.10626E+07
        -0.16818E+07
        -0.54436E+06
        -0.47376E+07
        -0.26373E+07
        -0.17213E+07
        -0.15193E+07
        -0.45629E+06
        -0.77503E+06
         0.47063E+06
         0.10381E+07
        -0.11831E+07
        -0.83950E+06
        -0.48872E+06
        -0.17231E+07
        -0.11708E+07
        -0.70328E+06
        -0.10209E+07
        -0.17880E+07
        -0.16468E+07
        -0.19036E+07
        -0.14007E+07
        -0.76759E+06
        -0.49343E+06
        -0.54387E+06
         0.33872E+06
         0.79994E+06
         0.19140E+06
         0.40516E+06
        -0.31793E+07
        -0.78027E+06
        -0.19667E+07
         0.88460E+05
         0.18761E+07
         0.31323E+07
         0.25026E+07
         0.26911E+07
         0.20523E+07
         0.99842E+06
        -0.24011E+06
        -0.11959E+07
        -0.16387E+07
        -0.50309E+06
        -0.21569E+07
        -0.34292E+07
        -0.30205E+07
        -0.25893E+07
        -0.15081E+07
         0.20515E+06
         0.19667E+06
        -0.37521E+06
        -0.13362E+07
        -0.18227E+07
        -0.12595E+07
        -0.33747E+06
         0.95300E+06
         0.32734E+06
         0.51618E+06
         0.58821E+06
         0.30381E+06
         0.70375E+06
        -0.62981E+06
        -0.11196E+07
         0.12588E+07
        -0.13995E+07
        -0.12990E+07
        -0.24579E+06
        -0.28957E+06
        -0.35740E+07
        -0.12004E+07
        -0.45384E+06
         0.18834E+05
         0.64982E+06
        -0.25137E+06
        -0.33008E+06
        -0.14463E+07
        -0.79286E+06
        -0.21438E+07
        -0.10166E+07
        -0.16056E+07
        -0.50417E+06
        -0.46497E+07
        -0.25568E+07
        -0.16598E+07
        -0.14451E+07
        -0.41771E+06
        -0.74939E+06
         0.48916E+06
         0.10301E+07
        -0.11688E+07
        -0.84536E+06
        -0.51340E+06
        -0.16663E+07
        -0.11026E+07
        -0.64387E+06
        -0.98004E+06
        -0.17331E+07
        -0.15884E+07
        -0.18452E+07
        -0.13680E+07
        -0.75164E+06
        -0.48014E+06
        -0.51098E+06
         0.36360E+06
         0.80136E+06
         0.19788E+06
         0.40704E+06
        -0.31086E+07
        -0.68837E+06
        -0.19433E+07
         0.47749E+05
         0.17917E+07
         0.30808E+07
         0.25868E+07
         0.27777E+07
         0.21213E+07
         0.10394E+07
        -0.22864E+06
        -0.11608E+07
        -0.15702E+07
        -0.46916E+06
        -0.20854E+07
        -0.33269E+07
        -0.29333E+07
        -0.25225E+07
        -0.14791E+07
         0.20179E+06
         0.23519E+06
        -0.32019E+06
        -0.12487E+07
        -0.17166E+07
        -0.11759E+07
        -0.25105E+06
         0.26749E+09
         0.26292E+09
         0.25937E+09
         0.22370E+09
         0.32049E+09
         0.28844E+09
         0.26358E+09
         0.30358E+09
         0.25018E+09
         0.30354E+09
         0.30720E+09
         0.40545E+09
         0.35809E+09
         0.33172E+09
         0.41765E+09
         0.24731E+09
         0.24504E+09
         0.19335E+09
         0.26451E+09
         0.25494E+09
         0.32859E+09
         0.33046E+09
         0.31268E+09
         0.24059E+09
         0.29133E+09
         0.20949E+09
         0.32701E+09
         0.27015E+09
         0.28817E+09
         0.30311E+09
         0.24515E+09
         0.23474E+09
         0.22409E+09
         0.23209E+09
         0.36287E+09
         0.31091E+09
         0.31935E+09
         0.39200E+09
         0.37209E+09
         0.36444E+09
         0.38307E+09
         0.35905E+09
         0.34031E+09
         0.30033E+09
         0.31104E+09
         0.36729E+09
         0.32184E+09
         0.29463E+09
         0.28134E+09
         0.29852E+09
         0.34568E+09
         0.30423E+09
         0.67029E+09
         0.65673E+09
         0.66899E+09
         0.64799E+09
         0.66895E+09
         0.70217E+09
         0.70513E+09
         0.69723E+09
         0.70260E+09
         0.72196E+09
         0.69940E+09
         0.65886E+09
         0.58398E+09
         0.55119E+09
         0.55937E+09
         0.57251E+09
         0.58028E+09
         0.63268E+09
         0.67818E+09
         0.68150E+09
         0.62481E+09
         0.60250E+09
         0.62392E+09
         0.61682E+09
         0.61233E+09
         0.61360E+09
         0.30985E+10
         0.32458E+10
         0.31990E+10
         0.29185E+10
         0.35941E+10
         0.33755E+10
         0.35119E+10
         0.35394E+10
         0.30298E+10
         0.35376E+10
         0.38571E+10
         0.43226E+10
         0.39181E+10
         0.39692E+10
         0.44738E+10
         0.29687E+10
         0.31911E+10
         0.27841E+10
         0.32959E+10
         0.34680E+10
         0.35878E+10
         0.36664E+10
         0.34438E+10
         0.31696E+10
         0.35789E+10
         0.30582E+10
         0.39548E+10
         0.38879E+10
         0.39055E+10
         0.37057E+10
         0.30007E+10
         0.31558E+10
         0.29418E+10
         0.30767E+10
         0.39354E+10
         0.36107E+10
         0.36226E+10
         0.43320E+10
         0.42211E+10
         0.41705E+10
         0.42438E+10
         0.40297E+10
         0.38105E+10
         0.33620E+10
         0.35011E+10
         0.39340E+10
         0.36378E+10
         0.34203E+10
         0.33524E+10
         0.34761E+10
         0.37742E+10
         0.34863E+10
         0.62430E+10
         0.60815E+10
         0.62089E+10
         0.60136E+10
         0.61932E+10
         0.65123E+10
         0.66183E+10
         0.66051E+10
         0.66523E+10
         0.68046E+10
         0.66064E+10
         0.62087E+10
         0.55641E+10
         0.52577E+10
         0.52713E+10
         0.53386E+10
         0.53905E+10
         0.58474E+10
         0.62692E+10
         0.62946E+10
         0.58241E+10
         0.56435E+10
         0.58305E+10
         0.57886E+10
         0.57221E+10
         0.57061E+10
  
SCALARS                      stress_yy  double 1
LOOKUP_TABLE default
         0.85207E+12
         0.84080E+12
         0.84795E+12
         0.86076E+12
        -0.15900E+03
        -0.17829E+03
        -0.17072E+03
        -0.15510E+03
         0.84041E+12
         0.84422E+12
        -0.16033E+03
        -0.15516E+03
         0.82446E+12
         0.82386E+12
        -0.19051E+03
        -0.17913E+03
         0.85888E+12
         0.82474E+12
        -0.14077E+03
        -0.15613E+03
         0.81218E+12
         0.80242E+12
         0.81795E+12
        -0.18881E+03
        -0.16489E+03
        -0.17027E+03
         0.80280E+12
         0.78854E+12
        -0.18114E+03
        -0.15276E+03
         0.85826E+12
         0.84342E+12
         0.87264E+12
        -0.15458E+03
        -0.14370E+03
        -0.13972E+03
         0.84968E+12
         0.83075E+12
        -0.16354E+03
        -0.14923E+03
         0.84219E+12
         0.82758E+12
        -0.14134E+03
        -0.12513E+03
         0.85454E+12
         0.86002E+12
        -0.15489E+03
        -0.17307E+03
         0.81586E+12
        -0.15132E+03
         0.85895E+12
        -0.17780E+03
         0.79869E+12
        -0.15979E+03
         0.79421E+12
        -0.15328E+03
         0.79428E+12
         0.81021E+12
        -0.15617E+03
        -0.15209E+03
         0.85796E+12
         0.85226E+12
        -0.15660E+03
        -0.17703E+03
         0.86152E+12
        -0.15111E+03
         0.85475E+12
        -0.16491E+03
         0.83689E+12
         0.83511E+12
        -0.15875E+03
        -0.16634E+03
         0.83107E+12
        -0.16773E+03
         0.78346E+12
        -0.13252E+03
         0.78096E+12
        -0.12863E+03
         0.78221E+12
        -0.13563E+03
         0.78911E+12
         0.79628E+12
        -0.12922E+03
        -0.13472E+03
         0.81072E+12
        -0.12548E+03
         0.85425E+12
        -0.16455E+03
         0.84747E+12
        -0.16841E+03
         0.84190E+12
         0.83884E+12
        -0.16173E+03
        -0.16362E+03
         0.84261E+12
        -0.14861E+03
         0.84529E+12
        -0.14649E+03
         0.84287E+12
        -0.15682E+03
         0.84201E+12
         0.84446E+12
        -0.15378E+03
        -0.15830E+03
         0.82857E+12
         0.83501E+12
        -0.11940E+03
        -0.11230E+03
         0.82734E+12
        -0.11401E+03
         0.83479E+12
        -0.10932E+03
         0.82744E+12
        -0.10779E+03
         0.81117E+12
        -0.10187E+03
         0.79537E+12
        -0.90496E+02
         0.78590E+12
        -0.81487E+02
         0.78494E+12
        -0.80921E+02
         0.78524E+12
        -0.87755E+02
         0.79551E+12
        -0.92227E+02
         0.81468E+12
        -0.84213E+02
         0.83570E+12
        -0.75910E+02
         0.84800E+12
        -0.75823E+02
         0.86014E+12
        -0.84751E+02
         0.86816E+12
        -0.96636E+02
         0.86787E+12
        -0.10382E+03
         0.84838E+12
        -0.11212E+03
         0.83479E+12
        -0.12012E+03
         0.83012E+12
        -0.11004E+03
         0.83741E+12
        -0.96534E+02
         0.84121E+12
        -0.96236E+02
         0.83484E+12
        -0.10529E+03
         0.83493E+12
        -0.11225E+03
         0.83974E+12
        -0.10652E+03
         0.84601E+12
        -0.10298E+03
        -0.31759E+11
        -0.31534E+11
        -0.31570E+11
        -0.31828E+11
        -0.31258E+11
        -0.31600E+11
        -0.31169E+11
        -0.31403E+11
        -0.31795E+11
        -0.31579E+11
        -0.30898E+11
        -0.30811E+11
        -0.31039E+11
        -0.31054E+11
        -0.30909E+11
        -0.31818E+11
        -0.31779E+11
        -0.31885E+11
        -0.31504E+11
        -0.31598E+11
        -0.31463E+11
        -0.31553E+11
        -0.31384E+11
        -0.31429E+11
        -0.31590E+11
        -0.31579E+11
        -0.31296E+11
        -0.31323E+11
        -0.31095E+11
        -0.31433E+11
        -0.31799E+11
        -0.31530E+11
        -0.31798E+11
        -0.31643E+11
        -0.30750E+11
        -0.31064E+11
        -0.31205E+11
        -0.31039E+11
        -0.31017E+11
        -0.30727E+11
        -0.30502E+11
        -0.31030E+11
        -0.31469E+11
        -0.31413E+11
        -0.31191E+11
        -0.30762E+11
        -0.31131E+11
        -0.31486E+11
        -0.31463E+11
        -0.31190E+11
        -0.30884E+11
        -0.31290E+11
        -0.29911E+11
        -0.30361E+11
        -0.30289E+11
        -0.30390E+11
        -0.30364E+11
        -0.30126E+11
        -0.29871E+11
        -0.29785E+11
        -0.29822E+11
        -0.29796E+11
        -0.29682E+11
        -0.30342E+11
        -0.30570E+11
        -0.30655E+11
        -0.30796E+11
        -0.30900E+11
        -0.30895E+11
        -0.30717E+11
        -0.30065E+11
        -0.30228E+11
        -0.30455E+11
        -0.30452E+11
        -0.30414E+11
        -0.30195E+11
        -0.30514E+11
        -0.30627E+11
         0.41576E+06
        -0.23074E+06
        -0.90190E+04
         0.11148E+07
         0.45730E+06
         0.13131E+07
        -0.58997E+06
        -0.15608E+07
         0.85323E+06
        -0.16359E+07
        -0.17704E+07
        -0.11374E+07
        -0.26256E+06
        -0.27129E+07
        -0.19344E+07
         0.21105E+06
         0.69652E+06
         0.86036E+06
        -0.58809E+06
         0.10146E+06
        -0.25076E+06
         0.44942E+06
        -0.67552E+06
        -0.29495E+06
        -0.17597E+07
        -0.18821E+06
        -0.36315E+07
        -0.23774E+07
        -0.12546E+07
        -0.15352E+07
         0.56050E+05
        -0.69296E+05
         0.78064E+06
         0.12813E+07
         0.63953E+05
        -0.53683E+05
         0.24114E+05
        -0.19343E+07
        -0.19259E+07
        -0.13543E+07
        -0.17260E+06
        -0.29229E+06
        -0.20321E+06
        -0.76725E+06
        -0.85470E+06
        -0.13085E+07
        -0.58553E+06
        -0.84510E+05
        -0.16457E+06
         0.18869E+06
         0.65053E+06
         0.15019E+07
        -0.15702E+07
         0.70550E+06
        -0.11217E+07
         0.38037E+06
         0.14733E+07
         0.21853E+07
         0.14699E+07
         0.18581E+07
         0.13064E+07
         0.50930E+06
         0.86393E+06
         0.91153E+06
         0.22179E+06
         0.11552E+07
        -0.42802E+06
        -0.16740E+07
        -0.17848E+07
        -0.19959E+07
        -0.21184E+07
        -0.77288E+06
        -0.61272E+06
        -0.11365E+07
        -0.18122E+07
        -0.12613E+07
         0.16719E+06
         0.11076E+07
         0.34324E+06
        -0.30091E+06
        -0.77674E+05
         0.10584E+07
         0.37001E+06
         0.12352E+07
        -0.65430E+06
        -0.16458E+07
         0.78058E+06
        -0.17288E+07
        -0.18520E+07
        -0.12510E+07
        -0.36051E+06
        -0.28005E+07
        -0.20484E+07
         0.13554E+06
         0.62525E+06
         0.80914E+06
        -0.66714E+06
         0.30677E+05
        -0.34863E+06
         0.35452E+06
        -0.77552E+06
        -0.36859E+06
        -0.18559E+07
        -0.25398E+06
        -0.37165E+07
        -0.24492E+07
        -0.13304E+07
        -0.16340E+07
        -0.15016E+05
        -0.13329E+06
         0.72032E+06
         0.12263E+07
        -0.35173E+05
        -0.13686E+06
        -0.61567E+05
        -0.20484E+07
        -0.20317E+07
        -0.14575E+07
        -0.28487E+06
        -0.40151E+06
        -0.30740E+06
        -0.86318E+06
        -0.94489E+06
        -0.14090E+07
        -0.67557E+06
        -0.16758E+06
        -0.23863E+06
         0.11266E+06
         0.55889E+06
         0.14203E+07
        -0.17541E+07
         0.52597E+06
        -0.12986E+07
         0.21118E+06
         0.12942E+07
         0.19860E+07
         0.12709E+07
         0.16570E+07
         0.11029E+07
         0.30128E+06
         0.65698E+06
         0.72009E+06
         0.62019E+05
         0.10059E+07
        -0.58437E+06
        -0.18411E+07
        -0.19557E+07
        -0.21742E+07
        -0.22975E+07
        -0.96216E+06
        -0.79148E+06
        -0.12979E+07
        -0.19740E+07
        -0.14267E+07
         0.13130E+03
         0.93752E+06
         0.36040E+06
        -0.28712E+06
        -0.63149E+05
         0.10732E+07
         0.39231E+06
         0.12556E+07
        -0.64140E+06
        -0.16285E+07
         0.79228E+06
        -0.17277E+07
        -0.18364E+07
        -0.12291E+07
        -0.34172E+06
        -0.27778E+07
        -0.20215E+07
         0.12052E+06
         0.62140E+06
         0.82315E+06
        -0.68692E+06
         0.17597E+05
        -0.36513E+06
         0.34830E+06
        -0.84111E+06
        -0.42168E+06
        -0.18988E+07
        -0.29990E+06
        -0.37000E+07
        -0.24589E+07
        -0.13603E+07
        -0.17034E+07
        -0.14569E+05
        -0.14761E+06
         0.73404E+06
         0.12444E+07
        -0.92311E+04
        -0.11616E+06
        -0.42665E+05
        -0.20293E+07
        -0.20155E+07
        -0.14519E+07
        -0.28784E+06
        -0.44115E+06
        -0.36358E+06
        -0.92753E+06
        -0.96050E+06
        -0.13953E+07
        -0.65938E+06
        -0.14829E+06
        -0.21792E+06
         0.13656E+06
         0.58484E+06
         0.14433E+07
        -0.16992E+07
         0.57506E+06
        -0.12443E+07
         0.25310E+06
         0.13253E+07
         0.20171E+07
         0.13106E+07
         0.16968E+07
         0.11429E+07
         0.34290E+06
         0.68152E+06
         0.71912E+06
         0.64610E+05
         0.10333E+07
        -0.56613E+06
        -0.18750E+07
        -0.19926E+07
        -0.21648E+07
        -0.22485E+07
        -0.90518E+06
        -0.74066E+06
        -0.12465E+07
        -0.19164E+07
        -0.13779E+07
         0.39861E+05
         0.97592E+06
         0.35019E+06
        -0.29306E+06
        -0.68948E+05
         0.10640E+07
         0.38367E+06
         0.12485E+07
        -0.64721E+06
        -0.16410E+07
         0.77103E+06
        -0.17690E+07
        -0.18454E+07
        -0.12408E+07
        -0.34946E+06
        -0.27873E+07
        -0.20364E+07
         0.60489E+05
         0.57926E+06
         0.81409E+06
        -0.75612E+06
        -0.41878E+05
        -0.43949E+06
         0.28272E+06
        -0.99377E+06
        -0.54046E+06
        -0.20124E+07
        -0.40490E+06
        -0.37232E+07
        -0.25171E+07
        -0.14535E+07
        -0.18680E+07
        -0.48850E+05
        -0.20509E+06
         0.72308E+06
         0.12356E+07
        -0.21951E+05
        -0.12472E+06
        -0.49564E+05
        -0.20508E+07
        -0.20421E+07
        -0.14989E+07
        -0.35157E+06
        -0.56482E+06
        -0.51564E+06
        -0.10790E+07
        -0.10353E+07
        -0.14358E+07
        -0.68844E+06
        -0.16335E+06
        -0.23021E+06
         0.12249E+06
         0.57099E+06
         0.14343E+07
        -0.17248E+07
         0.55731E+06
        -0.12724E+07
         0.22869E+06
         0.13087E+07
         0.19983E+07
         0.12790E+07
         0.16625E+07
         0.11096E+07
         0.30262E+06
         0.61778E+06
         0.61610E+06
        -0.32232E+05
         0.98730E+06
        -0.61772E+06
        -0.20171E+07
        -0.21434E+07
        -0.22354E+07
        -0.22821E+07
        -0.93705E+06
        -0.76507E+06
        -0.12753E+07
        -0.19466E+07
        -0.13981E+07
         0.24611E+05
         0.96081E+06
         0.33152E+06
        -0.30513E+06
        -0.78991E+05
         0.10545E+07
         0.37379E+06
         0.12388E+07
        -0.65607E+06
        -0.16606E+07
         0.74561E+06
        -0.18120E+07
        -0.18551E+07
        -0.12480E+07
        -0.35810E+06
        -0.27979E+07
        -0.20439E+07
         0.19956E+05
         0.54581E+06
         0.80570E+06
        -0.80185E+06
        -0.84562E+05
        -0.48752E+06
         0.23560E+06
        -0.10876E+07
        -0.61390E+06
        -0.20950E+07
        -0.47178E+06
        -0.37435E+07
        -0.25592E+07
        -0.15172E+07
        -0.19777E+07
        -0.84618E+05
        -0.24662E+06
         0.70354E+06
         0.12231E+07
        -0.35095E+05
        -0.13561E+06
        -0.59909E+05
        -0.20670E+07
        -0.20643E+07
        -0.15346E+07
        -0.39663E+06
        -0.64791E+06
        -0.61540E+06
        -0.11755E+07
        -0.10849E+07
        -0.14627E+07
        -0.71427E+06
        -0.18780E+06
        -0.25187E+06
         0.10151E+06
         0.54941E+06
         0.14198E+07
        -0.17479E+07
         0.54180E+06
        -0.12964E+07
         0.20970E+06
         0.13010E+07
         0.19928E+07
         0.12655E+07
         0.16400E+07
         0.10813E+07
         0.27768E+06
         0.57896E+06
         0.54478E+06
        -0.98255E+05
         0.95175E+06
        -0.65414E+06
        -0.21092E+07
        -0.22493E+07
        -0.22859E+07
        -0.22974E+07
        -0.96600E+06
        -0.79738E+06
        -0.13083E+07
        -0.19854E+07
        -0.14310E+07
         0.43620E+04
         0.94573E+06
         0.28611E+06
        -0.32824E+06
        -0.88932E+05
         0.10620E+07
         0.38511E+06
         0.12529E+07
        -0.66225E+06
        -0.16937E+07
         0.71009E+06
        -0.18691E+07
        -0.18490E+07
        -0.12224E+07
        -0.34821E+06
        -0.27933E+07
        -0.20129E+07
         0.27565E+05
         0.53782E+06
         0.82005E+06
        -0.79305E+06
        -0.77766E+05
        -0.47412E+06
         0.25209E+06
        -0.10856E+07
        -0.61506E+06
        -0.21318E+07
        -0.48048E+06
        -0.37483E+07
        -0.25642E+07
        -0.15123E+07
        -0.19826E+07
        -0.12744E+06
        -0.26822E+06
         0.67212E+06
         0.12201E+07
        -0.23637E+05
        -0.13470E+06
        -0.61881E+05
        -0.20477E+07
        -0.20479E+07
        -0.15157E+07
        -0.37505E+06
        -0.63467E+06
        -0.60485E+06
        -0.11821E+07
        -0.10916E+07
        -0.14673E+07
        -0.73668E+06
        -0.23755E+06
        -0.30552E+06
         0.72850E+05
         0.54231E+06
         0.14266E+07
        -0.17027E+07
         0.58829E+06
        -0.12587E+07
         0.23510E+06
         0.13276E+07
         0.20292E+07
         0.13067E+07
         0.16796E+07
         0.11265E+07
         0.33750E+06
         0.63126E+06
         0.57624E+06
        -0.63396E+05
         0.98801E+06
        -0.61904E+06
        -0.20813E+07
        -0.22294E+07
        -0.22658E+07
        -0.22732E+07
        -0.94917E+06
        -0.80116E+06
        -0.13313E+07
        -0.20007E+07
        -0.14232E+07
         0.27175E+05
         0.97842E+06
         0.21688E+06
        -0.36909E+06
        -0.11268E+06
         0.10561E+07
         0.37533E+06
         0.12516E+07
        -0.68839E+06
        -0.17568E+07
         0.65037E+06
        -0.19520E+07
        -0.18693E+07
        -0.12320E+07
        -0.36401E+06
        -0.28207E+07
        -0.20207E+07
         0.15512E+05
         0.51016E+06
         0.81761E+06
        -0.80146E+06
        -0.87265E+05
        -0.48121E+06
         0.24740E+06
        -0.10931E+07
        -0.62371E+06
        -0.21828E+07
        -0.49677E+06
        -0.37828E+07
        -0.25860E+07
        -0.15180E+07
        -0.19966E+07
        -0.18754E+06
        -0.30393E+06
         0.62524E+06
         0.12033E+07
        -0.39048E+05
        -0.15226E+06
        -0.82135E+05
        -0.20646E+07
        -0.20642E+07
        -0.15242E+07
        -0.37918E+06
        -0.63636E+06
        -0.60591E+06
        -0.11974E+07
        -0.11193E+07
        -0.15052E+07
        -0.78818E+06
        -0.31270E+06
        -0.38227E+06
         0.22507E+05
         0.51354E+06
         0.14167E+07
        -0.17215E+07
         0.57357E+06
        -0.12701E+07
         0.22228E+06
         0.13089E+07
         0.20070E+07
         0.12885E+07
         0.16640E+07
         0.11106E+07
         0.32565E+06
         0.62181E+06
         0.56466E+06
        -0.65425E+05
         0.98510E+06
        -0.62673E+06
        -0.20858E+07
        -0.22387E+07
        -0.22979E+07
        -0.23207E+07
        -0.10014E+07
        -0.86003E+06
        -0.14040E+07
        -0.20645E+07
        -0.14567E+07
         0.92407E+04
         0.96443E+06
         0.19676E+06
        -0.38417E+06
        -0.12251E+06
         0.10482E+07
         0.36487E+06
         0.12422E+07
        -0.70165E+06
        -0.17795E+07
         0.63251E+06
        -0.19786E+07
        -0.18841E+07
        -0.12456E+07
        -0.37956E+06
        -0.28353E+07
        -0.20332E+07
         0.46682E+04
         0.49873E+06
         0.81113E+06
        -0.80921E+06
        -0.94590E+05
        -0.49212E+06
         0.23648E+06
        -0.11029E+07
        -0.63026E+06
        -0.22026E+07
        -0.50570E+06
        -0.37976E+07
        -0.25976E+07
        -0.15287E+07
        -0.20099E+07
        -0.20688E+06
        -0.31766E+06
         0.60879E+06
         0.11938E+07
        -0.52061E+05
        -0.16189E+06
        -0.94539E+05
        -0.20859E+07
        -0.20829E+07
        -0.15423E+07
        -0.39829E+06
        -0.65110E+06
        -0.61552E+06
        -0.12110E+07
        -0.11361E+07
        -0.15230E+07
        -0.80549E+06
        -0.33129E+06
        -0.40112E+06
         0.53122E+04
         0.49575E+06
         0.14044E+07
        -0.17473E+07
         0.54809E+06
        -0.12876E+07
         0.20456E+06
         0.12874E+07
         0.19883E+07
         0.12692E+07
         0.16374E+07
         0.10751E+07
         0.28847E+06
         0.58814E+06
         0.54933E+06
        -0.77524E+05
         0.95922E+06
        -0.65383E+06
        -0.21117E+07
        -0.22726E+07
        -0.23302E+07
        -0.23478E+07
        -0.10232E+07
        -0.87805E+06
        -0.14282E+07
        -0.20967E+07
        -0.14863E+07
        -0.15641E+05
         0.93984E+06
         0.20968E+06
        -0.37378E+06
        -0.11518E+06
         0.10503E+07
         0.37530E+06
         0.12444E+07
        -0.69273E+06
        -0.17652E+07
         0.64343E+06
        -0.19657E+07
        -0.18753E+07
        -0.12316E+07
        -0.36945E+06
        -0.28183E+07
        -0.20123E+07
         0.19122E+05
         0.50893E+06
         0.81781E+06
        -0.79605E+06
        -0.83847E+05
        -0.47843E+06
         0.24967E+06
        -0.10887E+07
        -0.61781E+06
        -0.21930E+07
        -0.49420E+06
        -0.37768E+07
        -0.25846E+07
        -0.15178E+07
        -0.19991E+07
        -0.19490E+06
        -0.30877E+06
         0.61401E+06
         0.11970E+07
        -0.37188E+05
        -0.15133E+06
        -0.85091E+05
        -0.20717E+07
        -0.20720E+07
        -0.15320E+07
        -0.38570E+06
        -0.63699E+06
        -0.60132E+06
        -0.11988E+07
        -0.11261E+07
        -0.15120E+07
        -0.79486E+06
        -0.31816E+06
        -0.38832E+06
         0.15596E+05
         0.50332E+06
         0.14074E+07
        -0.17087E+07
         0.58587E+06
        -0.12652E+07
         0.21383E+06
         0.13061E+07
         0.20178E+07
         0.13021E+07
         0.16610E+07
         0.10840E+07
         0.30226E+06
         0.61298E+06
         0.58449E+06
        -0.46712E+05
         0.97913E+06
        -0.63498E+06
        -0.20901E+07
        -0.22508E+07
        -0.23031E+07
        -0.23220E+07
        -0.99275E+06
        -0.84678E+06
        -0.14003E+07
        -0.20734E+07
        -0.14653E+07
         0.54261E+04
         0.96269E+06
         0.20647E+06
        -0.37455E+06
        -0.11725E+06
         0.10449E+07
         0.37278E+06
         0.12392E+07
        -0.69444E+06
        -0.17723E+07
         0.63436E+06
        -0.19775E+07
        -0.18822E+07
        -0.12398E+07
        -0.37179E+06
        -0.28252E+07
        -0.20254E+07
         0.12478E+05
         0.50139E+06
         0.81085E+06
        -0.80253E+06
        -0.89435E+05
        -0.48427E+06
         0.24268E+06
        -0.10937E+07
        -0.62202E+06
        -0.22007E+07
        -0.49744E+06
        -0.37816E+07
        -0.25862E+07
        -0.15198E+07
        -0.20058E+07
        -0.20062E+06
        -0.31252E+06
         0.60417E+06
         0.11900E+07
        -0.41918E+05
        -0.15579E+06
        -0.88060E+05
        -0.20902E+07
        -0.20828E+07
        -0.15412E+07
        -0.39514E+06
        -0.64260E+06
        -0.60954E+06
        -0.12031E+07
        -0.11304E+07
        -0.15178E+07
        -0.80313E+06
        -0.32660E+06
        -0.39559E+06
         0.91182E+04
         0.49635E+06
         0.14003E+07
        -0.17198E+07
         0.57698E+06
        -0.12835E+07
         0.19847E+06
         0.13039E+07
         0.20070E+07
         0.12771E+07
         0.16331E+07
         0.10675E+07
         0.27752E+06
         0.58599E+06
         0.57094E+06
        -0.62617E+05
         0.97035E+06
        -0.64315E+06
        -0.20979E+07
        -0.22524E+07
        -0.23086E+07
        -0.23298E+07
        -0.10133E+07
        -0.87241E+06
        -0.14200E+07
        -0.20835E+07
        -0.14699E+07
        -0.56233E+04
         0.94708E+06
         0.19728E+06
        -0.38218E+06
        -0.12293E+06
         0.10417E+07
         0.36530E+06
         0.12357E+07
        -0.69998E+06
        -0.17820E+07
         0.62608E+06
        -0.19892E+07
        -0.18898E+07
        -0.12507E+07
        -0.37882E+06
        -0.28303E+07
        -0.20389E+07
         0.31506E+04
         0.49532E+06
         0.80693E+06
        -0.81038E+06
        -0.93527E+05
        -0.49168E+06
         0.23559E+06
        -0.11015E+07
        -0.62875E+06
        -0.22083E+07
        -0.50426E+06
        -0.37852E+07
        -0.25894E+07
        -0.15222E+07
        -0.20110E+07
        -0.20906E+06
        -0.31910E+06
         0.59774E+06
         0.11888E+07
        -0.53392E+05
        -0.16339E+06
        -0.94782E+05
        -0.21081E+07
        -0.20948E+07
        -0.15493E+07
        -0.40066E+06
        -0.64736E+06
        -0.61704E+06
        -0.12107E+07
        -0.11376E+07
        -0.15256E+07
        -0.81088E+06
        -0.33388E+06
        -0.40253E+06
         0.34893E+04
         0.48973E+06
         0.13971E+07
        -0.17420E+07
         0.55832E+06
        -0.12974E+07
         0.19380E+06
         0.12977E+07
         0.19852E+07
         0.12456E+07
         0.16079E+07
         0.10503E+07
         0.25973E+06
         0.57496E+06
         0.55757E+06
        -0.81717E+05
         0.95731E+06
        -0.65678E+06
        -0.21139E+07
        -0.22633E+07
        -0.23212E+07
        -0.23452E+07
        -0.10303E+07
        -0.89190E+06
        -0.14402E+07
        -0.20981E+07
        -0.14834E+07
        -0.22568E+05
         0.92926E+06
         0.20345E+06
        -0.37885E+06
        -0.12031E+06
         0.10457E+07
         0.37221E+06
         0.12419E+07
        -0.69424E+06
        -0.17725E+07
         0.63089E+06
        -0.19851E+07
        -0.18816E+07
        -0.12411E+07
        -0.37569E+06
        -0.28146E+07
        -0.20195E+07
         0.11318E+05
         0.49914E+06
         0.81358E+06
        -0.80264E+06
        -0.84833E+05
        -0.48084E+06
         0.24738E+06
        -0.10919E+07
        -0.62100E+06
        -0.22051E+07
        -0.49670E+06
        -0.37719E+07
        -0.25811E+07
        -0.15101E+07
        -0.19991E+07
        -0.19950E+06
        -0.31285E+06
         0.60445E+06
         0.11966E+07
        -0.44194E+05
        -0.15671E+06
        -0.90885E+05
        -0.20968E+07
        -0.20840E+07
        -0.15341E+07
        -0.38659E+06
        -0.63660E+06
        -0.60563E+06
        -0.12035E+07
        -0.11318E+07
        -0.15195E+07
        -0.80456E+06
        -0.32588E+06
        -0.39401E+06
         0.12312E+05
         0.49766E+06
         0.14053E+07
        -0.17138E+07
         0.58875E+06
        -0.12689E+07
         0.20785E+06
         0.12930E+07
         0.19868E+07
         0.12684E+07
         0.16331E+07
         0.10672E+07
         0.28541E+06
         0.59936E+06
         0.56906E+06
        -0.61117E+05
         0.97818E+06
        -0.63772E+06
        -0.20993E+07
        -0.22537E+07
        -0.23089E+07
        -0.23335E+07
        -0.10119E+07
        -0.87037E+06
        -0.14195E+07
        -0.20802E+07
        -0.14679E+07
         0.27827E+03
         0.95602E+06
         0.19924E+06
        -0.38494E+06
        -0.12583E+06
         0.10397E+07
         0.36459E+06
         0.12346E+07
        -0.70118E+06
        -0.17814E+07
         0.62416E+06
        -0.19989E+07
        -0.18920E+07
        -0.12547E+07
        -0.38999E+06
        -0.28237E+07
        -0.20293E+07
         0.38158E+04
         0.49141E+06
         0.80616E+06
        -0.81216E+06
        -0.91523E+05
        -0.49390E+06
         0.23462E+06
        -0.11051E+07
        -0.62883E+06
        -0.22179E+07
        -0.50259E+06
        -0.37846E+07
        -0.25923E+07
        -0.15180E+07
        -0.20076E+07
        -0.20733E+06
        -0.31903E+06
         0.59296E+06
         0.11903E+07
        -0.55151E+05
        -0.16556E+06
        -0.10188E+06
        -0.21162E+07
        -0.21028E+07
        -0.15497E+07
        -0.40445E+06
        -0.65275E+06
        -0.61837E+06
        -0.12184E+07
        -0.11447E+07
        -0.15307E+07
        -0.81545E+06
        -0.33738E+06
        -0.40303E+06
         0.59194E+04
         0.48883E+06
         0.13972E+07
        -0.17358E+07
         0.56964E+06
        -0.12909E+07
         0.18277E+06
         0.12637E+07
         0.19590E+07
         0.12514E+07
         0.16113E+07
         0.10383E+07
         0.25682E+06
         0.56454E+06
         0.53457E+06
        -0.83951E+05
         0.95445E+06
        -0.65807E+06
        -0.21228E+07
        -0.22901E+07
        -0.23414E+07
        -0.23498E+07
        -0.10343E+07
        -0.89359E+06
        -0.14314E+07
        -0.20884E+07
        -0.14846E+07
        -0.22658E+05
         0.93325E+06
         0.19859E+06
        -0.38687E+06
        -0.12759E+06
         0.10376E+07
         0.36332E+06
         0.12322E+07
        -0.70249E+06
        -0.17833E+07
         0.62417E+06
        -0.20016E+07
        -0.18945E+07
        -0.12564E+07
        -0.39223E+06
        -0.28217E+07
        -0.20295E+07
         0.25131E+04
         0.49130E+06
         0.80474E+06
        -0.81349E+06
        -0.91616E+05
        -0.49701E+06
         0.23260E+06
        -0.11080E+07
        -0.63006E+06
        -0.22215E+07
        -0.50373E+06
        -0.37821E+07
        -0.25940E+07
        -0.15193E+07
        -0.20102E+07
        -0.21128E+06
        -0.32108E+06
         0.58714E+06
         0.11890E+07
        -0.57693E+05
        -0.16851E+06
        -0.10524E+06
        -0.21259E+07
        -0.21139E+07
        -0.15561E+07
        -0.40669E+06
        -0.65406E+06
        -0.62019E+06
        -0.12214E+07
        -0.11475E+07
        -0.15335E+07
        -0.81924E+06
        -0.34181E+06
        -0.40640E+06
         0.49307E+04
         0.48718E+06
         0.13952E+07
        -0.17363E+07
         0.56997E+06
        -0.12970E+07
         0.17309E+06
         0.12631E+07
         0.19586E+07
         0.12446E+07
         0.15931E+07
         0.10174E+07
         0.24535E+06
         0.56341E+06
         0.53109E+06
        -0.89688E+05
         0.94519E+06
        -0.66869E+06
        -0.21304E+07
        -0.22954E+07
        -0.23458E+07
        -0.23545E+07
        -0.10424E+07
        -0.90390E+06
        -0.14380E+07
        -0.20892E+07
        -0.14865E+07
        -0.32765E+05
         0.92417E+06
         0.21783E+06
        -0.36720E+06
        -0.11148E+06
         0.10486E+07
         0.38444E+06
         0.12473E+07
        -0.68316E+06
        -0.17618E+07
         0.63731E+06
        -0.19864E+07
        -0.18734E+07
        -0.12265E+07
        -0.36638E+06
        -0.27957E+07
        -0.20002E+07
         0.19987E+05
         0.50540E+06
         0.81700E+06
        -0.79597E+06
        -0.74261E+05
        -0.47247E+06
         0.25598E+06
        -0.10844E+07
        -0.61361E+06
        -0.22037E+07
        -0.48785E+06
        -0.37558E+07
        -0.25716E+07
        -0.14967E+07
        -0.19873E+07
        -0.19247E+06
        -0.30468E+06
         0.59854E+06
         0.11994E+07
        -0.33113E+05
        -0.14873E+06
        -0.84350E+05
        -0.21078E+07
        -0.20916E+07
        -0.15313E+07
        -0.38296E+06
        -0.62985E+06
        -0.59887E+06
        -0.11978E+07
        -0.11240E+07
        -0.15089E+07
        -0.79818E+06
        -0.32171E+06
        -0.38943E+06
         0.20503E+05
         0.50370E+06
         0.14097E+07
        -0.16850E+07
         0.62087E+06
        -0.12542E+07
         0.20417E+06
         0.13009E+07
         0.20068E+07
         0.12850E+07
         0.16239E+07
         0.10517E+07
         0.28298E+06
         0.59734E+06
         0.57076E+06
        -0.58208E+05
         0.98016E+06
        -0.62876E+06
        -0.20889E+07
        -0.22488E+07
        -0.22955E+07
        -0.23112E+07
        -0.99706E+06
        -0.86542E+06
        -0.14094E+07
        -0.20577E+07
        -0.14486E+07
         0.83595E+04
         0.96578E+06
         0.20996E+06
        -0.37265E+06
        -0.11661E+06
         0.10412E+07
         0.37497E+06
         0.12398E+07
        -0.68937E+06
        -0.17730E+07
         0.62785E+06
        -0.20030E+07
        -0.18837E+07
        -0.12369E+07
        -0.37268E+06
        -0.28054E+07
        -0.20139E+07
         0.10283E+05
         0.49571E+06
         0.81098E+06
        -0.80839E+06
        -0.82603E+05
        -0.48135E+06
         0.24433E+06
        -0.10926E+07
        -0.62313E+06
        -0.22183E+07
        -0.49651E+06
        -0.37671E+07
        -0.25793E+07
        -0.14974E+07
        -0.19936E+07
        -0.19807E+06
        -0.31178E+06
         0.59002E+06
         0.11917E+07
        -0.47235E+05
        -0.15675E+06
        -0.89743E+05
        -0.21297E+07
        -0.21070E+07
        -0.15382E+07
        -0.39432E+06
        -0.64235E+06
        -0.61355E+06
        -0.12090E+07
        -0.11353E+07
        -0.15195E+07
        -0.80729E+06
        -0.32809E+06
        -0.39695E+06
         0.10695E+05
         0.49313E+06
         0.14013E+07
        -0.17175E+07
         0.59334E+06
        -0.12796E+07
         0.19091E+06
         0.12963E+07
         0.19944E+07
         0.12577E+07
         0.15910E+07
         0.10196E+07
         0.25451E+06
         0.56378E+06
         0.53224E+06
        -0.85389E+05
         0.96659E+06
        -0.63507E+06
        -0.20931E+07
        -0.22623E+07
        -0.23185E+07
        -0.23282E+07
        -0.10172E+07
        -0.88405E+06
        -0.14302E+07
        -0.20801E+07
        -0.14624E+07
        -0.45986E+04
         0.94426E+06
         0.19671E+06
        -0.38681E+06
        -0.13050E+06
         0.10314E+07
         0.36009E+06
         0.12260E+07
        -0.69968E+06
        -0.17861E+07
         0.61443E+06
        -0.20307E+07
        -0.18960E+07
        -0.12538E+07
        -0.38665E+06
        -0.28154E+07
        -0.20311E+07
        -0.16661E+04
         0.48116E+06
         0.80398E+06
        -0.81866E+06
        -0.86341E+05
        -0.49222E+06
         0.23072E+06
        -0.11024E+07
        -0.63125E+06
        -0.22423E+07
        -0.50500E+06
        -0.37933E+07
        -0.25918E+07
        -0.14711E+07
        -0.19775E+07
        -0.20854E+06
        -0.32203E+06
         0.58156E+06
         0.11864E+07
        -0.63135E+05
        -0.16989E+06
        -0.10262E+06
        -0.21619E+07
        -0.21223E+07
        -0.15154E+07
        -0.39556E+06
        -0.65590E+06
        -0.63314E+06
        -0.12212E+07
        -0.11496E+07
        -0.15363E+07
        -0.82288E+06
        -0.33962E+06
        -0.40569E+06
         0.29085E+04
         0.48375E+06
         0.13911E+07
        -0.17391E+07
         0.57329E+06
        -0.12968E+07
         0.17599E+06
         0.12754E+07
         0.19606E+07
         0.12191E+07
         0.15543E+07
         0.98735E+06
         0.24705E+06
         0.50520E+06
         0.44005E+06
        -0.12359E+06
         0.94532E+06
        -0.65402E+06
        -0.21102E+07
        -0.22836E+07
        -0.23426E+07
        -0.23562E+07
        -0.10487E+07
        -0.90540E+06
        -0.14502E+07
        -0.21029E+07
        -0.14790E+07
        -0.30291E+05
         0.91550E+06
         0.21504E+06
        -0.36871E+06
        -0.11300E+06
         0.10448E+07
         0.38255E+06
         0.12423E+07
        -0.68269E+06
        -0.17649E+07
         0.62335E+06
        -0.20372E+07
        -0.18772E+07
        -0.12314E+07
        -0.36748E+06
        -0.27908E+07
        -0.20050E+07
         0.16001E+05
         0.49066E+06
         0.81549E+06
        -0.79833E+06
        -0.58202E+05
        -0.47187E+06
         0.25115E+06
        -0.10835E+07
        -0.61352E+06
        -0.22399E+07
        -0.48778E+06
        -0.37976E+07
        -0.25779E+07
        -0.13915E+07
        -0.19047E+07
        -0.19242E+06
        -0.30538E+06
         0.59263E+06
         0.12004E+07
        -0.36799E+05
        -0.14781E+06
        -0.82895E+05
        -0.21609E+07
        -0.20965E+07
        -0.14289E+07
        -0.34970E+06
        -0.63138E+06
        -0.62075E+06
        -0.12010E+07
        -0.11266E+07
        -0.15090E+07
        -0.80090E+06
        -0.32120E+06
        -0.38710E+06
         0.23935E+05
         0.50577E+06
         0.14082E+07
        -0.16864E+07
         0.62499E+06
        -0.12441E+07
         0.21301E+06
         0.12990E+07
         0.19880E+07
         0.12570E+07
         0.15927E+07
         0.10293E+07
         0.32902E+06
         0.48618E+06
         0.36585E+06
        -0.12082E+06
         0.97430E+06
        -0.62966E+06
        -0.20899E+07
        -0.22586E+07
        -0.23005E+07
        -0.23045E+07
        -0.10002E+07
        -0.86365E+06
        -0.14071E+07
        -0.20544E+07
        -0.14337E+07
         0.64287E+04
         0.95406E+06
         0.14725E+06
        -0.43461E+06
        -0.17661E+06
         0.98877E+06
         0.30071E+06
         0.11681E+07
        -0.74448E+06
        -0.18455E+07
         0.55269E+06
        -0.21378E+07
        -0.19546E+07
        -0.13370E+07
        -0.46534E+06
        -0.28766E+07
        -0.21137E+07
        -0.49749E+05
         0.42338E+06
         0.76449E+06
        -0.86857E+06
        -0.11465E+06
        -0.56388E+06
         0.16144E+06
        -0.11720E+07
        -0.67483E+06
        -0.23307E+07
        -0.54200E+06
        -0.39006E+07
        -0.26471E+07
        -0.14216E+07
        -0.19554E+07
        -0.25601E+06
        -0.36306E+06
         0.53235E+06
         0.11409E+07
        -0.13338E+06
        -0.22981E+06
        -0.17063E+06
        -0.22853E+07
        -0.21937E+07
        -0.14855E+07
        -0.44047E+06
        -0.72855E+06
        -0.71855E+06
        -0.12870E+07
        -0.12159E+07
        -0.16126E+07
        -0.88833E+06
        -0.39854E+06
        -0.46063E+06
        -0.57335E+05
         0.40732E+06
         0.13245E+07
        -0.18699E+07
         0.44678E+06
        -0.14296E+07
         0.24346E+05
         0.11108E+07
         0.18070E+07
         0.10729E+07
         0.13952E+07
         0.84382E+06
         0.16015E+06
         0.25087E+06
         0.10979E+06
        -0.30206E+06
         0.82386E+06
        -0.78729E+06
        -0.22539E+07
        -0.24283E+07
        -0.24900E+07
        -0.24992E+07
        -0.11867E+07
        -0.10368E+07
        -0.15728E+07
        -0.22241E+07
        -0.16078E+07
        -0.16072E+06
         0.78815E+06
         0.18624E+06
        -0.42991E+06
        -0.16489E+06
         0.10096E+07
         0.32755E+06
         0.11917E+07
        -0.73576E+06
        -0.17984E+07
         0.59798E+06
        -0.20694E+07
        -0.19345E+07
        -0.13349E+07
        -0.49029E+06
        -0.28196E+07
        -0.20658E+07
         0.17245E+04
         0.46630E+06
         0.79243E+06
        -0.83138E+06
        -0.80430E+05
        -0.52283E+06
         0.19217E+06
        -0.11085E+07
        -0.62845E+06
        -0.22561E+07
        -0.50083E+06
        -0.38129E+07
        -0.25682E+07
        -0.13550E+07
        -0.18817E+07
        -0.21610E+06
        -0.33676E+06
         0.54681E+06
         0.11322E+07
        -0.11869E+06
        -0.23622E+06
        -0.19555E+06
        -0.22288E+07
        -0.21256E+07
        -0.14256E+07
        -0.39996E+06
        -0.67319E+06
        -0.66022E+06
        -0.12295E+07
        -0.11842E+07
        -0.15970E+07
        -0.87563E+06
        -0.36530E+06
        -0.43564E+06
        -0.55492E+05
         0.41365E+06
         0.13261E+07
        -0.17993E+07
         0.53853E+06
        -0.14066E+07
        -0.16371E+05
         0.10262E+07
         0.17555E+07
         0.11573E+07
         0.14820E+07
         0.91268E+06
         0.20109E+06
         0.26225E+06
         0.14476E+06
        -0.23352E+06
         0.85771E+06
        -0.71572E+06
        -0.21517E+07
        -0.23414E+07
        -0.24234E+07
        -0.24704E+07
        -0.11901E+07
        -0.99844E+06
        -0.15179E+07
        -0.21370E+07
        -0.15015E+07
        -0.77006E+05
         0.87489E+06
         0.26677E+09
         0.26228E+09
         0.25880E+09
         0.22403E+09
         0.32051E+09
         0.28886E+09
         0.26351E+09
         0.30296E+09
         0.24960E+09
         0.30293E+09
         0.30674E+09
         0.40441E+09
         0.35790E+09
         0.33235E+09
         0.41681E+09
         0.24772E+09
         0.24538E+09
         0.19348E+09
         0.26405E+09
         0.25512E+09
         0.32947E+09
         0.33140E+09
         0.31367E+09
         0.24088E+09
         0.29078E+09
         0.20949E+09
         0.32770E+09
         0.27014E+09
         0.28837E+09
         0.30275E+09
         0.24533E+09
         0.23504E+09
         0.22413E+09
         0.23217E+09
         0.36385E+09
         0.31144E+09
         0.31964E+09
         0.39146E+09
         0.37114E+09
         0.36372E+09
         0.38362E+09
         0.36006E+09
         0.34120E+09
         0.30091E+09
         0.31121E+09
         0.36649E+09
         0.32148E+09
         0.29476E+09
         0.28066E+09
         0.29777E+09
         0.34589E+09
         0.30505E+09
         0.67159E+09
         0.65794E+09
         0.66952E+09
         0.64793E+09
         0.66819E+09
         0.70086E+09
         0.70371E+09
         0.69595E+09
         0.70140E+09
         0.72113E+09
         0.69989E+09
         0.66016E+09
         0.58530E+09
         0.55250E+09
         0.56072E+09
         0.57368E+09
         0.58086E+09
         0.63278E+09
         0.67720E+09
         0.68012E+09
         0.62359E+09
         0.60131E+09
         0.62304E+09
         0.61704E+09
         0.61342E+09
         0.61471E+09
         0.30983E+10
         0.32457E+10
         0.31989E+10
         0.29185E+10
         0.35941E+10
         0.33755E+10
         0.35119E+10
         0.35393E+10
         0.30297E+10
         0.35374E+10
         0.38571E+10
         0.43222E+10
         0.39181E+10
         0.39693E+10
         0.44734E+10
         0.29688E+10
         0.31911E+10
         0.27841E+10
         0.32958E+10
         0.34680E+10
         0.35881E+10
         0.36667E+10
         0.34441E+10
         0.31696E+10
         0.35789E+10
         0.30582E+10
         0.39549E+10
         0.38879E+10
         0.39055E+10
         0.37057E+10
         0.30007E+10
         0.31558E+10
         0.29418E+10
         0.30767E+10
         0.39357E+10
         0.36108E+10
         0.36227E+10
         0.43318E+10
         0.42209E+10
         0.41703E+10
         0.42439E+10
         0.40300E+10
         0.38108E+10
         0.33621E+10
         0.35011E+10
         0.39338E+10
         0.36377E+10
         0.34203E+10
         0.33523E+10
         0.34760E+10
         0.37742E+10
         0.34864E+10
         0.62438E+10
         0.60824E+10
         0.62093E+10
         0.60135E+10
         0.61926E+10
         0.65113E+10
         0.66173E+10
         0.66042E+10
         0.66515E+10
         0.68041E+10
         0.66067E+10
         0.62095E+10
         0.55649E+10
         0.52585E+10
         0.52723E+10
         0.53394E+10
         0.53909E+10
         0.58475E+10
         0.62685E+10
         0.62936E+10
         0.58233E+10
         0.56427E+10
         0.58299E+10
         0.57888E+10
         0.57228E+10
         0.57068E+10
  
SCALARS                      stress_zz  double 1
LOOKUP_TABLE default
         0.85266E+12
         0.84139E+12
         0.84854E+12
         0.86135E+12
        -0.37100E+03
        -0.41602E+03
        -0.39835E+03
        -0.36189E+03
         0.84099E+12
         0.84481E+12
        -0.37411E+03
        -0.36204E+03
         0.82505E+12
         0.82445E+12
        -0.44452E+03
        -0.41796E+03
         0.85947E+12
         0.82533E+12
        -0.32845E+03
        -0.36430E+03
         0.81277E+12
         0.80301E+12
         0.81853E+12
        -0.44057E+03
        -0.38475E+03
        -0.39730E+03
         0.80338E+12
         0.78912E+12
        -0.42266E+03
        -0.35644E+03
         0.85885E+12
         0.84401E+12
         0.87323E+12
        -0.36068E+03
        -0.33531E+03
        -0.32601E+03
         0.85027E+12
         0.83134E+12
        -0.38159E+03
        -0.34820E+03
         0.84278E+12
         0.82817E+12
        -0.32980E+03
        -0.29196E+03
         0.85513E+12
         0.86061E+12
        -0.36141E+03
        -0.40383E+03
         0.81644E+12
        -0.35307E+03
         0.85954E+12
        -0.41487E+03
         0.79927E+12
        -0.37285E+03
         0.79479E+12
        -0.35764E+03
         0.79486E+12
         0.81079E+12
        -0.36440E+03
        -0.35488E+03
         0.85855E+12
         0.85285E+12
        -0.36540E+03
        -0.41308E+03
         0.86211E+12
        -0.35258E+03
         0.85533E+12
        -0.38480E+03
         0.83748E+12
         0.83569E+12
        -0.37041E+03
        -0.38812E+03
         0.83165E+12
        -0.39138E+03
         0.78405E+12
        -0.30922E+03
         0.78154E+12
        -0.30014E+03
         0.78279E+12
        -0.31647E+03
         0.78969E+12
         0.79687E+12
        -0.30152E+03
        -0.31436E+03
         0.81130E+12
        -0.29278E+03
         0.85484E+12
        -0.38394E+03
         0.84806E+12
        -0.39296E+03
         0.84249E+12
         0.83943E+12
        -0.37737E+03
        -0.38177E+03
         0.84320E+12
        -0.34676E+03
         0.84588E+12
        -0.34181E+03
         0.84346E+12
        -0.36591E+03
         0.84260E+12
         0.84505E+12
        -0.35883E+03
        -0.36936E+03
         0.82915E+12
         0.83560E+12
        -0.27860E+03
        -0.26204E+03
         0.82793E+12
        -0.26602E+03
         0.83537E+12
        -0.25507E+03
         0.82803E+12
        -0.25152E+03
         0.81175E+12
        -0.23769E+03
         0.79595E+12
        -0.21116E+03
         0.78649E+12
        -0.19014E+03
         0.78552E+12
        -0.18882E+03
         0.78582E+12
        -0.20476E+03
         0.79609E+12
        -0.21520E+03
         0.81526E+12
        -0.19650E+03
         0.83629E+12
        -0.17712E+03
         0.84859E+12
        -0.17692E+03
         0.86073E+12
        -0.19775E+03
         0.86875E+12
        -0.22548E+03
         0.86846E+12
        -0.24224E+03
         0.84897E+12
        -0.26162E+03
         0.83538E+12
        -0.28028E+03
         0.83070E+12
        -0.25676E+03
         0.83799E+12
        -0.22525E+03
         0.84180E+12
        -0.22455E+03
         0.83542E+12
        -0.24568E+03
         0.83552E+12
        -0.26192E+03
         0.84033E+12
        -0.24856E+03
         0.84659E+12
        -0.24030E+03
        -0.31428E+11
        -0.31112E+11
        -0.31149E+11
        -0.31588E+11
        -0.30836E+11
        -0.31179E+11
        -0.30747E+11
        -0.30981E+11
        -0.31513E+11
        -0.31158E+11
        -0.30476E+11
        -0.30389E+11
        -0.30616E+11
        -0.30631E+11
        -0.30487E+11
        -0.31566E+11
        -0.31476E+11
        -0.31720E+11
        -0.31083E+11
        -0.31176E+11
        -0.31041E+11
        -0.31132E+11
        -0.30962E+11
        -0.31007E+11
        -0.31169E+11
        -0.31158E+11
        -0.30874E+11
        -0.30901E+11
        -0.30673E+11
        -0.31011E+11
        -0.31522E+11
        -0.31108E+11
        -0.31519E+11
        -0.31221E+11
        -0.30327E+11
        -0.30642E+11
        -0.30783E+11
        -0.30617E+11
        -0.30595E+11
        -0.30304E+11
        -0.30079E+11
        -0.30608E+11
        -0.31047E+11
        -0.30991E+11
        -0.30769E+11
        -0.30340E+11
        -0.30709E+11
        -0.31064E+11
        -0.31041E+11
        -0.30768E+11
        -0.30462E+11
        -0.30868E+11
        -0.29488E+11
        -0.29939E+11
        -0.29867E+11
        -0.29969E+11
        -0.29943E+11
        -0.29705E+11
        -0.29449E+11
        -0.29363E+11
        -0.29400E+11
        -0.29373E+11
        -0.29260E+11
        -0.29920E+11
        -0.30148E+11
        -0.30234E+11
        -0.30375E+11
        -0.30479E+11
        -0.30474E+11
        -0.30296E+11
        -0.29643E+11
        -0.29806E+11
        -0.30033E+11
        -0.30031E+11
        -0.29992E+11
        -0.29773E+11
        -0.30093E+11
        -0.30206E+11
         0.26977E+07
         0.16356E+07
         0.19053E+07
         0.29230E+07
         0.22148E+07
         0.30575E+07
        -0.16893E+06
        -0.55281E+05
         0.32590E+07
        -0.22035E+06
        -0.14335E+07
         0.11208E+07
         0.15475E+07
        -0.30539E+07
         0.61446E+05
         0.14802E+07
         0.20825E+07
         0.23947E+07
         0.75463E+06
         0.66707E+06
         0.87455E+06
         0.16807E+07
         0.24648E+06
         0.96755E+05
        -0.91289E+06
        -0.43815E+05
        -0.45963E+07
        -0.54374E+07
        -0.24899E+07
        -0.60198E+06
         0.13647E+07
         0.44528E+06
         0.25577E+07
         0.37013E+07
         0.11439E+07
         0.10185E+07
         0.14554E+07
        -0.21776E+06
        -0.87390E+05
         0.45032E+06
         0.12205E+07
         0.75530E+06
         0.94047E+06
         0.29317E+06
         0.38824E+06
         0.64573E+06
         0.10756E+07
         0.13258E+07
         0.18139E+07
         0.24226E+07
         0.23888E+07
         0.30185E+07
        -0.22378E+06
         0.22466E+07
         0.69120E+06
         0.26014E+07
         0.41476E+07
         0.52155E+07
         0.45061E+07
         0.48171E+07
         0.41744E+07
         0.31538E+07
         0.28190E+07
         0.24318E+07
         0.16102E+07
         0.25997E+07
         0.91532E+06
        -0.28023E+06
        -0.72837E+05
         0.10442E+05
         0.43925E+06
         0.20905E+07
         0.21348E+07
         0.15383E+07
         0.67816E+06
         0.67165E+06
         0.17347E+07
         0.27188E+07
         0.26004E+07
         0.15242E+07
         0.17937E+07
         0.28112E+07
         0.20996E+07
         0.29428E+07
        -0.31367E+06
        -0.16715E+06
         0.31451E+07
        -0.34261E+06
        -0.15808E+07
         0.98719E+06
         0.14271E+07
        -0.31865E+07
        -0.70337E+05
         0.13685E+07
         0.19358E+07
         0.22735E+07
         0.61749E+06
         0.49940E+06
         0.75556E+06
         0.15636E+07
         0.12232E+06
        -0.56381E+05
        -0.10575E+07
        -0.19816E+06
        -0.47227E+07
        -0.56057E+07
        -0.26654E+07
        -0.75078E+06
         0.12530E+07
         0.30218E+06
         0.24442E+07
         0.35828E+07
         0.10198E+07
         0.89999E+06
         0.13419E+07
        -0.35406E+06
        -0.21940E+06
         0.31826E+06
         0.10860E+07
         0.62204E+06
         0.81368E+06
         0.17034E+06
         0.26951E+06
         0.52211E+06
         0.95368E+06
         0.12071E+07
         0.17005E+07
         0.23131E+07
         0.22733E+07
         0.29057E+07
        -0.41953E+06
         0.20560E+07
         0.50398E+06
         0.24221E+07
         0.39585E+07
         0.50057E+07
         0.42960E+07
         0.46034E+07
         0.39581E+07
         0.29335E+07
         0.25996E+07
         0.22288E+07
         0.14388E+07
         0.24391E+07
         0.74812E+06
        -0.45806E+06
        -0.25419E+06
        -0.17816E+06
         0.24938E+06
         0.18901E+07
         0.19446E+07
         0.13660E+07
         0.50602E+06
         0.49515E+06
         0.15566E+07
         0.25376E+07
         0.26233E+07
         0.15462E+07
         0.18176E+07
         0.28409E+07
         0.21298E+07
         0.29738E+07
        -0.28121E+06
        -0.14143E+06
         0.31638E+07
        -0.33623E+06
        -0.15509E+07
         0.10127E+07
         0.14501E+07
        -0.31571E+07
        -0.37733E+05
         0.13462E+07
         0.19282E+07
         0.23045E+07
         0.58393E+06
         0.46638E+06
         0.73589E+06
         0.15560E+07
         0.40890E+05
        -0.16690E+06
        -0.11175E+07
        -0.30633E+06
        -0.46971E+07
        -0.56289E+07
        -0.27341E+07
        -0.85433E+06
         0.12534E+07
         0.26958E+06
         0.24749E+07
         0.36212E+07
         0.10522E+07
         0.92982E+06
         0.13670E+07
        -0.33007E+06
        -0.19732E+06
         0.32603E+06
         0.10827E+07
         0.57367E+06
         0.74541E+06
         0.88115E+05
         0.24913E+06
         0.53910E+06
         0.97578E+06
         0.12339E+07
         0.17313E+07
         0.23468E+07
         0.23061E+07
         0.29378E+07
        -0.36135E+06
         0.21081E+07
         0.56167E+06
         0.24665E+07
         0.39913E+07
         0.50382E+07
         0.43377E+07
         0.46455E+07
         0.40007E+07
         0.29775E+07
         0.26255E+07
         0.22279E+07
         0.14416E+07
         0.24687E+07
         0.76763E+06
        -0.49402E+06
        -0.29318E+06
        -0.16806E+06
         0.30149E+06
         0.19504E+07
         0.19987E+07
         0.14209E+07
         0.56733E+06
         0.54674E+06
         0.15986E+07
         0.25781E+07
         0.26095E+07
         0.15368E+07
         0.18083E+07
         0.28231E+07
         0.21190E+07
         0.29642E+07
        -0.29145E+06
        -0.15573E+06
         0.31308E+07
        -0.38791E+06
        -0.15661E+07
         0.99891E+06
         0.14405E+07
        -0.31751E+07
        -0.53917E+05
         0.12574E+07
         0.18421E+07
         0.22816E+07
         0.46422E+06
         0.32499E+06
         0.64562E+06
         0.14751E+07
        -0.14859E+06
        -0.41406E+06
        -0.12893E+07
        -0.55267E+06
        -0.47312E+07
        -0.57651E+07
        -0.29507E+07
        -0.11044E+07
         0.11993E+07
         0.14064E+06
         0.24576E+07
         0.36016E+07
         0.10363E+07
         0.91784E+06
         0.13579E+07
        -0.35494E+06
        -0.22917E+06
         0.26634E+06
         0.10066E+07
         0.42278E+06
         0.56025E+06
        -0.10569E+06
         0.15087E+06
         0.48931E+06
         0.93660E+06
         0.12118E+07
         0.17118E+07
         0.23261E+07
         0.22887E+07
         0.29256E+07
        -0.38879E+06
         0.20892E+07
         0.53204E+06
         0.24406E+07
         0.39739E+07
         0.50183E+07
         0.43041E+07
         0.46090E+07
         0.39653E+07
         0.29348E+07
         0.25579E+07
         0.21187E+07
         0.13377E+07
         0.24192E+07
         0.71247E+06
        -0.64521E+06
        -0.45309E+06
        -0.24254E+06
         0.26592E+06
         0.19166E+07
         0.19728E+07
         0.13902E+07
         0.53528E+06
         0.52486E+06
         0.15820E+07
         0.25616E+07
         0.25844E+07
         0.15177E+07
         0.17922E+07
         0.28047E+07
         0.21065E+07
         0.29506E+07
        -0.30872E+06
        -0.17966E+06
         0.30913E+07
        -0.44177E+06
        -0.15823E+07
         0.99030E+06
         0.14298E+07
        -0.31947E+07
        -0.61540E+05
         0.11975E+07
         0.17741E+07
         0.22603E+07
         0.38556E+06
         0.22269E+06
         0.58750E+06
         0.14170E+07
        -0.26499E+06
        -0.56725E+06
        -0.14120E+07
        -0.71047E+06
        -0.47608E+07
        -0.58633E+07
        -0.30992E+07
        -0.12700E+07
         0.11429E+07
         0.46987E+05
         0.24234E+07
         0.35744E+07
         0.10198E+07
         0.90253E+06
         0.13443E+07
        -0.37334E+06
        -0.25541E+06
         0.22123E+06
         0.95300E+06
         0.32139E+06
         0.43882E+06
        -0.22879E+06
         0.86116E+05
         0.45647E+06
         0.90185E+06
         0.11765E+07
         0.16780E+07
         0.22954E+07
         0.22615E+07
         0.29057E+07
        -0.41349E+06
         0.20728E+07
         0.50682E+06
         0.24205E+07
         0.39658E+07
         0.50124E+07
         0.42898E+07
         0.45849E+07
         0.39353E+07
         0.29083E+07
         0.25167E+07
         0.20431E+07
         0.12669E+07
         0.23810E+07
         0.67353E+06
        -0.74314E+06
        -0.56533E+06
        -0.29577E+06
         0.24974E+06
         0.18859E+07
         0.19384E+07
         0.13549E+07
         0.49405E+06
         0.48941E+06
         0.15601E+07
         0.25452E+07
         0.25236E+07
         0.14810E+07
         0.17763E+07
         0.28200E+07
         0.21221E+07
         0.29724E+07
        -0.32007E+06
        -0.22180E+06
         0.30361E+07
        -0.51491E+06
        -0.15696E+07
         0.10202E+07
         0.14419E+07
        -0.31920E+07
        -0.24176E+05
         0.12086E+07
         0.17584E+07
         0.22921E+07
         0.40204E+06
         0.23588E+06
         0.60437E+06
         0.14374E+07
        -0.26239E+06
        -0.57035E+06
        -0.14622E+07
        -0.73263E+06
        -0.47674E+07
        -0.58748E+07
        -0.30878E+07
        -0.12749E+07
         0.10755E+07
        -0.24167E+04
         0.23659E+07
         0.35675E+07
         0.10341E+07
         0.90411E+06
         0.13418E+07
        -0.34904E+06
        -0.23294E+06
         0.24618E+06
         0.97933E+06
         0.33752E+06
         0.45183E+06
        -0.23657E+06
         0.77819E+05
         0.45103E+06
         0.87178E+06
         0.11052E+07
         0.15955E+07
         0.22537E+07
         0.22526E+07
         0.29153E+07
        -0.36567E+06
         0.21221E+07
         0.54697E+06
         0.24474E+07
         0.39939E+07
         0.50505E+07
         0.43330E+07
         0.46267E+07
         0.39833E+07
         0.29716E+07
         0.25721E+07
         0.20766E+07
         0.13043E+07
         0.24201E+07
         0.71108E+06
        -0.71321E+06
        -0.54371E+06
        -0.27435E+06
         0.27546E+06
         0.19037E+07
         0.19345E+07
         0.13304E+07
         0.47780E+06
         0.49746E+06
         0.15841E+07
         0.25797E+07
         0.24308E+07
         0.14161E+07
         0.17379E+07
         0.28088E+07
         0.21098E+07
         0.29713E+07
        -0.37692E+06
        -0.30436E+06
         0.29430E+07
        -0.62334E+06
        -0.16046E+07
         0.10087E+07
         0.14224E+07
        -0.32363E+07
        -0.31997E+05
         0.11907E+07
         0.17028E+07
         0.22847E+07
         0.38854E+06
         0.21107E+06
         0.59622E+06
         0.14317E+07
        -0.27155E+06
        -0.58894E+06
        -0.15348E+07
        -0.77256E+06
        -0.48182E+07
        -0.59252E+07
        -0.31011E+07
        -0.12937E+07
         0.98101E+06
        -0.83544E+05
         0.22781E+07
         0.35314E+07
         0.10148E+07
         0.87931E+06
         0.13150E+07
        -0.36836E+06
        -0.25170E+06
         0.23594E+06
         0.97483E+06
         0.33542E+06
         0.45067E+06
        -0.25533E+06
         0.41987E+05
         0.40459E+06
         0.80246E+06
         0.99812E+06
         0.14778E+07
         0.21807E+07
         0.22163E+07
         0.29018E+07
        -0.38581E+06
         0.21065E+07
         0.53498E+06
         0.24338E+07
         0.39742E+07
         0.50271E+07
         0.43136E+07
         0.46099E+07
         0.39664E+07
         0.29590E+07
         0.25620E+07
         0.20644E+07
         0.13021E+07
         0.24170E+07
         0.70287E+06
        -0.71777E+06
        -0.55318E+06
        -0.30805E+06
         0.22516E+06
         0.18483E+07
         0.18719E+07
         0.12529E+07
         0.40986E+06
         0.46137E+06
         0.15647E+07
         0.25644E+07
         0.24038E+07
         0.13919E+07
         0.17222E+07
         0.27937E+07
         0.20965E+07
         0.29581E+07
        -0.40475E+06
        -0.33265E+06
         0.29156E+07
        -0.65510E+06
        -0.16294E+07
         0.99268E+06
         0.14033E+07
        -0.32618E+07
        -0.45433E+05
         0.11747E+07
         0.16805E+07
         0.22678E+07
         0.37617E+06
         0.19142E+06
         0.58343E+06
         0.14183E+07
        -0.28362E+06
        -0.60318E+06
        -0.15583E+07
        -0.79532E+06
        -0.48396E+07
        -0.59520E+07
        -0.31261E+07
        -0.13116E+07
         0.95038E+06
        -0.11586E+06
         0.22499E+07
         0.35110E+07
         0.99851E+06
         0.86588E+06
         0.12987E+07
        -0.39280E+06
        -0.27349E+06
         0.21352E+06
         0.95238E+06
         0.31742E+06
         0.43911E+06
        -0.27209E+06
         0.20578E+05
         0.38286E+06
         0.77956E+06
         0.97153E+06
         0.14485E+07
         0.21554E+07
         0.21939E+07
         0.28849E+07
        -0.41342E+06
         0.20794E+07
         0.51665E+06
         0.24151E+07
         0.39515E+07
         0.50072E+07
         0.42931E+07
         0.45815E+07
         0.39288E+07
         0.29195E+07
         0.25263E+07
         0.20482E+07
         0.12891E+07
         0.23892E+07
         0.67391E+06
        -0.74519E+06
        -0.58880E+06
        -0.34203E+06
         0.19648E+06
         0.18252E+07
         0.18528E+07
         0.12270E+07
         0.37564E+06
         0.42946E+06
         0.15378E+07
         0.25379E+07
         0.24211E+07
         0.14083E+07
         0.17345E+07
         0.27984E+07
         0.21109E+07
         0.29624E+07
        -0.38243E+06
        -0.31136E+06
         0.29332E+07
        -0.63324E+06
        -0.16114E+07
         0.10089E+07
         0.14157E+07
        -0.32407E+07
        -0.19827E+05
         0.11959E+07
         0.17021E+07
         0.22817E+07
         0.40025E+06
         0.21388E+06
         0.60065E+06
         0.14347E+07
        -0.26586E+06
        -0.57789E+06
        -0.15355E+07
        -0.77039E+06
        -0.48076E+07
        -0.59212E+07
        -0.31004E+07
        -0.12923E+07
         0.96869E+06
        -0.97687E+05
         0.22643E+07
         0.35176E+07
         0.10171E+07
         0.88126E+06
         0.13113E+07
        -0.37462E+06
        -0.25795E+06
         0.22737E+06
         0.96793E+06
         0.33460E+06
         0.45656E+06
        -0.25565E+06
         0.34494E+05
         0.39676E+06
         0.79450E+06
         0.99006E+06
         0.14675E+07
         0.21696E+07
         0.22034E+07
         0.28892E+07
        -0.37261E+06
         0.21196E+07
         0.54052E+06
         0.24249E+07
         0.39713E+07
         0.50381E+07
         0.43275E+07
         0.46063E+07
         0.39382E+07
         0.29340E+07
         0.25526E+07
         0.20856E+07
         0.13222E+07
         0.24106E+07
         0.69409E+06
        -0.72193E+06
        -0.56528E+06
        -0.31312E+06
         0.22392E+06
         0.18574E+07
         0.18861E+07
         0.12569E+07
         0.40042E+06
         0.45148E+06
         0.15599E+07
         0.25619E+07
         0.24167E+07
         0.14069E+07
         0.17314E+07
         0.27884E+07
         0.21082E+07
         0.29554E+07
        -0.38411E+06
        -0.31864E+06
         0.29196E+07
        -0.64486E+06
        -0.16217E+07
         0.99915E+06
         0.14128E+07
        -0.32548E+07
        -0.33955E+05
         0.11860E+07
         0.16878E+07
         0.22637E+07
         0.39009E+06
         0.19827E+06
         0.59404E+06
         0.14262E+07
        -0.27209E+06
        -0.58722E+06
        -0.15400E+07
        -0.77984E+06
        -0.48140E+07
        -0.59244E+07
        -0.31048E+07
        -0.13001E+07
         0.95933E+06
        -0.10774E+06
         0.22490E+07
         0.35025E+07
         0.10112E+07
         0.87521E+06
         0.13075E+07
        -0.39570E+06
        -0.26982E+06
         0.21630E+06
         0.95708E+06
         0.32774E+06
         0.44668E+06
        -0.26038E+06
         0.29496E+05
         0.38985E+06
         0.78386E+06
         0.97793E+06
         0.14558E+07
         0.21597E+07
         0.21946E+07
         0.28795E+07
        -0.38458E+06
         0.21101E+07
         0.52135E+06
         0.24086E+07
         0.39690E+07
         0.50266E+07
         0.43009E+07
         0.45765E+07
         0.39207E+07
         0.29078E+07
         0.25239E+07
         0.20713E+07
         0.13051E+07
         0.24012E+07
         0.68536E+06
        -0.73005E+06
        -0.56655E+06
        -0.31880E+06
         0.21568E+06
         0.18356E+07
         0.18589E+07
         0.12359E+07
         0.38965E+06
         0.44617E+06
         0.15478E+07
         0.25449E+07
         0.24044E+07
         0.13946E+07
         0.17224E+07
         0.27827E+07
         0.20988E+07
         0.29510E+07
        -0.39429E+06
        -0.32962E+06
         0.29072E+07
        -0.65642E+06
        -0.16334E+07
         0.98623E+06
         0.14042E+07
        -0.32662E+07
        -0.48411E+05
         0.11722E+07
         0.16765E+07
         0.22529E+07
         0.37755E+06
         0.18611E+06
         0.58551E+06
         0.14175E+07
        -0.28158E+06
        -0.60178E+06
        -0.15444E+07
        -0.79763E+06
        -0.48185E+07
        -0.59314E+07
        -0.31102E+07
        -0.13055E+07
         0.94575E+06
        -0.12410E+06
         0.22404E+07
         0.34996E+07
         0.99680E+06
         0.86466E+06
         0.12988E+07
        -0.41608E+06
        -0.28317E+06
         0.20669E+06
         0.95092E+06
         0.32192E+06
         0.43768E+06
        -0.26936E+06
         0.20603E+05
         0.38053E+06
         0.77393E+06
         0.96743E+06
         0.14446E+07
         0.21510E+07
         0.21863E+07
         0.28753E+07
        -0.40842E+06
         0.20903E+07
         0.50676E+06
         0.24037E+07
         0.39626E+07
         0.50036E+07
         0.42675E+07
         0.45495E+07
         0.39025E+07
         0.28888E+07
         0.25122E+07
         0.20572E+07
         0.12846E+07
         0.23872E+07
         0.67081E+06
        -0.74682E+06
        -0.57769E+06
        -0.33189E+06
         0.19948E+06
         0.18176E+07
         0.18382E+07
         0.12143E+07
         0.37415E+06
         0.43144E+06
         0.15295E+07
         0.25256E+07
         0.24125E+07
         0.13997E+07
         0.17270E+07
         0.27912E+07
         0.21086E+07
         0.29612E+07
        -0.37926E+06
        -0.31470E+06
         0.29153E+07
        -0.64661E+06
        -0.16162E+07
         0.99731E+06
         0.14080E+07
        -0.32470E+07
        -0.24670E+05
         0.11842E+07
         0.16853E+07
         0.22666E+07
         0.39216E+06
         0.20386E+06
         0.59926E+06
         0.14321E+07
        -0.26957E+06
        -0.58621E+06
        -0.15320E+07
        -0.78182E+06
        -0.47977E+07
        -0.59116E+07
        -0.30816E+07
        -0.12846E+07
         0.96027E+06
        -0.11179E+06
         0.22577E+07
         0.35162E+07
         0.10083E+07
         0.87451E+06
         0.13041E+07
        -0.40141E+06
        -0.26773E+06
         0.22674E+06
         0.96825E+06
         0.33502E+06
         0.45172E+06
        -0.25928E+06
         0.29034E+05
         0.38826E+06
         0.78302E+06
         0.97867E+06
         0.14570E+07
         0.21631E+07
         0.21963E+07
         0.28870E+07
        -0.37860E+06
         0.21226E+07
         0.53711E+06
         0.24186E+07
         0.39577E+07
         0.50051E+07
         0.42914E+07
         0.45761E+07
         0.39205E+07
         0.29160E+07
         0.25380E+07
         0.20695E+07
         0.13067E+07
         0.24097E+07
         0.69121E+06
        -0.73110E+06
        -0.56712E+06
        -0.31866E+06
         0.21190E+06
         0.18370E+07
         0.18612E+07
         0.12365E+07
         0.39321E+06
         0.44762E+06
         0.15535E+07
         0.25537E+07
         0.24068E+07
         0.13899E+07
         0.17183E+07
         0.27799E+07
         0.20991E+07
         0.29512E+07
        -0.39264E+06
        -0.32459E+06
         0.29053E+07
        -0.66105E+06
        -0.16331E+07
         0.98124E+06
         0.13904E+07
        -0.32645E+07
        -0.34881E+05
         0.11731E+07
         0.16708E+07
         0.22476E+07
         0.37673E+06
         0.18570E+06
         0.58384E+06
         0.14164E+07
        -0.28582E+06
        -0.60304E+06
        -0.15446E+07
        -0.79743E+06
        -0.48159E+07
        -0.59372E+07
        -0.30994E+07
        -0.12950E+07
         0.94764E+06
        -0.12727E+06
         0.22392E+07
         0.35025E+07
         0.99458E+06
         0.86220E+06
         0.12896E+07
        -0.42364E+06
        -0.28962E+06
         0.20748E+06
         0.94730E+06
         0.31532E+06
         0.43634E+06
        -0.27764E+06
         0.12722E+05
         0.37468E+06
         0.76885E+06
         0.96218E+06
         0.14426E+07
         0.21533E+07
         0.21851E+07
         0.28759E+07
        -0.40216E+06
         0.21023E+07
         0.51401E+06
         0.23920E+07
         0.39267E+07
         0.49756E+07
         0.42733E+07
         0.45528E+07
         0.38897E+07
         0.28856E+07
         0.25010E+07
         0.20330E+07
         0.12822E+07
         0.23842E+07
         0.66947E+06
        -0.75587E+06
        -0.60541E+06
        -0.35282E+06
         0.19472E+06
         0.18132E+07
         0.18366E+07
         0.12238E+07
         0.38446E+06
         0.42943E+06
         0.15287E+07
         0.25291E+07
         0.24059E+07
         0.13866E+07
         0.17158E+07
         0.27765E+07
         0.20980E+07
         0.29484E+07
        -0.39329E+06
        -0.32494E+06
         0.29059E+07
        -0.66046E+06
        -0.16354E+07
         0.97906E+06
         0.13876E+07
        -0.32655E+07
        -0.33894E+05
         0.11711E+07
         0.16716E+07
         0.22426E+07
         0.37554E+06
         0.18298E+06
         0.58057E+06
         0.14140E+07
        -0.28939E+06
        -0.60615E+06
        -0.15429E+07
        -0.80195E+06
        -0.48113E+07
        -0.59407E+07
        -0.31018E+07
        -0.12964E+07
         0.94108E+06
        -0.13351E+06
         0.22318E+07
         0.34995E+07
         0.99139E+06
         0.85829E+06
         0.12853E+07
        -0.43413E+06
        -0.30179E+06
         0.20003E+06
         0.94508E+06
         0.31371E+06
         0.43426E+06
        -0.28068E+06
         0.97301E+04
         0.37148E+06
         0.76429E+06
         0.95575E+06
         0.14369E+07
         0.21513E+07
         0.21831E+07
         0.28733E+07
        -0.40287E+06
         0.21026E+07
         0.50774E+06
         0.23818E+07
         0.39261E+07
         0.49751E+07
         0.42659E+07
         0.45333E+07
         0.38675E+07
         0.28734E+07
         0.24998E+07
         0.20294E+07
         0.12761E+07
         0.23743E+07
         0.65814E+06
        -0.76380E+06
        -0.61059E+06
        -0.35730E+06
         0.18983E+06
         0.18046E+07
         0.18257E+07
         0.12168E+07
         0.38359E+06
         0.42700E+06
         0.15176E+07
         0.25191E+07
         0.24315E+07
         0.14177E+07
         0.17422E+07
         0.27987E+07
         0.21266E+07
         0.29717E+07
        -0.34805E+06
        -0.29401E+06
         0.29269E+07
        -0.63557E+06
        -0.15949E+07
         0.10141E+07
         0.14193E+07
        -0.32310E+07
         0.13693E+04
         0.11967E+07
         0.17010E+07
         0.22695E+07
         0.40713E+06
         0.22093E+06
         0.61103E+06
         0.14430E+07
        -0.26001E+06
        -0.57248E+06
        -0.15078E+07
        -0.76675E+06
        -0.47711E+07
        -0.58879E+07
        -0.30484E+07
        -0.12589E+07
         0.97000E+06
        -0.98489E+05
         0.22585E+07
         0.35216E+07
         0.10221E+07
         0.88689E+06
         0.13131E+07
        -0.41123E+06
        -0.27199E+06
         0.23236E+06
         0.97396E+06
         0.34320E+06
         0.46038E+06
        -0.24965E+06
         0.41355E+05
         0.40204E+06
         0.79336E+06
         0.98421E+06
         0.14622E+07
         0.21731E+07
         0.22039E+07
         0.28936E+07
        -0.34859E+06
         0.21567E+07
         0.55316E+06
         0.24147E+07
         0.39661E+07
         0.50257E+07
         0.43083E+07
         0.45657E+07
         0.39040E+07
         0.29131E+07
         0.25357E+07
         0.20715E+07
         0.13098E+07
         0.24120E+07
         0.70085E+06
        -0.71944E+06
        -0.56072E+06
        -0.30383E+06
         0.23575E+06
         0.18526E+07
         0.18667E+07
         0.12475E+07
         0.41718E+06
         0.46708E+06
         0.15611E+07
         0.25631E+07
         0.24210E+07
         0.14089E+07
         0.17342E+07
         0.27848E+07
         0.21147E+07
         0.29614E+07
        -0.35977E+06
        -0.30695E+06
         0.29127E+07
        -0.65383E+06
        -0.16114E+07
         0.10017E+07
         0.14116E+07
        -0.32494E+07
        -0.13419E+05
         0.11824E+07
         0.16827E+07
         0.22537E+07
         0.38666E+06
         0.19897E+06
         0.60072E+06
         0.14286E+07
        -0.27001E+06
        -0.59279E+06
        -0.15233E+07
        -0.78880E+06
        -0.47873E+07
        -0.59052E+07
        -0.30495E+07
        -0.12659E+07
         0.96087E+06
        -0.11601E+06
         0.22458E+07
         0.35051E+07
         0.10045E+07
         0.87573E+06
         0.13061E+07
        -0.43642E+06
        -0.28968E+06
         0.22418E+06
         0.96081E+06
         0.32796E+06
         0.44265E+06
        -0.26331E+06
         0.27154E+05
         0.38926E+06
         0.78158E+06
         0.97499E+06
         0.14501E+07
         0.21584E+07
         0.21906E+07
         0.28822E+07
        -0.38332E+06
         0.21274E+07
         0.52649E+06
         0.24007E+07
         0.39612E+07
         0.50125E+07
         0.42793E+07
         0.45306E+07
         0.38700E+07
         0.28829E+07
         0.25001E+07
         0.20308E+07
         0.12807E+07
         0.23974E+07
         0.69412E+06
        -0.72368E+06
        -0.57465E+06
        -0.32795E+06
         0.21774E+06
         0.18312E+07
         0.18469E+07
         0.12252E+07
         0.39332E+06
         0.45191E+06
         0.15470E+07
         0.25398E+07
         0.24032E+07
         0.13862E+07
         0.17119E+07
         0.27662E+07
         0.20955E+07
         0.29417E+07
        -0.38048E+06
        -0.32240E+06
         0.28924E+07
        -0.68706E+06
        -0.16316E+07
         0.98174E+06
         0.13944E+07
        -0.32682E+07
        -0.32231E+05
         0.11648E+07
         0.16547E+07
         0.22357E+07
         0.36994E+06
         0.18776E+06
         0.58798E+06
         0.14119E+07
        -0.28210E+06
        -0.61019E+06
        -0.15534E+07
        -0.81043E+06
        -0.48256E+07
        -0.59337E+07
        -0.29873E+07
        -0.12390E+07
         0.94414E+06
        -0.14057E+06
         0.22332E+07
         0.34936E+07
         0.98458E+06
         0.85728E+06
         0.12891E+07
        -0.47383E+06
        -0.30707E+06
         0.25403E+06
         0.95978E+06
         0.31143E+06
         0.41892E+06
        -0.27810E+06
         0.90655E+04
         0.36881E+06
         0.76103E+06
         0.95848E+06
         0.14362E+07
         0.21465E+07
         0.21787E+07
         0.28681E+07
        -0.40651E+06
         0.21061E+07
         0.50834E+06
         0.23848E+07
         0.39392E+07
         0.49768E+07
         0.42384E+07
         0.44915E+07
         0.38357E+07
         0.28749E+07
         0.24379E+07
         0.19331E+07
         0.12397E+07
         0.23746E+07
         0.67388E+06
        -0.74169E+06
        -0.59690E+06
        -0.35325E+06
         0.18816E+06
         0.17978E+07
         0.18243E+07
         0.12039E+07
         0.36900E+06
         0.43387E+06
         0.15193E+07
         0.25088E+07
         0.24276E+07
         0.14148E+07
         0.17406E+07
         0.27931E+07
         0.21260E+07
         0.29668E+07
        -0.34069E+06
        -0.29195E+06
         0.29069E+07
        -0.69167E+06
        -0.15952E+07
         0.10079E+07
         0.14179E+07
        -0.32357E+07
        -0.69745E+03
         0.11907E+07
         0.16749E+07
         0.22609E+07
         0.40636E+06
         0.25106E+06
         0.61333E+06
         0.14372E+07
        -0.25847E+06
        -0.57388E+06
        -0.15424E+07
        -0.77207E+06
        -0.48315E+07
        -0.59006E+07
        -0.28007E+07
        -0.11255E+07
         0.96885E+06
        -0.10495E+06
         0.22593E+07
         0.35230E+07
         0.10175E+07
         0.88916E+06
         0.13154E+07
        -0.47147E+06
        -0.27305E+06
         0.36495E+06
         0.10152E+07
         0.34127E+06
         0.43415E+06
        -0.25146E+06
         0.39994E+05
         0.40277E+06
         0.79134E+06
         0.98453E+06
         0.14640E+07
         0.21763E+07
         0.22065E+07
         0.28922E+07
        -0.35063E+06
         0.21610E+07
         0.56438E+06
         0.24241E+07
         0.39642E+07
         0.50055E+07
         0.42782E+07
         0.45321E+07
         0.38803E+07
         0.29616E+07
         0.24177E+07
         0.18545E+07
         0.12426E+07
         0.24058E+07
         0.69995E+06
        -0.71990E+06
        -0.56994E+06
        -0.30849E+06
         0.24305E+06
         0.18491E+07
         0.18688E+07
         0.12500E+07
         0.42064E+06
         0.48178E+06
         0.15581E+07
         0.25495E+07
         0.23370E+07
         0.13099E+07
         0.16377E+07
         0.26841E+07
         0.20178E+07
         0.28573E+07
        -0.47521E+06
        -0.39799E+06
         0.27978E+07
        -0.82339E+06
        -0.17335E+07
         0.88372E+06
         0.12978E+07
        -0.33677E+07
        -0.12598E+06
         0.10941E+07
         0.15421E+07
         0.21402E+07
         0.28551E+06
         0.11703E+06
         0.50160E+06
         0.13264E+07
        -0.36823E+06
        -0.70186E+06
        -0.16759E+07
        -0.90040E+06
        -0.49852E+07
        -0.60615E+07
        -0.28699E+07
        -0.12008E+07
         0.86943E+06
        -0.23584E+06
         0.21438E+07
         0.33967E+07
         0.89681E+06
         0.77226E+06
         0.11991E+07
        -0.61924E+06
        -0.39316E+06
         0.29326E+06
         0.90694E+06
         0.22286E+06
         0.31518E+06
        -0.36099E+06
        -0.76933E+05
         0.27543E+06
         0.67350E+06
         0.87446E+06
         0.13507E+07
         0.20582E+07
         0.20822E+07
         0.27757E+07
        -0.54602E+06
         0.19718E+07
         0.36799E+06
         0.22241E+07
         0.37654E+07
         0.48147E+07
         0.40837E+07
         0.43222E+07
         0.36832E+07
         0.27827E+07
         0.21683E+07
         0.15830E+07
         0.10483E+07
         0.22440E+07
         0.53141E+06
        -0.89431E+06
        -0.74981E+06
        -0.50880E+06
         0.36694E+05
         0.16515E+07
         0.16845E+07
         0.10730E+07
         0.24004E+06
         0.29588E+06
         0.13798E+07
         0.23725E+07
         0.23890E+07
         0.13172E+07
         0.16571E+07
         0.27255E+07
         0.20540E+07
         0.28932E+07
        -0.45355E+06
        -0.33276E+06
         0.28687E+07
        -0.72682E+06
        -0.16949E+07
         0.88609E+06
         0.12672E+07
        -0.32870E+07
        -0.69061E+05
         0.11696E+07
         0.16289E+07
         0.22037E+07
         0.35124E+06
         0.19463E+06
         0.55221E+06
         0.13645E+07
        -0.28935E+06
        -0.60587E+06
        -0.15533E+07
        -0.80607E+06
        -0.48535E+07
        -0.58768E+07
        -0.27135E+07
        -0.10864E+07
         0.93117E+06
        -0.17852E+06
         0.21766E+07
         0.33781E+07
         0.91519E+06
         0.76340E+06
         0.11661E+07
        -0.55037E+06
        -0.30620E+06
         0.37022E+06
         0.95590E+06
         0.29026E+06
         0.38637E+06
        -0.28640E+06
        -0.34407E+05
         0.29497E+06
         0.69126E+06
         0.92158E+06
         0.13884E+07
         0.20603E+07
         0.20902E+07
         0.27781E+07
        -0.47104E+06
         0.20692E+07
         0.39256E+06
         0.21810E+07
         0.36761E+07
         0.47604E+07
         0.41726E+07
         0.44141E+07
         0.37564E+07
         0.28259E+07
         0.21803E+07
         0.16202E+07
         0.11218E+07
         0.22804E+07
         0.60797E+06
        -0.78528E+06
        -0.65711E+06
        -0.43811E+06
         0.67290E+05
         0.16480E+07
         0.17254E+07
         0.11317E+07
         0.33280E+06
         0.40877E+06
         0.14686E+07
         0.24645E+07
         0.35412E+09
         0.39906E+09
         0.39978E+09
         0.39235E+09
         0.42133E+09
         0.41648E+09
         0.47030E+09
         0.40201E+09
         0.37466E+09
         0.40409E+09
         0.49405E+09
         0.47532E+09
         0.43783E+09
         0.47541E+09
         0.48539E+09
         0.35588E+09
         0.42653E+09
         0.41607E+09
         0.42442E+09
         0.48743E+09
         0.40095E+09
         0.40779E+09
         0.38789E+09
         0.42878E+09
         0.43060E+09
         0.45332E+09
         0.46990E+09
         0.55193E+09
         0.52188E+09
         0.44293E+09
         0.36906E+09
         0.43308E+09
         0.39630E+09
         0.41957E+09
         0.45156E+09
         0.43383E+09
         0.41947E+09
         0.46817E+09
         0.46255E+09
         0.46063E+09
         0.45825E+09
         0.43695E+09
         0.41441E+09
         0.38352E+09
         0.40620E+09
         0.44999E+09
         0.42926E+09
         0.41004E+09
         0.41486E+09
         0.42030E+09
         0.43440E+09
         0.41752E+09
         0.71524E+09
         0.69983E+09
         0.71070E+09
         0.68841E+09
         0.70812E+09
         0.74056E+09
         0.74507E+09
         0.74095E+09
         0.74768E+09
         0.76580E+09
         0.74329E+09
         0.70113E+09
         0.62853E+09
         0.59527E+09
         0.60053E+09
         0.61198E+09
         0.61869E+09
         0.67110E+09
         0.72019E+09
         0.72252E+09
         0.66631E+09
         0.64444E+09
         0.66528E+09
         0.65935E+09
         0.65394E+09
         0.65559E+09
         0.34057E+10
         0.35741E+10
         0.35277E+10
         0.32488E+10
         0.39132E+10
         0.37027E+10
         0.38505E+10
         0.38573E+10
         0.33534E+10
         0.38565E+10
         0.41970E+10
         0.46204E+10
         0.42246E+10
         0.43046E+10
         0.47693E+10
         0.32867E+10
         0.35251E+10
         0.31171E+10
         0.36285E+10
         0.38076E+10
         0.38843E+10
         0.39688E+10
         0.37428E+10
         0.35041E+10
         0.39106E+10
         0.33947E+10
         0.42900E+10
         0.42325E+10
         0.42486E+10
         0.40384E+10
         0.33240E+10
         0.34909E+10
         0.32727E+10
         0.34103E+10
         0.42491E+10
         0.39385E+10
         0.39416E+10
         0.46374E+10
         0.45384E+10
         0.44911E+10
         0.45471E+10
         0.43348E+10
         0.41104E+10
         0.36682E+10
         0.38166E+10
         0.42434E+10
         0.39603E+10
         0.37443E+10
         0.36810E+10
         0.38026E+10
         0.40870E+10
         0.38098E+10
         0.64888E+10
         0.63205E+10
         0.64443E+10
         0.62446E+10
         0.64205E+10
         0.67376E+10
         0.68502E+10
         0.68504E+10
         0.69022E+10
         0.70502E+10
         0.68501E+10
         0.64450E+10
         0.58076E+10
         0.54990E+10
         0.55024E+10
         0.55637E+10
         0.56123E+10
         0.60705E+10
         0.65080E+10
         0.65302E+10
         0.60607E+10
         0.58815E+10
         0.60663E+10
         0.60271E+10
         0.59556E+10
         0.59406E+10
  
SCALARS                      stress_yz  double 1
LOOKUP_TABLE default
         0.36923E+06
        -0.12282E+06
        -0.31910E+06
        -0.16412E+06
        -0.81999E+01
        -0.22600E+01
        -0.10162E+02
        -0.77510E+01
        -0.11961E+07
         0.78667E+06
        -0.15123E+02
        -0.13314E+02
        -0.10493E+07
        -0.53353E+05
         0.10823E+02
        -0.69391E+00
         0.36072E+06
         0.13446E+07
         0.15923E+00
         0.16293E+01
        -0.69771E+06
        -0.26263E+07
        -0.27302E+07
         0.24810E+02
         0.42846E+02
         0.35814E+02
        -0.25887E+06
        -0.26627E+07
         0.17846E+02
         0.34622E+02
         0.41225E+06
         0.35935E+06
        -0.30521E+06
         0.92519E+01
         0.94446E+01
        -0.19608E+00
         0.12252E+07
         0.11807E+07
         0.17025E+02
         0.13246E+02
         0.12044E+07
         0.76666E+06
         0.12867E+02
         0.11758E+02
         0.10922E+07
         0.37657E+06
        -0.42681E+00
         0.66019E+01
         0.10142E+07
         0.31083E+01
         0.99951E+05
        -0.25175E+00
         0.59755E+05
         0.12023E+02
        -0.39602E+06
         0.69943E+01
        -0.12916E+07
         0.22934E+06
         0.18975E+00
        -0.38512E+00
         0.49993E+06
         0.18241E+07
        -0.25853E+01
        -0.96703E+01
         0.30188E+06
        -0.52185E+01
         0.12960E+07
        -0.63574E+01
        -0.10526E+07
        -0.55757E+06
        -0.78565E+00
         0.10373E+02
        -0.19495E+07
         0.22778E+02
        -0.33799E+07
         0.22055E+02
        -0.34110E+07
         0.16742E+02
        -0.28098E+07
         0.14033E+02
        -0.41209E+07
        -0.31628E+07
         0.90021E+01
        -0.19959E+01
        -0.44233E+06
        -0.22333E+00
         0.17069E+07
        -0.13990E+02
         0.40343E+07
        -0.24492E+02
         0.56376E+07
         0.34946E+07
        -0.36326E+02
        -0.29402E+02
         0.24578E+07
        -0.22824E+02
         0.22053E+07
        -0.23350E+02
         0.21460E+07
        -0.25106E+02
         0.35710E+07
         0.29677E+07
        -0.23348E+02
        -0.11187E+02
        -0.23956E+07
         0.90679E+06
         0.82095E+01
        -0.10202E+02
        -0.58895E+07
         0.27311E+02
        -0.84309E+07
         0.39949E+02
        -0.10322E+08
         0.49338E+02
        -0.12106E+08
         0.48939E+02
        -0.14252E+08
         0.38729E+02
        -0.14569E+08
         0.29971E+02
        -0.13718E+08
         0.27876E+02
        -0.12207E+08
         0.26522E+02
        -0.89024E+07
         0.16950E+02
        -0.60121E+07
         0.55960E+01
        -0.30160E+07
         0.36160E+01
         0.21695E+06
         0.54351E+01
         0.28777E+07
         0.28071E+01
         0.51623E+07
        -0.84893E+01
         0.79892E+07
        -0.23962E+02
         0.89897E+07
        -0.37418E+02
         0.98335E+07
        -0.49054E+02
         0.12563E+08
        -0.49011E+02
         0.13012E+08
        -0.42785E+02
         0.12024E+08
        -0.41698E+02
         0.97797E+07
        -0.41958E+02
         0.66490E+07
        -0.33179E+02
         0.47094E+07
        -0.19620E+02
         0.33866E+07
        -0.15170E+02
         0.22308E+07
         0.14693E+07
         0.12827E+07
         0.22659E+06
         0.13132E+07
         0.13976E+07
         0.14719E+06
         0.22635E+07
         0.13023E+07
         0.28507E+07
        -0.14865E+07
        -0.63403E+07
        -0.43338E+07
        -0.50267E+06
        -0.64062E+07
        -0.45069E+06
         0.47995E+06
        -0.16790E+06
        -0.56003E+06
         0.42345E+06
        -0.38864E+06
        -0.32055E+06
         0.10765E+07
        -0.90747E+05
         0.19463E+07
        -0.28774E+06
        -0.14886E+05
        -0.26029E+06
        -0.31567E+06
         0.15250E+07
        -0.48347E+06
         0.79637E+06
        -0.35400E+06
         0.13008E+06
        -0.21418E+06
        -0.11619E+07
        -0.26065E+07
        -0.56315E+07
        -0.51454E+07
        -0.43447E+07
        -0.40889E+07
        -0.10170E+07
         0.83324E+06
         0.22850E+07
         0.37725E+07
         0.61538E+07
         0.40425E+07
         0.29030E+07
         0.30970E+07
         0.32867E+07
         0.38513E+07
         0.17625E+07
        -0.33082E+07
         0.39794E+07
        -0.10776E+08
        -0.14890E+08
        -0.18980E+08
        -0.22527E+08
        -0.22643E+08
        -0.20498E+08
        -0.19506E+08
        -0.18434E+08
        -0.11908E+08
        -0.52329E+07
        -0.23037E+07
        -0.10158E+07
         0.15562E+07
         0.61532E+07
         0.11308E+08
         0.14751E+08
         0.17833E+08
         0.20452E+08
         0.19273E+08
         0.18220E+08
         0.16950E+08
         0.11784E+08
         0.68868E+07
         0.60480E+07
        -0.16874E+09
        -0.17165E+09
        -0.16786E+09
        -0.56998E+08
        -0.12349E+09
        -0.78446E+08
        -0.13534E+09
        -0.16197E+09
        -0.16474E+09
        -0.16103E+09
         0.16759E+09
         0.18527E+09
         0.14145E+09
         0.38756E+08
         0.17494E+09
         0.86288E+08
        -0.49840E+08
         0.56008E+08
         0.16351E+09
         0.48807E+08
         0.48446E+08
         0.36485E+08
        -0.21677E+08
         0.64908E+08
        -0.16363E+09
         0.75579E+08
         0.87829E+07
         0.35257E+08
        -0.56317E+08
        -0.15117E+09
         0.10787E+09
         0.51821E+08
         0.10530E+09
         0.10503E+09
        -0.14038E+08
         0.69037E+08
         0.10357E+09
         0.16039E+09
         0.18026E+09
         0.16979E+09
         0.90172E+08
        -0.24393E+08
        -0.49937E+08
        -0.79057E+08
        -0.11309E+09
        -0.17276E+09
        -0.14879E+09
        -0.11450E+09
        -0.17249E+09
        -0.17417E+09
        -0.11412E+09
        -0.12151E+08
         0.36743E+08
        -0.51443E+08
         0.11500E+09
         0.14960E+09
         0.18222E+09
         0.20502E+09
         0.20847E+09
         0.20250E+09
         0.19866E+09
         0.18482E+09
         0.11820E+09
         0.39445E+08
         0.18681E+08
         0.16760E+08
        -0.71273E+07
        -0.56807E+08
        -0.11004E+09
        -0.14140E+09
        -0.19062E+09
        -0.20632E+09
        -0.19925E+09
        -0.19744E+09
        -0.18569E+09
        -0.13346E+09
        -0.67553E+08
        -0.64457E+08
        -0.16873E+09
        -0.17164E+09
        -0.16785E+09
        -0.57338E+08
        -0.12356E+09
        -0.78550E+08
        -0.13512E+09
        -0.16210E+09
        -0.16476E+09
        -0.16119E+09
         0.16770E+09
         0.18526E+09
         0.14143E+09
         0.38842E+08
         0.17500E+09
         0.86228E+08
        -0.50159E+08
         0.55924E+08
         0.16353E+09
         0.48534E+08
         0.48562E+08
         0.36523E+08
        -0.21683E+08
         0.64878E+08
        -0.16370E+09
         0.75442E+08
         0.88836E+07
         0.35454E+08
        -0.55945E+08
        -0.15124E+09
         0.10779E+09
         0.51724E+08
         0.10570E+09
         0.10511E+09
        -0.13901E+08
         0.69100E+08
         0.10359E+09
         0.16041E+09
         0.18027E+09
         0.16977E+09
         0.90186E+08
        -0.24315E+08
        -0.49983E+08
        -0.79099E+08
        -0.11311E+09
        -0.17277E+09
        -0.14880E+09
        -0.11444E+09
        -0.17249E+09
        -0.17416E+09
        -0.11414E+09
        -0.11984E+08
         0.36720E+08
        -0.51457E+08
         0.11502E+09
         0.14960E+09
         0.18222E+09
         0.20502E+09
         0.20846E+09
         0.20249E+09
         0.19866E+09
         0.18482E+09
         0.11819E+09
         0.39462E+08
         0.18681E+08
         0.16795E+08
        -0.70684E+07
        -0.56824E+08
        -0.11007E+09
        -0.14140E+09
        -0.19063E+09
        -0.20631E+09
        -0.19925E+09
        -0.19745E+09
        -0.18570E+09
        -0.13345E+09
        -0.67513E+08
        -0.64403E+08
        -0.16871E+09
        -0.17164E+09
        -0.16785E+09
        -0.57680E+08
        -0.12362E+09
        -0.78656E+08
        -0.13490E+09
        -0.16223E+09
        -0.16479E+09
        -0.16135E+09
         0.16780E+09
         0.18525E+09
         0.14142E+09
         0.38924E+08
         0.17505E+09
         0.86167E+08
        -0.50479E+08
         0.55839E+08
         0.16355E+09
         0.48258E+08
         0.48679E+08
         0.36559E+08
        -0.21693E+08
         0.64842E+08
        -0.16378E+09
         0.75285E+08
         0.89915E+07
         0.35663E+08
        -0.55540E+08
        -0.15131E+09
         0.10770E+09
         0.51603E+08
         0.10611E+09
         0.10518E+09
        -0.13762E+08
         0.69164E+08
         0.10360E+09
         0.16043E+09
         0.18029E+09
         0.16975E+09
         0.90203E+08
        -0.24231E+08
        -0.50024E+08
        -0.79148E+08
        -0.11314E+09
        -0.17277E+09
        -0.14881E+09
        -0.11438E+09
        -0.17249E+09
        -0.17415E+09
        -0.11414E+09
        -0.11818E+08
         0.36698E+08
        -0.51471E+08
         0.11505E+09
         0.14960E+09
         0.18223E+09
         0.20501E+09
         0.20845E+09
         0.20247E+09
         0.19867E+09
         0.18482E+09
         0.11819E+09
         0.39480E+08
         0.18681E+08
         0.16830E+08
        -0.70093E+07
        -0.56842E+08
        -0.11009E+09
        -0.14141E+09
        -0.19063E+09
        -0.20631E+09
        -0.19926E+09
        -0.19745E+09
        -0.18571E+09
        -0.13343E+09
        -0.67473E+08
        -0.64349E+08
        -0.16870E+09
        -0.17163E+09
        -0.16784E+09
        -0.58024E+08
        -0.12369E+09
        -0.78761E+08
        -0.13468E+09
        -0.16236E+09
        -0.16482E+09
        -0.16151E+09
         0.16790E+09
         0.18524E+09
         0.14140E+09
         0.39011E+08
         0.17511E+09
         0.86102E+08
        -0.50799E+08
         0.55752E+08
         0.16357E+09
         0.47964E+08
         0.48797E+08
         0.36591E+08
        -0.21711E+08
         0.64784E+08
        -0.16384E+09
         0.75079E+08
         0.91033E+07
         0.35941E+08
        -0.55037E+08
        -0.15137E+09
         0.10761E+09
         0.51429E+08
         0.10651E+09
         0.10526E+09
        -0.13625E+08
         0.69227E+08
         0.10362E+09
         0.16044E+09
         0.18030E+09
         0.16973E+09
         0.90227E+08
        -0.24127E+08
        -0.50055E+08
        -0.79218E+08
        -0.11319E+09
        -0.17279E+09
        -0.14883E+09
        -0.11431E+09
        -0.17249E+09
        -0.17414E+09
        -0.11415E+09
        -0.11651E+08
         0.36676E+08
        -0.51485E+08
         0.11507E+09
         0.14960E+09
         0.18223E+09
         0.20500E+09
         0.20844E+09
         0.20246E+09
         0.19867E+09
         0.18482E+09
         0.11818E+09
         0.39502E+08
         0.18683E+08
         0.16865E+08
        -0.69497E+07
        -0.56861E+08
        -0.11012E+09
        -0.14142E+09
        -0.19064E+09
        -0.20631E+09
        -0.19926E+09
        -0.19745E+09
        -0.18572E+09
        -0.13341E+09
        -0.67434E+08
        -0.64295E+08
        -0.16869E+09
        -0.17163E+09
        -0.16783E+09
        -0.58364E+08
        -0.12376E+09
        -0.78867E+08
        -0.13445E+09
        -0.16248E+09
        -0.16485E+09
        -0.16167E+09
         0.16800E+09
         0.18523E+09
         0.14139E+09
         0.39100E+08
         0.17517E+09
         0.86032E+08
        -0.51120E+08
         0.55665E+08
         0.16359E+09
         0.47655E+08
         0.48915E+08
         0.36619E+08
        -0.21739E+08
         0.64702E+08
        -0.16389E+09
         0.74820E+08
         0.92283E+07
         0.36280E+08
        -0.54433E+08
        -0.15142E+09
         0.10750E+09
         0.51197E+08
         0.10692E+09
         0.10534E+09
        -0.13487E+08
         0.69291E+08
         0.10364E+09
         0.16046E+09
         0.18031E+09
         0.16971E+09
         0.90259E+08
        -0.24001E+08
        -0.50075E+08
        -0.79308E+08
        -0.11325E+09
        -0.17280E+09
        -0.14884E+09
        -0.11425E+09
        -0.17249E+09
        -0.17413E+09
        -0.11416E+09
        -0.11483E+08
         0.36653E+08
        -0.51499E+08
         0.11509E+09
         0.14960E+09
         0.18224E+09
         0.20500E+09
         0.20843E+09
         0.20245E+09
         0.19868E+09
         0.18482E+09
         0.11818E+09
         0.39527E+08
         0.18685E+08
         0.16898E+08
        -0.68898E+07
        -0.56881E+08
        -0.11016E+09
        -0.14143E+09
        -0.19065E+09
        -0.20631E+09
        -0.19927E+09
        -0.19746E+09
        -0.18573E+09
        -0.13340E+09
        -0.67394E+08
        -0.64241E+08
        -0.16867E+09
        -0.17162E+09
        -0.16783E+09
        -0.58709E+08
        -0.12382E+09
        -0.78972E+08
        -0.13422E+09
        -0.16261E+09
        -0.16488E+09
        -0.16182E+09
         0.16809E+09
         0.18522E+09
         0.14137E+09
         0.39194E+08
         0.17522E+09
         0.85963E+08
        -0.51448E+08
         0.55580E+08
         0.16362E+09
         0.47339E+08
         0.49033E+08
         0.36646E+08
        -0.21769E+08
         0.64612E+08
        -0.16394E+09
         0.74544E+08
         0.93629E+07
         0.36656E+08
        -0.53787E+08
        -0.15146E+09
         0.10739E+09
         0.50942E+08
         0.10734E+09
         0.10543E+09
        -0.13347E+08
         0.69356E+08
         0.10365E+09
         0.16048E+09
         0.18033E+09
         0.16970E+09
         0.90293E+08
        -0.23869E+08
        -0.50090E+08
        -0.79405E+08
        -0.11332E+09
        -0.17281E+09
        -0.14886E+09
        -0.11420E+09
        -0.17249E+09
        -0.17412E+09
        -0.11417E+09
        -0.11314E+08
         0.36631E+08
        -0.51513E+08
         0.11511E+09
         0.14960E+09
         0.18224E+09
         0.20499E+09
         0.20842E+09
         0.20244E+09
         0.19868E+09
         0.18482E+09
         0.11818E+09
         0.39554E+08
         0.18688E+08
         0.16932E+08
        -0.68300E+07
        -0.56901E+08
        -0.11019E+09
        -0.14144E+09
        -0.19065E+09
        -0.20630E+09
        -0.19928E+09
        -0.19746E+09
        -0.18574E+09
        -0.13338E+09
        -0.67355E+08
        -0.64187E+08
        -0.16866E+09
        -0.17161E+09
        -0.16783E+09
        -0.59063E+08
        -0.12389E+09
        -0.79077E+08
        -0.13398E+09
        -0.16273E+09
        -0.16492E+09
        -0.16197E+09
         0.16819E+09
         0.18521E+09
         0.14136E+09
         0.39310E+08
         0.17528E+09
         0.85898E+08
        -0.51788E+08
         0.55494E+08
         0.16364E+09
         0.47023E+08
         0.49151E+08
         0.36673E+08
        -0.21800E+08
         0.64522E+08
        -0.16399E+09
         0.74265E+08
         0.95216E+07
         0.37055E+08
        -0.53128E+08
        -0.15150E+09
         0.10729E+09
         0.50676E+08
         0.10776E+09
         0.10553E+09
        -0.13208E+08
         0.69421E+08
         0.10367E+09
         0.16050E+09
         0.18035E+09
         0.16968E+09
         0.90329E+08
        -0.23733E+08
        -0.50103E+08
        -0.79501E+08
        -0.11338E+09
        -0.17283E+09
        -0.14889E+09
        -0.11417E+09
        -0.17250E+09
        -0.17411E+09
        -0.11418E+09
        -0.11143E+08
         0.36608E+08
        -0.51527E+08
         0.11513E+09
         0.14960E+09
         0.18225E+09
         0.20498E+09
         0.20841E+09
         0.20242E+09
         0.19868E+09
         0.18482E+09
         0.11818E+09
         0.39581E+08
         0.18692E+08
         0.16966E+08
        -0.67702E+07
        -0.56921E+08
        -0.11023E+09
        -0.14146E+09
        -0.19066E+09
        -0.20630E+09
        -0.19928E+09
        -0.19746E+09
        -0.18575E+09
        -0.13337E+09
        -0.67315E+08
        -0.64133E+08
        -0.16865E+09
        -0.17160E+09
        -0.16783E+09
        -0.59422E+08
        -0.12395E+09
        -0.79184E+08
        -0.13372E+09
        -0.16284E+09
        -0.16495E+09
        -0.16211E+09
         0.16828E+09
         0.18520E+09
         0.14135E+09
         0.39432E+08
         0.17534E+09
         0.85834E+08
        -0.52134E+08
         0.55405E+08
         0.16366E+09
         0.46707E+08
         0.49270E+08
         0.36700E+08
        -0.21831E+08
         0.64436E+08
        -0.16404E+09
         0.73989E+08
         0.96864E+07
         0.37465E+08
        -0.52468E+08
        -0.15154E+09
         0.10718E+09
         0.50403E+08
         0.10819E+09
         0.10563E+09
        -0.13067E+08
         0.69488E+08
         0.10369E+09
         0.16052E+09
         0.18036E+09
         0.16966E+09
         0.90364E+08
        -0.23598E+08
        -0.50115E+08
        -0.79596E+08
        -0.11345E+09
        -0.17284E+09
        -0.14893E+09
        -0.11414E+09
        -0.17251E+09
        -0.17410E+09
        -0.11418E+09
        -0.10970E+08
         0.36586E+08
        -0.51541E+08
         0.11515E+09
         0.14961E+09
         0.18226E+09
         0.20497E+09
         0.20841E+09
         0.20241E+09
         0.19869E+09
         0.18482E+09
         0.11818E+09
         0.39607E+08
         0.18695E+08
         0.17000E+08
        -0.67102E+07
        -0.56941E+08
        -0.11026E+09
        -0.14147E+09
        -0.19067E+09
        -0.20630E+09
        -0.19929E+09
        -0.19747E+09
        -0.18576E+09
        -0.13335E+09
        -0.67275E+08
        -0.64079E+08
        -0.16864E+09
        -0.17159E+09
        -0.16783E+09
        -0.59779E+08
        -0.12402E+09
        -0.79289E+08
        -0.13346E+09
        -0.16296E+09
        -0.16498E+09
        -0.16225E+09
         0.16838E+09
         0.18519E+09
         0.14134E+09
         0.39559E+08
         0.17540E+09
         0.85770E+08
        -0.52480E+08
         0.55317E+08
         0.16369E+09
         0.46388E+08
         0.49388E+08
         0.36727E+08
        -0.21861E+08
         0.64348E+08
        -0.16409E+09
         0.73714E+08
         0.98551E+07
         0.37870E+08
        -0.51809E+08
        -0.15157E+09
         0.10708E+09
         0.50133E+08
         0.10862E+09
         0.10574E+09
        -0.12925E+08
         0.69553E+08
         0.10371E+09
         0.16055E+09
         0.18038E+09
         0.16965E+09
         0.90400E+08
        -0.23463E+08
        -0.50127E+08
        -0.79692E+08
        -0.11352E+09
        -0.17285E+09
        -0.14896E+09
        -0.11412E+09
        -0.17252E+09
        -0.17409E+09
        -0.11418E+09
        -0.10797E+08
         0.36564E+08
        -0.51555E+08
         0.11517E+09
         0.14961E+09
         0.18226E+09
         0.20497E+09
         0.20840E+09
         0.20240E+09
         0.19869E+09
         0.18482E+09
         0.11817E+09
         0.39634E+08
         0.18699E+08
         0.17035E+08
        -0.66504E+07
        -0.56960E+08
        -0.11030E+09
        -0.14148E+09
        -0.19067E+09
        -0.20630E+09
        -0.19930E+09
        -0.19747E+09
        -0.18577E+09
        -0.13333E+09
        -0.67235E+08
        -0.64025E+08
        -0.16863E+09
        -0.17158E+09
        -0.16783E+09
        -0.60133E+08
        -0.12408E+09
        -0.79394E+08
        -0.13320E+09
        -0.16307E+09
        -0.16501E+09
        -0.16239E+09
         0.16847E+09
         0.18518E+09
         0.14133E+09
         0.39680E+08
         0.17545E+09
         0.85707E+08
        -0.52826E+08
         0.55228E+08
         0.16371E+09
         0.46068E+08
         0.49506E+08
         0.36754E+08
        -0.21890E+08
         0.64260E+08
        -0.16414E+09
         0.73439E+08
         0.10019E+08
         0.38271E+08
        -0.51152E+08
        -0.15161E+09
         0.10697E+09
         0.49861E+08
         0.10905E+09
         0.10584E+09
        -0.12784E+08
         0.69619E+08
         0.10373E+09
         0.16057E+09
         0.18039E+09
         0.16963E+09
         0.90435E+08
        -0.23329E+08
        -0.50140E+08
        -0.79786E+08
        -0.11359E+09
        -0.17287E+09
        -0.14899E+09
        -0.11410E+09
        -0.17253E+09
        -0.17408E+09
        -0.11419E+09
        -0.10623E+08
         0.36541E+08
        -0.51568E+08
         0.11520E+09
         0.14961E+09
         0.18227E+09
         0.20496E+09
         0.20839E+09
         0.20239E+09
         0.19870E+09
         0.18481E+09
         0.11817E+09
         0.39660E+08
         0.18702E+08
         0.17069E+08
        -0.65908E+07
        -0.56980E+08
        -0.11033E+09
        -0.14150E+09
        -0.19068E+09
        -0.20630E+09
        -0.19930E+09
        -0.19748E+09
        -0.18578E+09
        -0.13332E+09
        -0.67196E+08
        -0.63971E+08
        -0.16862E+09
        -0.17157E+09
        -0.16783E+09
        -0.60486E+08
        -0.12415E+09
        -0.79498E+08
        -0.13295E+09
        -0.16319E+09
        -0.16504E+09
        -0.16253E+09
         0.16856E+09
         0.18517E+09
         0.14131E+09
         0.39806E+08
         0.17551E+09
         0.85644E+08
        -0.53171E+08
         0.55140E+08
         0.16373E+09
         0.45745E+08
         0.49624E+08
         0.36780E+08
        -0.21921E+08
         0.64173E+08
        -0.16420E+09
         0.73164E+08
         0.10186E+08
         0.38666E+08
        -0.50496E+08
        -0.15165E+09
         0.10687E+09
         0.49590E+08
         0.10948E+09
         0.10595E+09
        -0.12643E+08
         0.69686E+08
         0.10376E+09
         0.16059E+09
         0.18041E+09
         0.16961E+09
         0.90470E+08
        -0.23195E+08
        -0.50153E+08
        -0.79880E+08
        -0.11365E+09
        -0.17288E+09
        -0.14903E+09
        -0.11407E+09
        -0.17253E+09
        -0.17407E+09
        -0.11419E+09
        -0.10449E+08
         0.36518E+08
        -0.51582E+08
         0.11522E+09
         0.14961E+09
         0.18227E+09
         0.20495E+09
         0.20838E+09
         0.20238E+09
         0.19870E+09
         0.18481E+09
         0.11817E+09
         0.39686E+08
         0.18706E+08
         0.17103E+08
        -0.65310E+07
        -0.57000E+08
        -0.11037E+09
        -0.14151E+09
        -0.19068E+09
        -0.20629E+09
        -0.19931E+09
        -0.19748E+09
        -0.18579E+09
        -0.13330E+09
        -0.67157E+08
        -0.63916E+08
        -0.16860E+09
        -0.17155E+09
        -0.16783E+09
        -0.60841E+08
        -0.12421E+09
        -0.79604E+08
        -0.13269E+09
        -0.16330E+09
        -0.16508E+09
        -0.16267E+09
         0.16864E+09
         0.18515E+09
         0.14130E+09
         0.39932E+08
         0.17557E+09
         0.85582E+08
        -0.53514E+08
         0.55050E+08
         0.16375E+09
         0.45426E+08
         0.49742E+08
         0.36806E+08
        -0.21951E+08
         0.64086E+08
        -0.16425E+09
         0.72892E+08
         0.10349E+08
         0.39059E+08
        -0.49839E+08
        -0.15168E+09
         0.10676E+09
         0.49318E+08
         0.10991E+09
         0.10605E+09
        -0.12500E+08
         0.69752E+08
         0.10378E+09
         0.16061E+09
         0.18042E+09
         0.16959E+09
         0.90505E+08
        -0.23063E+08
        -0.50164E+08
        -0.79975E+08
        -0.11372E+09
        -0.17290E+09
        -0.14906E+09
        -0.11405E+09
        -0.17254E+09
        -0.17406E+09
        -0.11420E+09
        -0.10274E+08
         0.36495E+08
        -0.51595E+08
         0.11524E+09
         0.14961E+09
         0.18228E+09
         0.20495E+09
         0.20837E+09
         0.20236E+09
         0.19870E+09
         0.18481E+09
         0.11817E+09
         0.39713E+08
         0.18709E+08
         0.17138E+08
        -0.64709E+07
        -0.57020E+08
        -0.11041E+09
        -0.14152E+09
        -0.19069E+09
        -0.20629E+09
        -0.19932E+09
        -0.19748E+09
        -0.18580E+09
        -0.13328E+09
        -0.67118E+08
        -0.63862E+08
        -0.16859E+09
        -0.17154E+09
        -0.16783E+09
        -0.61196E+08
        -0.12428E+09
        -0.79710E+08
        -0.13244E+09
        -0.16342E+09
        -0.16511E+09
        -0.16281E+09
         0.16873E+09
         0.18514E+09
         0.14129E+09
         0.40053E+08
         0.17562E+09
         0.85519E+08
        -0.53856E+08
         0.54959E+08
         0.16378E+09
         0.45108E+08
         0.49860E+08
         0.36832E+08
        -0.21981E+08
         0.63999E+08
        -0.16430E+09
         0.72617E+08
         0.10517E+08
         0.39448E+08
        -0.49185E+08
        -0.15172E+09
         0.10666E+09
         0.49043E+08
         0.11034E+09
         0.10615E+09
        -0.12358E+08
         0.69818E+08
         0.10380E+09
         0.16063E+09
         0.18044E+09
         0.16958E+09
         0.90539E+08
        -0.22929E+08
        -0.50177E+08
        -0.80069E+08
        -0.11379E+09
        -0.17291E+09
        -0.14910E+09
        -0.11403E+09
        -0.17255E+09
        -0.17404E+09
        -0.11420E+09
        -0.10100E+08
         0.36473E+08
        -0.51609E+08
         0.11526E+09
         0.14961E+09
         0.18228E+09
         0.20494E+09
         0.20836E+09
         0.20235E+09
         0.19871E+09
         0.18481E+09
         0.11817E+09
         0.39739E+08
         0.18713E+08
         0.17172E+08
        -0.64111E+07
        -0.57040E+08
        -0.11044E+09
        -0.14153E+09
        -0.19070E+09
        -0.20629E+09
        -0.19932E+09
        -0.19749E+09
        -0.18581E+09
        -0.13326E+09
        -0.67079E+08
        -0.63808E+08
        -0.16858E+09
        -0.17153E+09
        -0.16783E+09
        -0.61550E+08
        -0.12434E+09
        -0.79816E+08
        -0.13219E+09
        -0.16353E+09
        -0.16514E+09
        -0.16294E+09
         0.16881E+09
         0.18513E+09
         0.14128E+09
         0.40180E+08
         0.17568E+09
         0.85457E+08
        -0.54198E+08
         0.54870E+08
         0.16380E+09
         0.44789E+08
         0.49978E+08
         0.36859E+08
        -0.22011E+08
         0.63913E+08
        -0.16435E+09
         0.72341E+08
         0.10680E+08
         0.39831E+08
        -0.48533E+08
        -0.15176E+09
         0.10656E+09
         0.48770E+08
         0.11077E+09
         0.10626E+09
        -0.12215E+08
         0.69884E+08
         0.10381E+09
         0.16066E+09
         0.18045E+09
         0.16956E+09
         0.90574E+08
        -0.22796E+08
        -0.50189E+08
        -0.80163E+08
        -0.11386E+09
        -0.17292E+09
        -0.14913E+09
        -0.11400E+09
        -0.17256E+09
        -0.17403E+09
        -0.11420E+09
        -0.99255E+07
         0.36450E+08
        -0.51622E+08
         0.11528E+09
         0.14961E+09
         0.18229E+09
         0.20493E+09
         0.20835E+09
         0.20234E+09
         0.19871E+09
         0.18481E+09
         0.11816E+09
         0.39765E+08
         0.18716E+08
         0.17206E+08
        -0.63515E+07
        -0.57059E+08
        -0.11048E+09
        -0.14155E+09
        -0.19070E+09
        -0.20629E+09
        -0.19933E+09
        -0.19749E+09
        -0.18582E+09
        -0.13325E+09
        -0.67040E+08
        -0.63753E+08
        -0.16857E+09
        -0.17152E+09
        -0.16783E+09
        -0.61901E+08
        -0.12441E+09
        -0.79921E+08
        -0.13194E+09
        -0.16364E+09
        -0.16517E+09
        -0.16308E+09
         0.16889E+09
         0.18512E+09
         0.14127E+09
         0.40302E+08
         0.17574E+09
         0.85394E+08
        -0.54539E+08
         0.54781E+08
         0.16382E+09
         0.44468E+08
         0.50096E+08
         0.36884E+08
        -0.22040E+08
         0.63829E+08
        -0.16441E+09
         0.72067E+08
         0.10846E+08
         0.40208E+08
        -0.47883E+08
        -0.15179E+09
         0.10645E+09
         0.48495E+08
         0.11120E+09
         0.10636E+09
        -0.12073E+08
         0.69950E+08
         0.10383E+09
         0.16068E+09
         0.18047E+09
         0.16954E+09
         0.90610E+08
        -0.22663E+08
        -0.50201E+08
        -0.80257E+08
        -0.11392E+09
        -0.17294E+09
        -0.14917E+09
        -0.11398E+09
        -0.17257E+09
        -0.17402E+09
        -0.11421E+09
        -0.97498E+07
         0.36427E+08
        -0.51635E+08
         0.11530E+09
         0.14961E+09
         0.18229E+09
         0.20493E+09
         0.20834E+09
         0.20233E+09
         0.19872E+09
         0.18481E+09
         0.11816E+09
         0.39792E+08
         0.18720E+08
         0.17241E+08
        -0.62918E+07
        -0.57079E+08
        -0.11051E+09
        -0.14156E+09
        -0.19071E+09
        -0.20629E+09
        -0.19934E+09
        -0.19750E+09
        -0.18582E+09
        -0.13323E+09
        -0.67001E+08
        -0.63698E+08
        -0.16856E+09
        -0.17151E+09
        -0.16783E+09
        -0.62251E+08
        -0.12447E+09
        -0.80026E+08
        -0.13169E+09
        -0.16376E+09
        -0.16520E+09
        -0.16321E+09
         0.16897E+09
         0.18511E+09
         0.14125E+09
         0.40428E+08
         0.17579E+09
         0.85332E+08
        -0.54881E+08
         0.54691E+08
         0.16384E+09
         0.44149E+08
         0.50214E+08
         0.36909E+08
        -0.22070E+08
         0.63745E+08
        -0.16446E+09
         0.71791E+08
         0.11007E+08
         0.40580E+08
        -0.47236E+08
        -0.15183E+09
         0.10635E+09
         0.48222E+08
         0.11163E+09
         0.10647E+09
        -0.11930E+08
         0.70015E+08
         0.10385E+09
         0.16071E+09
         0.18048E+09
         0.16952E+09
         0.90645E+08
        -0.22531E+08
        -0.50215E+08
        -0.80350E+08
        -0.11399E+09
        -0.17295E+09
        -0.14920E+09
        -0.11396E+09
        -0.17257E+09
        -0.17401E+09
        -0.11421E+09
        -0.95735E+07
         0.36404E+08
        -0.51648E+08
         0.11532E+09
         0.14961E+09
         0.18230E+09
         0.20492E+09
         0.20833E+09
         0.20231E+09
         0.19872E+09
         0.18481E+09
         0.11816E+09
         0.39818E+08
         0.18723E+08
         0.17275E+08
        -0.62320E+07
        -0.57098E+08
        -0.11055E+09
        -0.14157E+09
        -0.19072E+09
        -0.20629E+09
        -0.19934E+09
        -0.19750E+09
        -0.18583E+09
        -0.13321E+09
        -0.66963E+08
        -0.63644E+08
        -0.16854E+09
        -0.17149E+09
        -0.16783E+09
        -0.62600E+08
        -0.12453E+09
        -0.80131E+08
        -0.13144E+09
        -0.16387E+09
        -0.16524E+09
        -0.16335E+09
         0.16904E+09
         0.18510E+09
         0.14124E+09
         0.40550E+08
         0.17585E+09
         0.85270E+08
        -0.55223E+08
         0.54599E+08
         0.16386E+09
         0.43833E+08
         0.50331E+08
         0.36933E+08
        -0.22099E+08
         0.63660E+08
        -0.16451E+09
         0.71515E+08
         0.11173E+08
         0.40949E+08
        -0.46588E+08
        -0.15187E+09
         0.10624E+09
         0.47945E+08
         0.11206E+09
         0.10657E+09
        -0.11786E+08
         0.70081E+08
         0.10387E+09
         0.16073E+09
         0.18050E+09
         0.16951E+09
         0.90680E+08
        -0.22400E+08
        -0.50228E+08
        -0.80444E+08
        -0.11406E+09
        -0.17296E+09
        -0.14924E+09
        -0.11394E+09
        -0.17258E+09
        -0.17400E+09
        -0.11422E+09
        -0.93982E+07
         0.36381E+08
        -0.51661E+08
         0.11534E+09
         0.14961E+09
         0.18230E+09
         0.20491E+09
         0.20832E+09
         0.20230E+09
         0.19873E+09
         0.18480E+09
         0.11816E+09
         0.39844E+08
         0.18726E+08
         0.17308E+08
        -0.61726E+07
        -0.57117E+08
        -0.11058E+09
        -0.14158E+09
        -0.19072E+09
        -0.20628E+09
        -0.19935E+09
        -0.19750E+09
        -0.18584E+09
        -0.13320E+09
        -0.66925E+08
        -0.63589E+08
        -0.16853E+09
        -0.17148E+09
        -0.16783E+09
        -0.62951E+08
        -0.12460E+09
        -0.80237E+08
        -0.13119E+09
        -0.16398E+09
        -0.16527E+09
        -0.16348E+09
         0.16912E+09
         0.18509E+09
         0.14123E+09
         0.40677E+08
         0.17591E+09
         0.85208E+08
        -0.55569E+08
         0.54507E+08
         0.16388E+09
         0.43531E+08
         0.50448E+08
         0.36957E+08
        -0.22129E+08
         0.63575E+08
        -0.16457E+09
         0.71241E+08
         0.11339E+08
         0.41314E+08
        -0.45942E+08
        -0.15190E+09
         0.10614E+09
         0.47666E+08
         0.11249E+09
         0.10668E+09
        -0.11643E+08
         0.70148E+08
         0.10389E+09
         0.16076E+09
         0.18051E+09
         0.16949E+09
         0.90718E+08
        -0.22268E+08
        -0.50243E+08
        -0.80537E+08
        -0.11413E+09
        -0.17298E+09
        -0.14927E+09
        -0.11391E+09
        -0.17259E+09
        -0.17399E+09
        -0.11422E+09
        -0.92223E+07
         0.36358E+08
        -0.51674E+08
         0.11536E+09
         0.14961E+09
         0.18231E+09
         0.20491E+09
         0.20831E+09
         0.20229E+09
         0.19873E+09
         0.18480E+09
         0.11816E+09
         0.39870E+08
         0.18727E+08
         0.17342E+08
        -0.61132E+07
        -0.57137E+08
        -0.11062E+09
        -0.14160E+09
        -0.19073E+09
        -0.20628E+09
        -0.19936E+09
        -0.19751E+09
        -0.18585E+09
        -0.13318E+09
        -0.66887E+08
        -0.63534E+08
        -0.16852E+09
        -0.17147E+09
        -0.16783E+09
        -0.63300E+08
        -0.12466E+09
        -0.80341E+08
        -0.13094E+09
        -0.16409E+09
        -0.16531E+09
        -0.16362E+09
         0.16919E+09
         0.18508E+09
         0.14122E+09
         0.40805E+08
         0.17597E+09
         0.85146E+08
        -0.55920E+08
         0.54414E+08
         0.16390E+09
         0.43242E+08
         0.50566E+08
         0.36980E+08
        -0.22159E+08
         0.63492E+08
        -0.16462E+09
         0.70965E+08
         0.11512E+08
         0.41676E+08
        -0.45298E+08
        -0.15192E+09
         0.10604E+09
         0.47390E+08
         0.11292E+09
         0.10678E+09
        -0.11498E+08
         0.70213E+08
         0.10391E+09
         0.16079E+09
         0.18052E+09
         0.16947E+09
         0.90757E+08
        -0.22139E+08
        -0.50261E+08
        -0.80630E+08
        -0.11419E+09
        -0.17299E+09
        -0.14930E+09
        -0.11389E+09
        -0.17260E+09
        -0.17398E+09
        -0.11423E+09
        -0.90446E+07
         0.36335E+08
        -0.51687E+08
         0.11538E+09
         0.14961E+09
         0.18231E+09
         0.20490E+09
         0.20830E+09
         0.20228E+09
         0.19873E+09
         0.18480E+09
         0.11816E+09
         0.39895E+08
         0.18726E+08
         0.17376E+08
        -0.60535E+07
        -0.57156E+08
        -0.11065E+09
        -0.14161E+09
        -0.19074E+09
        -0.20628E+09
        -0.19936E+09
        -0.19751E+09
        -0.18586E+09
        -0.13316E+09
        -0.66849E+08
        -0.63480E+08
        -0.16851E+09
        -0.17146E+09
        -0.16783E+09
        -0.63645E+08
        -0.12473E+09
        -0.80446E+08
        -0.13070E+09
        -0.16420E+09
        -0.16534E+09
        -0.16376E+09
         0.16926E+09
         0.18507E+09
         0.14121E+09
         0.40928E+08
         0.17602E+09
         0.85085E+08
        -0.56272E+08
         0.54322E+08
         0.16393E+09
         0.42961E+08
         0.50684E+08
         0.37003E+08
        -0.22187E+08
         0.63414E+08
        -0.16468E+09
         0.70698E+08
         0.11680E+08
         0.42023E+08
        -0.44662E+08
        -0.15195E+09
         0.10593E+09
         0.47119E+08
         0.11335E+09
         0.10689E+09
        -0.11355E+08
         0.70276E+08
         0.10393E+09
         0.16082E+09
         0.18054E+09
         0.16945E+09
         0.90797E+08
        -0.22012E+08
        -0.50282E+08
        -0.80721E+08
        -0.11426E+09
        -0.17300E+09
        -0.14934E+09
        -0.11387E+09
        -0.17260E+09
        -0.17397E+09
        -0.11423E+09
        -0.88674E+07
         0.36311E+08
        -0.51700E+08
         0.11540E+09
         0.14961E+09
         0.18232E+09
         0.20489E+09
         0.20829E+09
         0.20227E+09
         0.19874E+09
         0.18480E+09
         0.11816E+09
         0.39919E+08
         0.18724E+08
         0.17409E+08
        -0.59939E+07
        -0.57175E+08
        -0.11069E+09
        -0.14162E+09
        -0.19074E+09
        -0.20628E+09
        -0.19937E+09
        -0.19751E+09
        -0.18587E+09
        -0.13315E+09
        -0.66812E+08
        -0.63425E+08
        -0.16222E+09
        -0.15387E+09
        -0.14935E+09
        -0.53094E+08
        -0.11853E+09
        -0.73527E+08
        -0.94616E+08
        -0.15634E+09
        -0.15144E+09
        -0.15556E+09
         0.13371E+09
         0.18110E+09
         0.13708E+09
         0.36486E+08
         0.17259E+09
         0.79809E+08
        -0.45253E+08
         0.48954E+08
         0.13968E+09
         0.32387E+08
         0.49607E+08
         0.36021E+08
        -0.21627E+08
         0.49470E+08
        -0.14722E+09
         0.64190E+08
         0.10534E+08
         0.35546E+08
        -0.30552E+08
        -0.13579E+09
         0.97060E+08
         0.35179E+08
         0.93380E+08
         0.83599E+08
        -0.10818E+08
         0.64796E+08
         0.98809E+08
         0.15666E+09
         0.17354E+09
         0.16187E+09
         0.88563E+08
        -0.21317E+08
        -0.49078E+08
        -0.78138E+08
        -0.10925E+09
        -0.16751E+09
        -0.14067E+09
        -0.10597E+09
        -0.15583E+09
        -0.16033E+09
        -0.10999E+09
        -0.81245E+07
         0.36047E+08
        -0.51416E+08
         0.11478E+09
         0.14883E+09
         0.18143E+09
         0.20393E+09
         0.20721E+09
         0.20096E+09
         0.19738E+09
         0.18363E+09
         0.11744E+09
         0.39713E+08
         0.18594E+08
         0.17326E+08
        -0.59050E+07
        -0.56906E+08
        -0.11020E+09
        -0.14098E+09
        -0.18964E+09
        -0.20513E+09
        -0.19821E+09
        -0.19632E+09
        -0.18481E+09
        -0.13234E+09
        -0.66408E+08
        -0.63017E+08
        -0.80835E+08
        -0.51682E+08
        -0.48765E+08
        -0.14615E+08
        -0.52728E+08
        -0.26417E+08
        -0.21500E+08
        -0.70461E+08
        -0.55180E+08
        -0.68872E+08
         0.33685E+08
         0.10839E+09
         0.74194E+08
         0.11831E+08
         0.10593E+09
         0.32806E+08
        -0.11691E+08
         0.10177E+08
         0.40397E+08
         0.65420E+07
         0.28901E+08
         0.19996E+08
        -0.12172E+08
         0.12211E+08
        -0.48713E+08
         0.12259E+08
         0.34571E+07
         0.59877E+07
        -0.61690E+07
        -0.44923E+08
         0.35410E+08
         0.82383E+07
         0.25071E+08
         0.20789E+08
        -0.53396E+07
         0.24193E+08
         0.44197E+08
         0.88189E+08
         0.85048E+08
         0.75419E+08
         0.50639E+08
        -0.11816E+08
        -0.28199E+08
        -0.40525E+08
        -0.50789E+08
        -0.87751E+08
        -0.59035E+08
        -0.41608E+08
        -0.53400E+08
        -0.59973E+08
        -0.54706E+08
        -0.32192E+07
         0.28784E+08
        -0.41855E+08
         0.94385E+08
         0.12351E+09
         0.15215E+09
         0.17228E+09
         0.17259E+09
         0.16147E+09
         0.15652E+09
         0.14773E+09
         0.94910E+08
         0.32645E+08
         0.14865E+08
         0.13912E+08
        -0.48409E+07
        -0.47673E+08
        -0.93039E+08
        -0.11908E+09
        -0.15432E+09
        -0.16837E+09
        -0.16162E+09
        -0.15918E+09
        -0.15108E+09
        -0.10749E+09
        -0.54648E+08
        -0.51672E+08
  
SCALARS                      stress_xz  double 1
LOOKUP_TABLE default
         0.60929E+05
        -0.42971E+06
        -0.14186E+07
         0.97449E+05
        -0.84872E+01
         0.30093E+01
         0.10063E+02
         0.20097E+01
        -0.39915E+07
        -0.26668E+07
         0.30098E+02
         0.27110E+02
         0.17019E+06
        -0.69446E+06
        -0.37121E+01
        -0.17389E+02
        -0.14248E+06
        -0.66645E+06
        -0.12561E+02
        -0.18708E+02
        -0.97670E+06
        -0.16457E+07
        -0.15585E+07
        -0.12492E+02
        -0.57604E+01
         0.10064E+02
        -0.17384E+07
        -0.14115E+07
        -0.23383E+02
        -0.18549E+02
         0.33338E+06
        -0.74056E+06
         0.70870E+05
         0.23807E+01
        -0.92001E+01
        -0.56679E+01
         0.98911E+06
         0.47676E+06
        -0.13659E+02
        -0.14543E+02
         0.19715E+07
         0.27934E+07
        -0.30811E+02
        -0.22722E+02
         0.21093E+07
         0.11233E+07
        -0.33836E+02
        -0.16286E+02
        -0.60549E+06
        -0.10223E+02
         0.14419E+07
        -0.28456E+01
        -0.63162E+06
        -0.19975E+02
         0.47183E+06
        -0.52840E+01
         0.20644E+07
         0.56632E+06
        -0.45265E+01
        -0.10941E+02
        -0.35597E+05
         0.98204E+06
         0.90534E+01
         0.62083E+01
        -0.25505E+06
        -0.91066E+00
        -0.85377E+06
         0.59899E+01
        -0.56172E+07
        -0.38492E+07
         0.37438E+02
         0.27153E+02
        -0.24757E+07
         0.19771E+02
         0.58350E+06
        -0.13677E+02
         0.18259E+07
        -0.26842E+01
         0.38710E+07
        -0.41644E+01
         0.51217E+07
         0.36370E+07
        -0.15262E+02
        -0.17454E+02
         0.32125E+07
        -0.18771E+02
         0.25579E+07
        -0.27026E+02
         0.15930E+07
        -0.17238E+02
         0.25076E+07
         0.18443E+07
        -0.73569E+01
         0.10089E+02
        -0.42159E+06
         0.11834E+02
        -0.11573E+07
         0.49690E+01
        -0.27787E+07
         0.12271E+02
        -0.41076E+07
        -0.28190E+07
         0.28293E+02
         0.29524E+02
        -0.10060E+08
        -0.11139E+08
         0.52279E+02
         0.51519E+02
        -0.99638E+07
         0.44661E+02
        -0.90809E+07
         0.33376E+02
        -0.65150E+07
         0.18342E+02
        -0.47337E+07
         0.19613E+01
        -0.17564E+07
        -0.69857E+01
         0.22629E+07
        -0.55890E+01
         0.54003E+07
        -0.54933E+01
         0.80240E+07
        -0.12388E+02
         0.10793E+08
        -0.23568E+02
         0.13116E+08
        -0.28124E+02
         0.13942E+08
        -0.26536E+02
         0.13279E+08
        -0.28855E+02
         0.12170E+08
        -0.37450E+02
         0.10945E+08
        -0.44161E+02
         0.96533E+07
        -0.41052E+02
         0.76768E+07
        -0.33363E+02
         0.45043E+07
        -0.15750E+02
         0.38615E+06
         0.30076E+01
        -0.25190E+07
         0.73019E+01
        -0.39425E+07
         0.11940E+02
        -0.59295E+07
         0.23368E+02
        -0.78180E+07
         0.38345E+02
        -0.10276E+08
         0.46069E+02
        -0.11805E+08
         0.47120E+02
         0.69082E+06
        -0.45802E+06
        -0.53736E+06
         0.61541E+06
        -0.41870E+07
        -0.32402E+07
        -0.48896E+06
         0.71842E+06
         0.24839E+06
         0.65965E+06
        -0.36183E+06
        -0.15666E+07
        -0.32727E+07
         0.10469E+07
         0.12593E+07
        -0.86236E+06
        -0.86987E+06
         0.21911E+06
         0.87157E+06
         0.93770E+06
         0.51248E+07
         0.54572E+07
         0.49277E+07
         0.15316E+07
        -0.61423E+06
         0.45771E+06
         0.14699E+07
         0.16482E+06
         0.16861E+07
         0.11598E+07
        -0.84615E+06
        -0.25228E+06
         0.40145E+06
         0.19591E+06
        -0.61905E+07
        -0.39449E+07
        -0.35705E+07
         0.24990E+07
         0.14235E+07
         0.30446E+07
         0.62645E+07
         0.58401E+07
         0.57690E+07
         0.42404E+07
         0.30409E+07
         0.23783E+07
        -0.44678E+06
        -0.18669E+07
        -0.53986E+06
        -0.17108E+07
        -0.45690E+07
        -0.38498E+07
        -0.18074E+08
        -0.18974E+08
        -0.16959E+08
        -0.14428E+08
        -0.10742E+08
        -0.54713E+07
         0.32463E+06
         0.38976E+07
         0.59387E+07
         0.10195E+08
         0.16619E+08
         0.20225E+08
         0.18530E+08
         0.17772E+08
         0.18775E+08
         0.18771E+08
         0.17052E+08
         0.14929E+08
         0.75615E+07
        -0.11953E+07
        -0.45944E+07
        -0.51217E+07
        -0.86728E+07
        -0.13849E+08
        -0.17967E+08
        -0.18885E+08
        -0.57298E+08
         0.18970E+08
        -0.38165E+08
        -0.15909E+09
         0.12912E+09
         0.15584E+09
         0.98790E+08
        -0.73826E+08
        -0.52609E+08
        -0.74190E+08
        -0.29503E+08
         0.27495E+08
         0.11657E+09
        -0.17044E+09
        -0.68859E+08
         0.15179E+09
         0.16106E+09
        -0.11354E+09
        -0.49492E+08
        -0.13419E+09
        -0.17728E+09
        -0.17922E+09
        -0.18124E+09
        -0.15551E+09
         0.55087E+08
         0.69266E+08
        -0.17396E+09
         0.49877E+08
        -0.12571E+09
        -0.85024E+08
         0.13526E+09
         0.15963E+09
        -0.13250E+09
        -0.13136E+09
         0.18143E+09
         0.16155E+09
         0.14560E+09
        -0.92121E+08
        -0.19656E+08
        -0.60912E+08
        -0.16177E+09
        -0.18217E+09
        -0.17698E+09
        -0.16219E+09
        -0.13875E+09
        -0.60710E+08
         0.97115E+08
         0.13342E+09
        -0.21139E+08
         0.21771E+08
         0.14112E+09
         0.17640E+09
         0.20247E+09
         0.19971E+09
         0.17222E+09
         0.14298E+09
         0.10069E+09
         0.43480E+08
        -0.11206E+08
        -0.40387E+08
        -0.54464E+08
        -0.93880E+08
        -0.16982E+09
        -0.20284E+09
        -0.20217E+09
        -0.20139E+09
        -0.20372E+09
        -0.19712E+09
        -0.17397E+09
        -0.15193E+09
        -0.80185E+08
         0.20343E+08
         0.49480E+08
         0.52543E+08
         0.88121E+08
         0.15574E+09
         0.19424E+09
         0.19512E+09
        -0.57365E+08
         0.19036E+08
        -0.38217E+08
        -0.15898E+09
         0.12905E+09
         0.15578E+09
         0.99129E+08
        -0.73573E+08
        -0.52581E+08
        -0.73929E+08
        -0.28907E+08
         0.27563E+08
         0.11660E+09
        -0.17039E+09
        -0.68757E+08
         0.15183E+09
         0.16098E+09
        -0.11323E+09
        -0.49441E+08
        -0.13396E+09
        -0.17725E+09
        -0.17921E+09
        -0.18124E+09
        -0.15552E+09
         0.54988E+08
         0.69381E+08
        -0.17396E+09
         0.48939E+08
        -0.12660E+09
        -0.84937E+08
         0.13534E+09
         0.15966E+09
        -0.13216E+09
        -0.13131E+09
         0.18144E+09
         0.16151E+09
         0.14559E+09
        -0.92136E+08
        -0.19803E+08
        -0.61025E+08
        -0.16177E+09
        -0.18219E+09
        -0.17697E+09
        -0.16217E+09
        -0.13872E+09
        -0.60682E+08
         0.97095E+08
         0.13347E+09
        -0.21013E+08
         0.21724E+08
         0.14110E+09
         0.17640E+09
         0.20247E+09
         0.19970E+09
         0.17220E+09
         0.14298E+09
         0.10067E+09
         0.43480E+08
        -0.11223E+08
        -0.40422E+08
        -0.54431E+08
        -0.93868E+08
        -0.16982E+09
        -0.20284E+09
        -0.20217E+09
        -0.20139E+09
        -0.20372E+09
        -0.19712E+09
        -0.17396E+09
        -0.15193E+09
        -0.80167E+08
         0.20353E+08
         0.49449E+08
         0.52526E+08
         0.88083E+08
         0.15574E+09
         0.19424E+09
         0.19513E+09
        -0.57433E+08
         0.19101E+08
        -0.38268E+08
        -0.15886E+09
         0.12897E+09
         0.15572E+09
         0.99468E+08
        -0.73321E+08
        -0.52549E+08
        -0.73666E+08
        -0.28311E+08
         0.27630E+08
         0.11662E+09
        -0.17035E+09
        -0.68655E+08
         0.15188E+09
         0.16090E+09
        -0.11291E+09
        -0.49388E+08
        -0.13373E+09
        -0.17722E+09
        -0.17920E+09
        -0.18124E+09
        -0.15554E+09
         0.54900E+08
         0.69507E+08
        -0.17395E+09
         0.48013E+08
        -0.12749E+09
        -0.84855E+08
         0.13542E+09
         0.15970E+09
        -0.13182E+09
        -0.13125E+09
         0.18146E+09
         0.16148E+09
         0.14557E+09
        -0.92151E+08
        -0.19950E+08
        -0.61139E+08
        -0.16178E+09
        -0.18221E+09
        -0.17696E+09
        -0.16214E+09
        -0.13870E+09
        -0.60654E+08
         0.97076E+08
         0.13353E+09
        -0.20883E+08
         0.21675E+08
         0.14108E+09
         0.17639E+09
         0.20246E+09
         0.19969E+09
         0.17219E+09
         0.14298E+09
         0.10065E+09
         0.43481E+08
        -0.11240E+08
        -0.40457E+08
        -0.54398E+08
        -0.93856E+08
        -0.16982E+09
        -0.20284E+09
        -0.20217E+09
        -0.20139E+09
        -0.20373E+09
        -0.19712E+09
        -0.17395E+09
        -0.15193E+09
        -0.80149E+08
         0.20363E+08
         0.49417E+08
         0.52508E+08
         0.88046E+08
         0.15574E+09
         0.19424E+09
         0.19513E+09
        -0.57501E+08
         0.19169E+08
        -0.38318E+08
        -0.15875E+09
         0.12890E+09
         0.15566E+09
         0.99795E+08
        -0.73068E+08
        -0.52512E+08
        -0.73398E+08
        -0.27717E+08
         0.27699E+08
         0.11665E+09
        -0.17030E+09
        -0.68553E+08
         0.15192E+09
         0.16082E+09
        -0.11259E+09
        -0.49337E+08
        -0.13349E+09
        -0.17719E+09
        -0.17919E+09
        -0.18123E+09
        -0.15556E+09
         0.54842E+08
         0.69661E+08
        -0.17395E+09
         0.47116E+08
        -0.12837E+09
        -0.84781E+08
         0.13551E+09
         0.15975E+09
        -0.13147E+09
        -0.13120E+09
         0.18148E+09
         0.16145E+09
         0.14556E+09
        -0.92165E+08
        -0.20094E+08
        -0.61247E+08
        -0.16178E+09
        -0.18223E+09
        -0.17696E+09
        -0.16211E+09
        -0.13866E+09
        -0.60622E+08
         0.97055E+08
         0.13358E+09
        -0.20752E+08
         0.21626E+08
         0.14107E+09
         0.17638E+09
         0.20246E+09
         0.19969E+09
         0.17217E+09
         0.14298E+09
         0.10064E+09
         0.43481E+08
        -0.11258E+08
        -0.40492E+08
        -0.54364E+08
        -0.93845E+08
        -0.16982E+09
        -0.20284E+09
        -0.20217E+09
        -0.20138E+09
        -0.20373E+09
        -0.19712E+09
        -0.17394E+09
        -0.15193E+09
        -0.80130E+08
         0.20374E+08
         0.49386E+08
         0.52491E+08
         0.88008E+08
         0.15574E+09
         0.19425E+09
         0.19514E+09
        -0.57569E+08
         0.19236E+08
        -0.38368E+08
        -0.15864E+09
         0.12883E+09
         0.15560E+09
         0.10013E+09
        -0.72815E+08
        -0.52468E+08
        -0.73125E+08
        -0.27120E+08
         0.27767E+08
         0.11668E+09
        -0.17025E+09
        -0.68451E+08
         0.15197E+09
         0.16074E+09
        -0.11227E+09
        -0.49280E+08
        -0.13325E+09
        -0.17716E+09
        -0.17919E+09
        -0.18123E+09
        -0.15559E+09
         0.54814E+08
         0.69837E+08
        -0.17395E+09
         0.46247E+08
        -0.12926E+09
        -0.84718E+08
         0.13560E+09
         0.15983E+09
        -0.13113E+09
        -0.13114E+09
         0.18149E+09
         0.16142E+09
         0.14554E+09
        -0.92179E+08
        -0.20236E+08
        -0.61354E+08
        -0.16177E+09
        -0.18226E+09
        -0.17696E+09
        -0.16207E+09
        -0.13861E+09
        -0.60585E+08
         0.97033E+08
         0.13363E+09
        -0.20621E+08
         0.21579E+08
         0.14105E+09
         0.17638E+09
         0.20246E+09
         0.19968E+09
         0.17216E+09
         0.14298E+09
         0.10062E+09
         0.43481E+08
        -0.11274E+08
        -0.40526E+08
        -0.54331E+08
        -0.93833E+08
        -0.16982E+09
        -0.20283E+09
        -0.20216E+09
        -0.20138E+09
        -0.20374E+09
        -0.19712E+09
        -0.17392E+09
        -0.15193E+09
        -0.80112E+08
         0.20384E+08
         0.49355E+08
         0.52473E+08
         0.87971E+08
         0.15573E+09
         0.19425E+09
         0.19515E+09
        -0.57634E+08
         0.19311E+08
        -0.38411E+08
        -0.15852E+09
         0.12876E+09
         0.15554E+09
         0.10047E+09
        -0.72564E+08
        -0.52422E+08
        -0.72856E+08
        -0.26521E+08
         0.27835E+08
         0.11671E+09
        -0.17021E+09
        -0.68350E+08
         0.15203E+09
         0.16066E+09
        -0.11195E+09
        -0.49221E+08
        -0.13302E+09
        -0.17713E+09
        -0.17918E+09
        -0.18123E+09
        -0.15563E+09
         0.54789E+08
         0.70018E+08
        -0.17394E+09
         0.45383E+08
        -0.13015E+09
        -0.84666E+08
         0.13570E+09
         0.15991E+09
        -0.13077E+09
        -0.13108E+09
         0.18151E+09
         0.16139E+09
         0.14553E+09
        -0.92191E+08
        -0.20378E+08
        -0.61458E+08
        -0.16176E+09
        -0.18228E+09
        -0.17695E+09
        -0.16203E+09
        -0.13855E+09
        -0.60549E+08
         0.97007E+08
         0.13368E+09
        -0.20483E+08
         0.21536E+08
         0.14103E+09
         0.17637E+09
         0.20245E+09
         0.19967E+09
         0.17214E+09
         0.14298E+09
         0.10061E+09
         0.43481E+08
        -0.11291E+08
        -0.40561E+08
        -0.54297E+08
        -0.93821E+08
        -0.16982E+09
        -0.20283E+09
        -0.20216E+09
        -0.20138E+09
        -0.20374E+09
        -0.19712E+09
        -0.17391E+09
        -0.15192E+09
        -0.80093E+08
         0.20393E+08
         0.49323E+08
         0.52455E+08
         0.87934E+08
         0.15573E+09
         0.19425E+09
         0.19515E+09
        -0.57693E+08
         0.19404E+08
        -0.38441E+08
        -0.15840E+09
         0.12869E+09
         0.15548E+09
         0.10083E+09
        -0.72318E+08
        -0.52377E+08
        -0.72601E+08
        -0.25916E+08
         0.27902E+08
         0.11673E+09
        -0.17016E+09
        -0.68246E+08
         0.15207E+09
         0.16058E+09
        -0.11163E+09
        -0.49167E+08
        -0.13280E+09
        -0.17710E+09
        -0.17918E+09
        -0.18123E+09
        -0.15567E+09
         0.54751E+08
         0.70178E+08
        -0.17394E+09
         0.44500E+08
        -0.13104E+09
        -0.84622E+08
         0.13580E+09
         0.15999E+09
        -0.13040E+09
        -0.13101E+09
         0.18153E+09
         0.16136E+09
         0.14551E+09
        -0.92201E+08
        -0.20520E+08
        -0.61565E+08
        -0.16176E+09
        -0.18231E+09
        -0.17695E+09
        -0.16198E+09
        -0.13850E+09
        -0.60515E+08
         0.96965E+08
         0.13371E+09
        -0.20329E+08
         0.21508E+08
         0.14102E+09
         0.17636E+09
         0.20245E+09
         0.19966E+09
         0.17213E+09
         0.14298E+09
         0.10059E+09
         0.43481E+08
        -0.11308E+08
        -0.40596E+08
        -0.54264E+08
        -0.93810E+08
        -0.16982E+09
        -0.20282E+09
        -0.20216E+09
        -0.20137E+09
        -0.20375E+09
        -0.19712E+09
        -0.17389E+09
        -0.15192E+09
        -0.80075E+08
         0.20401E+08
         0.49289E+08
         0.52437E+08
         0.87898E+08
         0.15573E+09
         0.19425E+09
         0.19516E+09
        -0.57750E+08
         0.19502E+08
        -0.38464E+08
        -0.15828E+09
         0.12862E+09
         0.15542E+09
         0.10121E+09
        -0.72074E+08
        -0.52333E+08
        -0.72354E+08
        -0.25308E+08
         0.27969E+08
         0.11676E+09
        -0.17010E+09
        -0.68143E+08
         0.15212E+09
         0.16049E+09
        -0.11131E+09
        -0.49110E+08
        -0.13259E+09
        -0.17707E+09
        -0.17917E+09
        -0.18122E+09
        -0.15570E+09
         0.54706E+08
         0.70328E+08
        -0.17393E+09
         0.43611E+08
        -0.13195E+09
        -0.84584E+08
         0.13589E+09
         0.16007E+09
        -0.13003E+09
        -0.13093E+09
         0.18154E+09
         0.16133E+09
         0.14549E+09
        -0.92210E+08
        -0.20661E+08
        -0.61670E+08
        -0.16175E+09
        -0.18234E+09
        -0.17696E+09
        -0.16194E+09
        -0.13845E+09
        -0.60483E+08
         0.96917E+08
         0.13373E+09
        -0.20166E+08
         0.21486E+08
         0.14101E+09
         0.17636E+09
         0.20245E+09
         0.19965E+09
         0.17211E+09
         0.14298E+09
         0.10057E+09
         0.43481E+08
        -0.11325E+08
        -0.40631E+08
        -0.54231E+08
        -0.93799E+08
        -0.16981E+09
        -0.20282E+09
        -0.20216E+09
        -0.20137E+09
        -0.20375E+09
        -0.19713E+09
        -0.17388E+09
        -0.15191E+09
        -0.80056E+08
         0.20409E+08
         0.49254E+08
         0.52419E+08
         0.87863E+08
         0.15573E+09
         0.19426E+09
         0.19517E+09
        -0.57807E+08
         0.19601E+08
        -0.38486E+08
        -0.15815E+09
         0.12855E+09
         0.15536E+09
         0.10158E+09
        -0.71831E+08
        -0.52289E+08
        -0.72110E+08
        -0.24702E+08
         0.28036E+08
         0.11678E+09
        -0.17005E+09
        -0.68040E+08
         0.15217E+09
         0.16040E+09
        -0.11098E+09
        -0.49053E+08
        -0.13237E+09
        -0.17704E+09
        -0.17917E+09
        -0.18122E+09
        -0.15574E+09
         0.54661E+08
         0.70477E+08
        -0.17392E+09
         0.42724E+08
        -0.13286E+09
        -0.84546E+08
         0.13599E+09
         0.16015E+09
        -0.12965E+09
        -0.13085E+09
         0.18156E+09
         0.16130E+09
         0.14548E+09
        -0.92218E+08
        -0.20802E+08
        -0.61775E+08
        -0.16174E+09
        -0.18236E+09
        -0.17696E+09
        -0.16190E+09
        -0.13839E+09
        -0.60451E+08
         0.96872E+08
         0.13375E+09
        -0.20003E+08
         0.21467E+08
         0.14100E+09
         0.17635E+09
         0.20245E+09
         0.19964E+09
         0.17210E+09
         0.14298E+09
         0.10056E+09
         0.43481E+08
        -0.11342E+08
        -0.40665E+08
        -0.54197E+08
        -0.93788E+08
        -0.16981E+09
        -0.20282E+09
        -0.20216E+09
        -0.20137E+09
        -0.20376E+09
        -0.19713E+09
        -0.17387E+09
        -0.15190E+09
        -0.80038E+08
         0.20417E+08
         0.49219E+08
         0.52401E+08
         0.87828E+08
         0.15572E+09
         0.19426E+09
         0.19518E+09
        -0.57864E+08
         0.19701E+08
        -0.38509E+08
        -0.15803E+09
         0.12848E+09
         0.15530E+09
         0.10194E+09
        -0.71588E+08
        -0.52245E+08
        -0.71866E+08
        -0.24095E+08
         0.28103E+08
         0.11680E+09
        -0.16999E+09
        -0.67937E+08
         0.15222E+09
         0.16030E+09
        -0.11067E+09
        -0.48996E+08
        -0.13215E+09
        -0.17701E+09
        -0.17916E+09
        -0.18122E+09
        -0.15577E+09
         0.54617E+08
         0.70626E+08
        -0.17392E+09
         0.41842E+08
        -0.13376E+09
        -0.84506E+08
         0.13608E+09
         0.16023E+09
        -0.12928E+09
        -0.13078E+09
         0.18158E+09
         0.16127E+09
         0.14546E+09
        -0.92226E+08
        -0.20942E+08
        -0.61881E+08
        -0.16174E+09
        -0.18239E+09
        -0.17696E+09
        -0.16186E+09
        -0.13834E+09
        -0.60418E+08
         0.96824E+08
         0.13377E+09
        -0.19841E+08
         0.21444E+08
         0.14099E+09
         0.17634E+09
         0.20244E+09
         0.19964E+09
         0.17209E+09
         0.14298E+09
         0.10054E+09
         0.43481E+08
        -0.11358E+08
        -0.40699E+08
        -0.54163E+08
        -0.93778E+08
        -0.16981E+09
        -0.20281E+09
        -0.20216E+09
        -0.20136E+09
        -0.20376E+09
        -0.19713E+09
        -0.17385E+09
        -0.15190E+09
        -0.80019E+08
         0.20424E+08
         0.49185E+08
         0.52383E+08
         0.87793E+08
         0.15572E+09
         0.19426E+09
         0.19518E+09
        -0.57921E+08
         0.19801E+08
        -0.38533E+08
        -0.15791E+09
         0.12841E+09
         0.15524E+09
         0.10230E+09
        -0.71346E+08
        -0.52201E+08
        -0.71625E+08
        -0.23488E+08
         0.28171E+08
         0.11683E+09
        -0.16994E+09
        -0.67833E+08
         0.15226E+09
         0.16021E+09
        -0.11035E+09
        -0.48944E+08
        -0.13193E+09
        -0.17698E+09
        -0.17915E+09
        -0.18122E+09
        -0.15581E+09
         0.54572E+08
         0.70773E+08
        -0.17391E+09
         0.40959E+08
        -0.13467E+09
        -0.84467E+08
         0.13617E+09
         0.16031E+09
        -0.12890E+09
        -0.13070E+09
         0.18159E+09
         0.16124E+09
         0.14544E+09
        -0.92234E+08
        -0.21082E+08
        -0.61986E+08
        -0.16173E+09
        -0.18241E+09
        -0.17696E+09
        -0.16181E+09
        -0.13829E+09
        -0.60387E+08
         0.96776E+08
         0.13380E+09
        -0.19677E+08
         0.21422E+08
         0.14098E+09
         0.17634E+09
         0.20244E+09
         0.19963E+09
         0.17207E+09
         0.14298E+09
         0.10052E+09
         0.43482E+08
        -0.11375E+08
        -0.40734E+08
        -0.54130E+08
        -0.93766E+08
        -0.16981E+09
        -0.20281E+09
        -0.20216E+09
        -0.20136E+09
        -0.20377E+09
        -0.19713E+09
        -0.17384E+09
        -0.15189E+09
        -0.80001E+08
         0.20432E+08
         0.49150E+08
         0.52365E+08
         0.87758E+08
         0.15572E+09
         0.19426E+09
         0.19519E+09
        -0.57978E+08
         0.19900E+08
        -0.38554E+08
        -0.15778E+09
         0.12834E+09
         0.15518E+09
         0.10267E+09
        -0.71104E+08
        -0.52157E+08
        -0.71385E+08
        -0.22883E+08
         0.28239E+08
         0.11685E+09
        -0.16989E+09
        -0.67731E+08
         0.15231E+09
         0.16012E+09
        -0.11002E+09
        -0.48888E+08
        -0.13172E+09
        -0.17695E+09
        -0.17915E+09
        -0.18122E+09
        -0.15584E+09
         0.54526E+08
         0.70925E+08
        -0.17390E+09
         0.40080E+08
        -0.13556E+09
        -0.84430E+08
         0.13627E+09
         0.16039E+09
        -0.12851E+09
        -0.13062E+09
         0.18161E+09
         0.16121E+09
         0.14543E+09
        -0.92242E+08
        -0.21223E+08
        -0.62093E+08
        -0.16173E+09
        -0.18244E+09
        -0.17696E+09
        -0.16177E+09
        -0.13823E+09
        -0.60356E+08
         0.96730E+08
         0.13382E+09
        -0.19512E+08
         0.21402E+08
         0.14096E+09
         0.17633E+09
         0.20244E+09
         0.19962E+09
         0.17206E+09
         0.14298E+09
         0.10051E+09
         0.43482E+08
        -0.11391E+08
        -0.40768E+08
        -0.54097E+08
        -0.93756E+08
        -0.16980E+09
        -0.20281E+09
        -0.20216E+09
        -0.20136E+09
        -0.20377E+09
        -0.19713E+09
        -0.17382E+09
        -0.15189E+09
        -0.79982E+08
         0.20439E+08
         0.49115E+08
         0.52347E+08
         0.87723E+08
         0.15572E+09
         0.19427E+09
         0.19520E+09
        -0.58035E+08
         0.20001E+08
        -0.38575E+08
        -0.15766E+09
         0.12827E+09
         0.15512E+09
         0.10302E+09
        -0.70862E+08
        -0.52112E+08
        -0.71144E+08
        -0.22279E+08
         0.28306E+08
         0.11688E+09
        -0.16983E+09
        -0.67627E+08
         0.15236E+09
         0.16003E+09
        -0.10970E+09
        -0.48834E+08
        -0.13150E+09
        -0.17692E+09
        -0.17914E+09
        -0.18121E+09
        -0.15588E+09
         0.54481E+08
         0.71072E+08
        -0.17390E+09
         0.39199E+08
        -0.13647E+09
        -0.84392E+08
         0.13636E+09
         0.16047E+09
        -0.12813E+09
        -0.13055E+09
         0.18163E+09
         0.16118E+09
         0.14541E+09
        -0.92249E+08
        -0.21362E+08
        -0.62197E+08
        -0.16172E+09
        -0.18246E+09
        -0.17696E+09
        -0.16173E+09
        -0.13818E+09
        -0.60322E+08
         0.96682E+08
         0.13384E+09
        -0.19345E+08
         0.21380E+08
         0.14095E+09
         0.17632E+09
         0.20243E+09
         0.19961E+09
         0.17204E+09
         0.14298E+09
         0.10049E+09
         0.43482E+08
        -0.11408E+08
        -0.40803E+08
        -0.54063E+08
        -0.93745E+08
        -0.16980E+09
        -0.20280E+09
        -0.20216E+09
        -0.20135E+09
        -0.20378E+09
        -0.19713E+09
        -0.17381E+09
        -0.15188E+09
        -0.79964E+08
         0.20446E+08
         0.49080E+08
         0.52329E+08
         0.87688E+08
         0.15572E+09
         0.19427E+09
         0.19520E+09
        -0.58093E+08
         0.20099E+08
        -0.38597E+08
        -0.15753E+09
         0.12820E+09
         0.15506E+09
         0.10337E+09
        -0.70620E+08
        -0.52067E+08
        -0.70905E+08
        -0.21677E+08
         0.28373E+08
         0.11690E+09
        -0.16978E+09
        -0.67524E+08
         0.15241E+09
         0.15994E+09
        -0.10938E+09
        -0.48783E+08
        -0.13129E+09
        -0.17689E+09
        -0.17914E+09
        -0.18121E+09
        -0.15591E+09
         0.54435E+08
         0.71220E+08
        -0.17389E+09
         0.38324E+08
        -0.13737E+09
        -0.84353E+08
         0.13645E+09
         0.16055E+09
        -0.12774E+09
        -0.13047E+09
         0.18164E+09
         0.16115E+09
         0.14539E+09
        -0.92254E+08
        -0.21502E+08
        -0.62305E+08
        -0.16171E+09
        -0.18249E+09
        -0.17696E+09
        -0.16169E+09
        -0.13812E+09
        -0.60291E+08
         0.96633E+08
         0.13386E+09
        -0.19180E+08
         0.21358E+08
         0.14094E+09
         0.17632E+09
         0.20243E+09
         0.19960E+09
         0.17203E+09
         0.14298E+09
         0.10048E+09
         0.43482E+08
        -0.11425E+08
        -0.40836E+08
        -0.54029E+08
        -0.93734E+08
        -0.16980E+09
        -0.20280E+09
        -0.20215E+09
        -0.20135E+09
        -0.20378E+09
        -0.19713E+09
        -0.17379E+09
        -0.15188E+09
        -0.79945E+08
         0.20453E+08
         0.49046E+08
         0.52311E+08
         0.87653E+08
         0.15571E+09
         0.19427E+09
         0.19521E+09
        -0.58150E+08
         0.20197E+08
        -0.38618E+08
        -0.15741E+09
         0.12813E+09
         0.15500E+09
         0.10372E+09
        -0.70379E+08
        -0.52023E+08
        -0.70668E+08
        -0.21075E+08
         0.28442E+08
         0.11693E+09
        -0.16972E+09
        -0.67420E+08
         0.15245E+09
         0.15984E+09
        -0.10906E+09
        -0.48728E+08
        -0.13107E+09
        -0.17686E+09
        -0.17913E+09
        -0.18121E+09
        -0.15595E+09
         0.54388E+08
         0.71367E+08
        -0.17388E+09
         0.37449E+08
        -0.13827E+09
        -0.84313E+08
         0.13654E+09
         0.16063E+09
        -0.12734E+09
        -0.13039E+09
         0.18166E+09
         0.16112E+09
         0.14538E+09
        -0.92259E+08
        -0.21640E+08
        -0.62410E+08
        -0.16171E+09
        -0.18251E+09
        -0.17696E+09
        -0.16164E+09
        -0.13807E+09
        -0.60260E+08
         0.96587E+08
         0.13388E+09
        -0.19011E+08
         0.21337E+08
         0.14093E+09
         0.17631E+09
         0.20243E+09
         0.19960E+09
         0.17201E+09
         0.14298E+09
         0.10046E+09
         0.43482E+08
        -0.11442E+08
        -0.40870E+08
        -0.53995E+08
        -0.93724E+08
        -0.16980E+09
        -0.20279E+09
        -0.20215E+09
        -0.20135E+09
        -0.20379E+09
        -0.19713E+09
        -0.17378E+09
        -0.15187E+09
        -0.79927E+08
         0.20460E+08
         0.49011E+08
         0.52294E+08
         0.87618E+08
         0.15571E+09
         0.19427E+09
         0.19522E+09
        -0.58208E+08
         0.20298E+08
        -0.38640E+08
        -0.15728E+09
         0.12806E+09
         0.15494E+09
         0.10407E+09
        -0.70138E+08
        -0.51978E+08
        -0.70432E+08
        -0.20473E+08
         0.28509E+08
         0.11695E+09
        -0.16967E+09
        -0.67317E+08
         0.15250E+09
         0.15975E+09
        -0.10874E+09
        -0.48674E+08
        -0.13085E+09
        -0.17683E+09
        -0.17913E+09
        -0.18121E+09
        -0.15598E+09
         0.54340E+08
         0.71515E+08
        -0.17387E+09
         0.36575E+08
        -0.13917E+09
        -0.84274E+08
         0.13664E+09
         0.16071E+09
        -0.12695E+09
        -0.13031E+09
         0.18167E+09
         0.16109E+09
         0.14536E+09
        -0.92263E+08
        -0.21780E+08
        -0.62516E+08
        -0.16170E+09
        -0.18254E+09
        -0.17696E+09
        -0.16160E+09
        -0.13802E+09
        -0.60226E+08
         0.96539E+08
         0.13391E+09
        -0.18843E+08
         0.21314E+08
         0.14092E+09
         0.17630E+09
         0.20242E+09
         0.19959E+09
         0.17200E+09
         0.14298E+09
         0.10044E+09
         0.43482E+08
        -0.11458E+08
        -0.40904E+08
        -0.53962E+08
        -0.93713E+08
        -0.16979E+09
        -0.20279E+09
        -0.20215E+09
        -0.20134E+09
        -0.20379E+09
        -0.19713E+09
        -0.17376E+09
        -0.15187E+09
        -0.79908E+08
         0.20468E+08
         0.48976E+08
         0.52276E+08
         0.87583E+08
         0.15571E+09
         0.19427E+09
         0.19522E+09
        -0.58265E+08
         0.20397E+08
        -0.38662E+08
        -0.15715E+09
         0.12799E+09
         0.15488E+09
         0.10441E+09
        -0.69897E+08
        -0.51931E+08
        -0.70194E+08
        -0.19871E+08
         0.28577E+08
         0.11697E+09
        -0.16961E+09
        -0.67213E+08
         0.15255E+09
         0.15965E+09
        -0.10842E+09
        -0.48621E+08
        -0.13063E+09
        -0.17679E+09
        -0.17912E+09
        -0.18121E+09
        -0.15602E+09
         0.54291E+08
         0.71662E+08
        -0.17387E+09
         0.35692E+08
        -0.14006E+09
        -0.84236E+08
         0.13673E+09
         0.16079E+09
        -0.12655E+09
        -0.13024E+09
         0.18169E+09
         0.16106E+09
         0.14535E+09
        -0.92266E+08
        -0.21920E+08
        -0.62623E+08
        -0.16169E+09
        -0.18256E+09
        -0.17696E+09
        -0.16156E+09
        -0.13796E+09
        -0.60195E+08
         0.96491E+08
         0.13393E+09
        -0.18676E+08
         0.21292E+08
         0.14091E+09
         0.17629E+09
         0.20242E+09
         0.19958E+09
         0.17199E+09
         0.14298E+09
         0.10043E+09
         0.43482E+08
        -0.11474E+08
        -0.40938E+08
        -0.53929E+08
        -0.93703E+08
        -0.16979E+09
        -0.20279E+09
        -0.20215E+09
        -0.20134E+09
        -0.20379E+09
        -0.19713E+09
        -0.17375E+09
        -0.15186E+09
        -0.79889E+08
         0.20475E+08
         0.48941E+08
         0.52258E+08
         0.87549E+08
         0.15571E+09
         0.19428E+09
         0.19523E+09
        -0.58323E+08
         0.20495E+08
        -0.38682E+08
        -0.15702E+09
         0.12792E+09
         0.15482E+09
         0.10475E+09
        -0.69658E+08
        -0.51880E+08
        -0.69950E+08
        -0.19271E+08
         0.28645E+08
         0.11700E+09
        -0.16956E+09
        -0.67109E+08
         0.15259E+09
         0.15956E+09
        -0.10810E+09
        -0.48574E+08
        -0.13042E+09
        -0.17676E+09
        -0.17912E+09
        -0.18120E+09
        -0.15605E+09
         0.54233E+08
         0.71815E+08
        -0.17386E+09
         0.34788E+08
        -0.14096E+09
        -0.84208E+08
         0.13682E+09
         0.16086E+09
        -0.12615E+09
        -0.13016E+09
         0.18171E+09
         0.16103E+09
         0.14533E+09
        -0.92266E+08
        -0.22065E+08
        -0.62731E+08
        -0.16168E+09
        -0.18259E+09
        -0.17696E+09
        -0.16152E+09
        -0.13791E+09
        -0.60162E+08
         0.96445E+08
         0.13395E+09
        -0.18509E+08
         0.21269E+08
         0.14090E+09
         0.17629E+09
         0.20242E+09
         0.19957E+09
         0.17197E+09
         0.14298E+09
         0.10041E+09
         0.43483E+08
        -0.11490E+08
        -0.40971E+08
        -0.53896E+08
        -0.93693E+08
        -0.16979E+09
        -0.20278E+09
        -0.20215E+09
        -0.20134E+09
        -0.20380E+09
        -0.19713E+09
        -0.17373E+09
        -0.15185E+09
        -0.79871E+08
         0.20482E+08
         0.48906E+08
         0.52240E+08
         0.87514E+08
         0.15571E+09
         0.19428E+09
         0.19524E+09
        -0.58380E+08
         0.20594E+08
        -0.38703E+08
        -0.15690E+09
         0.12785E+09
         0.15475E+09
         0.10509E+09
        -0.69418E+08
        -0.51826E+08
        -0.69700E+08
        -0.18673E+08
         0.28712E+08
         0.11702E+09
        -0.16950E+09
        -0.67004E+08
         0.15264E+09
         0.15946E+09
        -0.10779E+09
        -0.48521E+08
        -0.13021E+09
        -0.17673E+09
        -0.17911E+09
        -0.18120E+09
        -0.15608E+09
         0.54168E+08
         0.71961E+08
        -0.17385E+09
         0.33856E+08
        -0.14185E+09
        -0.84182E+08
         0.13691E+09
         0.16094E+09
        -0.12575E+09
        -0.13008E+09
         0.18172E+09
         0.16100E+09
         0.14532E+09
        -0.92262E+08
        -0.22215E+08
        -0.62840E+08
        -0.16167E+09
        -0.18261E+09
        -0.17695E+09
        -0.16147E+09
        -0.13785E+09
        -0.60131E+08
         0.96396E+08
         0.13397E+09
        -0.18340E+08
         0.21248E+08
         0.14088E+09
         0.17628E+09
         0.20242E+09
         0.19956E+09
         0.17196E+09
         0.14298E+09
         0.10040E+09
         0.43483E+08
        -0.11506E+08
        -0.41005E+08
        -0.53864E+08
        -0.93683E+08
        -0.16978E+09
        -0.20278E+09
        -0.20215E+09
        -0.20133E+09
        -0.20380E+09
        -0.19714E+09
        -0.17372E+09
        -0.15185E+09
        -0.79852E+08
         0.20489E+08
         0.48872E+08
         0.52222E+08
         0.87479E+08
         0.15570E+09
         0.19428E+09
         0.19525E+09
        -0.58437E+08
         0.20692E+08
        -0.38723E+08
        -0.15677E+09
         0.12778E+09
         0.15469E+09
         0.10542E+09
        -0.69179E+08
        -0.51769E+08
        -0.69449E+08
        -0.18079E+08
         0.28778E+08
         0.11704E+09
        -0.16945E+09
        -0.66899E+08
         0.15268E+09
         0.15936E+09
        -0.10747E+09
        -0.48467E+08
        -0.13000E+09
        -0.17670E+09
        -0.17911E+09
        -0.18120E+09
        -0.15611E+09
         0.54099E+08
         0.72107E+08
        -0.17384E+09
         0.32921E+08
        -0.14274E+09
        -0.84157E+08
         0.13700E+09
         0.16102E+09
        -0.12535E+09
        -0.13001E+09
         0.18174E+09
         0.16097E+09
         0.14530E+09
        -0.92257E+08
        -0.22367E+08
        -0.62948E+08
        -0.16166E+09
        -0.18263E+09
        -0.17695E+09
        -0.16143E+09
        -0.13780E+09
        -0.60099E+08
         0.96350E+08
         0.13400E+09
        -0.18172E+08
         0.21224E+08
         0.14087E+09
         0.17627E+09
         0.20241E+09
         0.19956E+09
         0.17194E+09
         0.14298E+09
         0.10038E+09
         0.43483E+08
        -0.11522E+08
        -0.41037E+08
        -0.53832E+08
        -0.93673E+08
        -0.16978E+09
        -0.20278E+09
        -0.20215E+09
        -0.20133E+09
        -0.20381E+09
        -0.19714E+09
        -0.17370E+09
        -0.15184E+09
        -0.79833E+08
         0.20496E+08
         0.48838E+08
         0.52204E+08
         0.87445E+08
         0.15570E+09
         0.19428E+09
         0.19525E+09
        -0.56313E+08
         0.18638E+08
        -0.34474E+08
        -0.12999E+09
         0.12128E+09
         0.14115E+09
         0.76632E+08
        -0.65628E+08
        -0.47354E+08
        -0.65715E+08
        -0.13869E+08
         0.28211E+08
         0.11365E+09
        -0.15059E+09
        -0.65482E+08
         0.14332E+09
         0.12733E+09
        -0.96740E+08
        -0.41236E+08
        -0.98387E+08
        -0.17253E+09
        -0.17423E+09
        -0.17652E+09
        -0.12186E+09
         0.48281E+08
         0.65747E+08
        -0.15475E+09
         0.26938E+08
        -0.99347E+08
        -0.75157E+08
         0.12569E+09
         0.12072E+09
        -0.10259E+09
        -0.10153E+09
         0.17513E+09
         0.14831E+09
         0.13812E+09
        -0.89861E+08
        -0.21629E+08
        -0.60230E+08
        -0.15762E+09
        -0.17769E+09
        -0.17260E+09
        -0.15611E+09
        -0.13166E+09
        -0.58159E+08
         0.90723E+08
         0.12480E+09
        -0.16273E+08
         0.19539E+08
         0.13563E+09
         0.16475E+09
         0.20110E+09
         0.19837E+09
         0.17099E+09
         0.14223E+09
         0.99874E+08
         0.43274E+08
        -0.11482E+08
        -0.40799E+08
        -0.53430E+08
        -0.93069E+08
        -0.16873E+09
        -0.20165E+09
        -0.20082E+09
        -0.20002E+09
        -0.20270E+09
        -0.19617E+09
        -0.17288E+09
        -0.15114E+09
        -0.79350E+08
         0.20395E+08
         0.48528E+08
         0.51872E+08
         0.86916E+08
         0.15477E+09
         0.19321E+09
         0.19416E+09
        -0.28074E+08
         0.62798E+07
        -0.11257E+08
        -0.35600E+08
         0.53889E+08
         0.50630E+08
         0.17454E+08
        -0.29524E+08
        -0.17234E+08
        -0.29048E+08
        -0.34429E+07
         0.16890E+08
         0.61509E+08
        -0.48741E+08
        -0.40157E+08
         0.58928E+08
         0.32713E+08
        -0.20107E+08
        -0.11920E+08
        -0.19914E+08
        -0.10033E+09
        -0.96668E+08
        -0.99393E+08
        -0.30081E+08
         0.15952E+08
         0.12568E+08
        -0.50305E+08
         0.44487E+07
        -0.20240E+08
        -0.24840E+08
         0.45884E+08
         0.28298E+08
        -0.27411E+08
        -0.25223E+08
         0.87583E+08
         0.55350E+08
         0.61784E+08
        -0.50610E+08
        -0.10637E+08
        -0.28087E+08
        -0.90110E+08
        -0.98667E+08
        -0.99077E+08
        -0.80936E+08
        -0.61195E+08
        -0.30461E+08
         0.38065E+08
         0.49061E+08
        -0.55451E+07
         0.73049E+07
         0.67437E+08
         0.66240E+08
         0.16071E+09
         0.16141E+09
         0.14059E+09
         0.11803E+09
         0.83742E+08
         0.36546E+08
        -0.95779E+07
        -0.32791E+08
        -0.42349E+08
        -0.74859E+08
        -0.13636E+09
        -0.16575E+09
        -0.16062E+09
        -0.16042E+09
        -0.16725E+09
        -0.16433E+09
        -0.14594E+09
        -0.12765E+09
        -0.64560E+08
         0.16752E+08
         0.39563E+08
         0.42052E+08
         0.71043E+08
         0.12573E+09
         0.15905E+09
         0.15929E+09
  
SCALARS                      stress_xy  double 1
LOOKUP_TABLE default
        -0.72499E+00
        -0.17016E+01
        -0.14590E+02
         0.51520E+00
        -0.11542E-08
         0.11279E-09
         0.16959E-08
         0.25833E-09
        -0.15393E+03
         0.67628E+02
         0.75487E-08
         0.59861E-08
         0.57614E+01
        -0.11955E+01
         0.66629E-09
        -0.20011E-09
         0.16558E+01
         0.28910E+02
         0.33171E-10
         0.50548E-09
        -0.21998E+02
        -0.13958E+03
        -0.13732E+03
         0.51398E-08
         0.40932E-08
        -0.59773E-08
        -0.14532E+02
        -0.12145E+03
         0.69207E-08
         0.10650E-07
        -0.44278E+01
         0.85792E+01
         0.69644E+00
        -0.36528E-09
         0.14410E-08
        -0.18431E-10
        -0.39056E+02
        -0.18156E+02
         0.38566E-08
         0.31949E-08
        -0.76550E+02
        -0.69087E+02
         0.65745E-08
         0.44308E-08
        -0.74236E+02
        -0.13627E+02
        -0.23950E-09
         0.17831E-08
         0.19821E+02
         0.52698E-09
        -0.46432E+01
        -0.11881E-10
         0.12190E+01
         0.39831E-08
         0.60364E+01
         0.61291E-09
         0.86134E+02
        -0.41929E+01
         0.14244E-10
        -0.69880E-10
         0.57336E+00
        -0.57729E+02
         0.38817E-09
         0.99565E-09
         0.24802E+01
        -0.78812E-10
         0.35655E+02
         0.63152E-09
        -0.19067E+03
        -0.69213E+02
         0.48780E-09
        -0.46712E-08
        -0.15567E+03
        -0.74687E-08
         0.63739E+02
         0.50025E-08
         0.20131E+03
         0.74529E-09
         0.35154E+03
         0.96916E-09
         0.68197E+03
         0.37157E+03
         0.22785E-08
        -0.57775E-09
         0.45873E+02
        -0.69524E-10
        -0.14069E+03
        -0.62705E-08
        -0.20714E+03
        -0.70015E-08
        -0.45577E+03
        -0.20781E+03
        -0.44321E-08
         0.49195E-08
         0.33405E+02
         0.44794E-08
         0.82267E+02
         0.19242E-08
         0.19224E+03
         0.51091E-08
         0.47289E+03
         0.26968E+03
         0.10955E-07
         0.54775E-08
        -0.77739E+03
         0.32573E+03
        -0.71176E-08
         0.87165E-08
        -0.18929E+04
        -0.20229E-07
        -0.24688E+04
        -0.22112E-07
        -0.21693E+04
        -0.15008E-07
        -0.18498E+04
        -0.15919E-08
        -0.80857E+03
         0.44868E-08
         0.10653E+04
         0.27780E-08
         0.23940E+04
         0.25396E-08
         0.31651E+04
         0.54487E-08
         0.31037E+04
         0.66248E-08
         0.25448E+04
         0.26101E-08
         0.13559E+04
         0.15913E-08
        -0.92847E+02
         0.26009E-08
        -0.11281E+04
         0.17434E-08
        -0.18194E+04
        -0.62173E-08
        -0.24834E+04
        -0.16314E-07
        -0.22241E+04
        -0.20703E-07
        -0.14283E+04
        -0.12813E-07
        -0.15646E+03
         0.24446E-08
         0.10568E+04
         0.51811E-08
         0.15283E+04
         0.82570E-08
         0.18700E+04
         0.16260E-07
         0.16763E+04
         0.21099E-07
         0.15602E+04
         0.14990E-07
         0.12886E+04
         0.11855E-07
        -0.64817E+02
         0.21829E+02
         0.22305E+02
        -0.91751E+01
         0.18068E+03
         0.14625E+03
         0.23716E+01
        -0.53116E+02
        -0.16765E+02
        -0.60806E+02
        -0.17830E+02
        -0.32971E+03
        -0.46891E+03
         0.17393E+02
         0.26739E+03
        -0.23666E+02
         0.19630E+02
         0.44815E+01
         0.15859E+02
        -0.12826E+02
         0.64873E+02
         0.56671E+02
        -0.17347E+03
         0.45346E+01
         0.38638E+02
         0.42587E+01
         0.71798E+00
         0.14063E+01
         0.17574E+02
        -0.57689E+02
        -0.21736E+02
         0.65193E+01
         0.74791E+01
        -0.82024E+00
        -0.44049E+02
        -0.15147E+03
        -0.30633E+03
         0.46527E+03
         0.24229E+03
         0.43957E+03
         0.85298E+03
         0.19641E+03
        -0.15650E+03
        -0.31637E+03
        -0.37784E+03
        -0.48615E+03
         0.59577E+02
         0.17629E+03
         0.54458E+02
         0.18521E+03
         0.58354E+03
         0.22269E+03
        -0.19960E+04
         0.25166E+04
        -0.60931E+04
        -0.71594E+04
        -0.67956E+04
        -0.41123E+04
         0.24540E+03
         0.26677E+04
         0.38678E+04
         0.62757E+04
         0.66094E+04
         0.35279E+04
         0.14208E+04
         0.60043E+03
        -0.97015E+03
        -0.38292E+04
        -0.63934E+04
        -0.73189E+04
        -0.44999E+04
         0.81531E+03
         0.29497E+04
         0.31086E+04
         0.48981E+04
         0.54439E+04
         0.41201E+04
         0.37995E+04
        -0.29609E+06
         0.85074E+05
        -0.16283E+06
        -0.18234E+06
         0.49165E+06
         0.34298E+06
         0.22606E+06
        -0.36503E+06
        -0.22897E+06
        -0.36020E+06
         0.11054E+06
        -0.16598E+06
        -0.53002E+06
         0.18717E+06
         0.39305E+06
        -0.36895E+06
         0.15468E+06
         0.10547E+06
         0.19002E+06
         0.10862E+06
         0.27674E+06
         0.20974E+06
        -0.12575E+06
         0.19276E+06
         0.23500E+06
        -0.86819E+05
         0.42425E+05
        -0.29162E+05
        -0.11741E+06
        -0.34705E+06
        -0.38674E+06
        -0.14525E+06
         0.28777E+06
         0.25360E+06
         0.81222E+05
        -0.32425E+06
        -0.46510E+06
         0.47835E+06
         0.11245E+06
         0.32551E+06
         0.47266E+06
        -0.14320E+06
        -0.28492E+06
        -0.40373E+06
        -0.48604E+06
        -0.33682E+06
         0.43863E+06
         0.44577E+06
        -0.99773E+05
         0.10980E+06
         0.51181E+06
         0.64016E+05
        -0.24566E+06
         0.33931E+06
        -0.65427E+06
        -0.70662E+06
        -0.60628E+06
        -0.29469E+06
         0.77212E+05
         0.27013E+06
         0.35732E+06
         0.57323E+06
         0.66309E+06
         0.26429E+06
         0.12460E+06
         0.11133E+06
        -0.47917E+05
        -0.36971E+06
        -0.63220E+06
        -0.70980E+06
        -0.50490E+06
         0.13866E+06
         0.32551E+06
         0.34243E+06
         0.54031E+06
         0.68625E+06
         0.43329E+06
         0.41528E+06
        -0.29646E+06
         0.85378E+05
        -0.16309E+06
        -0.18349E+06
         0.49161E+06
         0.34323E+06
         0.22711E+06
        -0.36413E+06
        -0.22906E+06
        -0.35952E+06
         0.10837E+06
        -0.16638E+06
        -0.53011E+06
         0.18739E+06
         0.39260E+06
        -0.36890E+06
         0.15594E+06
         0.10502E+06
         0.18991E+06
         0.10782E+06
         0.27736E+06
         0.20994E+06
        -0.12578E+06
         0.19269E+06
         0.23515E+06
        -0.86806E+05
         0.42916E+05
        -0.28774E+05
        -0.11746E+06
        -0.34710E+06
        -0.38683E+06
        -0.14496E+06
         0.28778E+06
         0.25389E+06
         0.80437E+05
        -0.32446E+06
        -0.46511E+06
         0.47852E+06
         0.11333E+06
         0.32613E+06
         0.47276E+06
        -0.14276E+06
        -0.28516E+06
        -0.40389E+06
        -0.48605E+06
        -0.33668E+06
         0.43858E+06
         0.44569E+06
        -0.99124E+05
         0.10951E+06
         0.51176E+06
         0.63112E+05
        -0.24551E+06
         0.33939E+06
        -0.65434E+06
        -0.70663E+06
        -0.60620E+06
        -0.29468E+06
         0.77325E+05
         0.27034E+06
         0.35711E+06
         0.57316E+06
         0.66305E+06
         0.26440E+06
         0.12460E+06
         0.11156E+06
        -0.47523E+05
        -0.36982E+06
        -0.63230E+06
        -0.70983E+06
        -0.50480E+06
         0.13873E+06
         0.32531E+06
         0.34232E+06
         0.54011E+06
         0.68616E+06
         0.43303E+06
         0.41494E+06
        -0.29683E+06
         0.85676E+05
        -0.16335E+06
        -0.18466E+06
         0.49156E+06
         0.34349E+06
         0.22815E+06
        -0.36323E+06
        -0.22913E+06
        -0.35882E+06
         0.10620E+06
        -0.16678E+06
        -0.53019E+06
         0.18759E+06
         0.39216E+06
        -0.36885E+06
         0.15722E+06
         0.10457E+06
         0.18980E+06
         0.10703E+06
         0.27798E+06
         0.21014E+06
        -0.12583E+06
         0.19259E+06
         0.23532E+06
        -0.86782E+05
         0.43442E+05
        -0.28396E+05
        -0.11742E+06
        -0.34715E+06
        -0.38692E+06
        -0.14461E+06
         0.28778E+06
         0.25417E+06
         0.79648E+05
        -0.32468E+06
        -0.46511E+06
         0.47869E+06
         0.11420E+06
         0.32676E+06
         0.47287E+06
        -0.14229E+06
        -0.28539E+06
        -0.40409E+06
        -0.48607E+06
        -0.33654E+06
         0.43854E+06
         0.44562E+06
        -0.98455E+05
         0.10921E+06
         0.51171E+06
         0.62210E+05
        -0.24536E+06
         0.33947E+06
        -0.65441E+06
        -0.70663E+06
        -0.60612E+06
        -0.29467E+06
         0.77439E+05
         0.27056E+06
         0.35690E+06
         0.57309E+06
         0.66302E+06
         0.26452E+06
         0.12460E+06
         0.11179E+06
        -0.47126E+05
        -0.36994E+06
        -0.63242E+06
        -0.70986E+06
        -0.50470E+06
         0.13880E+06
         0.32512E+06
         0.34221E+06
         0.53991E+06
         0.68606E+06
         0.43278E+06
         0.41461E+06
        -0.29720E+06
         0.85985E+05
        -0.16360E+06
        -0.18583E+06
         0.49151E+06
         0.34375E+06
         0.22919E+06
        -0.36233E+06
        -0.22918E+06
        -0.35809E+06
         0.10403E+06
        -0.16718E+06
        -0.53027E+06
         0.18781E+06
         0.39172E+06
        -0.36880E+06
         0.15851E+06
         0.10411E+06
         0.18970E+06
         0.10619E+06
         0.27861E+06
         0.21032E+06
        -0.12594E+06
         0.19243E+06
         0.23560E+06
        -0.86736E+05
         0.43986E+05
        -0.28082E+05
        -0.11717E+06
        -0.34720E+06
        -0.38700E+06
        -0.14414E+06
         0.28776E+06
         0.25445E+06
         0.78863E+05
        -0.32488E+06
        -0.46512E+06
         0.47886E+06
         0.11507E+06
         0.32736E+06
         0.47301E+06
        -0.14169E+06
        -0.28556E+06
        -0.40437E+06
        -0.48612E+06
        -0.33638E+06
         0.43849E+06
         0.44554E+06
        -0.97783E+05
         0.10892E+06
         0.51166E+06
         0.61308E+05
        -0.24520E+06
         0.33954E+06
        -0.65447E+06
        -0.70663E+06
        -0.60604E+06
        -0.29466E+06
         0.77554E+05
         0.27077E+06
         0.35669E+06
         0.57301E+06
         0.66299E+06
         0.26466E+06
         0.12461E+06
         0.11201E+06
        -0.46727E+05
        -0.37006E+06
        -0.63254E+06
        -0.70990E+06
        -0.50460E+06
         0.13887E+06
         0.32492E+06
         0.34210E+06
         0.53971E+06
         0.68597E+06
         0.43253E+06
         0.41428E+06
        -0.29756E+06
         0.86294E+05
        -0.16386E+06
        -0.18699E+06
         0.49146E+06
         0.34401E+06
         0.23022E+06
        -0.36143E+06
        -0.22920E+06
        -0.35732E+06
         0.10186E+06
        -0.16758E+06
        -0.53035E+06
         0.18804E+06
         0.39128E+06
        -0.36875E+06
         0.15983E+06
         0.10365E+06
         0.18958E+06
         0.10531E+06
         0.27924E+06
         0.21047E+06
        -0.12610E+06
         0.19220E+06
         0.23597E+06
        -0.86655E+05
         0.44593E+05
        -0.27825E+05
        -0.11668E+06
        -0.34725E+06
        -0.38707E+06
        -0.14353E+06
         0.28773E+06
         0.25473E+06
         0.78072E+05
        -0.32509E+06
        -0.46513E+06
         0.47902E+06
         0.11592E+06
         0.32796E+06
         0.47318E+06
        -0.14098E+06
        -0.28567E+06
        -0.40474E+06
        -0.48620E+06
        -0.33620E+06
         0.43845E+06
         0.44548E+06
        -0.97114E+05
         0.10862E+06
         0.51162E+06
         0.60398E+05
        -0.24505E+06
         0.33962E+06
        -0.65454E+06
        -0.70663E+06
        -0.60596E+06
        -0.29465E+06
         0.77667E+05
         0.27099E+06
         0.35647E+06
         0.57294E+06
         0.66297E+06
         0.26482E+06
         0.12463E+06
         0.11224E+06
        -0.46325E+05
        -0.37019E+06
        -0.63269E+06
        -0.70994E+06
        -0.50451E+06
         0.13893E+06
         0.32472E+06
         0.34199E+06
         0.53951E+06
         0.68587E+06
         0.43228E+06
         0.41395E+06
        -0.29792E+06
         0.86632E+05
        -0.16408E+06
        -0.18816E+06
         0.49142E+06
         0.34427E+06
         0.23124E+06
        -0.36051E+06
        -0.22922E+06
        -0.35656E+06
         0.99672E+05
        -0.16798E+06
        -0.53044E+06
         0.18829E+06
         0.39083E+06
        -0.36870E+06
         0.16116E+06
         0.10319E+06
         0.18946E+06
         0.10443E+06
         0.27986E+06
         0.21061E+06
        -0.12628E+06
         0.19196E+06
         0.23635E+06
        -0.86560E+05
         0.45246E+05
        -0.27588E+05
        -0.11609E+06
        -0.34733E+06
        -0.38713E+06
        -0.14284E+06
         0.28770E+06
         0.25502E+06
         0.77277E+05
        -0.32532E+06
        -0.46514E+06
         0.47918E+06
         0.11677E+06
         0.32855E+06
         0.47336E+06
        -0.14023E+06
        -0.28576E+06
        -0.40513E+06
        -0.48630E+06
        -0.33603E+06
         0.43840E+06
         0.44542E+06
        -0.96419E+05
         0.10836E+06
         0.51157E+06
         0.59486E+05
        -0.24490E+06
         0.33970E+06
        -0.65461E+06
        -0.70663E+06
        -0.60588E+06
        -0.29464E+06
         0.77779E+05
         0.27121E+06
         0.35626E+06
         0.57286E+06
         0.66295E+06
         0.26500E+06
         0.12465E+06
         0.11246E+06
        -0.45924E+05
        -0.37033E+06
        -0.63284E+06
        -0.70998E+06
        -0.50441E+06
         0.13900E+06
         0.32452E+06
         0.34188E+06
         0.53931E+06
         0.68577E+06
         0.43203E+06
         0.41361E+06
        -0.29824E+06
         0.87044E+05
        -0.16425E+06
        -0.18936E+06
         0.49137E+06
         0.34453E+06
         0.23225E+06
        -0.35961E+06
        -0.22924E+06
        -0.35583E+06
         0.97469E+05
        -0.16838E+06
        -0.53052E+06
         0.18864E+06
         0.39038E+06
        -0.36866E+06
         0.16252E+06
         0.10274E+06
         0.18935E+06
         0.10356E+06
         0.28049E+06
         0.21076E+06
        -0.12646E+06
         0.19172E+06
         0.23665E+06
        -0.86434E+05
         0.46015E+05
        -0.27346E+05
        -0.11546E+06
        -0.34742E+06
        -0.38718E+06
        -0.14211E+06
         0.28766E+06
         0.25530E+06
         0.76479E+05
        -0.32554E+06
        -0.46516E+06
         0.47933E+06
         0.11762E+06
         0.32915E+06
         0.47354E+06
        -0.13946E+06
        -0.28584E+06
        -0.40553E+06
        -0.48640E+06
        -0.33587E+06
         0.43832E+06
         0.44541E+06
        -0.95651E+05
         0.10817E+06
         0.51152E+06
         0.58559E+05
        -0.24474E+06
         0.33978E+06
        -0.65468E+06
        -0.70663E+06
        -0.60580E+06
        -0.29463E+06
         0.77891E+05
         0.27142E+06
         0.35605E+06
         0.57279E+06
         0.66293E+06
         0.26517E+06
         0.12467E+06
         0.11268E+06
        -0.45523E+05
        -0.37046E+06
        -0.63300E+06
        -0.71001E+06
        -0.50431E+06
         0.13905E+06
         0.32431E+06
         0.34177E+06
         0.53912E+06
         0.68567E+06
         0.43178E+06
         0.41328E+06
        -0.29855E+06
         0.87478E+05
        -0.16439E+06
        -0.19057E+06
         0.49133E+06
         0.34479E+06
         0.23324E+06
        -0.35870E+06
        -0.22926E+06
        -0.35512E+06
         0.95256E+05
        -0.16878E+06
        -0.53060E+06
         0.18901E+06
         0.38993E+06
        -0.36863E+06
         0.16390E+06
         0.10228E+06
         0.18923E+06
         0.10270E+06
         0.28112E+06
         0.21091E+06
        -0.12663E+06
         0.19148E+06
         0.23692E+06
        -0.86296E+05
         0.46814E+05
        -0.27096E+05
        -0.11481E+06
        -0.34754E+06
        -0.38722E+06
        -0.14134E+06
         0.28760E+06
         0.25560E+06
         0.75673E+05
        -0.32578E+06
        -0.46519E+06
         0.47948E+06
         0.11846E+06
         0.32974E+06
         0.47373E+06
        -0.13869E+06
        -0.28591E+06
        -0.40592E+06
        -0.48651E+06
        -0.33573E+06
         0.43823E+06
         0.44541E+06
        -0.94851E+05
         0.10801E+06
         0.51147E+06
         0.57630E+05
        -0.24459E+06
         0.33985E+06
        -0.65474E+06
        -0.70663E+06
        -0.60572E+06
        -0.29462E+06
         0.78003E+05
         0.27164E+06
         0.35584E+06
         0.57272E+06
         0.66291E+06
         0.26534E+06
         0.12469E+06
         0.11290E+06
        -0.45121E+05
        -0.37059E+06
        -0.63315E+06
        -0.71005E+06
        -0.50421E+06
         0.13910E+06
         0.32409E+06
         0.34166E+06
         0.53893E+06
         0.68558E+06
         0.43153E+06
         0.41294E+06
        -0.29886E+06
         0.87917E+05
        -0.16452E+06
        -0.19178E+06
         0.49128E+06
         0.34504E+06
         0.23423E+06
        -0.35779E+06
        -0.22929E+06
        -0.35442E+06
         0.93047E+05
        -0.16917E+06
        -0.53068E+06
         0.18941E+06
         0.38948E+06
        -0.36859E+06
         0.16528E+06
         0.10182E+06
         0.18911E+06
         0.10183E+06
         0.28175E+06
         0.21106E+06
        -0.12681E+06
         0.19125E+06
         0.23718E+06
        -0.86157E+05
         0.47633E+05
        -0.26831E+05
        -0.11415E+06
        -0.34765E+06
        -0.38726E+06
        -0.14058E+06
         0.28754E+06
         0.25589E+06
         0.74864E+05
        -0.32601E+06
        -0.46521E+06
         0.47962E+06
         0.11931E+06
         0.33034E+06
         0.47391E+06
        -0.13792E+06
        -0.28599E+06
        -0.40631E+06
        -0.48662E+06
        -0.33558E+06
         0.43814E+06
         0.44541E+06
        -0.94048E+05
         0.10787E+06
         0.51142E+06
         0.56696E+05
        -0.24443E+06
         0.33993E+06
        -0.65481E+06
        -0.70663E+06
        -0.60564E+06
        -0.29461E+06
         0.78116E+05
         0.27185E+06
         0.35562E+06
         0.57265E+06
         0.66289E+06
         0.26552E+06
         0.12472E+06
         0.11313E+06
        -0.44720E+05
        -0.37072E+06
        -0.63330E+06
        -0.71009E+06
        -0.50411E+06
         0.13915E+06
         0.32387E+06
         0.34155E+06
         0.53874E+06
         0.68548E+06
         0.43128E+06
         0.41261E+06
        -0.29917E+06
         0.88361E+05
        -0.16466E+06
        -0.19297E+06
         0.49123E+06
         0.34530E+06
         0.23521E+06
        -0.35688E+06
        -0.22931E+06
        -0.35371E+06
         0.90833E+05
        -0.16957E+06
        -0.53077E+06
         0.18978E+06
         0.38903E+06
        -0.36856E+06
         0.16666E+06
         0.10136E+06
         0.18899E+06
         0.10096E+06
         0.28238E+06
         0.21121E+06
        -0.12698E+06
         0.19101E+06
         0.23745E+06
        -0.86016E+05
         0.48429E+05
        -0.26556E+05
        -0.11347E+06
        -0.34775E+06
        -0.38730E+06
        -0.13981E+06
         0.28746E+06
         0.25618E+06
         0.74057E+05
        -0.32625E+06
        -0.46524E+06
         0.47977E+06
         0.12016E+06
         0.33094E+06
         0.47409E+06
        -0.13716E+06
        -0.28607E+06
        -0.40670E+06
        -0.48673E+06
        -0.33543E+06
         0.43805E+06
         0.44542E+06
        -0.93252E+05
         0.10770E+06
         0.51137E+06
         0.55763E+05
        -0.24428E+06
         0.34001E+06
        -0.65487E+06
        -0.70663E+06
        -0.60556E+06
        -0.29460E+06
         0.78227E+05
         0.27206E+06
         0.35541E+06
         0.57258E+06
         0.66287E+06
         0.26569E+06
         0.12474E+06
         0.11336E+06
        -0.44320E+05
        -0.37085E+06
        -0.63345E+06
        -0.71013E+06
        -0.50401E+06
         0.13920E+06
         0.32366E+06
         0.34144E+06
         0.53855E+06
         0.68538E+06
         0.43103E+06
         0.41227E+06
        -0.29947E+06
         0.88801E+05
        -0.16480E+06
        -0.19416E+06
         0.49119E+06
         0.34555E+06
         0.23618E+06
        -0.35597E+06
        -0.22934E+06
        -0.35301E+06
         0.88613E+05
        -0.16997E+06
        -0.53085E+06
         0.19017E+06
         0.38857E+06
        -0.36853E+06
         0.16804E+06
         0.10091E+06
         0.18889E+06
         0.10009E+06
         0.28301E+06
         0.21135E+06
        -0.12715E+06
         0.19079E+06
         0.23770E+06
        -0.85873E+05
         0.49239E+05
        -0.26264E+05
        -0.11277E+06
        -0.34786E+06
        -0.38734E+06
        -0.13904E+06
         0.28738E+06
         0.25647E+06
         0.73246E+05
        -0.32648E+06
        -0.46527E+06
         0.47991E+06
         0.12100E+06
         0.33153E+06
         0.47427E+06
        -0.13640E+06
        -0.28614E+06
        -0.40709E+06
        -0.48684E+06
        -0.33529E+06
         0.43796E+06
         0.44542E+06
        -0.92446E+05
         0.10755E+06
         0.51132E+06
         0.54824E+05
        -0.24412E+06
         0.34008E+06
        -0.65494E+06
        -0.70663E+06
        -0.60547E+06
        -0.29459E+06
         0.78337E+05
         0.27228E+06
         0.35520E+06
         0.57250E+06
         0.66285E+06
         0.26586E+06
         0.12476E+06
         0.11359E+06
        -0.43919E+05
        -0.37098E+06
        -0.63360E+06
        -0.71017E+06
        -0.50391E+06
         0.13925E+06
         0.32344E+06
         0.34132E+06
         0.53836E+06
         0.68528E+06
         0.43078E+06
         0.41193E+06
        -0.29978E+06
         0.89240E+05
        -0.16493E+06
        -0.19536E+06
         0.49114E+06
         0.34580E+06
         0.23715E+06
        -0.35506E+06
        -0.22936E+06
        -0.35230E+06
         0.86395E+05
        -0.17037E+06
        -0.53093E+06
         0.19056E+06
         0.38812E+06
        -0.36849E+06
         0.16941E+06
         0.10045E+06
         0.18877E+06
         0.99230E+05
         0.28364E+06
         0.21150E+06
        -0.12733E+06
         0.19056E+06
         0.23795E+06
        -0.85738E+05
         0.50030E+05
        -0.25961E+05
        -0.11205E+06
        -0.34797E+06
        -0.38738E+06
        -0.13827E+06
         0.28728E+06
         0.25676E+06
         0.72431E+05
        -0.32671E+06
        -0.46530E+06
         0.48005E+06
         0.12184E+06
         0.33213E+06
         0.47446E+06
        -0.13564E+06
        -0.28621E+06
        -0.40748E+06
        -0.48694E+06
        -0.33514E+06
         0.43787E+06
         0.44543E+06
        -0.91637E+05
         0.10740E+06
         0.51127E+06
         0.53886E+05
        -0.24396E+06
         0.34015E+06
        -0.65500E+06
        -0.70663E+06
        -0.60539E+06
        -0.29459E+06
         0.78448E+05
         0.27249E+06
         0.35498E+06
         0.57243E+06
         0.66282E+06
         0.26603E+06
         0.12479E+06
         0.11381E+06
        -0.43516E+05
        -0.37112E+06
        -0.63375E+06
        -0.71020E+06
        -0.50381E+06
         0.13930E+06
         0.32322E+06
         0.34121E+06
         0.53817E+06
         0.68518E+06
         0.43054E+06
         0.41160E+06
        -0.30009E+06
         0.89683E+05
        -0.16507E+06
        -0.19656E+06
         0.49109E+06
         0.34606E+06
         0.23811E+06
        -0.35415E+06
        -0.22938E+06
        -0.35159E+06
         0.84181E+05
        -0.17076E+06
        -0.53102E+06
         0.19092E+06
         0.38766E+06
        -0.36846E+06
         0.17079E+06
         0.99988E+05
         0.18866E+06
         0.98371E+05
         0.28426E+06
         0.21164E+06
        -0.12750E+06
         0.19033E+06
         0.23820E+06
        -0.85591E+05
         0.50844E+05
        -0.25643E+05
        -0.11131E+06
        -0.34808E+06
        -0.38741E+06
        -0.13750E+06
         0.28716E+06
         0.25705E+06
         0.71618E+05
        -0.32695E+06
        -0.46532E+06
         0.48019E+06
         0.12268E+06
         0.33272E+06
         0.47464E+06
        -0.13488E+06
        -0.28629E+06
        -0.40787E+06
        -0.48705E+06
        -0.33499E+06
         0.43778E+06
         0.44543E+06
        -0.90823E+05
         0.10724E+06
         0.51122E+06
         0.52948E+05
        -0.24381E+06
         0.34023E+06
        -0.65507E+06
        -0.70663E+06
        -0.60531E+06
        -0.29458E+06
         0.78560E+05
         0.27270E+06
         0.35477E+06
         0.57236E+06
         0.66280E+06
         0.26620E+06
         0.12481E+06
         0.11404E+06
        -0.43115E+05
        -0.37125E+06
        -0.63391E+06
        -0.71024E+06
        -0.50371E+06
         0.13935E+06
         0.32300E+06
         0.34110E+06
         0.53798E+06
         0.68509E+06
         0.43029E+06
         0.41126E+06
        -0.30040E+06
         0.90119E+05
        -0.16520E+06
        -0.19775E+06
         0.49104E+06
         0.34631E+06
         0.23906E+06
        -0.35323E+06
        -0.22940E+06
        -0.35088E+06
         0.81967E+05
        -0.17116E+06
        -0.53110E+06
         0.19131E+06
         0.38721E+06
        -0.36842E+06
         0.17216E+06
         0.99534E+05
         0.18856E+06
         0.97520E+05
         0.28489E+06
         0.21179E+06
        -0.12767E+06
         0.19011E+06
         0.23844E+06
        -0.85444E+05
         0.51636E+05
        -0.25315E+05
        -0.11056E+06
        -0.34818E+06
        -0.38745E+06
        -0.13673E+06
         0.28704E+06
         0.25734E+06
         0.70800E+05
        -0.32718E+06
        -0.46535E+06
         0.48033E+06
         0.12352E+06
         0.33332E+06
         0.47482E+06
        -0.13412E+06
        -0.28636E+06
        -0.40825E+06
        -0.48716E+06
        -0.33484E+06
         0.43768E+06
         0.44543E+06
        -0.90012E+05
         0.10708E+06
         0.51118E+06
         0.52014E+05
        -0.24365E+06
         0.34030E+06
        -0.65513E+06
        -0.70663E+06
        -0.60524E+06
        -0.29456E+06
         0.78672E+05
         0.27291E+06
         0.35456E+06
         0.57229E+06
         0.66278E+06
         0.26637E+06
         0.12483E+06
         0.11426E+06
        -0.42715E+05
        -0.37137E+06
        -0.63406E+06
        -0.71028E+06
        -0.50361E+06
         0.13939E+06
         0.32279E+06
         0.34100E+06
         0.53779E+06
         0.68499E+06
         0.43004E+06
         0.41092E+06
        -0.30071E+06
         0.90552E+05
        -0.16533E+06
        -0.19894E+06
         0.49099E+06
         0.34656E+06
         0.24000E+06
        -0.35231E+06
        -0.22941E+06
        -0.35017E+06
         0.79751E+05
        -0.17156E+06
        -0.53118E+06
         0.19167E+06
         0.38675E+06
        -0.36839E+06
         0.17354E+06
         0.99082E+05
         0.18844E+06
         0.96658E+05
         0.28551E+06
         0.21193E+06
        -0.12784E+06
         0.18988E+06
         0.23867E+06
        -0.85296E+05
         0.52442E+05
        -0.24971E+05
        -0.10980E+06
        -0.34828E+06
        -0.38748E+06
        -0.13595E+06
         0.28690E+06
         0.25763E+06
         0.69985E+05
        -0.32741E+06
        -0.46537E+06
         0.48046E+06
         0.12436E+06
         0.33391E+06
         0.47501E+06
        -0.13336E+06
        -0.28644E+06
        -0.40864E+06
        -0.48726E+06
        -0.33470E+06
         0.43759E+06
         0.44544E+06
        -0.89185E+05
         0.10693E+06
         0.51113E+06
         0.51072E+05
        -0.24349E+06
         0.34037E+06
        -0.65519E+06
        -0.70663E+06
        -0.60515E+06
        -0.29455E+06
         0.78781E+05
         0.27312E+06
         0.35434E+06
         0.57222E+06
         0.66276E+06
         0.26655E+06
         0.12485E+06
         0.11449E+06
        -0.42315E+05
        -0.37150E+06
        -0.63421E+06
        -0.71032E+06
        -0.50351E+06
         0.13944E+06
         0.32257E+06
         0.34089E+06
         0.53760E+06
         0.68489E+06
         0.42980E+06
         0.41058E+06
        -0.30102E+06
         0.90997E+05
        -0.16546E+06
        -0.20012E+06
         0.49094E+06
         0.34681E+06
         0.24094E+06
        -0.35139E+06
        -0.22943E+06
        -0.34946E+06
         0.77531E+05
        -0.17196E+06
        -0.53126E+06
         0.19205E+06
         0.38629E+06
        -0.36835E+06
         0.17492E+06
         0.98631E+05
         0.18833E+06
         0.95807E+05
         0.28614E+06
         0.21206E+06
        -0.12801E+06
         0.18966E+06
         0.23890E+06
        -0.85146E+05
         0.53226E+05
        -0.24614E+05
        -0.10902E+06
        -0.34838E+06
        -0.38751E+06
        -0.13517E+06
         0.28676E+06
         0.25792E+06
         0.69162E+05
        -0.32764E+06
        -0.46540E+06
         0.48059E+06
         0.12520E+06
         0.33450E+06
         0.47519E+06
        -0.13260E+06
        -0.28652E+06
        -0.40902E+06
        -0.48737E+06
        -0.33455E+06
         0.43750E+06
         0.44544E+06
        -0.88366E+05
         0.10676E+06
         0.51108E+06
         0.50127E+05
        -0.24334E+06
         0.34045E+06
        -0.65525E+06
        -0.70663E+06
        -0.60507E+06
        -0.29454E+06
         0.78889E+05
         0.27333E+06
         0.35413E+06
         0.57215E+06
         0.66274E+06
         0.26672E+06
         0.12487E+06
         0.11471E+06
        -0.41914E+05
        -0.37163E+06
        -0.63436E+06
        -0.71036E+06
        -0.50341E+06
         0.13949E+06
         0.32235E+06
         0.34078E+06
         0.53741E+06
         0.68479E+06
         0.42956E+06
         0.41024E+06
        -0.30133E+06
         0.91434E+05
        -0.16560E+06
        -0.20129E+06
         0.49089E+06
         0.34706E+06
         0.24187E+06
        -0.35047E+06
        -0.22944E+06
        -0.34874E+06
         0.75310E+05
        -0.17236E+06
        -0.53134E+06
         0.19240E+06
         0.38583E+06
        -0.36832E+06
         0.17630E+06
         0.98178E+05
         0.18822E+06
         0.94962E+05
         0.28676E+06
         0.21219E+06
        -0.12819E+06
         0.18944E+06
         0.23911E+06
        -0.84992E+05
         0.54031E+05
        -0.24238E+05
        -0.10821E+06
        -0.34848E+06
        -0.38754E+06
        -0.13440E+06
         0.28660E+06
         0.25821E+06
         0.68339E+05
        -0.32787E+06
        -0.46542E+06
         0.48072E+06
         0.12604E+06
         0.33511E+06
         0.47537E+06
        -0.13186E+06
        -0.28660E+06
        -0.40940E+06
        -0.48748E+06
        -0.33440E+06
         0.43740E+06
         0.44545E+06
        -0.87549E+05
         0.10660E+06
         0.51103E+06
         0.49189E+05
        -0.24318E+06
         0.34052E+06
        -0.65532E+06
        -0.70663E+06
        -0.60499E+06
        -0.29454E+06
         0.78997E+05
         0.27354E+06
         0.35392E+06
         0.57208E+06
         0.66272E+06
         0.26689E+06
         0.12489E+06
         0.11493E+06
        -0.41515E+05
        -0.37176E+06
        -0.63451E+06
        -0.71039E+06
        -0.50331E+06
         0.13954E+06
         0.32213E+06
         0.34067E+06
         0.53723E+06
         0.68470E+06
         0.42931E+06
         0.40991E+06
        -0.30164E+06
         0.91869E+05
        -0.16572E+06
        -0.20248E+06
         0.49084E+06
         0.34731E+06
         0.24279E+06
        -0.34955E+06
        -0.22943E+06
        -0.34799E+06
         0.73089E+05
        -0.17276E+06
        -0.53143E+06
         0.19278E+06
         0.38537E+06
        -0.36828E+06
         0.17769E+06
         0.97722E+05
         0.18813E+06
         0.94158E+05
         0.28738E+06
         0.21232E+06
        -0.12836E+06
         0.18922E+06
         0.23929E+06
        -0.84847E+05
         0.54831E+05
        -0.23834E+05
        -0.10740E+06
        -0.34860E+06
        -0.38757E+06
        -0.13360E+06
         0.28642E+06
         0.25850E+06
         0.67517E+05
        -0.32811E+06
        -0.46545E+06
         0.48083E+06
         0.12691E+06
         0.33570E+06
         0.47556E+06
        -0.13110E+06
        -0.28669E+06
        -0.40978E+06
        -0.48759E+06
        -0.33425E+06
         0.43731E+06
         0.44545E+06
        -0.86734E+05
         0.10644E+06
         0.51099E+06
         0.48247E+05
        -0.24302E+06
         0.34059E+06
        -0.65538E+06
        -0.70663E+06
        -0.60491E+06
        -0.29453E+06
         0.79105E+05
         0.27375E+06
         0.35371E+06
         0.57202E+06
         0.66271E+06
         0.26706E+06
         0.12490E+06
         0.11516E+06
        -0.41117E+05
        -0.37189E+06
        -0.63466E+06
        -0.71043E+06
        -0.50321E+06
         0.13958E+06
         0.32191E+06
         0.34055E+06
         0.53704E+06
         0.68460E+06
         0.42907E+06
         0.40957E+06
        -0.30195E+06
         0.92303E+05
        -0.16585E+06
        -0.20365E+06
         0.49079E+06
         0.34756E+06
         0.24371E+06
        -0.34862E+06
        -0.22941E+06
        -0.34720E+06
         0.70872E+05
        -0.17315E+06
        -0.53151E+06
         0.19316E+06
         0.38490E+06
        -0.36825E+06
         0.17910E+06
         0.97268E+05
         0.18803E+06
         0.93378E+05
         0.28800E+06
         0.21245E+06
        -0.12853E+06
         0.18900E+06
         0.23943E+06
        -0.84690E+05
         0.55667E+05
        -0.23399E+05
        -0.10656E+06
        -0.34871E+06
        -0.38760E+06
        -0.13282E+06
         0.28624E+06
         0.25879E+06
         0.66688E+05
        -0.32834E+06
        -0.46547E+06
         0.48093E+06
         0.12781E+06
         0.33630E+06
         0.47575E+06
        -0.13036E+06
        -0.28679E+06
        -0.41016E+06
        -0.48769E+06
        -0.33410E+06
         0.43722E+06
         0.44546E+06
        -0.85907E+05
         0.10628E+06
         0.51093E+06
         0.47297E+05
        -0.24286E+06
         0.34066E+06
        -0.65544E+06
        -0.70663E+06
        -0.60483E+06
        -0.29452E+06
         0.79213E+05
         0.27395E+06
         0.35350E+06
         0.57195E+06
         0.66270E+06
         0.26722E+06
         0.12489E+06
         0.11538E+06
        -0.40716E+05
        -0.37202E+06
        -0.63481E+06
        -0.71047E+06
        -0.50310E+06
         0.13963E+06
         0.32170E+06
         0.34044E+06
         0.53685E+06
         0.68450E+06
         0.42884E+06
         0.40923E+06
        -0.30226E+06
         0.92739E+05
        -0.16598E+06
        -0.20482E+06
         0.49074E+06
         0.34781E+06
         0.24461E+06
        -0.34770E+06
        -0.22938E+06
        -0.34641E+06
         0.68669E+05
        -0.17354E+06
        -0.53159E+06
         0.19351E+06
         0.38443E+06
        -0.36821E+06
         0.18051E+06
         0.96820E+05
         0.18792E+06
         0.92621E+05
         0.28863E+06
         0.21258E+06
        -0.12869E+06
         0.18880E+06
         0.23956E+06
        -0.84542E+05
         0.56481E+05
        -0.22942E+05
        -0.10572E+06
        -0.34882E+06
        -0.38763E+06
        -0.13206E+06
         0.28604E+06
         0.25909E+06
         0.65867E+05
        -0.32856E+06
        -0.46549E+06
         0.48103E+06
         0.12872E+06
         0.33689E+06
         0.47594E+06
        -0.12963E+06
        -0.28691E+06
        -0.41054E+06
        -0.48779E+06
        -0.33396E+06
         0.43713E+06
         0.44546E+06
        -0.85088E+05
         0.10612E+06
         0.51089E+06
         0.46351E+05
        -0.24270E+06
         0.34073E+06
        -0.65550E+06
        -0.70663E+06
        -0.60475E+06
        -0.29451E+06
         0.79319E+05
         0.27415E+06
         0.35330E+06
         0.57187E+06
         0.66269E+06
         0.26738E+06
         0.12488E+06
         0.11560E+06
        -0.40316E+05
        -0.37214E+06
        -0.63496E+06
        -0.71051E+06
        -0.50300E+06
         0.13968E+06
         0.32148E+06
         0.34033E+06
         0.53666E+06
         0.68440E+06
         0.42860E+06
         0.40889E+06
        -0.28307E+06
         0.78932E+05
        -0.13949E+06
        -0.16225E+06
         0.44777E+06
         0.30036E+06
         0.16683E+06
        -0.31788E+06
        -0.20010E+06
        -0.31558E+06
         0.48006E+05
        -0.16680E+06
        -0.50295E+06
         0.16011E+06
         0.36961E+06
        -0.33223E+06
         0.13663E+06
         0.87031E+05
         0.14949E+06
         0.67561E+05
         0.27666E+06
         0.20207E+06
        -0.12268E+06
         0.13905E+06
         0.20089E+06
        -0.76988E+05
         0.47393E+05
        -0.18726E+05
        -0.68654E+05
        -0.29171E+06
        -0.33915E+06
        -0.94026E+05
         0.22287E+06
         0.19241E+06
         0.60796E+05
        -0.28660E+06
        -0.42546E+06
         0.45770E+06
         0.12036E+06
         0.31031E+06
         0.45384E+06
        -0.12255E+06
        -0.27400E+06
        -0.38667E+06
        -0.44996E+06
        -0.31422E+06
         0.39354E+06
         0.39508E+06
        -0.71823E+05
         0.92559E+05
         0.47645E+06
         0.40475E+05
        -0.23956E+06
         0.33710E+06
        -0.64883E+06
        -0.69976E+06
        -0.59918E+06
        -0.29191E+06
         0.78684E+05
         0.27101E+06
         0.34854E+06
         0.56504E+06
         0.65506E+06
         0.26470E+06
         0.12329E+06
         0.11438E+06
        -0.39529E+05
        -0.36882E+06
        -0.62957E+06
        -0.70445E+06
        -0.49742E+06
         0.13831E+06
         0.31781E+06
         0.33638E+06
         0.53075E+06
         0.67667E+06
         0.42396E+06
         0.40427E+06
        -0.75053E+05
         0.10735E+05
        -0.18155E+05
        -0.17189E+05
         0.94085E+05
         0.44258E+05
         0.12420E+05
        -0.68873E+05
        -0.31436E+05
        -0.66234E+05
         0.38416E+04
        -0.60710E+05
        -0.15123E+06
         0.19106E+05
         0.14111E+06
        -0.63896E+05
         0.12647E+05
         0.67561E+04
         0.15929E+05
         0.43112E+04
         0.96037E+05
         0.64026E+05
        -0.40055E+05
         0.12146E+05
         0.25726E+05
        -0.50924E+04
         0.57623E+04
        -0.88239E+03
        -0.41363E+04
        -0.36954E+05
        -0.53702E+05
        -0.77080E+04
         0.22706E+05
         0.17333E+05
         0.15497E+05
        -0.44336E+05
        -0.90423E+05
         0.14802E+06
         0.29993E+05
         0.70223E+05
         0.15131E+06
        -0.38643E+05
        -0.92571E+05
        -0.10856E+06
        -0.10289E+06
        -0.88580E+05
         0.74412E+05
         0.67559E+05
        -0.97973E+04
         0.14500E+05
         0.12221E+06
         0.70585E+04
        -0.15374E+06
         0.22450E+06
        -0.44099E+06
        -0.48441E+06
        -0.42342E+06
        -0.20927E+06
         0.54949E+05
         0.17601E+06
         0.22034E+06
         0.36764E+06
         0.43019E+06
         0.17982E+06
         0.79313E+05
         0.74117E+05
        -0.26889E+05
        -0.26019E+06
        -0.45099E+06
        -0.50508E+06
        -0.33111E+06
         0.93739E+05
         0.21244E+06
         0.22237E+06
         0.35661E+06
         0.44900E+06
         0.28876E+06
         0.27344E+06
  
SCALARS                      strain_xx  double 1
LOOKUP_TABLE default
         0.43949E-05
         0.20815E-03
         0.23401E-02
         0.11667E-04
        -0.39718E-19
        -0.49934E-20
        -0.55832E-19
        -0.22269E-20
         0.17919E-01
         0.81358E-02
        -0.49950E-18
        -0.40526E-18
         0.30363E-04
         0.50418E-03
        -0.75980E-20
        -0.16674E-18
         0.24743E-04
         0.46616E-03
        -0.86998E-19
        -0.19297E-18
         0.94547E-03
         0.25646E-02
         0.24713E-02
        -0.86044E-19
        -0.18296E-19
        -0.55844E-19
         0.28670E-02
         0.17661E-02
        -0.30149E-18
        -0.18971E-18
         0.13511E-03
         0.62537E-03
         0.64865E-05
        -0.31252E-20
        -0.46670E-19
        -0.17714E-19
         0.11462E-02
         0.24508E-03
        -0.10287E-18
        -0.11663E-18
         0.44074E-02
         0.82936E-02
        -0.52345E-18
        -0.28467E-18
         0.53221E-02
         0.15454E-02
        -0.63127E-18
        -0.14625E-18
         0.36956E-03
        -0.57623E-19
         0.25348E-02
        -0.44650E-20
         0.37126E-03
        -0.22001E-18
         0.20281E-03
        -0.15395E-19
         0.38831E-02
         0.31499E-03
        -0.11298E-19
        -0.66007E-19
         0.15385E-05
         0.11425E-02
        -0.45194E-19
        -0.21253E-19
         0.80180E-04
        -0.45727E-21
         0.87283E-03
        -0.19783E-19
         0.34925E-01
         0.16281E-01
        -0.77285E-18
        -0.40653E-18
         0.66160E-02
        -0.21554E-18
         0.29444E-03
        -0.10314E-18
         0.28481E-02
        -0.39728E-20
         0.12877E-01
        -0.95625E-20
         0.23298E-01
         0.12163E-01
        -0.12843E-18
        -0.16798E-18
         0.10157E-01
        -0.19429E-18
         0.78160E-02
        -0.40274E-18
         0.29431E-02
        -0.16384E-18
         0.71139E-02
         0.37996E-02
        -0.29844E-19
        -0.56125E-19
         0.20192E-03
        -0.77221E-19
         0.15393E-02
        -0.13614E-19
         0.87796E-02
        -0.83021E-19
         0.19102E-01
         0.90979E-02
        -0.44138E-18
        -0.48062E-18
         0.10771E+00
         0.13581E+00
        -0.15070E-17
        -0.14635E-17
         0.10500E+00
        -0.10998E-17
         0.90080E-01
        -0.61423E-18
         0.44889E-01
        -0.18550E-18
         0.22005E-01
        -0.21211E-20
         0.28122E-02
        -0.26908E-19
         0.44613E-02
        -0.17224E-19
         0.25290E-01
        -0.16639E-19
         0.55918E-01
        -0.84614E-19
         0.10629E+00
        -0.30626E-18
         0.17146E+00
        -0.43613E-18
         0.21284E+00
        -0.38825E-18
         0.20385E+00
        -0.45911E-18
         0.18042E+00
        -0.77333E-18
         0.15097E+00
        -0.10753E-17
         0.11724E+00
        -0.92926E-18
         0.68329E-01
        -0.61376E-18
         0.22190E-01
        -0.13679E-18
         0.15954E-03
        -0.49876E-20
         0.70065E-02
        -0.29399E-19
         0.17459E-01
        -0.78612E-19
         0.38444E-01
        -0.30109E-18
         0.66915E-01
        -0.81072E-18
         0.11797E+00
        -0.11703E-17
         0.15988E+00
        -0.12243E-17
        -0.22468E-05
        -0.59745E-06
        -0.82450E-06
        -0.34241E-05
        -0.48956E-04
        -0.30048E-04
        -0.66316E-06
        -0.14562E-05
        -0.40054E-06
        -0.12434E-05
        -0.35603E-06
        -0.66352E-05
        -0.29439E-04
        -0.30146E-05
        -0.43187E-05
        -0.60581E-05
        -0.42479E-05
        -0.92387E-06
        -0.21588E-05
        -0.25157E-05
        -0.74446E-04
        -0.84970E-04
        -0.68438E-04
        -0.66303E-05
        -0.10789E-05
        -0.59856E-06
        -0.60484E-05
        -0.76202E-07
        -0.78437E-05
        -0.38032E-05
        -0.48186E-05
        -0.18120E-06
        -0.10698E-05
        -0.11015E-06
        -0.10314E-03
        -0.42849E-04
        -0.35464E-04
        -0.17168E-04
        -0.55609E-05
        -0.24901E-04
        -0.10372E-03
        -0.93696E-04
        -0.94386E-04
        -0.50782E-04
        -0.25701E-04
        -0.15238E-04
        -0.55231E-06
        -0.98939E-05
        -0.82593E-06
        -0.81327E-05
        -0.56740E-04
        -0.41485E-04
        -0.82923E-03
        -0.94601E-03
        -0.75195E-03
        -0.54861E-03
        -0.30377E-03
        -0.77473E-04
        -0.26741E-06
        -0.38254E-04
        -0.89034E-04
        -0.26200E-03
        -0.68991E-03
        -0.10743E-02
        -0.91607E-03
        -0.84763E-03
        -0.95644E-03
        -0.96394E-03
        -0.79552E-03
        -0.60195E-03
        -0.14693E-03
        -0.37194E-05
        -0.55871E-04
        -0.69385E-04
        -0.19839E-03
        -0.49743E-03
        -0.85796E-03
        -0.95619E-03
        -0.16566E-04
        -0.69807E-06
        -0.25301E-05
        -0.21450E-04
        -0.90253E-04
        -0.65912E-04
        -0.55948E-05
        -0.26662E-04
        -0.56291E-05
        -0.24098E-04
        -0.98344E-06
        -0.13091E-04
        -0.14168E-03
        -0.83318E-04
        -0.89391E-04
        -0.63940E-04
        -0.19816E-04
        -0.71089E-05
        -0.32196E-05
        -0.99295E-05
        -0.34958E-03
        -0.31751E-03
        -0.30918E-03
        -0.18088E-04
        -0.58351E-05
        -0.26455E-05
        -0.77800E-04
        -0.13716E-05
        -0.87140E-05
        -0.16205E-04
        -0.37742E-04
        -0.15803E-04
        -0.15876E-04
        -0.11826E-04
        -0.28705E-03
        -0.87441E-04
        -0.11505E-03
        -0.10993E-03
        -0.30816E-05
        -0.25904E-04
        -0.34962E-03
        -0.36995E-03
        -0.35347E-03
        -0.18479E-03
        -0.10959E-03
        -0.37518E-04
        -0.43822E-04
        -0.61076E-04
        -0.10672E-05
        -0.15472E-05
        -0.16255E-03
        -0.12614E-03
        -0.50161E-02
        -0.50941E-02
        -0.41048E-02
        -0.27924E-02
        -0.15547E-02
        -0.32977E-03
        -0.20329E-04
        -0.21343E-03
        -0.37039E-03
        -0.12445E-02
        -0.39264E-02
        -0.54644E-02
        -0.38429E-02
        -0.34784E-02
        -0.42217E-02
        -0.44775E-02
        -0.37299E-02
        -0.33372E-02
        -0.86634E-03
        -0.58526E-04
        -0.28630E-03
        -0.29387E-03
        -0.92888E-03
        -0.27847E-02
        -0.45622E-02
        -0.45335E-02
        -0.16629E-04
        -0.70326E-06
        -0.25396E-05
        -0.21479E-04
        -0.90080E-04
        -0.65790E-04
        -0.56662E-05
        -0.26527E-04
        -0.56414E-05
        -0.24060E-04
        -0.94403E-06
        -0.13155E-04
        -0.14185E-03
        -0.82907E-04
        -0.89296E-04
        -0.64073E-04
        -0.19903E-04
        -0.70697E-05
        -0.32164E-05
        -0.98946E-05
        -0.34951E-03
        -0.31744E-03
        -0.30914E-03
        -0.18089E-04
        -0.58615E-05
        -0.26543E-05
        -0.77847E-04
        -0.13206E-05
        -0.88370E-05
        -0.16226E-04
        -0.37852E-04
        -0.15799E-04
        -0.15745E-04
        -0.11837E-04
        -0.28734E-03
        -0.87361E-04
        -0.11498E-03
        -0.11029E-03
        -0.31409E-05
        -0.26067E-04
        -0.35006E-03
        -0.37038E-03
        -0.35350E-03
        -0.18474E-03
        -0.10951E-03
        -0.37479E-04
        -0.43805E-04
        -0.61117E-04
        -0.10517E-05
        -0.15366E-05
        -0.16234E-03
        -0.12577E-03
        -0.50126E-02
        -0.50914E-02
        -0.41040E-02
        -0.27925E-02
        -0.15537E-02
        -0.32957E-03
        -0.20375E-04
        -0.21370E-03
        -0.36977E-03
        -0.12435E-02
        -0.39253E-02
        -0.54646E-02
        -0.38422E-02
        -0.34779E-02
        -0.42227E-02
        -0.44794E-02
        -0.37312E-02
        -0.33385E-02
        -0.86587E-03
        -0.58579E-04
        -0.28588E-03
        -0.29363E-03
        -0.92751E-03
        -0.27813E-02
        -0.45577E-02
        -0.45295E-02
        -0.16692E-04
        -0.70839E-06
        -0.25492E-05
        -0.21507E-04
        -0.89901E-04
        -0.65671E-04
        -0.57384E-05
        -0.26393E-04
        -0.56530E-05
        -0.24019E-04
        -0.90552E-06
        -0.13219E-04
        -0.14202E-03
        -0.82499E-04
        -0.89201E-04
        -0.64209E-04
        -0.19992E-04
        -0.70301E-05
        -0.32132E-05
        -0.98609E-05
        -0.34945E-03
        -0.31737E-03
        -0.30910E-03
        -0.18091E-04
        -0.58896E-05
        -0.26639E-05
        -0.77892E-04
        -0.12710E-05
        -0.89616E-05
        -0.16246E-04
        -0.37965E-04
        -0.15796E-04
        -0.15612E-04
        -0.11847E-04
        -0.28763E-03
        -0.87286E-04
        -0.11490E-03
        -0.11064E-03
        -0.32008E-05
        -0.26232E-04
        -0.35051E-03
        -0.37081E-03
        -0.35355E-03
        -0.18469E-03
        -0.10943E-03
        -0.37442E-04
        -0.43789E-04
        -0.61157E-04
        -0.10359E-05
        -0.15258E-05
        -0.16214E-03
        -0.12540E-03
        -0.50092E-02
        -0.50888E-02
        -0.41033E-02
        -0.27925E-02
        -0.15527E-02
        -0.32937E-03
        -0.20421E-04
        -0.21396E-03
        -0.36914E-03
        -0.12426E-02
        -0.39241E-02
        -0.54648E-02
        -0.38415E-02
        -0.34776E-02
        -0.42238E-02
        -0.44814E-02
        -0.37326E-02
        -0.33398E-02
        -0.86538E-03
        -0.58632E-04
        -0.28546E-03
        -0.29340E-03
        -0.92614E-03
        -0.27778E-02
        -0.45531E-02
        -0.45254E-02
        -0.16755E-04
        -0.71372E-06
        -0.25585E-05
        -0.21536E-04
        -0.89724E-04
        -0.65550E-04
        -0.58101E-05
        -0.26258E-04
        -0.56633E-05
        -0.23972E-04
        -0.86789E-06
        -0.13284E-04
        -0.14220E-03
        -0.82092E-04
        -0.89105E-04
        -0.64358E-04
        -0.20086E-04
        -0.69905E-05
        -0.32104E-05
        -0.98258E-05
        -0.34941E-03
        -0.31732E-03
        -0.30910E-03
        -0.18093E-04
        -0.59232E-05
        -0.26757E-05
        -0.77930E-04
        -0.12240E-05
        -0.90865E-05
        -0.16265E-04
        -0.38087E-04
        -0.15800E-04
        -0.15480E-04
        -0.11858E-04
        -0.28791E-03
        -0.87208E-04
        -0.11483E-03
        -0.11099E-03
        -0.32611E-05
        -0.26397E-04
        -0.35097E-03
        -0.37128E-03
        -0.35365E-03
        -0.18466E-03
        -0.10935E-03
        -0.37402E-04
        -0.43777E-04
        -0.61200E-04
        -0.10202E-05
        -0.15149E-05
        -0.16193E-03
        -0.12502E-03
        -0.50058E-02
        -0.50862E-02
        -0.41026E-02
        -0.27925E-02
        -0.15518E-02
        -0.32917E-03
        -0.20468E-04
        -0.21423E-03
        -0.36852E-03
        -0.12416E-02
        -0.39229E-02
        -0.54652E-02
        -0.38409E-02
        -0.34773E-02
        -0.42251E-02
        -0.44837E-02
        -0.37340E-02
        -0.33411E-02
        -0.86490E-03
        -0.58686E-04
        -0.28504E-03
        -0.29317E-03
        -0.92478E-03
        -0.27744E-02
        -0.45486E-02
        -0.45214E-02
        -0.16817E-04
        -0.71906E-06
        -0.25681E-05
        -0.21564E-04
        -0.89551E-04
        -0.65429E-04
        -0.58833E-05
        -0.26122E-04
        -0.56720E-05
        -0.23917E-04
        -0.83098E-06
        -0.13348E-04
        -0.14237E-03
        -0.81685E-04
        -0.89009E-04
        -0.64517E-04
        -0.20183E-04
        -0.69508E-05
        -0.32069E-05
        -0.97904E-05
        -0.34939E-03
        -0.31729E-03
        -0.30913E-03
        -0.18096E-04
        -0.59623E-05
        -0.26892E-05
        -0.77962E-04
        -0.11792E-05
        -0.92120E-05
        -0.16283E-04
        -0.38218E-04
        -0.15807E-04
        -0.15348E-04
        -0.11868E-04
        -0.28821E-03
        -0.87129E-04
        -0.11476E-03
        -0.11134E-03
        -0.33216E-05
        -0.26564E-04
        -0.35144E-03
        -0.37178E-03
        -0.35379E-03
        -0.18464E-03
        -0.10926E-03
        -0.37359E-04
        -0.43767E-04
        -0.61246E-04
        -0.10047E-05
        -0.15043E-05
        -0.16173E-03
        -0.12465E-03
        -0.50023E-02
        -0.50836E-02
        -0.41018E-02
        -0.27926E-02
        -0.15508E-02
        -0.32897E-03
        -0.20515E-04
        -0.21449E-03
        -0.36790E-03
        -0.12406E-02
        -0.39216E-02
        -0.54656E-02
        -0.38406E-02
        -0.34770E-02
        -0.42264E-02
        -0.44863E-02
        -0.37357E-02
        -0.33423E-02
        -0.86442E-03
        -0.58739E-04
        -0.28462E-03
        -0.29294E-03
        -0.92342E-03
        -0.27710E-02
        -0.45441E-02
        -0.45174E-02
        -0.16878E-04
        -0.72488E-06
        -0.25765E-05
        -0.21591E-04
        -0.89376E-04
        -0.65308E-04
        -0.59568E-05
        -0.25985E-04
        -0.56804E-05
        -0.23861E-04
        -0.79486E-06
        -0.13413E-04
        -0.14254E-03
        -0.81278E-04
        -0.88912E-04
        -0.64680E-04
        -0.20280E-04
        -0.69112E-05
        -0.32033E-05
        -0.97567E-05
        -0.34939E-03
        -0.31727E-03
        -0.30918E-03
        -0.18099E-04
        -0.60012E-05
        -0.27032E-05
        -0.77991E-04
        -0.11356E-05
        -0.93391E-05
        -0.16304E-04
        -0.38348E-04
        -0.15814E-04
        -0.15215E-04
        -0.11878E-04
        -0.28851E-03
        -0.87059E-04
        -0.11469E-03
        -0.11169E-03
        -0.33828E-05
        -0.26732E-04
        -0.35192E-03
        -0.37229E-03
        -0.35395E-03
        -0.18462E-03
        -0.10918E-03
        -0.37322E-04
        -0.43754E-04
        -0.61290E-04
        -0.98890E-06
        -0.14946E-05
        -0.16153E-03
        -0.12429E-03
        -0.49989E-02
        -0.50809E-02
        -0.41011E-02
        -0.27926E-02
        -0.15499E-02
        -0.32878E-03
        -0.20560E-04
        -0.21475E-03
        -0.36727E-03
        -0.12396E-02
        -0.39204E-02
        -0.54660E-02
        -0.38403E-02
        -0.34768E-02
        -0.42277E-02
        -0.44891E-02
        -0.37374E-02
        -0.33436E-02
        -0.86393E-03
        -0.58787E-04
        -0.28420E-03
        -0.29271E-03
        -0.92207E-03
        -0.27676E-02
        -0.45396E-02
        -0.45133E-02
        -0.16933E-04
        -0.73189E-06
        -0.25830E-05
        -0.21618E-04
        -0.89206E-04
        -0.65190E-04
        -0.60322E-05
        -0.25845E-04
        -0.56894E-05
        -0.23808E-04
        -0.75936E-06
        -0.13478E-04
        -0.14272E-03
        -0.80872E-04
        -0.88814E-04
        -0.64843E-04
        -0.20374E-04
        -0.68714E-05
        -0.32004E-05
        -0.97237E-05
        -0.34938E-03
        -0.31725E-03
        -0.30924E-03
        -0.18103E-04
        -0.60358E-05
        -0.27156E-05
        -0.78024E-04
        -0.10918E-05
        -0.94683E-05
        -0.16328E-04
        -0.38471E-04
        -0.15815E-04
        -0.15080E-04
        -0.11885E-04
        -0.28881E-03
        -0.86995E-04
        -0.11463E-03
        -0.11204E-03
        -0.34450E-05
        -0.26904E-04
        -0.35240E-03
        -0.37281E-03
        -0.35412E-03
        -0.18461E-03
        -0.10911E-03
        -0.37288E-04
        -0.43734E-04
        -0.61331E-04
        -0.97188E-06
        -0.14871E-05
        -0.16136E-03
        -0.12393E-03
        -0.49955E-02
        -0.50783E-02
        -0.41003E-02
        -0.27926E-02
        -0.15489E-02
        -0.32857E-03
        -0.20606E-04
        -0.21502E-03
        -0.36666E-03
        -0.12386E-02
        -0.39191E-02
        -0.54665E-02
        -0.38400E-02
        -0.34765E-02
        -0.42291E-02
        -0.44918E-02
        -0.37391E-02
        -0.33448E-02
        -0.86343E-03
        -0.58827E-04
        -0.28376E-03
        -0.29249E-03
        -0.92075E-03
        -0.27643E-02
        -0.45351E-02
        -0.45093E-02
        -0.16986E-04
        -0.73931E-06
        -0.25886E-05
        -0.21644E-04
        -0.89042E-04
        -0.65069E-04
        -0.61089E-05
        -0.25704E-04
        -0.56986E-05
        -0.23757E-04
        -0.72459E-06
        -0.13543E-04
        -0.14290E-03
        -0.80467E-04
        -0.88715E-04
        -0.65006E-04
        -0.20467E-04
        -0.68315E-05
        -0.31970E-05
        -0.96929E-05
        -0.34937E-03
        -0.31723E-03
        -0.30929E-03
        -0.18106E-04
        -0.60682E-05
        -0.27272E-05
        -0.78059E-04
        -0.10487E-05
        -0.96002E-05
        -0.16354E-04
        -0.38592E-04
        -0.15813E-04
        -0.14943E-04
        -0.11890E-04
        -0.28912E-03
        -0.86938E-04
        -0.11457E-03
        -0.11239E-03
        -0.35078E-05
        -0.27075E-04
        -0.35289E-03
        -0.37334E-03
        -0.35429E-03
        -0.18461E-03
        -0.10904E-03
        -0.37260E-04
        -0.43712E-04
        -0.61369E-04
        -0.95448E-06
        -0.14806E-05
        -0.16119E-03
        -0.12358E-03
        -0.49920E-02
        -0.50757E-02
        -0.40995E-02
        -0.27926E-02
        -0.15480E-02
        -0.32837E-03
        -0.20651E-04
        -0.21528E-03
        -0.36604E-03
        -0.12376E-02
        -0.39178E-02
        -0.54669E-02
        -0.38397E-02
        -0.34763E-02
        -0.42304E-02
        -0.44946E-02
        -0.37408E-02
        -0.33459E-02
        -0.86293E-03
        -0.58864E-04
        -0.28332E-03
        -0.29226E-03
        -0.91944E-03
        -0.27609E-02
        -0.45306E-02
        -0.45053E-02
        -0.17040E-04
        -0.74684E-06
        -0.25941E-05
        -0.21670E-04
        -0.88873E-04
        -0.64948E-04
        -0.61856E-05
        -0.25563E-04
        -0.57081E-05
        -0.23707E-04
        -0.69076E-06
        -0.13608E-04
        -0.14307E-03
        -0.80064E-04
        -0.88616E-04
        -0.65168E-04
        -0.20559E-04
        -0.67920E-05
        -0.31936E-05
        -0.96608E-05
        -0.34936E-03
        -0.31721E-03
        -0.30935E-03
        -0.18111E-04
        -0.61005E-05
        -0.27388E-05
        -0.78095E-04
        -0.10064E-05
        -0.97328E-05
        -0.16380E-04
        -0.38712E-04
        -0.15812E-04
        -0.14808E-04
        -0.11896E-04
        -0.28944E-03
        -0.86876E-04
        -0.11452E-03
        -0.11274E-03
        -0.35714E-05
        -0.27246E-04
        -0.35338E-03
        -0.37386E-03
        -0.35446E-03
        -0.18461E-03
        -0.10898E-03
        -0.37232E-04
        -0.43689E-04
        -0.61408E-04
        -0.93721E-06
        -0.14744E-05
        -0.16102E-03
        -0.12322E-03
        -0.49886E-02
        -0.50732E-02
        -0.40988E-02
        -0.27926E-02
        -0.15470E-02
        -0.32817E-03
        -0.20696E-04
        -0.21554E-03
        -0.36542E-03
        -0.12366E-02
        -0.39165E-02
        -0.54673E-02
        -0.38394E-02
        -0.34761E-02
        -0.42318E-02
        -0.44973E-02
        -0.37425E-02
        -0.33471E-02
        -0.86242E-03
        -0.58902E-04
        -0.28287E-03
        -0.29204E-03
        -0.91813E-03
        -0.27576E-02
        -0.45261E-02
        -0.45013E-02
        -0.17093E-04
        -0.75450E-06
        -0.25996E-05
        -0.21697E-04
        -0.88706E-04
        -0.64828E-04
        -0.62633E-05
        -0.25423E-04
        -0.57175E-05
        -0.23656E-04
        -0.65772E-06
        -0.13674E-04
        -0.14326E-03
        -0.79664E-04
        -0.88518E-04
        -0.65330E-04
        -0.20652E-04
        -0.67529E-05
        -0.31901E-05
        -0.96297E-05
        -0.34935E-03
        -0.31719E-03
        -0.30939E-03
        -0.18116E-04
        -0.61330E-05
        -0.27503E-05
        -0.78131E-04
        -0.96530E-06
        -0.98659E-05
        -0.16406E-04
        -0.38832E-04
        -0.15809E-04
        -0.14674E-04
        -0.11902E-04
        -0.28975E-03
        -0.86821E-04
        -0.11447E-03
        -0.11310E-03
        -0.36356E-05
        -0.27420E-04
        -0.35387E-03
        -0.37439E-03
        -0.35463E-03
        -0.18461E-03
        -0.10892E-03
        -0.37202E-04
        -0.43666E-04
        -0.61447E-04
        -0.92025E-06
        -0.14677E-05
        -0.16085E-03
        -0.12287E-03
        -0.49851E-02
        -0.50706E-02
        -0.40980E-02
        -0.27926E-02
        -0.15460E-02
        -0.32797E-03
        -0.20742E-04
        -0.21580E-03
        -0.36480E-03
        -0.12357E-02
        -0.39152E-02
        -0.54678E-02
        -0.38391E-02
        -0.34758E-02
        -0.42332E-02
        -0.45001E-02
        -0.37442E-02
        -0.33482E-02
        -0.86192E-03
        -0.58939E-04
        -0.28243E-03
        -0.29181E-03
        -0.91682E-03
        -0.27543E-02
        -0.45217E-02
        -0.44973E-02
        -0.17146E-04
        -0.76213E-06
        -0.26054E-05
        -0.21723E-04
        -0.88543E-04
        -0.64711E-04
        -0.63408E-05
        -0.25283E-04
        -0.57269E-05
        -0.23607E-04
        -0.62545E-06
        -0.13740E-04
        -0.14344E-03
        -0.79265E-04
        -0.88417E-04
        -0.65491E-04
        -0.20745E-04
        -0.67139E-05
        -0.31873E-05
        -0.95974E-05
        -0.34934E-03
        -0.31717E-03
        -0.30945E-03
        -0.18121E-04
        -0.61652E-05
        -0.27618E-05
        -0.78169E-04
        -0.92499E-06
        -0.99996E-05
        -0.16431E-04
        -0.38952E-04
        -0.15807E-04
        -0.14540E-04
        -0.11908E-04
        -0.29007E-03
        -0.86761E-04
        -0.11441E-03
        -0.11345E-03
        -0.37005E-05
        -0.27592E-04
        -0.35436E-03
        -0.37491E-03
        -0.35480E-03
        -0.18461E-03
        -0.10885E-03
        -0.37175E-04
        -0.43643E-04
        -0.61486E-04
        -0.90327E-06
        -0.14612E-05
        -0.16069E-03
        -0.12252E-03
        -0.49817E-02
        -0.50680E-02
        -0.40972E-02
        -0.27926E-02
        -0.15451E-02
        -0.32777E-03
        -0.20785E-04
        -0.21606E-03
        -0.36419E-03
        -0.12347E-02
        -0.39139E-02
        -0.54682E-02
        -0.38388E-02
        -0.34756E-02
        -0.42345E-02
        -0.45028E-02
        -0.37459E-02
        -0.33494E-02
        -0.86142E-03
        -0.58974E-04
        -0.28198E-03
        -0.29158E-03
        -0.91551E-03
        -0.27509E-02
        -0.45172E-02
        -0.44932E-02
        -0.17199E-04
        -0.76977E-06
        -0.26108E-05
        -0.21749E-04
        -0.88376E-04
        -0.64590E-04
        -0.64192E-05
        -0.25144E-04
        -0.57361E-05
        -0.23557E-04
        -0.59407E-06
        -0.13806E-04
        -0.14361E-03
        -0.78868E-04
        -0.88317E-04
        -0.65653E-04
        -0.20837E-04
        -0.66748E-05
        -0.31841E-05
        -0.95665E-05
        -0.34933E-03
        -0.31715E-03
        -0.30951E-03
        -0.18127E-04
        -0.61974E-05
        -0.27737E-05
        -0.78205E-04
        -0.88572E-06
        -0.10133E-04
        -0.16458E-04
        -0.39073E-04
        -0.15805E-04
        -0.14406E-04
        -0.11913E-04
        -0.29039E-03
        -0.86702E-04
        -0.11435E-03
        -0.11380E-03
        -0.37662E-05
        -0.27768E-04
        -0.35485E-03
        -0.37543E-03
        -0.35497E-03
        -0.18461E-03
        -0.10879E-03
        -0.37148E-04
        -0.43621E-04
        -0.61526E-04
        -0.88642E-06
        -0.14550E-05
        -0.16052E-03
        -0.12216E-03
        -0.49782E-02
        -0.50654E-02
        -0.40964E-02
        -0.27926E-02
        -0.15441E-02
        -0.32757E-03
        -0.20830E-04
        -0.21632E-03
        -0.36357E-03
        -0.12337E-02
        -0.39127E-02
        -0.54687E-02
        -0.38385E-02
        -0.34754E-02
        -0.42359E-02
        -0.45056E-02
        -0.37476E-02
        -0.33506E-02
        -0.86091E-03
        -0.59010E-04
        -0.28154E-03
        -0.29136E-03
        -0.91421E-03
        -0.27476E-02
        -0.45127E-02
        -0.44892E-02
        -0.17253E-04
        -0.77754E-06
        -0.26161E-05
        -0.21774E-04
        -0.88210E-04
        -0.64470E-04
        -0.64979E-05
        -0.25004E-04
        -0.57452E-05
        -0.23506E-04
        -0.56358E-06
        -0.13872E-04
        -0.14379E-03
        -0.78471E-04
        -0.88217E-04
        -0.65815E-04
        -0.20930E-04
        -0.66357E-05
        -0.31809E-05
        -0.95348E-05
        -0.34931E-03
        -0.31713E-03
        -0.30956E-03
        -0.18132E-04
        -0.62292E-05
        -0.27852E-05
        -0.78241E-04
        -0.84722E-06
        -0.10268E-04
        -0.16483E-04
        -0.39193E-04
        -0.15802E-04
        -0.14272E-04
        -0.11919E-04
        -0.29070E-03
        -0.86648E-04
        -0.11430E-03
        -0.11415E-03
        -0.38326E-05
        -0.27943E-04
        -0.35535E-03
        -0.37595E-03
        -0.35514E-03
        -0.18461E-03
        -0.10873E-03
        -0.37116E-04
        -0.43598E-04
        -0.61565E-04
        -0.86966E-06
        -0.14485E-05
        -0.16035E-03
        -0.12181E-03
        -0.49748E-02
        -0.50629E-02
        -0.40956E-02
        -0.27926E-02
        -0.15432E-02
        -0.32737E-03
        -0.20876E-04
        -0.21658E-03
        -0.36295E-03
        -0.12327E-02
        -0.39114E-02
        -0.54691E-02
        -0.38382E-02
        -0.34752E-02
        -0.42373E-02
        -0.45083E-02
        -0.37493E-02
        -0.33517E-02
        -0.86041E-03
        -0.59046E-04
        -0.28109E-03
        -0.29113E-03
        -0.91290E-03
        -0.27443E-02
        -0.45083E-02
        -0.44852E-02
        -0.17307E-04
        -0.78522E-06
        -0.26215E-05
        -0.21799E-04
        -0.88048E-04
        -0.64350E-04
        -0.65762E-05
        -0.24865E-04
        -0.57543E-05
        -0.23455E-04
        -0.53395E-06
        -0.13938E-04
        -0.14397E-03
        -0.78076E-04
        -0.88116E-04
        -0.65977E-04
        -0.21023E-04
        -0.65969E-05
        -0.31783E-05
        -0.95040E-05
        -0.34930E-03
        -0.31711E-03
        -0.30961E-03
        -0.18137E-04
        -0.62610E-05
        -0.27968E-05
        -0.78275E-04
        -0.80981E-06
        -0.10405E-04
        -0.16508E-04
        -0.39313E-04
        -0.15800E-04
        -0.14139E-04
        -0.11925E-04
        -0.29102E-03
        -0.86589E-04
        -0.11425E-03
        -0.11449E-03
        -0.38996E-05
        -0.28120E-04
        -0.35583E-03
        -0.37647E-03
        -0.35531E-03
        -0.18461E-03
        -0.10866E-03
        -0.37089E-04
        -0.43575E-04
        -0.61604E-04
        -0.85311E-06
        -0.14421E-05
        -0.16019E-03
        -0.12146E-03
        -0.49713E-02
        -0.50603E-02
        -0.40948E-02
        -0.27926E-02
        -0.15422E-02
        -0.32717E-03
        -0.20921E-04
        -0.21683E-03
        -0.36234E-03
        -0.12317E-02
        -0.39101E-02
        -0.54695E-02
        -0.38379E-02
        -0.34749E-02
        -0.42386E-02
        -0.45111E-02
        -0.37510E-02
        -0.33529E-02
        -0.85991E-03
        -0.59080E-04
        -0.28065E-03
        -0.29091E-03
        -0.91159E-03
        -0.27409E-02
        -0.45038E-02
        -0.44812E-02
        -0.17361E-04
        -0.79288E-06
        -0.26269E-05
        -0.21825E-04
        -0.87882E-04
        -0.64230E-04
        -0.66556E-05
        -0.24727E-04
        -0.57635E-05
        -0.23405E-04
        -0.50513E-06
        -0.14006E-04
        -0.14415E-03
        -0.77683E-04
        -0.88014E-04
        -0.66139E-04
        -0.21117E-04
        -0.65584E-05
        -0.31751E-05
        -0.94721E-05
        -0.34929E-03
        -0.31709E-03
        -0.30966E-03
        -0.18143E-04
        -0.62928E-05
        -0.28084E-05
        -0.78309E-04
        -0.77326E-06
        -0.10542E-04
        -0.16534E-04
        -0.39434E-04
        -0.15797E-04
        -0.14007E-04
        -0.11930E-04
        -0.29133E-03
        -0.86536E-04
        -0.11419E-03
        -0.11484E-03
        -0.39672E-05
        -0.28296E-04
        -0.35632E-03
        -0.37699E-03
        -0.35548E-03
        -0.18461E-03
        -0.10860E-03
        -0.37063E-04
        -0.43552E-04
        -0.61643E-04
        -0.83646E-06
        -0.14358E-05
        -0.16001E-03
        -0.12110E-03
        -0.49679E-02
        -0.50577E-02
        -0.40940E-02
        -0.27927E-02
        -0.15413E-02
        -0.32696E-03
        -0.20964E-04
        -0.21708E-03
        -0.36172E-03
        -0.12307E-02
        -0.39089E-02
        -0.54700E-02
        -0.38376E-02
        -0.34747E-02
        -0.42400E-02
        -0.45139E-02
        -0.37527E-02
        -0.33540E-02
        -0.85941E-03
        -0.59115E-04
        -0.28021E-03
        -0.29069E-03
        -0.91029E-03
        -0.27376E-02
        -0.44994E-02
        -0.44772E-02
        -0.17415E-04
        -0.80078E-06
        -0.26324E-05
        -0.21851E-04
        -0.87716E-04
        -0.64114E-04
        -0.67350E-05
        -0.24589E-04
        -0.57727E-05
        -0.23355E-04
        -0.47709E-06
        -0.14072E-04
        -0.14433E-03
        -0.77291E-04
        -0.87911E-04
        -0.66302E-04
        -0.21210E-04
        -0.65203E-05
        -0.31720E-05
        -0.94413E-05
        -0.34928E-03
        -0.31707E-03
        -0.30972E-03
        -0.18148E-04
        -0.63241E-05
        -0.28201E-05
        -0.78344E-04
        -0.73757E-06
        -0.10679E-04
        -0.16558E-04
        -0.39554E-04
        -0.15795E-04
        -0.13876E-04
        -0.11936E-04
        -0.29165E-03
        -0.86477E-04
        -0.11414E-03
        -0.11518E-03
        -0.40358E-05
        -0.28472E-04
        -0.35681E-03
        -0.37751E-03
        -0.35565E-03
        -0.18460E-03
        -0.10854E-03
        -0.37032E-04
        -0.43529E-04
        -0.61682E-04
        -0.82016E-06
        -0.14294E-05
        -0.15985E-03
        -0.12075E-03
        -0.49644E-02
        -0.50552E-02
        -0.40932E-02
        -0.27927E-02
        -0.15403E-02
        -0.32676E-03
        -0.21008E-04
        -0.21733E-03
        -0.36111E-03
        -0.12298E-02
        -0.39076E-02
        -0.54705E-02
        -0.38373E-02
        -0.34745E-02
        -0.42414E-02
        -0.45166E-02
        -0.37544E-02
        -0.33552E-02
        -0.85890E-03
        -0.59149E-04
        -0.27976E-03
        -0.29047E-03
        -0.90899E-03
        -0.27343E-02
        -0.44950E-02
        -0.44732E-02
        -0.17469E-04
        -0.80860E-06
        -0.26379E-05
        -0.21876E-04
        -0.87555E-04
        -0.63994E-04
        -0.68152E-05
        -0.24451E-04
        -0.57815E-05
        -0.23302E-04
        -0.44987E-06
        -0.14139E-04
        -0.14451E-03
        -0.76899E-04
        -0.87807E-04
        -0.66465E-04
        -0.21304E-04
        -0.64822E-05
        -0.31690E-05
        -0.94097E-05
        -0.34927E-03
        -0.31705E-03
        -0.30977E-03
        -0.18154E-04
        -0.63548E-05
        -0.28316E-05
        -0.78375E-04
        -0.70240E-06
        -0.10816E-04
        -0.16583E-04
        -0.39676E-04
        -0.15793E-04
        -0.13745E-04
        -0.11942E-04
        -0.29198E-03
        -0.86419E-04
        -0.11409E-03
        -0.11553E-03
        -0.41056E-05
        -0.28651E-04
        -0.35728E-03
        -0.37803E-03
        -0.35581E-03
        -0.18460E-03
        -0.10847E-03
        -0.37005E-04
        -0.43507E-04
        -0.61723E-04
        -0.80407E-06
        -0.14229E-05
        -0.15968E-03
        -0.12040E-03
        -0.49610E-02
        -0.50526E-02
        -0.40924E-02
        -0.27926E-02
        -0.15393E-02
        -0.32656E-03
        -0.21050E-04
        -0.21758E-03
        -0.36050E-03
        -0.12288E-02
        -0.39063E-02
        -0.54710E-02
        -0.38370E-02
        -0.34742E-02
        -0.42427E-02
        -0.45194E-02
        -0.37561E-02
        -0.33563E-02
        -0.85840E-03
        -0.59184E-04
        -0.27932E-03
        -0.29024E-03
        -0.90769E-03
        -0.27310E-02
        -0.44905E-02
        -0.44692E-02
        -0.17523E-04
        -0.81643E-06
        -0.26431E-05
        -0.21901E-04
        -0.87391E-04
        -0.63875E-04
        -0.68954E-05
        -0.24314E-04
        -0.57895E-05
        -0.23244E-04
        -0.42349E-06
        -0.14207E-04
        -0.14469E-03
        -0.76507E-04
        -0.87701E-04
        -0.66628E-04
        -0.21397E-04
        -0.64440E-05
        -0.31669E-05
        -0.93795E-05
        -0.34926E-03
        -0.31702E-03
        -0.30983E-03
        -0.18159E-04
        -0.63837E-05
        -0.28437E-05
        -0.78393E-04
        -0.66725E-06
        -0.10955E-04
        -0.16610E-04
        -0.39798E-04
        -0.15790E-04
        -0.13614E-04
        -0.11948E-04
        -0.29229E-03
        -0.86366E-04
        -0.11403E-03
        -0.11586E-03
        -0.41780E-05
        -0.28827E-04
        -0.35772E-03
        -0.37850E-03
        -0.35596E-03
        -0.18460E-03
        -0.10841E-03
        -0.36975E-04
        -0.43484E-04
        -0.61763E-04
        -0.78819E-06
        -0.14165E-05
        -0.15952E-03
        -0.12005E-03
        -0.49575E-02
        -0.50501E-02
        -0.40916E-02
        -0.27926E-02
        -0.15384E-02
        -0.32636E-03
        -0.21093E-04
        -0.21783E-03
        -0.35990E-03
        -0.12278E-02
        -0.39050E-02
        -0.54718E-02
        -0.38369E-02
        -0.34740E-02
        -0.42440E-02
        -0.45221E-02
        -0.37578E-02
        -0.33574E-02
        -0.85790E-03
        -0.59218E-04
        -0.27888E-03
        -0.29002E-03
        -0.90639E-03
        -0.27276E-02
        -0.44861E-02
        -0.44653E-02
        -0.17578E-04
        -0.82426E-06
        -0.26484E-05
        -0.21926E-04
        -0.87226E-04
        -0.63756E-04
        -0.69763E-05
        -0.24176E-04
        -0.57966E-05
        -0.23181E-04
        -0.39798E-06
        -0.14274E-04
        -0.14487E-03
        -0.76112E-04
        -0.87592E-04
        -0.66790E-04
        -0.21489E-04
        -0.64060E-05
        -0.31640E-05
        -0.93484E-05
        -0.34925E-03
        -0.31699E-03
        -0.30989E-03
        -0.18165E-04
        -0.64103E-05
        -0.28553E-05
        -0.78400E-04
        -0.63198E-06
        -0.11095E-04
        -0.16636E-04
        -0.39919E-04
        -0.15787E-04
        -0.13484E-04
        -0.11954E-04
        -0.29262E-03
        -0.86309E-04
        -0.11398E-03
        -0.11619E-03
        -0.42531E-05
        -0.29005E-04
        -0.35813E-03
        -0.37893E-03
        -0.35608E-03
        -0.18460E-03
        -0.10835E-03
        -0.36948E-04
        -0.43461E-04
        -0.61802E-04
        -0.77227E-06
        -0.14102E-05
        -0.15935E-03
        -0.11969E-03
        -0.49541E-02
        -0.50475E-02
        -0.40908E-02
        -0.27926E-02
        -0.15374E-02
        -0.32616E-03
        -0.21136E-04
        -0.21808E-03
        -0.35930E-03
        -0.12267E-02
        -0.39036E-02
        -0.54729E-02
        -0.38369E-02
        -0.34738E-02
        -0.42454E-02
        -0.45248E-02
        -0.37595E-02
        -0.33585E-02
        -0.85739E-03
        -0.59252E-04
        -0.27844E-03
        -0.28979E-03
        -0.90509E-03
        -0.27243E-02
        -0.44816E-02
        -0.44613E-02
        -0.17632E-04
        -0.83218E-06
        -0.26539E-05
        -0.21952E-04
        -0.87066E-04
        -0.63641E-04
        -0.70568E-05
        -0.24040E-04
        -0.58033E-05
        -0.23116E-04
        -0.37343E-06
        -0.14340E-04
        -0.14505E-03
        -0.75719E-04
        -0.87483E-04
        -0.66953E-04
        -0.21582E-04
        -0.63685E-05
        -0.31609E-05
        -0.93183E-05
        -0.34924E-03
        -0.31696E-03
        -0.30994E-03
        -0.18170E-04
        -0.64361E-05
        -0.28669E-05
        -0.78404E-04
        -0.59755E-06
        -0.11234E-04
        -0.16661E-04
        -0.40041E-04
        -0.15785E-04
        -0.13356E-04
        -0.11960E-04
        -0.29294E-03
        -0.86256E-04
        -0.11393E-03
        -0.11652E-03
        -0.43296E-05
        -0.29178E-04
        -0.35852E-03
        -0.37934E-03
        -0.35620E-03
        -0.18460E-03
        -0.10828E-03
        -0.36921E-04
        -0.43440E-04
        -0.61845E-04
        -0.75669E-06
        -0.14037E-05
        -0.15919E-03
        -0.11935E-03
        -0.49507E-02
        -0.50450E-02
        -0.40901E-02
        -0.27927E-02
        -0.15365E-02
        -0.32595E-03
        -0.21178E-04
        -0.21832E-03
        -0.35871E-03
        -0.12256E-02
        -0.39023E-02
        -0.54741E-02
        -0.38370E-02
        -0.34736E-02
        -0.42468E-02
        -0.45276E-02
        -0.37612E-02
        -0.33597E-02
        -0.85689E-03
        -0.59289E-04
        -0.27801E-03
        -0.28957E-03
        -0.90380E-03
        -0.27210E-02
        -0.44772E-02
        -0.44573E-02
        -0.17854E-04
        -0.84660E-06
        -0.26855E-05
        -0.22182E-04
        -0.87736E-04
        -0.64134E-04
        -0.71981E-05
        -0.24156E-04
        -0.58640E-05
        -0.23291E-04
        -0.35626E-06
        -0.14536E-04
        -0.14662E-03
        -0.76128E-04
        -0.88301E-04
        -0.67733E-04
        -0.21877E-04
        -0.63930E-05
        -0.31868E-05
        -0.93743E-05
        -0.35248E-03
        -0.31996E-03
        -0.31283E-03
        -0.18346E-04
        -0.65228E-05
        -0.29044E-05
        -0.79218E-04
        -0.57195E-06
        -0.11477E-04
        -0.16848E-04
        -0.40535E-04
        -0.15930E-04
        -0.13363E-04
        -0.12082E-04
        -0.29612E-03
        -0.87036E-04
        -0.11497E-03
        -0.11804E-03
        -0.44447E-05
        -0.29634E-04
        -0.36254E-03
        -0.38355E-03
        -0.35980E-03
        -0.18629E-03
        -0.10924E-03
        -0.37243E-04
        -0.43841E-04
        -0.62488E-04
        -0.75012E-06
        -0.14106E-05
        -0.16058E-03
        -0.12016E-03
        -0.50044E-02
        -0.50994E-02
        -0.41363E-02
        -0.28241E-02
        -0.15532E-02
        -0.32952E-03
        -0.21487E-04
        -0.22111E-03
        -0.36246E-03
        -0.12396E-02
        -0.39481E-02
        -0.55383E-02
        -0.38782E-02
        -0.35095E-02
        -0.42917E-02
        -0.45766E-02
        -0.38016E-02
        -0.33974E-02
        -0.86627E-03
        -0.60038E-04
        -0.28072E-03
        -0.29247E-03
        -0.91256E-03
        -0.27478E-02
        -0.45216E-02
        -0.45016E-02
        -0.40349E-04
        -0.19406E-05
        -0.60484E-05
        -0.50241E-04
        -0.18402E-03
        -0.13694E-03
        -0.16432E-04
        -0.53991E-04
        -0.13164E-04
        -0.51881E-04
        -0.76068E-06
        -0.29571E-04
        -0.30658E-03
        -0.16554E-03
        -0.18146E-03
        -0.15321E-03
        -0.49287E-04
        -0.14413E-04
        -0.70203E-05
        -0.20763E-04
        -0.73458E-03
        -0.68435E-03
        -0.65510E-03
        -0.41036E-04
        -0.14828E-04
        -0.66094E-05
        -0.17532E-03
        -0.12563E-05
        -0.26446E-04
        -0.38223E-04
        -0.91793E-04
        -0.35878E-04
        -0.30128E-04
        -0.27392E-04
        -0.59985E-03
        -0.18588E-03
        -0.24577E-03
        -0.25396E-03
        -0.98948E-05
        -0.66062E-04
        -0.78477E-03
        -0.84159E-03
        -0.78735E-03
        -0.39557E-03
        -0.23056E-03
        -0.74347E-04
        -0.91975E-04
        -0.13449E-03
        -0.16079E-05
        -0.30296E-05
        -0.32939E-03
        -0.25515E-03
        -0.80670E-02
        -0.81853E-02
        -0.66506E-02
        -0.45626E-02
        -0.25074E-02
        -0.53525E-03
        -0.35832E-04
        -0.37404E-03
        -0.61013E-03
        -0.20649E-02
        -0.65885E-02
        -0.91913E-02
        -0.65566E-02
        -0.59606E-02
        -0.71049E-02
        -0.74084E-02
        -0.61178E-02
        -0.54204E-02
        -0.13826E-02
        -0.96234E-04
        -0.45747E-03
        -0.48038E-03
        -0.14894E-02
        -0.45155E-02
        -0.73822E-02
        -0.72962E-02
  
SCALARS                      strain_yy  double 1
LOOKUP_TABLE default
         0.16139E-03
         0.17005E-04
         0.11841E-03
         0.33092E-04
        -0.37074E-19
        -0.28164E-20
        -0.56941E-19
        -0.33127E-19
         0.16090E-02
         0.70796E-03
        -0.12611E-18
        -0.97743E-19
         0.11541E-02
         0.29759E-05
        -0.64589E-19
        -0.26550E-21
         0.15860E-03
         0.18974E-02
        -0.13981E-22
        -0.14637E-20
         0.48248E-03
         0.65314E-02
         0.75839E-02
        -0.33940E-18
        -0.10123E-17
        -0.70723E-18
         0.63578E-04
         0.62844E-02
        -0.17561E-18
        -0.66094E-18
         0.20660E-03
         0.14725E-03
         0.12030E-03
        -0.47198E-19
        -0.49185E-19
        -0.21200E-22
         0.17587E-02
         0.15031E-02
        -0.15982E-18
        -0.96748E-19
         0.16449E-02
         0.62468E-03
        -0.91282E-19
        -0.76235E-19
         0.14271E-02
         0.17367E-03
        -0.10045E-21
        -0.24032E-19
         0.10369E-02
        -0.53274E-20
         0.12179E-04
        -0.34947E-22
         0.33229E-05
        -0.79712E-19
         0.14287E-03
        -0.26974E-19
         0.15200E-02
         0.51658E-04
        -0.19853E-22
        -0.81782E-22
         0.30344E-03
         0.39419E-02
        -0.36854E-20
        -0.51563E-19
         0.11233E-03
        -0.15016E-19
         0.20114E-02
        -0.22285E-19
         0.12265E-02
         0.34160E-03
        -0.34034E-21
        -0.59333E-19
         0.41027E-02
        -0.28609E-18
         0.98795E-02
        -0.26821E-18
         0.99393E-02
        -0.15456E-18
         0.67845E-02
        -0.10858E-18
         0.15083E-01
         0.91986E-02
        -0.44684E-19
        -0.21966E-20
         0.19256E-03
        -0.27502E-22
         0.34806E-02
        -0.10792E-18
         0.18877E-01
        -0.33075E-18
         0.35955E-01
         0.13642E-01
        -0.72759E-18
        -0.47668E-18
         0.68624E-02
        -0.28724E-18
         0.55897E-02
        -0.30064E-18
         0.52366E-02
        -0.34756E-18
         0.14438E-01
         0.10083E-01
        -0.30057E-18
        -0.69008E-19
         0.61080E-02
         0.89996E-03
        -0.37162E-19
        -0.57387E-19
         0.36684E-01
        -0.41128E-18
         0.77647E-01
        -0.87999E-18
         0.11269E+00
        -0.13422E-17
         0.14392E+00
        -0.13206E-17
         0.18517E+00
        -0.82704E-18
         0.18492E+00
        -0.49531E-18
         0.16319E+00
        -0.42847E-18
         0.12941E+00
        -0.38786E-18
         0.72310E-01
        -0.15841E-18
         0.36028E-01
        -0.17267E-19
         0.99601E-02
        -0.72095E-20
         0.54410E-04
        -0.16288E-19
         0.10088E-01
        -0.43450E-20
         0.33585E-01
        -0.39738E-19
         0.80304E-01
        -0.31660E-18
         0.93700E-01
        -0.77199E-18
         0.10576E+00
        -0.13268E-17
         0.16886E+00
        -0.13245E-17
         0.18696E+00
        -0.10094E-17
         0.16241E+00
        -0.95872E-18
         0.10458E+00
        -0.97069E-18
         0.48400E-01
        -0.60699E-18
         0.24780E-01
        -0.21225E-18
         0.13157E-01
        -0.12690E-18
        -0.23428E-04
        -0.61484E-05
        -0.46982E-05
        -0.46416E-06
        -0.48160E-05
        -0.55901E-05
        -0.60098E-07
        -0.14456E-04
        -0.11010E-04
        -0.23221E-04
        -0.60086E-05
        -0.10868E-03
        -0.51625E-04
        -0.69502E-06
        -0.11176E-03
        -0.16547E-05
        -0.12932E-05
        -0.54246E-06
        -0.89131E-06
        -0.51300E-06
        -0.42815E-06
        -0.29316E-06
        -0.32662E-05
        -0.23277E-07
        -0.10833E-04
        -0.23655E-06
        -0.62037E-09
        -0.19004E-06
        -0.27491E-06
        -0.65757E-05
        -0.15732E-05
        -0.18057E-05
        -0.83184E-06
        -0.48566E-07
        -0.12346E-06
        -0.37168E-05
        -0.18899E-04
        -0.87188E-04
        -0.72658E-04
        -0.50706E-04
        -0.44186E-04
        -0.28411E-05
        -0.19690E-05
        -0.14746E-04
        -0.39553E-04
        -0.10201E-03
        -0.45215E-04
        -0.23922E-04
        -0.27180E-04
        -0.30015E-04
        -0.40315E-04
        -0.86947E-05
        -0.27782E-04
        -0.41611E-04
        -0.30360E-03
        -0.58437E-03
        -0.94824E-03
        -0.13134E-02
        -0.13009E-02
        -0.10581E-02
        -0.96053E-03
        -0.85653E-03
        -0.35421E-03
        -0.71919E-04
        -0.14159E-04
        -0.27693E-05
        -0.65708E-05
        -0.10358E-03
        -0.34985E-03
        -0.58766E-03
        -0.81728E-03
        -0.10889E-02
        -0.98318E-03
        -0.87809E-03
        -0.75774E-03
        -0.36014E-03
        -0.12605E-03
        -0.98070E-04
        -0.14368E-03
        -0.57154E-04
        -0.48942E-04
        -0.27535E-05
        -0.82561E-04
        -0.16701E-04
        -0.10501E-04
        -0.12834E-03
        -0.55193E-04
        -0.11353E-03
        -0.31734E-04
        -0.59439E-03
        -0.20862E-03
        -0.43081E-05
        -0.57697E-03
        -0.20663E-04
        -0.18977E-05
        -0.17297E-05
        -0.35140E-04
        -0.13135E-05
        -0.26105E-04
        -0.13159E-04
        -0.44229E-05
        -0.31510E-05
        -0.51481E-04
        -0.31497E-05
        -0.19832E-06
        -0.68537E-06
        -0.17487E-05
        -0.51228E-04
        -0.24000E-04
        -0.16653E-05
        -0.10027E-04
        -0.75592E-05
        -0.17186E-05
        -0.15969E-04
        -0.58215E-04
        -0.33325E-03
        -0.25916E-03
        -0.20127E-03
        -0.10863E-03
        -0.66326E-05
        -0.28140E-04
        -0.43907E-04
        -0.72802E-04
        -0.30379E-03
        -0.10286E-03
        -0.44981E-04
        -0.71053E-04
        -0.99024E-04
        -0.10631E-03
        -0.59851E-06
        -0.16519E-03
        -0.33800E-03
        -0.18304E-02
        -0.30570E-02
        -0.50920E-02
        -0.73321E-02
        -0.70350E-02
        -0.53655E-02
        -0.49278E-02
        -0.48236E-02
        -0.19022E-02
        -0.20663E-03
        -0.32810E-04
        -0.24090E-04
        -0.51673E-05
        -0.37184E-03
        -0.14923E-02
        -0.28905E-02
        -0.48960E-02
        -0.60199E-02
        -0.46424E-02
        -0.41495E-02
        -0.41245E-02
        -0.20448E-02
        -0.55181E-03
        -0.49474E-03
        -0.14386E-03
        -0.57175E-04
        -0.48991E-04
        -0.27940E-05
        -0.82580E-04
        -0.16727E-04
        -0.10528E-04
        -0.12877E-03
        -0.55391E-04
        -0.11438E-03
        -0.31772E-04
        -0.59429E-03
        -0.20872E-03
        -0.43084E-05
        -0.57844E-03
        -0.20666E-04
        -0.19324E-05
        -0.17245E-05
        -0.35187E-04
        -0.12989E-05
        -0.26235E-04
        -0.13185E-04
        -0.44250E-05
        -0.31480E-05
        -0.51950E-04
        -0.31382E-05
        -0.20302E-06
        -0.69306E-06
        -0.17258E-05
        -0.51445E-04
        -0.24008E-04
        -0.16581E-05
        -0.10071E-04
        -0.75840E-05
        -0.16865E-05
        -0.15990E-04
        -0.58210E-04
        -0.33428E-03
        -0.26028E-03
        -0.20174E-03
        -0.10880E-03
        -0.65970E-05
        -0.28198E-04
        -0.43951E-04
        -0.72807E-04
        -0.30380E-03
        -0.10288E-03
        -0.44928E-04
        -0.70863E-04
        -0.98759E-04
        -0.10622E-03
        -0.58052E-06
        -0.16488E-03
        -0.33804E-03
        -0.18311E-02
        -0.30570E-02
        -0.50908E-02
        -0.73272E-02
        -0.70291E-02
        -0.53623E-02
        -0.49257E-02
        -0.48210E-02
        -0.19013E-02
        -0.20682E-03
        -0.32805E-04
        -0.24189E-04
        -0.50834E-05
        -0.37223E-03
        -0.14937E-02
        -0.28918E-02
        -0.48958E-02
        -0.60192E-02
        -0.46417E-02
        -0.41492E-02
        -0.41224E-02
        -0.20419E-02
        -0.55059E-03
        -0.49343E-03
        -0.14404E-03
        -0.57197E-04
        -0.49040E-04
        -0.28353E-05
        -0.82599E-04
        -0.16754E-04
        -0.10554E-04
        -0.12921E-03
        -0.55591E-04
        -0.11523E-03
        -0.31810E-04
        -0.59418E-03
        -0.20883E-03
        -0.43075E-05
        -0.57991E-03
        -0.20669E-04
        -0.19677E-05
        -0.17193E-05
        -0.35236E-04
        -0.12841E-05
        -0.26365E-04
        -0.13209E-04
        -0.44284E-05
        -0.31441E-05
        -0.52414E-04
        -0.31252E-05
        -0.20811E-06
        -0.70128E-06
        -0.17008E-05
        -0.51655E-04
        -0.24016E-04
        -0.16493E-05
        -0.10116E-04
        -0.76084E-05
        -0.16545E-05
        -0.16012E-04
        -0.58202E-04
        -0.33531E-03
        -0.26140E-03
        -0.20221E-03
        -0.10897E-03
        -0.65578E-05
        -0.28252E-04
        -0.44008E-04
        -0.72824E-04
        -0.30381E-03
        -0.10290E-03
        -0.44872E-04
        -0.70676E-04
        -0.98493E-04
        -0.10613E-03
        -0.56288E-06
        -0.16458E-03
        -0.33808E-03
        -0.18318E-02
        -0.30571E-02
        -0.50896E-02
        -0.73222E-02
        -0.70232E-02
        -0.53590E-02
        -0.49236E-02
        -0.48183E-02
        -0.19006E-02
        -0.20703E-03
        -0.32801E-04
        -0.24289E-04
        -0.49998E-05
        -0.37264E-03
        -0.14951E-02
        -0.28932E-02
        -0.48956E-02
        -0.60184E-02
        -0.46411E-02
        -0.41488E-02
        -0.41204E-02
        -0.20390E-02
        -0.54939E-03
        -0.49213E-03
        -0.14422E-03
        -0.57218E-04
        -0.49090E-04
        -0.28771E-05
        -0.82618E-04
        -0.16781E-04
        -0.10582E-04
        -0.12964E-03
        -0.55792E-04
        -0.11607E-03
        -0.31848E-04
        -0.59408E-03
        -0.20894E-03
        -0.43077E-05
        -0.58139E-03
        -0.20672E-04
        -0.20040E-05
        -0.17139E-05
        -0.35288E-04
        -0.12685E-05
        -0.26500E-04
        -0.13232E-04
        -0.44360E-05
        -0.31379E-05
        -0.52864E-04
        -0.31081E-05
        -0.21343E-06
        -0.71223E-06
        -0.16702E-05
        -0.51846E-04
        -0.24019E-04
        -0.16374E-05
        -0.10160E-04
        -0.76331E-05
        -0.16229E-05
        -0.16033E-04
        -0.58194E-04
        -0.33635E-03
        -0.26255E-03
        -0.20272E-03
        -0.10917E-03
        -0.65080E-05
        -0.28297E-04
        -0.44095E-04
        -0.72868E-04
        -0.30384E-03
        -0.10294E-03
        -0.44818E-04
        -0.70488E-04
        -0.98228E-04
        -0.10604E-03
        -0.54555E-06
        -0.16427E-03
        -0.33812E-03
        -0.18324E-02
        -0.30571E-02
        -0.50884E-02
        -0.73173E-02
        -0.70173E-02
        -0.53558E-02
        -0.49216E-02
        -0.48156E-02
        -0.18999E-02
        -0.20727E-03
        -0.32802E-04
        -0.24387E-04
        -0.49163E-05
        -0.37308E-03
        -0.14967E-02
        -0.28947E-02
        -0.48955E-02
        -0.60177E-02
        -0.46404E-02
        -0.41485E-02
        -0.41183E-02
        -0.20361E-02
        -0.54819E-03
        -0.49084E-03
        -0.14440E-03
        -0.57239E-04
        -0.49139E-04
        -0.29189E-05
        -0.82638E-04
        -0.16808E-04
        -0.10608E-04
        -0.13007E-03
        -0.55993E-04
        -0.11690E-03
        -0.31886E-04
        -0.59398E-03
        -0.20905E-03
        -0.43082E-05
        -0.58288E-03
        -0.20676E-04
        -0.20413E-05
        -0.17086E-05
        -0.35342E-04
        -0.12522E-05
        -0.26636E-04
        -0.13251E-04
        -0.44477E-05
        -0.31291E-05
        -0.53300E-04
        -0.30867E-05
        -0.21943E-06
        -0.72575E-06
        -0.16337E-05
        -0.52016E-04
        -0.24020E-04
        -0.16220E-05
        -0.10205E-04
        -0.76579E-05
        -0.15914E-05
        -0.16054E-04
        -0.58189E-04
        -0.33740E-03
        -0.26372E-03
        -0.20325E-03
        -0.10941E-03
        -0.64472E-05
        -0.28331E-04
        -0.44213E-04
        -0.72940E-04
        -0.30392E-03
        -0.10298E-03
        -0.44769E-04
        -0.70303E-04
        -0.97960E-04
        -0.10595E-03
        -0.52839E-06
        -0.16396E-03
        -0.33816E-03
        -0.18331E-02
        -0.30571E-02
        -0.50871E-02
        -0.73123E-02
        -0.70113E-02
        -0.53526E-02
        -0.49195E-02
        -0.48130E-02
        -0.18992E-02
        -0.20756E-03
        -0.32808E-04
        -0.24483E-04
        -0.48333E-05
        -0.37355E-03
        -0.14985E-02
        -0.28965E-02
        -0.48954E-02
        -0.60169E-02
        -0.46398E-02
        -0.41482E-02
        -0.41162E-02
        -0.20332E-02
        -0.54698E-03
        -0.48954E-03
        -0.14456E-03
        -0.57252E-04
        -0.49187E-04
        -0.29616E-05
        -0.82657E-04
        -0.16835E-04
        -0.10631E-04
        -0.13048E-03
        -0.56196E-04
        -0.11771E-03
        -0.31929E-04
        -0.59389E-03
        -0.20916E-03
        -0.43097E-05
        -0.58435E-03
        -0.20681E-04
        -0.20796E-05
        -0.17033E-05
        -0.35396E-04
        -0.12357E-05
        -0.26773E-04
        -0.13270E-04
        -0.44612E-05
        -0.31195E-05
        -0.53727E-04
        -0.30639E-05
        -0.22598E-06
        -0.74085E-06
        -0.15951E-05
        -0.52177E-04
        -0.24017E-04
        -0.16049E-05
        -0.10250E-04
        -0.76839E-05
        -0.15601E-05
        -0.16077E-04
        -0.58188E-04
        -0.33846E-03
        -0.26491E-03
        -0.20381E-03
        -0.10964E-03
        -0.63832E-05
        -0.28360E-04
        -0.44341E-04
        -0.73029E-04
        -0.30402E-03
        -0.10304E-03
        -0.44729E-04
        -0.70128E-04
        -0.97701E-04
        -0.10586E-03
        -0.51151E-06
        -0.16365E-03
        -0.33819E-03
        -0.18338E-02
        -0.30572E-02
        -0.50859E-02
        -0.73073E-02
        -0.70054E-02
        -0.53493E-02
        -0.49175E-02
        -0.48103E-02
        -0.18986E-02
        -0.20787E-03
        -0.32818E-04
        -0.24580E-04
        -0.47510E-05
        -0.37404E-03
        -0.15004E-02
        -0.28983E-02
        -0.48953E-02
        -0.60162E-02
        -0.46392E-02
        -0.41479E-02
        -0.41141E-02
        -0.20303E-02
        -0.54578E-03
        -0.48825E-03
        -0.14472E-03
        -0.57249E-04
        -0.49235E-04
        -0.30057E-05
        -0.82678E-04
        -0.16862E-04
        -0.10650E-04
        -0.13086E-03
        -0.56403E-04
        -0.11849E-03
        -0.31982E-04
        -0.59384E-03
        -0.20930E-03
        -0.43163E-05
        -0.58586E-03
        -0.20688E-04
        -0.21193E-05
        -0.16981E-05
        -0.35451E-04
        -0.12192E-05
        -0.26911E-04
        -0.13290E-04
        -0.44748E-05
        -0.31101E-05
        -0.54146E-04
        -0.30411E-05
        -0.23381E-06
        -0.75708E-06
        -0.15563E-05
        -0.52335E-04
        -0.24013E-04
        -0.15868E-05
        -0.10298E-04
        -0.77111E-05
        -0.15289E-05
        -0.16102E-04
        -0.58191E-04
        -0.33953E-03
        -0.26611E-03
        -0.20436E-03
        -0.10989E-03
        -0.63180E-05
        -0.28388E-04
        -0.44469E-04
        -0.73126E-04
        -0.30414E-03
        -0.10312E-03
        -0.44714E-04
        -0.69982E-04
        -0.97451E-04
        -0.10577E-03
        -0.49470E-06
        -0.16334E-03
        -0.33823E-03
        -0.18344E-02
        -0.30573E-02
        -0.50847E-02
        -0.73023E-02
        -0.69994E-02
        -0.53461E-02
        -0.49154E-02
        -0.48076E-02
        -0.18980E-02
        -0.20818E-03
        -0.32827E-04
        -0.24677E-04
        -0.46694E-05
        -0.37453E-03
        -0.15024E-02
        -0.29001E-02
        -0.48950E-02
        -0.60154E-02
        -0.46387E-02
        -0.41477E-02
        -0.41119E-02
        -0.20274E-02
        -0.54459E-03
        -0.48696E-03
        -0.14487E-03
        -0.57242E-04
        -0.49283E-04
        -0.30507E-05
        -0.82700E-04
        -0.16889E-04
        -0.10664E-04
        -0.13121E-03
        -0.56613E-04
        -0.11926E-03
        -0.32039E-04
        -0.59377E-03
        -0.20943E-03
        -0.43240E-05
        -0.58736E-03
        -0.20696E-04
        -0.21598E-05
        -0.16927E-05
        -0.35506E-04
        -0.12029E-05
        -0.27049E-04
        -0.13310E-04
        -0.44881E-05
        -0.31010E-05
        -0.54561E-04
        -0.30185E-05
        -0.24210E-06
        -0.77391E-06
        -0.15179E-05
        -0.52492E-04
        -0.24008E-04
        -0.15679E-05
        -0.10345E-04
        -0.77394E-05
        -0.14978E-05
        -0.16129E-04
        -0.58200E-04
        -0.34062E-03
        -0.26732E-03
        -0.20493E-03
        -0.11014E-03
        -0.62531E-05
        -0.28416E-04
        -0.44599E-04
        -0.73225E-04
        -0.30428E-03
        -0.10321E-03
        -0.44708E-04
        -0.69848E-04
        -0.97207E-04
        -0.10569E-03
        -0.47818E-06
        -0.16303E-03
        -0.33827E-03
        -0.18351E-02
        -0.30573E-02
        -0.50834E-02
        -0.72974E-02
        -0.69934E-02
        -0.53428E-02
        -0.49134E-02
        -0.48048E-02
        -0.18974E-02
        -0.20848E-03
        -0.32836E-04
        -0.24776E-04
        -0.45883E-05
        -0.37502E-03
        -0.15043E-02
        -0.29018E-02
        -0.48947E-02
        -0.60146E-02
        -0.46382E-02
        -0.41475E-02
        -0.41098E-02
        -0.20245E-02
        -0.54339E-03
        -0.48567E-03
        -0.14502E-03
        -0.57235E-04
        -0.49330E-04
        -0.30961E-05
        -0.82721E-04
        -0.16916E-04
        -0.10678E-04
        -0.13157E-03
        -0.56823E-04
        -0.12003E-03
        -0.32094E-04
        -0.59371E-03
        -0.20957E-03
        -0.43329E-05
        -0.58888E-03
        -0.20704E-04
        -0.22010E-05
        -0.16873E-05
        -0.35560E-04
        -0.11865E-05
        -0.27187E-04
        -0.13330E-04
        -0.45015E-05
        -0.30919E-05
        -0.54978E-04
        -0.29961E-05
        -0.25075E-06
        -0.79073E-06
        -0.14800E-05
        -0.52649E-04
        -0.24002E-04
        -0.15494E-05
        -0.10393E-04
        -0.77675E-05
        -0.14669E-05
        -0.16153E-04
        -0.58206E-04
        -0.34171E-03
        -0.26854E-03
        -0.20548E-03
        -0.11039E-03
        -0.61890E-05
        -0.28444E-04
        -0.44731E-04
        -0.73327E-04
        -0.30442E-03
        -0.10330E-03
        -0.44702E-04
        -0.69716E-04
        -0.96965E-04
        -0.10560E-03
        -0.46187E-06
        -0.16273E-03
        -0.33830E-03
        -0.18357E-02
        -0.30573E-02
        -0.50822E-02
        -0.72924E-02
        -0.69874E-02
        -0.53396E-02
        -0.49114E-02
        -0.48021E-02
        -0.18968E-02
        -0.20878E-03
        -0.32847E-04
        -0.24876E-04
        -0.45082E-05
        -0.37550E-03
        -0.15062E-02
        -0.29036E-02
        -0.48945E-02
        -0.60138E-02
        -0.46378E-02
        -0.41473E-02
        -0.41076E-02
        -0.20216E-02
        -0.54220E-03
        -0.48438E-03
        -0.14516E-03
        -0.57225E-04
        -0.49376E-04
        -0.31415E-05
        -0.82741E-04
        -0.16943E-04
        -0.10693E-04
        -0.13192E-03
        -0.57034E-04
        -0.12079E-03
        -0.32151E-04
        -0.59365E-03
        -0.20972E-03
        -0.43405E-05
        -0.59039E-03
        -0.20712E-04
        -0.22427E-05
        -0.16819E-05
        -0.35614E-04
        -0.11702E-05
        -0.27326E-04
        -0.13349E-04
        -0.45144E-05
        -0.30829E-05
        -0.55396E-04
        -0.29738E-05
        -0.25930E-06
        -0.80757E-06
        -0.14427E-05
        -0.52806E-04
        -0.23997E-04
        -0.15309E-05
        -0.10441E-04
        -0.77957E-05
        -0.14363E-05
        -0.16180E-04
        -0.58215E-04
        -0.34280E-03
        -0.26975E-03
        -0.20604E-03
        -0.11063E-03
        -0.61254E-05
        -0.28472E-04
        -0.44860E-04
        -0.73427E-04
        -0.30455E-03
        -0.10340E-03
        -0.44699E-04
        -0.69581E-04
        -0.96720E-04
        -0.10551E-03
        -0.44590E-06
        -0.16242E-03
        -0.33834E-03
        -0.18363E-02
        -0.30574E-02
        -0.50810E-02
        -0.72874E-02
        -0.69814E-02
        -0.53363E-02
        -0.49093E-02
        -0.47993E-02
        -0.18962E-02
        -0.20909E-03
        -0.32858E-04
        -0.24976E-04
        -0.44289E-05
        -0.37599E-03
        -0.15081E-02
        -0.29053E-02
        -0.48942E-02
        -0.60130E-02
        -0.46374E-02
        -0.41471E-02
        -0.41054E-02
        -0.20187E-02
        -0.54102E-03
        -0.48309E-03
        -0.14531E-03
        -0.57215E-04
        -0.49424E-04
        -0.31872E-05
        -0.82763E-04
        -0.16970E-04
        -0.10709E-04
        -0.13227E-03
        -0.57246E-04
        -0.12156E-03
        -0.32209E-04
        -0.59359E-03
        -0.20986E-03
        -0.43490E-05
        -0.59191E-03
        -0.20720E-04
        -0.22848E-05
        -0.16765E-05
        -0.35669E-04
        -0.11539E-05
        -0.27465E-04
        -0.13368E-04
        -0.45278E-05
        -0.30740E-05
        -0.55814E-04
        -0.29516E-05
        -0.26816E-06
        -0.82432E-06
        -0.14059E-05
        -0.52963E-04
        -0.23991E-04
        -0.15126E-05
        -0.10489E-04
        -0.78240E-05
        -0.14059E-05
        -0.16205E-04
        -0.58225E-04
        -0.34390E-03
        -0.27098E-03
        -0.20659E-03
        -0.11088E-03
        -0.60620E-05
        -0.28500E-04
        -0.44988E-04
        -0.73527E-04
        -0.30469E-03
        -0.10350E-03
        -0.44693E-04
        -0.69449E-04
        -0.96477E-04
        -0.10543E-03
        -0.43017E-06
        -0.16211E-03
        -0.33837E-03
        -0.18369E-02
        -0.30574E-02
        -0.50797E-02
        -0.72823E-02
        -0.69754E-02
        -0.53331E-02
        -0.49073E-02
        -0.47966E-02
        -0.18955E-02
        -0.20939E-03
        -0.32868E-04
        -0.25075E-04
        -0.43501E-05
        -0.37648E-03
        -0.15100E-02
        -0.29070E-02
        -0.48939E-02
        -0.60122E-02
        -0.46369E-02
        -0.41469E-02
        -0.41032E-02
        -0.20158E-02
        -0.53984E-03
        -0.48180E-03
        -0.14546E-03
        -0.57207E-04
        -0.49471E-04
        -0.32337E-05
        -0.82783E-04
        -0.16996E-04
        -0.10723E-04
        -0.13263E-03
        -0.57459E-04
        -0.12233E-03
        -0.32266E-04
        -0.59353E-03
        -0.20999E-03
        -0.43574E-05
        -0.59342E-03
        -0.20728E-04
        -0.23275E-05
        -0.16710E-05
        -0.35723E-04
        -0.11378E-05
        -0.27604E-04
        -0.13387E-04
        -0.45413E-05
        -0.30653E-05
        -0.56234E-04
        -0.29297E-05
        -0.27696E-06
        -0.84117E-06
        -0.13696E-05
        -0.53119E-04
        -0.23986E-04
        -0.14943E-05
        -0.10537E-04
        -0.78527E-05
        -0.13757E-05
        -0.16231E-04
        -0.58231E-04
        -0.34500E-03
        -0.27220E-03
        -0.20715E-03
        -0.11113E-03
        -0.59997E-05
        -0.28527E-04
        -0.45118E-04
        -0.73628E-04
        -0.30484E-03
        -0.10359E-03
        -0.44691E-04
        -0.69318E-04
        -0.96236E-04
        -0.10535E-03
        -0.41474E-06
        -0.16180E-03
        -0.33840E-03
        -0.18376E-02
        -0.30575E-02
        -0.50785E-02
        -0.72774E-02
        -0.69694E-02
        -0.53298E-02
        -0.49053E-02
        -0.47938E-02
        -0.18949E-02
        -0.20969E-03
        -0.32878E-04
        -0.25175E-04
        -0.42717E-05
        -0.37697E-03
        -0.15119E-02
        -0.29088E-02
        -0.48936E-02
        -0.60114E-02
        -0.46365E-02
        -0.41468E-02
        -0.41010E-02
        -0.20129E-02
        -0.53867E-03
        -0.48052E-03
        -0.14560E-03
        -0.57198E-04
        -0.49518E-04
        -0.32807E-05
        -0.82805E-04
        -0.17024E-04
        -0.10738E-04
        -0.13298E-03
        -0.57672E-04
        -0.12310E-03
        -0.32324E-04
        -0.59347E-03
        -0.21014E-03
        -0.43647E-05
        -0.59495E-03
        -0.20736E-04
        -0.23705E-05
        -0.16655E-05
        -0.35777E-04
        -0.11219E-05
        -0.27744E-04
        -0.13406E-04
        -0.45545E-05
        -0.30565E-05
        -0.56654E-04
        -0.29076E-05
        -0.28616E-06
        -0.85799E-06
        -0.13339E-05
        -0.53275E-04
        -0.23980E-04
        -0.14760E-05
        -0.10585E-04
        -0.78811E-05
        -0.13459E-05
        -0.16258E-04
        -0.58239E-04
        -0.34610E-03
        -0.27343E-03
        -0.20771E-03
        -0.11138E-03
        -0.59369E-05
        -0.28554E-04
        -0.45249E-04
        -0.73732E-04
        -0.30496E-03
        -0.10369E-03
        -0.44686E-04
        -0.69187E-04
        -0.95995E-04
        -0.10526E-03
        -0.39963E-06
        -0.16149E-03
        -0.33843E-03
        -0.18382E-02
        -0.30575E-02
        -0.50773E-02
        -0.72724E-02
        -0.69633E-02
        -0.53265E-02
        -0.49033E-02
        -0.47909E-02
        -0.18943E-02
        -0.21000E-03
        -0.32888E-04
        -0.25275E-04
        -0.41942E-05
        -0.37746E-03
        -0.15138E-02
        -0.29105E-02
        -0.48934E-02
        -0.60106E-02
        -0.46361E-02
        -0.41466E-02
        -0.40988E-02
        -0.20100E-02
        -0.53750E-03
        -0.47924E-03
        -0.14575E-03
        -0.57190E-04
        -0.49565E-04
        -0.33279E-05
        -0.82826E-04
        -0.17050E-04
        -0.10754E-04
        -0.13333E-03
        -0.57885E-04
        -0.12387E-03
        -0.32382E-04
        -0.59341E-03
        -0.21028E-03
        -0.43731E-05
        -0.59647E-03
        -0.20743E-04
        -0.24141E-05
        -0.16601E-05
        -0.35831E-04
        -0.11061E-05
        -0.27884E-04
        -0.13425E-04
        -0.45679E-05
        -0.30479E-05
        -0.57076E-04
        -0.28856E-05
        -0.29527E-06
        -0.87477E-06
        -0.12987E-05
        -0.53432E-04
        -0.23974E-04
        -0.14580E-05
        -0.10633E-04
        -0.79099E-05
        -0.13161E-05
        -0.16284E-04
        -0.58245E-04
        -0.34722E-03
        -0.27466E-03
        -0.20826E-03
        -0.11163E-03
        -0.58746E-05
        -0.28582E-04
        -0.45379E-04
        -0.73833E-04
        -0.30510E-03
        -0.10378E-03
        -0.44681E-04
        -0.69053E-04
        -0.95754E-04
        -0.10517E-03
        -0.38489E-06
        -0.16118E-03
        -0.33846E-03
        -0.18388E-02
        -0.30576E-02
        -0.50761E-02
        -0.72674E-02
        -0.69573E-02
        -0.53232E-02
        -0.49013E-02
        -0.47881E-02
        -0.18937E-02
        -0.21030E-03
        -0.32898E-04
        -0.25376E-04
        -0.41177E-05
        -0.37794E-03
        -0.15158E-02
        -0.29123E-02
        -0.48931E-02
        -0.60099E-02
        -0.46356E-02
        -0.41464E-02
        -0.40966E-02
        -0.20071E-02
        -0.53633E-03
        -0.47796E-03
        -0.14589E-03
        -0.57182E-04
        -0.49612E-04
        -0.33754E-05
        -0.82847E-04
        -0.17077E-04
        -0.10769E-04
        -0.13369E-03
        -0.58100E-04
        -0.12464E-03
        -0.32440E-04
        -0.59336E-03
        -0.21042E-03
        -0.43802E-05
        -0.59800E-03
        -0.20751E-04
        -0.24584E-05
        -0.16547E-05
        -0.35886E-04
        -0.10903E-05
        -0.28025E-04
        -0.13444E-04
        -0.45810E-05
        -0.30394E-05
        -0.57500E-04
        -0.28637E-05
        -0.30468E-06
        -0.89139E-06
        -0.12642E-05
        -0.53590E-04
        -0.23968E-04
        -0.14399E-05
        -0.10681E-04
        -0.79386E-05
        -0.12868E-05
        -0.16311E-04
        -0.58253E-04
        -0.34834E-03
        -0.27590E-03
        -0.20882E-03
        -0.11188E-03
        -0.58128E-05
        -0.28610E-04
        -0.45509E-04
        -0.73935E-04
        -0.30524E-03
        -0.10387E-03
        -0.44679E-04
        -0.68920E-04
        -0.95510E-04
        -0.10509E-03
        -0.37034E-06
        -0.16087E-03
        -0.33849E-03
        -0.18394E-02
        -0.30576E-02
        -0.50749E-02
        -0.72624E-02
        -0.69512E-02
        -0.53200E-02
        -0.48993E-02
        -0.47853E-02
        -0.18930E-02
        -0.21060E-03
        -0.32907E-04
        -0.25476E-04
        -0.40417E-05
        -0.37843E-03
        -0.15177E-02
        -0.29140E-02
        -0.48929E-02
        -0.60091E-02
        -0.46352E-02
        -0.41462E-02
        -0.40945E-02
        -0.20042E-02
        -0.53518E-03
        -0.47668E-03
        -0.14603E-03
        -0.57171E-04
        -0.49659E-04
        -0.34230E-05
        -0.82867E-04
        -0.17104E-04
        -0.10784E-04
        -0.13404E-03
        -0.58316E-04
        -0.12541E-03
        -0.32498E-04
        -0.59330E-03
        -0.21056E-03
        -0.43884E-05
        -0.59952E-03
        -0.20759E-04
        -0.25033E-05
        -0.16493E-05
        -0.35940E-04
        -0.10747E-05
        -0.28166E-04
        -0.13462E-04
        -0.45942E-05
        -0.30310E-05
        -0.57925E-04
        -0.28419E-05
        -0.31398E-06
        -0.90798E-06
        -0.12303E-05
        -0.53747E-04
        -0.23963E-04
        -0.14221E-05
        -0.10729E-04
        -0.79677E-05
        -0.12576E-05
        -0.16336E-04
        -0.58261E-04
        -0.34946E-03
        -0.27714E-03
        -0.20937E-03
        -0.11212E-03
        -0.57514E-05
        -0.28638E-04
        -0.45637E-04
        -0.74039E-04
        -0.30538E-03
        -0.10397E-03
        -0.44674E-04
        -0.68790E-04
        -0.95270E-04
        -0.10500E-03
        -0.35606E-06
        -0.16056E-03
        -0.33852E-03
        -0.18400E-02
        -0.30577E-02
        -0.50736E-02
        -0.72573E-02
        -0.69451E-02
        -0.53167E-02
        -0.48973E-02
        -0.47824E-02
        -0.18924E-02
        -0.21091E-03
        -0.32917E-04
        -0.25575E-04
        -0.39664E-05
        -0.37891E-03
        -0.15196E-02
        -0.29157E-02
        -0.48926E-02
        -0.60083E-02
        -0.46348E-02
        -0.41460E-02
        -0.40923E-02
        -0.20013E-02
        -0.53402E-03
        -0.47541E-03
        -0.14618E-03
        -0.57162E-04
        -0.49706E-04
        -0.34712E-05
        -0.82889E-04
        -0.17131E-04
        -0.10799E-04
        -0.13439E-03
        -0.58533E-04
        -0.12619E-03
        -0.32556E-04
        -0.59324E-03
        -0.21070E-03
        -0.43952E-05
        -0.60106E-03
        -0.20768E-04
        -0.25488E-05
        -0.16438E-05
        -0.35995E-04
        -0.10594E-05
        -0.28307E-04
        -0.13479E-04
        -0.46074E-05
        -0.30226E-05
        -0.58351E-04
        -0.28200E-05
        -0.32368E-06
        -0.92453E-06
        -0.11968E-05
        -0.53900E-04
        -0.23956E-04
        -0.14043E-05
        -0.10777E-04
        -0.79967E-05
        -0.12286E-05
        -0.16362E-04
        -0.58267E-04
        -0.35058E-03
        -0.27838E-03
        -0.20991E-03
        -0.11237E-03
        -0.56909E-05
        -0.28667E-04
        -0.45768E-04
        -0.74141E-04
        -0.30552E-03
        -0.10407E-03
        -0.44671E-04
        -0.68660E-04
        -0.95029E-04
        -0.10492E-03
        -0.34217E-06
        -0.16025E-03
        -0.33854E-03
        -0.18406E-02
        -0.30577E-02
        -0.50724E-02
        -0.72523E-02
        -0.69389E-02
        -0.53134E-02
        -0.48952E-02
        -0.47795E-02
        -0.18918E-02
        -0.21122E-03
        -0.32924E-04
        -0.25674E-04
        -0.38921E-05
        -0.37939E-03
        -0.15215E-02
        -0.29175E-02
        -0.48924E-02
        -0.60075E-02
        -0.46343E-02
        -0.41458E-02
        -0.40900E-02
        -0.19984E-02
        -0.53288E-03
        -0.47413E-03
        -0.14632E-03
        -0.57154E-04
        -0.49753E-04
        -0.35200E-05
        -0.82910E-04
        -0.17157E-04
        -0.10815E-04
        -0.13474E-03
        -0.58752E-04
        -0.12696E-03
        -0.32614E-04
        -0.59318E-03
        -0.21084E-03
        -0.44031E-05
        -0.60258E-03
        -0.20775E-04
        -0.25952E-05
        -0.16382E-05
        -0.36049E-04
        -0.10449E-05
        -0.28448E-04
        -0.13496E-04
        -0.46209E-05
        -0.30140E-05
        -0.58779E-04
        -0.27985E-05
        -0.33344E-06
        -0.94111E-06
        -0.11638E-05
        -0.54045E-04
        -0.23950E-04
        -0.13864E-05
        -0.10825E-04
        -0.80259E-05
        -0.12000E-05
        -0.16390E-04
        -0.58275E-04
        -0.35173E-03
        -0.27962E-03
        -0.21043E-03
        -0.11262E-03
        -0.56299E-05
        -0.28696E-04
        -0.45899E-04
        -0.74245E-04
        -0.30566E-03
        -0.10416E-03
        -0.44667E-04
        -0.68527E-04
        -0.94788E-04
        -0.10484E-03
        -0.32855E-06
        -0.15994E-03
        -0.33857E-03
        -0.18412E-02
        -0.30578E-02
        -0.50712E-02
        -0.72473E-02
        -0.69329E-02
        -0.53101E-02
        -0.48932E-02
        -0.47765E-02
        -0.18913E-02
        -0.21153E-03
        -0.32927E-04
        -0.25774E-04
        -0.38187E-05
        -0.37988E-03
        -0.15235E-02
        -0.29192E-02
        -0.48921E-02
        -0.60067E-02
        -0.46339E-02
        -0.41456E-02
        -0.40878E-02
        -0.19955E-02
        -0.53174E-03
        -0.47286E-03
        -0.14646E-03
        -0.57145E-04
        -0.49800E-04
        -0.35690E-05
        -0.82930E-04
        -0.17183E-04
        -0.10829E-04
        -0.13509E-03
        -0.58973E-04
        -0.12774E-03
        -0.32671E-04
        -0.59313E-03
        -0.21099E-03
        -0.44109E-05
        -0.60412E-03
        -0.20783E-04
        -0.26428E-05
        -0.16326E-05
        -0.36104E-04
        -0.10311E-05
        -0.28590E-04
        -0.13512E-04
        -0.46342E-05
        -0.30058E-05
        -0.59209E-04
        -0.27768E-05
        -0.34376E-06
        -0.95766E-06
        -0.11314E-05
        -0.54181E-04
        -0.23944E-04
        -0.13688E-05
        -0.10873E-04
        -0.80550E-05
        -0.11715E-05
        -0.16415E-04
        -0.58282E-04
        -0.35288E-03
        -0.28085E-03
        -0.21094E-03
        -0.11286E-03
        -0.55694E-05
        -0.28728E-04
        -0.46028E-04
        -0.74350E-04
        -0.30581E-03
        -0.10426E-03
        -0.44662E-04
        -0.68398E-04
        -0.94546E-04
        -0.10475E-03
        -0.31510E-06
        -0.15963E-03
        -0.33859E-03
        -0.18418E-02
        -0.30578E-02
        -0.50699E-02
        -0.72423E-02
        -0.69267E-02
        -0.53069E-02
        -0.48911E-02
        -0.47733E-02
        -0.18908E-02
        -0.21184E-03
        -0.32924E-04
        -0.25873E-04
        -0.37455E-05
        -0.38036E-03
        -0.15254E-02
        -0.29210E-02
        -0.48918E-02
        -0.60059E-02
        -0.46335E-02
        -0.41454E-02
        -0.40856E-02
        -0.19927E-02
        -0.53061E-03
        -0.47159E-03
        -0.14661E-03
        -0.57137E-04
        -0.49850E-04
        -0.36182E-05
        -0.82955E-04
        -0.17210E-04
        -0.10846E-04
        -0.13543E-03
        -0.59196E-04
        -0.12852E-03
        -0.32730E-04
        -0.59307E-03
        -0.21113E-03
        -0.44176E-05
        -0.60565E-03
        -0.20791E-04
        -0.26910E-05
        -0.16271E-05
        -0.36159E-04
        -0.10177E-05
        -0.28733E-04
        -0.13529E-04
        -0.46467E-05
        -0.29981E-05
        -0.59640E-04
        -0.27559E-05
        -0.35398E-06
        -0.97366E-06
        -0.10998E-05
        -0.54315E-04
        -0.23939E-04
        -0.13517E-05
        -0.10921E-04
        -0.80848E-05
        -0.11436E-05
        -0.16441E-04
        -0.58286E-04
        -0.35404E-03
        -0.28208E-03
        -0.21143E-03
        -0.11309E-03
        -0.55104E-05
        -0.28761E-04
        -0.46157E-04
        -0.74449E-04
        -0.30595E-03
        -0.10436E-03
        -0.44659E-04
        -0.68268E-04
        -0.94307E-04
        -0.10467E-03
        -0.30203E-06
        -0.15932E-03
        -0.33863E-03
        -0.18424E-02
        -0.30578E-02
        -0.50688E-02
        -0.72373E-02
        -0.69206E-02
        -0.53036E-02
        -0.48890E-02
        -0.47700E-02
        -0.18904E-02
        -0.21215E-03
        -0.32917E-04
        -0.25972E-04
        -0.36731E-05
        -0.38084E-03
        -0.15273E-02
        -0.29227E-02
        -0.48916E-02
        -0.60051E-02
        -0.46330E-02
        -0.41452E-02
        -0.40833E-02
        -0.19898E-02
        -0.52948E-03
        -0.47032E-03
        -0.14816E-03
        -0.57702E-04
        -0.50401E-04
        -0.37008E-05
        -0.83806E-04
        -0.17403E-04
        -0.10973E-04
        -0.13709E-03
        -0.59975E-04
        -0.13051E-03
        -0.33113E-04
        -0.59898E-03
        -0.21332E-03
        -0.44689E-05
        -0.61338E-03
        -0.21002E-04
        -0.27633E-05
        -0.16371E-05
        -0.36563E-04
        -0.10158E-05
        -0.29141E-04
        -0.13676E-04
        -0.46958E-05
        -0.30233E-05
        -0.60646E-04
        -0.27684E-05
        -0.36710E-06
        -0.99586E-06
        -0.10854E-05
        -0.55001E-04
        -0.24171E-04
        -0.13527E-05
        -0.11072E-04
        -0.81918E-05
        -0.11299E-05
        -0.16613E-04
        -0.58834E-04
        -0.35874E-03
        -0.28612E-03
        -0.21404E-03
        -0.11445E-03
        -0.55206E-05
        -0.29091E-04
        -0.46673E-04
        -0.75210E-04
        -0.30896E-03
        -0.10540E-03
        -0.45053E-04
        -0.68780E-04
        -0.94983E-04
        -0.10561E-03
        -0.29222E-06
        -0.16079E-03
        -0.34258E-03
        -0.18640E-02
        -0.30922E-02
        -0.51258E-02
        -0.73184E-02
        -0.69982E-02
        -0.53645E-02
        -0.49463E-02
        -0.48257E-02
        -0.19127E-02
        -0.21480E-03
        -0.33248E-04
        -0.26333E-04
        -0.36423E-05
        -0.38513E-03
        -0.15447E-02
        -0.29561E-02
        -0.49478E-02
        -0.60737E-02
        -0.46833E-02
        -0.41893E-02
        -0.41258E-02
        -0.20089E-02
        -0.53416E-03
        -0.47421E-03
        -0.33451E-03
        -0.13144E-03
        -0.11350E-03
        -0.84670E-05
        -0.17617E-03
        -0.37280E-04
        -0.24934E-04
        -0.30752E-03
        -0.13494E-03
        -0.29165E-03
        -0.72811E-04
        -0.12178E-02
        -0.44606E-03
        -0.97525E-05
        -0.12627E-02
        -0.47484E-04
        -0.62952E-05
        -0.36922E-05
        -0.80632E-04
        -0.22408E-05
        -0.60954E-04
        -0.29282E-04
        -0.98251E-05
        -0.67618E-05
        -0.13827E-03
        -0.62881E-05
        -0.82802E-06
        -0.22759E-05
        -0.24568E-05
        -0.12501E-03
        -0.54667E-04
        -0.30408E-05
        -0.25204E-04
        -0.18608E-04
        -0.22296E-05
        -0.35512E-04
        -0.12577E-03
        -0.77110E-03
        -0.63257E-03
        -0.47631E-03
        -0.24784E-03
        -0.12070E-04
        -0.63780E-04
        -0.99172E-04
        -0.15881E-03
        -0.61698E-03
        -0.22122E-03
        -0.96732E-04
        -0.14911E-03
        -0.20421E-03
        -0.21676E-03
        -0.60261E-06
        -0.25879E-03
        -0.55041E-03
        -0.29975E-02
        -0.49955E-02
        -0.82767E-02
        -0.11894E-01
        -0.11635E-01
        -0.90699E-02
        -0.83340E-02
        -0.80415E-02
        -0.31919E-02
        -0.35652E-03
        -0.56153E-04
        -0.44827E-04
        -0.59522E-05
        -0.62349E-03
        -0.24865E-02
        -0.47169E-02
        -0.79001E-02
        -0.97218E-02
        -0.76342E-02
        -0.68835E-02
        -0.67361E-02
        -0.33004E-02
        -0.87150E-03
        -0.76779E-03
  
SCALARS                      strain_zz  double 1
LOOKUP_TABLE default
         0.13078E+02
         0.12905E+02
         0.13013E+02
         0.13212E+02
        -0.35243E-08
        -0.39520E-08
        -0.37841E-08
        -0.34377E-08
         0.12880E+02
         0.12949E+02
        -0.35538E-08
        -0.34392E-08
         0.12653E+02
         0.12645E+02
        -0.42227E-08
        -0.39704E-08
         0.13183E+02
         0.12657E+02
        -0.31201E-08
        -0.34607E-08
         0.12465E+02
         0.12307E+02
         0.12545E+02
        -0.41852E-08
        -0.36549E-08
        -0.37742E-08
         0.12319E+02
         0.12095E+02
        -0.40151E-08
        -0.33860E-08
         0.13173E+02
         0.12945E+02
         0.13394E+02
        -0.34263E-08
        -0.31852E-08
        -0.30969E-08
         0.13039E+02
         0.12749E+02
        -0.36249E-08
        -0.33077E-08
         0.12921E+02
         0.12694E+02
        -0.31329E-08
        -0.27735E-08
         0.13109E+02
         0.13199E+02
        -0.34332E-08
        -0.38361E-08
         0.12521E+02
        -0.33540E-08
         0.13181E+02
        -0.39411E-08
         0.12259E+02
        -0.35419E-08
         0.12190E+02
        -0.33974E-08
         0.12186E+02
         0.12435E+02
        -0.34616E-08
        -0.33712E-08
         0.13168E+02
         0.13076E+02
        -0.34711E-08
        -0.39240E-08
         0.13223E+02
        -0.33493E-08
         0.13116E+02
        -0.36554E-08
         0.12809E+02
         0.12801E+02
        -0.35187E-08
        -0.36869E-08
         0.12745E+02
        -0.37179E-08
         0.12015E+02
        -0.29374E-08
         0.11974E+02
        -0.28512E-08
         0.11986E+02
        -0.30063E-08
         0.12074E+02
         0.12201E+02
        -0.28643E-08
        -0.29862E-08
         0.12433E+02
        -0.27812E-08
         0.13100E+02
        -0.36472E-08
         0.12986E+02
        -0.37329E-08
         0.12879E+02
         0.12858E+02
        -0.35848E-08
        -0.36266E-08
         0.12926E+02
        -0.32940E-08
         0.12967E+02
        -0.32470E-08
         0.12923E+02
        -0.34760E-08
         0.12890E+02
         0.12942E+02
        -0.34087E-08
        -0.35087E-08
         0.12604E+02
         0.12680E+02
        -0.26465E-08
        -0.24892E-08
         0.12557E+02
        -0.25271E-08
         0.12645E+02
        -0.24230E-08
         0.12543E+02
        -0.23893E-08
         0.12285E+02
        -0.22579E-08
         0.12020E+02
        -0.20059E-08
         0.11873E+02
        -0.18062E-08
         0.11860E+02
        -0.17936E-08
         0.11867E+02
        -0.19451E-08
         0.12032E+02
        -0.20443E-08
         0.12297E+02
        -0.18666E-08
         0.12604E+02
        -0.16826E-08
         0.12812E+02
        -0.16806E-08
         0.13012E+02
        -0.18785E-08
         0.13141E+02
        -0.21420E-08
         0.13123E+02
        -0.23011E-08
         0.12860E+02
        -0.24852E-08
         0.12685E+02
        -0.26625E-08
         0.12572E+02
        -0.24391E-08
         0.12659E+02
        -0.21397E-08
         0.12732E+02
        -0.21331E-08
         0.12671E+02
        -0.23339E-08
         0.12700E+02
        -0.24881E-08
         0.12746E+02
        -0.23612E-08
         0.12812E+02
        -0.22827E-08
        -0.48563E+00
        -0.48173E+00
        -0.48229E+00
        -0.48718E+00
        -0.47745E+00
        -0.48272E+00
        -0.47614E+00
        -0.47971E+00
        -0.48645E+00
        -0.48241E+00
        -0.47197E+00
        -0.47053E+00
        -0.47405E+00
        -0.47436E+00
        -0.47203E+00
        -0.48696E+00
        -0.48611E+00
        -0.48843E+00
        -0.48128E+00
        -0.48272E+00
        -0.48058E+00
        -0.48195E+00
        -0.47937E+00
        -0.48012E+00
        -0.48259E+00
        -0.48243E+00
        -0.47808E+00
        -0.47850E+00
        -0.47499E+00
        -0.48018E+00
        -0.48654E+00
        -0.48168E+00
        -0.48652E+00
        -0.48341E+00
        -0.46960E+00
        -0.47449E+00
        -0.47663E+00
        -0.47404E+00
        -0.47373E+00
        -0.46927E+00
        -0.46575E+00
        -0.47390E+00
        -0.48064E+00
        -0.47982E+00
        -0.47642E+00
        -0.46977E+00
        -0.47552E+00
        -0.48097E+00
        -0.48062E+00
        -0.47642E+00
        -0.47167E+00
        -0.47795E+00
        -0.45597E+00
        -0.46275E+00
        -0.46158E+00
        -0.46306E+00
        -0.46254E+00
        -0.45875E+00
        -0.45491E+00
        -0.45380E+00
        -0.45442E+00
        -0.45394E+00
        -0.45228E+00
        -0.46230E+00
        -0.46602E+00
        -0.46740E+00
        -0.46946E+00
        -0.47095E+00
        -0.47080E+00
        -0.46801E+00
        -0.45823E+00
        -0.46061E+00
        -0.46414E+00
        -0.46420E+00
        -0.46359E+00
        -0.46033E+00
        -0.46511E+00
        -0.46678E+00
         0.18224E-03
         0.67748E-04
         0.64600E-04
         0.48291E-04
         0.18860E-03
         0.10908E-03
         0.99366E-05
         0.14200E-03
         0.89515E-04
         0.12292E-03
         0.10386E-04
         0.60717E-03
         0.35658E-03
         0.40259E-04
         0.65120E-03
         0.92087E-04
         0.37180E-04
         0.29062E-04
         0.39120E-04
         0.14367E-04
         0.37280E-03
         0.33882E-03
         0.30265E-03
         0.16765E-04
         0.37811E-04
         0.37231E-05
         0.13050E-04
        -0.50183E-04
        -0.16179E-04
         0.50806E-04
         0.68392E-04
         0.16990E-04
         0.46290E-04
         0.50840E-04
         0.28994E-03
         0.10490E-03
         0.17931E-03
         0.42514E-03
         0.24730E-03
         0.21967E-03
         0.45974E-03
         0.37208E-03
         0.37959E-03
         0.21912E-03
         0.17461E-03
         0.33553E-03
         0.14817E-03
         0.11127E-03
         0.83817E-04
         0.11932E-03
         0.28662E-03
         0.15281E-03
         0.51574E-02
         0.54445E-02
         0.59244E-02
         0.58669E-02
         0.66869E-02
         0.77177E-02
         0.71007E-02
         0.56292E-02
         0.53390E-02
         0.60938E-02
         0.58493E-02
         0.56861E-02
         0.38794E-02
         0.35208E-02
         0.42201E-02
         0.48247E-02
         0.52005E-02
         0.62067E-02
         0.57479E-02
         0.60884E-02
         0.49396E-02
         0.44458E-02
         0.50429E-02
         0.48189E-02
         0.51190E-02
         0.50478E-02
         0.18124E-03
         0.66485E-04
         0.63385E-04
         0.47216E-04
         0.18697E-03
         0.10761E-03
         0.86270E-05
         0.14087E-03
         0.88403E-04
         0.12217E-03
         0.88038E-05
         0.60529E-03
         0.35524E-03
         0.38281E-04
         0.65074E-03
         0.90874E-04
         0.35823E-04
         0.27879E-04
         0.37656E-04
         0.12739E-04
         0.37125E-03
         0.33720E-03
         0.30096E-03
         0.15227E-04
         0.36593E-04
         0.22551E-05
         0.11585E-04
        -0.51813E-04
        -0.17775E-04
         0.49279E-04
         0.67207E-04
         0.15590E-04
         0.45023E-04
         0.49709E-04
         0.28855E-03
         0.10339E-03
         0.17777E-03
         0.42466E-03
         0.24672E-03
         0.21857E-03
         0.45851E-03
         0.37067E-03
         0.37796E-03
         0.21750E-03
         0.17301E-03
         0.33383E-03
         0.14663E-03
         0.10980E-03
         0.82272E-04
         0.11770E-03
         0.28479E-03
         0.15101E-03
         0.51507E-02
         0.54391E-02
         0.59216E-02
         0.58643E-02
         0.66819E-02
         0.77094E-02
         0.70918E-02
         0.56231E-02
         0.53331E-02
         0.60869E-02
         0.58441E-02
         0.56835E-02
         0.38761E-02
         0.35181E-02
         0.42187E-02
         0.48244E-02
         0.52005E-02
         0.62066E-02
         0.57445E-02
         0.60847E-02
         0.49357E-02
         0.44426E-02
         0.50369E-02
         0.48100E-02
         0.51106E-02
         0.50397E-02
         0.18178E-03
         0.66766E-04
         0.63715E-04
         0.47594E-04
         0.18719E-03
         0.10789E-03
         0.90144E-05
         0.14149E-03
         0.88834E-04
         0.12303E-03
         0.91238E-05
         0.60560E-03
         0.35582E-03
         0.38260E-04
         0.65256E-03
         0.90742E-04
         0.35869E-04
         0.28141E-04
         0.37331E-04
         0.12391E-04
         0.37106E-03
         0.33705E-03
         0.29983E-03
         0.14116E-04
         0.36349E-04
         0.12251E-05
         0.11936E-04
        -0.52063E-04
        -0.18356E-04
         0.48275E-04
         0.67329E-04
         0.15264E-04
         0.45253E-04
         0.50129E-04
         0.28924E-03
         0.10370E-03
         0.17801E-03
         0.42636E-03
         0.24819E-03
         0.21930E-03
         0.45908E-03
         0.37042E-03
         0.37715E-03
         0.21644E-03
         0.17269E-03
         0.33404E-03
         0.14691E-03
         0.11012E-03
         0.82437E-04
         0.11784E-03
         0.28494E-03
         0.15102E-03
         0.51479E-02
         0.54373E-02
         0.59224E-02
         0.58651E-02
         0.66802E-02
         0.77048E-02
         0.70865E-02
         0.56208E-02
         0.53311E-02
         0.60839E-02
         0.58425E-02
         0.56839E-02
         0.38755E-02
         0.35183E-02
         0.42200E-02
         0.48263E-02
         0.52027E-02
         0.62094E-02
         0.57446E-02
         0.60849E-02
         0.49355E-02
         0.44429E-02
         0.50343E-02
         0.48044E-02
         0.51055E-02
         0.50350E-02
         0.18185E-03
         0.66684E-04
         0.63667E-04
         0.47485E-04
         0.18690E-03
         0.10768E-03
         0.89936E-05
         0.14160E-03
         0.88663E-04
         0.12316E-03
         0.89612E-05
         0.60538E-03
         0.35598E-03
         0.37670E-04
         0.65372E-03
         0.89821E-04
         0.35127E-04
         0.27892E-04
         0.36062E-04
         0.11012E-04
         0.36994E-03
         0.33594E-03
         0.29731E-03
         0.11631E-04
         0.34801E-04
        -0.11188E-05
         0.11566E-04
        -0.53382E-04
        -0.20346E-04
         0.45528E-04
         0.66821E-04
         0.14005E-04
         0.44984E-04
         0.49975E-04
         0.28927E-03
         0.10350E-03
         0.17781E-03
         0.42740E-03
         0.24896E-03
         0.21918E-03
         0.45870E-03
         0.36879E-03
         0.37478E-03
         0.21395E-03
         0.17138E-03
         0.33336E-03
         0.14644E-03
         0.10983E-03
         0.82006E-04
         0.11731E-03
         0.28440E-03
         0.15048E-03
         0.51437E-02
         0.54344E-02
         0.59219E-02
         0.58648E-02
         0.66778E-02
         0.76993E-02
         0.70802E-02
         0.56173E-02
         0.53279E-02
         0.60796E-02
         0.58396E-02
         0.56829E-02
         0.38734E-02
         0.35173E-02
         0.42203E-02
         0.48268E-02
         0.52034E-02
         0.62112E-02
         0.57435E-02
         0.60837E-02
         0.49340E-02
         0.44419E-02
         0.50304E-02
         0.47978E-02
         0.50995E-02
         0.50294E-02
         0.18176E-03
         0.66488E-04
         0.63541E-04
         0.47369E-04
         0.18659E-03
         0.10742E-03
         0.89046E-05
         0.14158E-03
         0.88415E-04
         0.12323E-03
         0.87888E-05
         0.60522E-03
         0.35611E-03
         0.37062E-04
         0.65500E-03
         0.89258E-04
         0.34572E-04
         0.27657E-04
         0.35245E-04
         0.10003E-04
         0.36927E-03
         0.33515E-03
         0.29579E-03
         0.10087E-04
         0.33813E-04
        -0.26234E-05
         0.11245E-04
        -0.54337E-04
        -0.21694E-04
         0.43751E-04
         0.66290E-04
         0.13090E-04
         0.44541E-04
         0.49747E-04
         0.28931E-03
         0.10325E-03
         0.17756E-03
         0.42854E-03
         0.24983E-03
         0.21928E-03
         0.45867E-03
         0.36786E-03
         0.37332E-03
         0.21244E-03
         0.17053E-03
         0.33295E-03
         0.14603E-03
         0.10939E-03
         0.81410E-04
         0.11666E-03
         0.28375E-03
         0.14984E-03
         0.51396E-02
         0.54316E-02
         0.59215E-02
         0.58646E-02
         0.66755E-02
         0.76941E-02
         0.70741E-02
         0.56139E-02
         0.53248E-02
         0.60755E-02
         0.58371E-02
         0.56825E-02
         0.38720E-02
         0.35166E-02
         0.42210E-02
         0.48285E-02
         0.52052E-02
         0.62134E-02
         0.57426E-02
         0.60825E-02
         0.49324E-02
         0.44408E-02
         0.50263E-02
         0.47910E-02
         0.50935E-02
         0.50239E-02
         0.18122E-03
         0.66083E-04
         0.63415E-04
         0.47599E-04
         0.18663E-03
         0.10759E-03
         0.88707E-05
         0.14131E-03
         0.87986E-04
         0.12305E-03
         0.89310E-05
         0.60561E-03
         0.35656E-03
         0.36724E-04
         0.65689E-03
         0.89556E-04
         0.34546E-04
         0.27927E-04
         0.35473E-04
         0.10092E-04
         0.36963E-03
         0.33542E-03
         0.29589E-03
         0.10051E-04
         0.33653E-04
        -0.28401E-05
         0.11199E-04
        -0.54467E-04
        -0.21522E-04
         0.43863E-04
         0.65628E-04
         0.12602E-04
         0.43858E-04
         0.49718E-04
         0.28977E-03
         0.10323E-03
         0.17746E-03
         0.43028E-03
         0.25137E-03
         0.22033E-03
         0.45975E-03
         0.36852E-03
         0.37368E-03
         0.21244E-03
         0.17043E-03
         0.33294E-03
         0.14569E-03
         0.10852E-03
         0.80248E-04
         0.11588E-03
         0.28335E-03
         0.14959E-03
         0.51366E-02
         0.54297E-02
         0.59220E-02
         0.58650E-02
         0.66737E-02
         0.76895E-02
         0.70688E-02
         0.56116E-02
         0.53228E-02
         0.60728E-02
         0.58361E-02
         0.56837E-02
         0.38723E-02
         0.35170E-02
         0.42228E-02
         0.48322E-02
         0.52092E-02
         0.62168E-02
         0.57424E-02
         0.60821E-02
         0.49314E-02
         0.44399E-02
         0.50226E-02
         0.47848E-02
         0.50881E-02
         0.50190E-02
         0.18024E-03
         0.65336E-04
         0.63031E-04
         0.47559E-04
         0.18632E-03
         0.10749E-03
         0.83959E-05
         0.14049E-03
         0.87119E-04
         0.12239E-03
         0.85688E-05
         0.60546E-03
         0.35661E-03
         0.35825E-04
         0.65819E-03
         0.89507E-04
         0.34113E-04
         0.27824E-04
         0.35372E-04
         0.98214E-05
         0.36964E-03
         0.33535E-03
         0.29584E-03
         0.98603E-05
         0.33222E-04
        -0.32270E-05
         0.10627E-04
        -0.54965E-04
        -0.21584E-04
         0.43810E-04
         0.64641E-04
         0.11801E-04
         0.42862E-04
         0.49399E-04
         0.28978E-03
         0.10288E-03
         0.17706E-03
         0.43143E-03
         0.25237E-03
         0.22091E-03
         0.46042E-03
         0.36894E-03
         0.37386E-03
         0.21232E-03
         0.17000E-03
         0.33240E-03
         0.14488E-03
         0.10723E-03
         0.78697E-04
         0.11473E-03
         0.28260E-03
         0.14904E-03
         0.51325E-02
         0.54269E-02
         0.59217E-02
         0.58649E-02
         0.66712E-02
         0.76839E-02
         0.70626E-02
         0.56084E-02
         0.53199E-02
         0.60689E-02
         0.58340E-02
         0.56843E-02
         0.38720E-02
         0.35169E-02
         0.42239E-02
         0.48353E-02
         0.52126E-02
         0.62192E-02
         0.57409E-02
         0.60805E-02
         0.49295E-02
         0.44383E-02
         0.50182E-02
         0.47781E-02
         0.50822E-02
         0.50135E-02
         0.18010E-03
         0.65057E-04
         0.62904E-04
         0.47478E-04
         0.18601E-03
         0.10723E-03
         0.81977E-05
         0.14034E-03
         0.87020E-04
         0.12268E-03
         0.83213E-05
         0.60524E-03
         0.35667E-03
         0.35154E-04
         0.65940E-03
         0.89480E-04
         0.34016E-04
         0.27632E-04
         0.35284E-04
         0.96010E-05
         0.36960E-03
         0.33517E-03
         0.29574E-03
         0.97130E-05
         0.33355E-04
        -0.34510E-05
         0.10409E-04
        -0.55239E-04
        -0.21754E-04
         0.43768E-04
         0.64395E-04
         0.11471E-04
         0.42481E-04
         0.49236E-04
         0.28985E-03
         0.10269E-03
         0.17681E-03
         0.43252E-03
         0.25334E-03
         0.22134E-03
         0.46084E-03
         0.36917E-03
         0.37390E-03
         0.21222E-03
         0.16975E-03
         0.33222E-03
         0.14466E-03
         0.10693E-03
         0.78202E-04
         0.11418E-03
         0.28205E-03
         0.14846E-03
         0.51284E-02
         0.54240E-02
         0.59213E-02
         0.58647E-02
         0.66687E-02
         0.76785E-02
         0.70563E-02
         0.56049E-02
         0.53167E-02
         0.60646E-02
         0.58316E-02
         0.56848E-02
         0.38715E-02
         0.35163E-02
         0.42248E-02
         0.48382E-02
         0.52157E-02
         0.62216E-02
         0.57397E-02
         0.60794E-02
         0.49284E-02
         0.44375E-02
         0.50142E-02
         0.47713E-02
         0.50761E-02
         0.50078E-02
         0.18052E-03
         0.65246E-04
         0.63095E-04
         0.47601E-04
         0.18605E-03
         0.10719E-03
         0.84835E-05
         0.14082E-03
         0.87446E-04
         0.12366E-03
         0.85317E-05
         0.60547E-03
         0.35715E-03
         0.35050E-04
         0.66117E-03
         0.89902E-04
         0.34366E-04
         0.27731E-04
         0.35595E-04
         0.97798E-05
         0.36996E-03
         0.33539E-03
         0.29605E-03
         0.99636E-05
         0.34028E-04
        -0.32220E-05
         0.10831E-04
        -0.54964E-04
        -0.21443E-04
         0.44164E-04
         0.64719E-04
         0.11631E-04
         0.42542E-04
         0.49340E-04
         0.29038E-03
         0.10284E-03
         0.17692E-03
         0.43421E-03
         0.25481E-03
         0.22224E-03
         0.46179E-03
         0.36986E-03
         0.37434E-03
         0.21257E-03
         0.16997E-03
         0.33252E-03
         0.14492E-03
         0.10719E-03
         0.78280E-04
         0.11410E-03
         0.28193E-03
         0.14814E-03
         0.51252E-02
         0.54220E-02
         0.59215E-02
         0.58649E-02
         0.66668E-02
         0.76737E-02
         0.70509E-02
         0.56023E-02
         0.53142E-02
         0.60611E-02
         0.58301E-02
         0.56861E-02
         0.38717E-02
         0.35165E-02
         0.42264E-02
         0.48417E-02
         0.52197E-02
         0.62249E-02
         0.57393E-02
         0.60792E-02
         0.49280E-02
         0.44376E-02
         0.50111E-02
         0.47654E-02
         0.50707E-02
         0.50029E-02
         0.18066E-03
         0.65229E-04
         0.63110E-04
         0.47573E-04
         0.18587E-03
         0.10701E-03
         0.85383E-05
         0.14094E-03
         0.87508E-04
         0.12421E-03
         0.84409E-05
         0.60534E-03
         0.35744E-03
         0.34522E-04
         0.66238E-03
         0.89949E-04
         0.34351E-04
         0.27529E-04
         0.35530E-04
         0.95977E-05
         0.37000E-03
         0.33527E-03
         0.29603E-03
         0.98667E-05
         0.34384E-04
        -0.33194E-05
         0.10794E-04
        -0.55013E-04
        -0.21416E-04
         0.44242E-04
         0.64720E-04
         0.11516E-04
         0.42297E-04
         0.49229E-04
         0.29057E-03
         0.10274E-03
         0.17683E-03
         0.43536E-03
         0.25592E-03
         0.22282E-03
         0.46238E-03
         0.37022E-03
         0.37440E-03
         0.21264E-03
         0.16994E-03
         0.33253E-03
         0.14485E-03
         0.10708E-03
         0.77994E-04
         0.11373E-03
         0.28156E-03
         0.14765E-03
         0.51213E-02
         0.54193E-02
         0.59211E-02
         0.58647E-02
         0.66646E-02
         0.76684E-02
         0.70445E-02
         0.55989E-02
         0.53113E-02
         0.60570E-02
         0.58278E-02
         0.56866E-02
         0.38712E-02
         0.35162E-02
         0.42275E-02
         0.48449E-02
         0.52233E-02
         0.62278E-02
         0.57384E-02
         0.60781E-02
         0.49267E-02
         0.44369E-02
         0.50074E-02
         0.47591E-02
         0.50649E-02
         0.49973E-02
         0.18071E-03
         0.65085E-04
         0.63060E-04
         0.47588E-04
         0.18561E-03
         0.10687E-03
         0.85122E-05
         0.14101E-03
         0.87586E-04
         0.12476E-03
         0.83363E-05
         0.60516E-03
         0.35764E-03
         0.34028E-04
         0.66360E-03
         0.89948E-04
         0.34368E-04
         0.27394E-04
         0.35440E-04
         0.94475E-05
         0.37001E-03
         0.33516E-03
         0.29597E-03
         0.97176E-05
         0.34743E-04
        -0.34961E-05
         0.10782E-04
        -0.55095E-04
        -0.21398E-04
         0.44346E-04
         0.64672E-04
         0.11341E-04
         0.42122E-04
         0.49239E-04
         0.29067E-03
         0.10258E-03
         0.17667E-03
         0.43652E-03
         0.25702E-03
         0.22341E-03
         0.46302E-03
         0.37060E-03
         0.37448E-03
         0.21264E-03
         0.16986E-03
         0.33252E-03
         0.14480E-03
         0.10698E-03
         0.77716E-04
         0.11338E-03
         0.28120E-03
         0.14723E-03
         0.51172E-02
         0.54165E-02
         0.59207E-02
         0.58647E-02
         0.66623E-02
         0.76628E-02
         0.70380E-02
         0.55955E-02
         0.53084E-02
         0.60530E-02
         0.58257E-02
         0.56872E-02
         0.38706E-02
         0.35159E-02
         0.42286E-02
         0.48479E-02
         0.52267E-02
         0.62305E-02
         0.57374E-02
         0.60770E-02
         0.49255E-02
         0.44361E-02
         0.50037E-02
         0.47526E-02
         0.50590E-02
         0.49917E-02
         0.18101E-03
         0.65143E-04
         0.63163E-04
         0.47751E-04
         0.18559E-03
         0.10690E-03
         0.87294E-05
         0.14141E-03
         0.87903E-04
         0.12558E-03
         0.85415E-05
         0.60532E-03
         0.35800E-03
         0.33905E-04
         0.66533E-03
         0.90259E-04
         0.34588E-04
         0.27493E-04
         0.35648E-04
         0.95825E-05
         0.37032E-03
         0.33535E-03
         0.29620E-03
         0.98712E-05
         0.35298E-04
        -0.33530E-05
         0.11069E-04
        -0.54924E-04
        -0.21057E-04
         0.44763E-04
         0.64953E-04
         0.11444E-04
         0.42213E-04
         0.49442E-04
         0.29111E-03
         0.10266E-03
         0.17669E-03
         0.43816E-03
         0.25850E-03
         0.22441E-03
         0.46399E-03
         0.37123E-03
         0.37486E-03
         0.21290E-03
         0.17001E-03
         0.33274E-03
         0.14498E-03
         0.10716E-03
         0.77718E-04
         0.11328E-03
         0.28108E-03
         0.14701E-03
         0.51139E-02
         0.54144E-02
         0.59210E-02
         0.58649E-02
         0.66600E-02
         0.76576E-02
         0.70324E-02
         0.55929E-02
         0.53060E-02
         0.60496E-02
         0.58242E-02
         0.56881E-02
         0.38706E-02
         0.35161E-02
         0.42302E-02
         0.48513E-02
         0.52305E-02
         0.62335E-02
         0.57368E-02
         0.60766E-02
         0.49249E-02
         0.44360E-02
         0.50005E-02
         0.47467E-02
         0.50537E-02
         0.49869E-02
         0.18114E-03
         0.65028E-04
         0.63115E-04
         0.47711E-04
         0.18532E-03
         0.10668E-03
         0.86721E-05
         0.14149E-03
         0.88010E-04
         0.12610E-03
         0.83823E-05
         0.60511E-03
         0.35809E-03
         0.33341E-04
         0.66662E-03
         0.90291E-04
         0.34572E-04
         0.27280E-04
         0.35525E-04
         0.93760E-05
         0.37024E-03
         0.33514E-03
         0.29605E-03
         0.96997E-05
         0.35562E-04
        -0.35089E-05
         0.10891E-04
        -0.55182E-04
        -0.21155E-04
         0.44807E-04
         0.64916E-04
         0.11277E-04
         0.41936E-04
         0.49345E-04
         0.29121E-03
         0.10249E-03
         0.17646E-03
         0.43930E-03
         0.25950E-03
         0.22488E-03
         0.46445E-03
         0.37142E-03
         0.37485E-03
         0.21279E-03
         0.16984E-03
         0.33265E-03
         0.14488E-03
         0.10699E-03
         0.77404E-04
         0.11292E-03
         0.28067E-03
         0.14650E-03
         0.51098E-02
         0.54116E-02
         0.59205E-02
         0.58646E-02
         0.66574E-02
         0.76520E-02
         0.70262E-02
         0.55895E-02
         0.53029E-02
         0.60453E-02
         0.58217E-02
         0.56883E-02
         0.38699E-02
         0.35156E-02
         0.42312E-02
         0.48542E-02
         0.52335E-02
         0.62359E-02
         0.57358E-02
         0.60755E-02
         0.49237E-02
         0.44354E-02
         0.49969E-02
         0.47402E-02
         0.50478E-02
         0.49812E-02
         0.18132E-03
         0.64991E-04
         0.63138E-04
         0.47750E-04
         0.18517E-03
         0.10656E-03
         0.87392E-05
         0.14170E-03
         0.88240E-04
         0.12681E-03
         0.83812E-05
         0.60508E-03
         0.35837E-03
         0.32976E-04
         0.66804E-03
         0.90432E-04
         0.34714E-04
         0.27201E-04
         0.35560E-04
         0.93169E-05
         0.37032E-03
         0.33511E-03
         0.29607E-03
         0.96657E-05
         0.35997E-04
        -0.35593E-05
         0.10984E-04
        -0.55230E-04
        -0.21106E-04
         0.44959E-04
         0.64950E-04
         0.11200E-04
         0.41775E-04
         0.49354E-04
         0.29146E-03
         0.10241E-03
         0.17636E-03
         0.44061E-03
         0.26062E-03
         0.22550E-03
         0.46516E-03
         0.37186E-03
         0.37502E-03
         0.21288E-03
         0.16984E-03
         0.33272E-03
         0.14489E-03
         0.10694E-03
         0.77189E-04
         0.11265E-03
         0.28040E-03
         0.14610E-03
         0.51060E-02
         0.54090E-02
         0.59202E-02
         0.58645E-02
         0.66552E-02
         0.76468E-02
         0.70200E-02
         0.55862E-02
         0.53000E-02
         0.60413E-02
         0.58198E-02
         0.56890E-02
         0.38695E-02
         0.35153E-02
         0.42323E-02
         0.48573E-02
         0.52371E-02
         0.62388E-02
         0.57350E-02
         0.60746E-02
         0.49227E-02
         0.44349E-02
         0.49934E-02
         0.47339E-02
         0.50420E-02
         0.49758E-02
         0.18185E-03
         0.65349E-04
         0.63491E-04
         0.48056E-04
         0.18539E-03
         0.10674E-03
         0.92514E-05
         0.14230E-03
         0.88711E-04
         0.12783E-03
         0.88396E-05
         0.60558E-03
         0.35911E-03
         0.33040E-04
         0.66996E-03
         0.90908E-04
         0.35148E-04
         0.27425E-04
         0.35954E-04
         0.96433E-05
         0.37087E-03
         0.33549E-03
         0.29652E-03
         0.10001E-04
         0.36822E-04
        -0.32322E-05
         0.11504E-04
        -0.54742E-04
        -0.20526E-04
         0.45571E-04
         0.65398E-04
         0.11523E-04
         0.41965E-04
         0.49612E-04
         0.29214E-03
         0.10273E-03
         0.17667E-03
         0.44238E-03
         0.26231E-03
         0.22665E-03
         0.46629E-03
         0.37271E-03
         0.37557E-03
         0.21341E-03
         0.17028E-03
         0.33324E-03
         0.14533E-03
         0.10733E-03
         0.77343E-04
         0.11267E-03
         0.28042E-03
         0.14599E-03
         0.51030E-02
         0.54073E-02
         0.59207E-02
         0.58650E-02
         0.66536E-02
         0.76424E-02
         0.70146E-02
         0.55836E-02
         0.52979E-02
         0.60381E-02
         0.58185E-02
         0.56904E-02
         0.38697E-02
         0.35157E-02
         0.42342E-02
         0.48612E-02
         0.52415E-02
         0.62425E-02
         0.57349E-02
         0.60746E-02
         0.49224E-02
         0.44350E-02
         0.49904E-02
         0.47283E-02
         0.50370E-02
         0.49712E-02
         0.18191E-03
         0.65244E-04
         0.63450E-04
         0.47988E-04
         0.18509E-03
         0.10653E-03
         0.92115E-05
         0.14235E-03
         0.88771E-04
         0.12830E-03
         0.86863E-05
         0.60542E-03
         0.35934E-03
         0.32470E-04
         0.67116E-03
         0.90902E-04
         0.35095E-04
         0.27245E-04
         0.35776E-04
         0.94016E-05
         0.37086E-03
         0.33530E-03
         0.29646E-03
         0.97948E-05
         0.37058E-04
        -0.34489E-05
         0.11349E-04
        -0.54921E-04
        -0.20462E-04
         0.45657E-04
         0.65402E-04
         0.11337E-04
         0.41750E-04
         0.49488E-04
         0.29220E-03
         0.10256E-03
         0.17653E-03
         0.44349E-03
         0.26337E-03
         0.22726E-03
         0.46684E-03
         0.37296E-03
         0.37553E-03
         0.21335E-03
         0.17014E-03
         0.33318E-03
         0.14525E-03
         0.10725E-03
         0.77057E-04
         0.11224E-03
         0.28000E-03
         0.14548E-03
         0.50988E-02
         0.54043E-02
         0.59201E-02
         0.58649E-02
         0.66514E-02
         0.76369E-02
         0.70081E-02
         0.55801E-02
         0.52948E-02
         0.60338E-02
         0.58161E-02
         0.56905E-02
         0.38690E-02
         0.35154E-02
         0.42354E-02
         0.48644E-02
         0.52449E-02
         0.62450E-02
         0.57339E-02
         0.60735E-02
         0.49212E-02
         0.44342E-02
         0.49865E-02
         0.47218E-02
         0.50312E-02
         0.49656E-02
         0.18188E-03
         0.64981E-04
         0.63247E-04
         0.47873E-04
         0.18471E-03
         0.10620E-03
         0.90852E-05
         0.14236E-03
         0.88761E-04
         0.12859E-03
         0.84949E-05
         0.60515E-03
         0.35943E-03
         0.31894E-04
         0.67233E-03
         0.90857E-04
         0.34944E-04
         0.27042E-04
         0.35640E-04
         0.92616E-05
         0.37081E-03
         0.33507E-03
         0.29636E-03
         0.96183E-05
         0.37123E-04
        -0.36618E-05
         0.10927E-04
        -0.55204E-04
        -0.19797E-04
         0.46141E-04
         0.65318E-04
         0.11083E-04
         0.41537E-04
         0.49414E-04
         0.29223E-03
         0.10230E-03
         0.17627E-03
         0.44444E-03
         0.26443E-03
         0.22837E-03
         0.46754E-03
         0.37319E-03
         0.37539E-03
         0.21329E-03
         0.16995E-03
         0.33302E-03
         0.14506E-03
         0.10708E-03
         0.76750E-04
         0.11185E-03
         0.27959E-03
         0.14494E-03
         0.50947E-02
         0.54015E-02
         0.59196E-02
         0.58647E-02
         0.66489E-02
         0.76311E-02
         0.70015E-02
         0.55765E-02
         0.52916E-02
         0.60298E-02
         0.58133E-02
         0.56900E-02
         0.38682E-02
         0.35149E-02
         0.42363E-02
         0.48674E-02
         0.52482E-02
         0.62475E-02
         0.57327E-02
         0.60722E-02
         0.49200E-02
         0.44335E-02
         0.49826E-02
         0.47154E-02
         0.50252E-02
         0.49598E-02
         0.18239E-03
         0.65310E-04
         0.63626E-04
         0.48228E-04
         0.18496E-03
         0.10641E-03
         0.95468E-05
         0.14295E-03
         0.89157E-04
         0.12923E-03
         0.89123E-05
         0.60552E-03
         0.36005E-03
         0.31935E-04
         0.67418E-03
         0.91336E-04
         0.35285E-04
         0.27250E-04
         0.36089E-04
         0.98309E-05
         0.37128E-03
         0.33540E-03
         0.29675E-03
         0.99798E-05
         0.37670E-04
        -0.33041E-05
         0.10881E-04
        -0.54903E-04
        -0.17949E-04
         0.47640E-04
         0.65718E-04
         0.11412E-04
         0.41722E-04
         0.49745E-04
         0.29295E-03
         0.10267E-03
         0.17656E-03
         0.44595E-03
         0.26618E-03
         0.23051E-03
         0.46898E-03
         0.37400E-03
         0.37577E-03
         0.21377E-03
         0.17038E-03
         0.33358E-03
         0.14552E-03
         0.10744E-03
         0.76933E-04
         0.11197E-03
         0.27971E-03
         0.14487E-03
         0.50917E-02
         0.53998E-02
         0.59203E-02
         0.58653E-02
         0.66470E-02
         0.76264E-02
         0.69960E-02
         0.55741E-02
         0.52897E-02
         0.60270E-02
         0.58111E-02
         0.56899E-02
         0.38681E-02
         0.35153E-02
         0.42380E-02
         0.48709E-02
         0.52522E-02
         0.62510E-02
         0.57327E-02
         0.60723E-02
         0.49198E-02
         0.44338E-02
         0.49799E-02
         0.47099E-02
         0.50202E-02
         0.49552E-02
         0.18142E-03
         0.64098E-04
         0.62502E-04
         0.47179E-04
         0.18343E-03
         0.10500E-03
         0.83115E-05
         0.14181E-03
         0.88110E-04
         0.12825E-03
         0.74512E-05
         0.60381E-03
         0.35877E-03
         0.30002E-04
         0.67387E-03
         0.90334E-04
         0.34060E-04
         0.26072E-04
         0.34807E-04
         0.85257E-05
         0.36991E-03
         0.33390E-03
         0.29535E-03
         0.86936E-05
         0.36522E-04
        -0.45304E-05
         0.90587E-05
        -0.56446E-04
        -0.18529E-04
         0.46901E-04
         0.64667E-04
         0.10129E-04
         0.40453E-04
         0.48529E-04
         0.29164E-03
         0.10120E-03
         0.17502E-03
         0.44541E-03
         0.26588E-03
         0.23025E-03
         0.46815E-03
         0.37277E-03
         0.37432E-03
         0.21246E-03
         0.16892E-03
         0.33199E-03
         0.14410E-03
         0.10612E-03
         0.75455E-04
         0.11028E-03
         0.27781E-03
         0.14305E-03
         0.50851E-02
         0.53945E-02
         0.59172E-02
         0.58624E-02
         0.66419E-02
         0.76183E-02
         0.69871E-02
         0.55680E-02
         0.52841E-02
         0.60201E-02
         0.58056E-02
         0.56873E-02
         0.38653E-02
         0.35128E-02
         0.42368E-02
         0.48716E-02
         0.52532E-02
         0.62509E-02
         0.57289E-02
         0.60686E-02
         0.49162E-02
         0.44307E-02
         0.49737E-02
         0.47010E-02
         0.50120E-02
         0.49473E-02
         0.18229E-03
         0.64182E-04
         0.62777E-04
         0.47684E-04
         0.18376E-03
         0.10535E-03
         0.85978E-05
         0.14285E-03
         0.89171E-04
         0.13018E-03
         0.78937E-05
         0.60386E-03
         0.35867E-03
         0.30620E-04
         0.67607E-03
         0.91414E-04
         0.35087E-04
         0.26645E-04
         0.35578E-04
         0.92317E-05
         0.37072E-03
         0.33440E-03
         0.29647E-03
         0.96552E-05
         0.38378E-04
        -0.36410E-05
         0.10645E-04
        -0.54704E-04
        -0.16967E-04
         0.48402E-04
         0.65501E-04
         0.10668E-04
         0.40709E-04
         0.48385E-04
         0.29218E-03
         0.10107E-03
         0.17455E-03
         0.44782E-03
         0.26833E-03
         0.23191E-03
         0.46944E-03
         0.37403E-03
         0.37543E-03
         0.21357E-03
         0.16950E-03
         0.33236E-03
         0.14440E-03
         0.10674E-03
         0.75758E-04
         0.11006E-03
         0.27768E-03
         0.14273E-03
         0.50825E-02
         0.53934E-02
         0.59174E-02
         0.58618E-02
         0.66385E-02
         0.76123E-02
         0.69823E-02
         0.55663E-02
         0.52825E-02
         0.60164E-02
         0.58040E-02
         0.56894E-02
         0.38664E-02
         0.35133E-02
         0.42392E-02
         0.48764E-02
         0.52582E-02
         0.62548E-02
         0.57287E-02
         0.60678E-02
         0.49160E-02
         0.44312E-02
         0.49715E-02
         0.46965E-02
         0.50078E-02
         0.49434E-02
         0.47102E-02
         0.47862E-02
         0.47485E-02
         0.43230E-02
         0.56055E-02
         0.51648E-02
         0.51199E-02
         0.53200E-02
         0.45387E-02
         0.53229E-02
         0.57009E-02
         0.71873E-02
         0.62618E-02
         0.59091E-02
         0.74528E-02
         0.44412E-02
         0.47149E-02
         0.41150E-02
         0.49143E-02
         0.51127E-02
         0.57986E-02
         0.58050E-02
         0.55055E-02
         0.46774E-02
         0.52473E-02
         0.44676E-02
         0.58321E-02
         0.55883E-02
         0.56311E-02
         0.54365E-02
         0.44614E-02
         0.46355E-02
         0.43442E-02
         0.45412E-02
         0.63242E-02
         0.55062E-02
         0.55879E-02
         0.68790E-02
         0.64582E-02
         0.63245E-02
         0.67427E-02
         0.63024E-02
         0.59946E-02
         0.52701E-02
         0.54451E-02
         0.64013E-02
         0.56356E-02
         0.52197E-02
         0.50663E-02
         0.52963E-02
         0.60256E-02
         0.53726E-02
         0.15688E-01
         0.15746E-01
         0.16482E-01
         0.16066E-01
         0.17141E-01
         0.18613E-01
         0.18037E-01
         0.16502E-01
         0.16315E-01
         0.17364E-01
         0.16820E-01
         0.16086E-01
         0.13107E-01
         0.12226E-01
         0.13096E-01
         0.13955E-01
         0.14450E-01
         0.16259E-01
         0.16431E-01
         0.16794E-01
         0.14758E-01
         0.13936E-01
         0.14820E-01
         0.14441E-01
         0.14670E-01
         0.14612E-01
         0.49492E-01
         0.51620E-01
         0.50889E-01
         0.46534E-01
         0.57145E-01
         0.53646E-01
         0.55664E-01
         0.56300E-01
         0.48295E-01
         0.56259E-01
         0.61000E-01
         0.69100E-01
         0.62445E-01
         0.62800E-01
         0.71605E-01
         0.47383E-01
         0.50732E-01
         0.44445E-01
         0.52365E-01
         0.54977E-01
         0.57369E-01
         0.58523E-01
         0.55042E-01
         0.50397E-01
         0.56769E-01
         0.48664E-01
         0.62579E-01
         0.61427E-01
         0.61715E-01
         0.58730E-01
         0.47846E-01
         0.50179E-01
         0.46890E-01
         0.48965E-01
         0.62598E-01
         0.57306E-01
         0.57593E-01
         0.69062E-01
         0.67038E-01
         0.66179E-01
         0.67707E-01
         0.64253E-01
         0.60860E-01
         0.53652E-01
         0.55729E-01
         0.62641E-01
         0.57785E-01
         0.54374E-01
         0.53275E-01
         0.55218E-01
         0.60062E-01
         0.55409E-01
         0.10539E+00
         0.10328E+00
         0.10613E+00
         0.10302E+00
         0.10698E+00
         0.11351E+00
         0.11441E+00
         0.11205E+00
         0.11230E+00
         0.11578E+00
         0.11241E+00
         0.10603E+00
         0.93245E-01
         0.87925E-01
         0.89187E-01
         0.91110E-01
         0.92460E-01
         0.10101E+00
         0.10670E+00
         0.10761E+00
         0.98671E-01
         0.95178E-01
         0.98899E-01
         0.97864E-01
         0.97259E-01
         0.96829E-01
  
SCALARS                      strain_yz  double 1
LOOKUP_TABLE default
        -0.37431E-01
         0.12066E-01
         0.31976E-01
         0.17039E-01
        -0.27263E-09
        -0.75142E-10
        -0.33787E-09
        -0.25771E-09
         0.11720E+00
        -0.77978E-01
        -0.50282E-09
        -0.44267E-09
         0.98398E-01
         0.49950E-02
         0.35985E-09
        -0.23071E-10
        -0.37258E-01
        -0.12618E+00
         0.52942E-11
         0.54170E-10
         0.63134E-01
         0.23075E+00
         0.25108E+00
         0.82488E-09
         0.14246E-08
         0.11907E-08
         0.22781E-01
         0.22436E+00
         0.59336E-09
         0.11511E-08
        -0.42508E-01
        -0.35563E-01
         0.32720E-01
         0.30761E-09
         0.31402E-09
        -0.65193E-11
        -0.12336E+00
        -0.11273E+00
         0.56605E-09
         0.44041E-09
        -0.11873E+00
        -0.72499E-01
         0.42779E-09
         0.39094E-09
        -0.11143E+00
        -0.39011E-01
        -0.14191E-10
         0.21950E-09
        -0.92769E-01
         0.10335E-09
        -0.10324E-01
        -0.83703E-11
        -0.51953E-02
         0.39976E-09
         0.33970E-01
         0.23255E-09
         0.11077E+00
        -0.20634E-01
         0.63088E-11
        -0.12805E-10
        -0.51507E-01
        -0.18495E+00
        -0.85957E-10
        -0.32152E-09
        -0.31406E-01
        -0.17351E-09
        -0.13233E+00
        -0.21137E-09
         0.10200E+00
         0.53837E-01
        -0.26121E-10
         0.34489E-09
         0.18618E+00
         0.75734E-09
         0.28036E+00
         0.73329E-09
         0.28070E+00
         0.55665E-09
         0.23199E+00
         0.46657E-09
         0.34701E+00
         0.27255E+00
         0.29930E-09
        -0.66360E-10
         0.39826E-01
        -0.74253E-11
        -0.17394E+00
        -0.46515E-09
        -0.40313E+00
        -0.81430E-09
        -0.55374E+00
        -0.34099E+00
        -0.12078E-08
        -0.97757E-09
        -0.24256E+00
        -0.75885E-09
        -0.21928E+00
        -0.77635E-09
        -0.21183E+00
        -0.83474E-09
        -0.35113E+00
        -0.29413E+00
        -0.77627E-09
        -0.37195E-09
         0.22534E+00
        -0.86721E-01
         0.27295E-09
        -0.33919E-09
         0.55082E+00
         0.90804E-09
         0.80382E+00
         0.13282E-08
         0.96448E+00
         0.16404E-08
         0.10781E+01
         0.16271E-08
         0.12086E+01
         0.12877E-08
         0.12002E+01
         0.99649E-09
         0.11269E+01
         0.92683E-09
         0.10039E+01
         0.88181E-09
         0.75583E+00
         0.56354E-09
         0.53916E+00
         0.18606E-09
         0.28705E+00
         0.12022E-09
        -0.21407E-01
         0.18071E-09
        -0.29394E+00
         0.93332E-10
        -0.53919E+00
        -0.28225E-09
        -0.83295E+00
        -0.79669E-09
        -0.89090E+00
        -0.12441E-08
        -0.94048E+00
        -0.16309E-08
        -0.11818E+01
        -0.16295E-08
        -0.12473E+01
        -0.14225E-08
        -0.11663E+01
        -0.13864E-08
        -0.93435E+00
        -0.13950E-08
        -0.63680E+00
        -0.11031E-08
        -0.45623E+00
        -0.65233E-09
        -0.33312E+00
        -0.50438E-09
        -0.73954E-02
        -0.37867E-02
        -0.33103E-02
        -0.10412E-02
        -0.33495E-02
        -0.36111E-02
        -0.37410E-03
        -0.58047E-02
        -0.50703E-02
        -0.73596E-02
         0.37386E-02
         0.15897E-01
         0.10961E-01
         0.12719E-02
         0.16123E-01
         0.19657E-02
        -0.17376E-02
         0.11257E-02
         0.14417E-02
        -0.10939E-02
         0.99909E-03
         0.82686E-03
        -0.27590E-02
         0.23294E-03
        -0.50268E-02
         0.74280E-03
         0.38018E-04
         0.66544E-03
         0.79999E-03
        -0.39152E-02
         0.19166E-02
        -0.20521E-02
         0.13937E-02
        -0.33661E-03
         0.53572E-03
         0.29414E-02
         0.66344E-02
         0.14245E-01
         0.13003E-01
         0.10857E-01
         0.10130E-01
         0.25714E-02
        -0.21426E-02
        -0.58627E-02
        -0.95976E-02
        -0.15400E-01
        -0.10260E-01
        -0.74684E-02
        -0.79603E-02
        -0.83606E-02
        -0.96836E-02
        -0.45008E-02
         0.80216E-02
        -0.98258E-02
         0.26537E-01
         0.36823E-01
         0.46903E-01
         0.55171E-01
         0.54883E-01
         0.49489E-01
         0.47157E-01
         0.44528E-01
         0.28629E-01
         0.12917E-01
         0.57342E-02
         0.25364E-02
        -0.39080E-02
        -0.15519E-01
        -0.28520E-01
        -0.36950E-01
        -0.43520E-01
        -0.50250E-01
        -0.47770E-01
        -0.45145E-01
        -0.41935E-01
        -0.28898E-01
        -0.17107E-01
        -0.15092E-01
        -0.16971E-01
        -0.10704E-01
        -0.99054E-02
        -0.23495E-02
        -0.12865E-01
        -0.57862E-02
        -0.45883E-02
        -0.16040E-01
        -0.10519E-01
        -0.15086E-01
         0.79762E-02
         0.34515E-01
         0.20449E-01
         0.29388E-02
         0.34005E-01
         0.64362E-02
        -0.19505E-02
         0.18622E-02
         0.83933E-02
         0.16227E-02
         0.72337E-02
         0.51359E-02
        -0.29775E-02
         0.25134E-02
        -0.10159E-01
         0.25129E-02
         0.63055E-03
         0.11722E-02
        -0.18724E-02
        -0.10134E-01
         0.69364E-02
         0.18272E-02
         0.44834E-02
         0.38929E-02
        -0.18561E-02
         0.56581E-02
         0.10803E-01
         0.25845E-01
         0.22792E-01
         0.20087E-01
         0.14756E-01
        -0.36462E-02
        -0.75103E-02
        -0.93816E-02
        -0.12081E-01
        -0.24677E-01
        -0.14360E-01
        -0.94960E-02
        -0.11935E-01
        -0.14089E-01
        -0.14598E-01
        -0.10954E-02
         0.18175E-01
        -0.25996E-01
         0.60487E-01
         0.78171E-01
         0.10087E+00
         0.12101E+00
         0.11855E+00
         0.10357E+00
         0.99262E-01
         0.98189E-01
         0.61663E-01
         0.20324E-01
         0.81025E-02
         0.69434E-02
        -0.32152E-02
        -0.27270E-01
        -0.54626E-01
        -0.76006E-01
        -0.98931E-01
        -0.10969E+00
        -0.96354E-01
        -0.91107E-01
        -0.90819E-01
        -0.63950E-01
        -0.33218E-01
        -0.31454E-01
        -0.16982E-01
        -0.10706E-01
        -0.99103E-02
        -0.23667E-02
        -0.12866E-01
        -0.57907E-02
        -0.45941E-02
        -0.16067E-01
        -0.10538E-01
        -0.15142E-01
         0.79810E-02
         0.34512E-01
         0.20454E-01
         0.29389E-02
         0.34048E-01
         0.64365E-02
        -0.19682E-02
         0.18594E-02
         0.83989E-02
         0.16137E-02
         0.72516E-02
         0.51409E-02
        -0.29782E-02
         0.25122E-02
        -0.10205E-01
         0.25083E-02
         0.63798E-03
         0.11788E-02
        -0.18601E-02
        -0.10156E-01
         0.69376E-02
         0.18232E-02
         0.44933E-02
         0.38993E-02
        -0.18386E-02
         0.56618E-02
         0.10802E-01
         0.25885E-01
         0.22842E-01
         0.20110E-01
         0.14767E-01
        -0.36364E-02
        -0.75180E-02
        -0.93864E-02
        -0.12081E-01
        -0.24677E-01
        -0.14361E-01
        -0.94903E-02
        -0.11919E-01
        -0.14071E-01
        -0.14592E-01
        -0.10788E-02
         0.18158E-01
        -0.25997E-01
         0.60499E-01
         0.78172E-01
         0.10086E+00
         0.12097E+00
         0.11850E+00
         0.10354E+00
         0.99241E-01
         0.98162E-01
         0.61650E-01
         0.20334E-01
         0.81018E-02
         0.69577E-02
        -0.31890E-02
        -0.27285E-01
        -0.54651E-01
        -0.76023E-01
        -0.98929E-01
        -0.10968E+00
        -0.96347E-01
        -0.91104E-01
        -0.90796E-01
        -0.63905E-01
        -0.33182E-01
        -0.31413E-01
        -0.16992E-01
        -0.10708E-01
        -0.99153E-02
        -0.23842E-02
        -0.12868E-01
        -0.57955E-02
        -0.45998E-02
        -0.16094E-01
        -0.10557E-01
        -0.15198E-01
         0.79857E-02
         0.34509E-01
         0.20459E-01
         0.29386E-02
         0.34091E-01
         0.64370E-02
        -0.19862E-02
         0.18566E-02
         0.84048E-02
         0.16045E-02
         0.72697E-02
         0.51456E-02
        -0.29794E-02
         0.25106E-02
        -0.10251E-01
         0.25031E-02
         0.64592E-03
         0.11857E-02
        -0.18466E-02
        -0.10176E-01
         0.69387E-02
         0.18184E-02
         0.45033E-02
         0.39055E-02
        -0.18211E-02
         0.56656E-02
         0.10802E-01
         0.25925E-01
         0.22891E-01
         0.20133E-01
         0.14779E-01
        -0.36256E-02
        -0.75253E-02
        -0.93925E-02
        -0.12082E-01
        -0.24678E-01
        -0.14363E-01
        -0.94844E-02
        -0.11903E-01
        -0.14052E-01
        -0.14586E-01
        -0.10623E-02
         0.18141E-01
        -0.25999E-01
         0.60510E-01
         0.78172E-01
         0.10085E+00
         0.12093E+00
         0.11845E+00
         0.10351E+00
         0.99220E-01
         0.98135E-01
         0.61637E-01
         0.20344E-01
         0.81014E-02
         0.69720E-02
        -0.31627E-02
        -0.27300E-01
        -0.54677E-01
        -0.76041E-01
        -0.98927E-01
        -0.10968E+00
        -0.96341E-01
        -0.91100E-01
        -0.90773E-01
        -0.63859E-01
        -0.33145E-01
        -0.31371E-01
        -0.17003E-01
        -0.10710E-01
        -0.99203E-02
        -0.24016E-02
        -0.12869E-01
        -0.58001E-02
        -0.46059E-02
        -0.16121E-01
        -0.10576E-01
        -0.15254E-01
         0.79905E-02
         0.34506E-01
         0.20465E-01
         0.29387E-02
         0.34135E-01
         0.64375E-02
        -0.20044E-02
         0.18537E-02
         0.84110E-02
         0.15947E-02
         0.72881E-02
         0.51500E-02
        -0.29820E-02
         0.25082E-02
        -0.10295E-01
         0.24962E-02
         0.65413E-03
         0.11949E-02
        -0.18299E-02
        -0.10195E-01
         0.69392E-02
         0.18118E-02
         0.45132E-02
         0.39119E-02
        -0.18036E-02
         0.56693E-02
         0.10801E-01
         0.25965E-01
         0.22941E-01
         0.20159E-01
         0.14793E-01
        -0.36118E-02
        -0.75312E-02
        -0.94017E-02
        -0.12086E-01
        -0.24679E-01
        -0.14365E-01
        -0.94787E-02
        -0.11887E-01
        -0.14033E-01
        -0.14579E-01
        -0.10458E-02
         0.18124E-01
        -0.26000E-01
         0.60521E-01
         0.78173E-01
         0.10083E+00
         0.12089E+00
         0.11840E+00
         0.10348E+00
         0.99200E-01
         0.98108E-01
         0.61626E-01
         0.20356E-01
         0.81015E-02
         0.69861E-02
        -0.31362E-02
        -0.27316E-01
        -0.54706E-01
        -0.76062E-01
        -0.98926E-01
        -0.10967E+00
        -0.96334E-01
        -0.91096E-01
        -0.90750E-01
        -0.63814E-01
        -0.33109E-01
        -0.31330E-01
        -0.17014E-01
        -0.10712E-01
        -0.99253E-02
        -0.24190E-02
        -0.12871E-01
        -0.58047E-02
        -0.46116E-02
        -0.16148E-01
        -0.10595E-01
        -0.15308E-01
         0.79953E-02
         0.34503E-01
         0.20470E-01
         0.29388E-02
         0.34178E-01
         0.64381E-02
        -0.20229E-02
         0.18508E-02
         0.84174E-02
         0.15844E-02
         0.73068E-02
         0.51538E-02
        -0.29859E-02
         0.25046E-02
        -0.10337E-01
         0.24876E-02
         0.66326E-03
         0.12062E-02
        -0.18098E-02
        -0.10212E-01
         0.69392E-02
         0.18033E-02
         0.45231E-02
         0.39182E-02
        -0.17861E-02
         0.56730E-02
         0.10800E-01
         0.26005E-01
         0.22992E-01
         0.20185E-01
         0.14808E-01
        -0.35948E-02
        -0.75357E-02
        -0.94142E-02
        -0.12092E-01
        -0.24682E-01
        -0.14368E-01
        -0.94736E-02
        -0.11872E-01
        -0.14014E-01
        -0.14573E-01
        -0.10292E-02
         0.18107E-01
        -0.26002E-01
         0.60532E-01
         0.78173E-01
         0.10082E+00
         0.12085E+00
         0.11835E+00
         0.10345E+00
         0.99179E-01
         0.98081E-01
         0.61616E-01
         0.20370E-01
         0.81023E-02
         0.69999E-02
        -0.31096E-02
        -0.27333E-01
        -0.54740E-01
        -0.76085E-01
        -0.98925E-01
        -0.10966E+00
        -0.96327E-01
        -0.91093E-01
        -0.90727E-01
        -0.63768E-01
        -0.33073E-01
        -0.31289E-01
        -0.17023E-01
        -0.10713E-01
        -0.99302E-02
        -0.24367E-02
        -0.12872E-01
        -0.58093E-02
        -0.46167E-02
        -0.16173E-01
        -0.10614E-01
        -0.15362E-01
         0.80007E-02
         0.34500E-01
         0.20475E-01
         0.29394E-02
         0.34222E-01
         0.64389E-02
        -0.20419E-02
         0.18479E-02
         0.84238E-02
         0.15739E-02
         0.73256E-02
         0.51575E-02
        -0.29904E-02
         0.25008E-02
        -0.10378E-01
         0.24784E-02
         0.67308E-03
         0.12187E-02
        -0.17883E-02
        -0.10228E-01
         0.69389E-02
         0.17938E-02
         0.45332E-02
         0.39248E-02
        -0.17684E-02
         0.56772E-02
         0.10800E-01
         0.26046E-01
         0.23044E-01
         0.20213E-01
         0.14825E-01
        -0.35770E-02
        -0.75397E-02
        -0.94279E-02
        -0.12099E-01
        -0.24686E-01
        -0.14372E-01
        -0.94694E-02
        -0.11857E-01
        -0.13995E-01
        -0.14567E-01
        -0.10126E-02
         0.18090E-01
        -0.26003E-01
         0.60543E-01
         0.78174E-01
         0.10081E+00
         0.12080E+00
         0.11830E+00
         0.10341E+00
         0.99159E-01
         0.98053E-01
         0.61606E-01
         0.20385E-01
         0.81034E-02
         0.70136E-02
        -0.30830E-02
        -0.27351E-01
        -0.54775E-01
        -0.76109E-01
        -0.98924E-01
        -0.10966E+00
        -0.96321E-01
        -0.91089E-01
        -0.90704E-01
        -0.63723E-01
        -0.33037E-01
        -0.31247E-01
        -0.17033E-01
        -0.10713E-01
        -0.99350E-02
        -0.24547E-02
        -0.12874E-01
        -0.58141E-02
        -0.46206E-02
        -0.16196E-01
        -0.10634E-01
        -0.15412E-01
         0.80073E-02
         0.34499E-01
         0.20482E-01
         0.29416E-02
         0.34266E-01
         0.64400E-02
        -0.20612E-02
         0.18451E-02
         0.84304E-02
         0.15634E-02
         0.73444E-02
         0.51613E-02
        -0.29950E-02
         0.24970E-02
        -0.10419E-01
         0.24692E-02
         0.68465E-03
         0.12320E-02
        -0.17664E-02
        -0.10243E-01
         0.69383E-02
         0.17836E-02
         0.45436E-02
         0.39318E-02
        -0.17506E-02
         0.56815E-02
         0.10801E-01
         0.26087E-01
         0.23096E-01
         0.20240E-01
         0.14841E-01
        -0.35586E-02
        -0.75434E-02
        -0.94416E-02
        -0.12107E-01
        -0.24691E-01
        -0.14378E-01
        -0.94678E-02
        -0.11845E-01
        -0.13977E-01
        -0.14561E-01
        -0.99585E-03
         0.18073E-01
        -0.26005E-01
         0.60554E-01
         0.78175E-01
         0.10080E+00
         0.12076E+00
         0.11825E+00
         0.10338E+00
         0.99138E-01
         0.98026E-01
         0.61596E-01
         0.20400E-01
         0.81046E-02
         0.70275E-02
        -0.30564E-02
        -0.27369E-01
        -0.54810E-01
        -0.76132E-01
        -0.98921E-01
        -0.10965E+00
        -0.96316E-01
        -0.91087E-01
        -0.90680E-01
        -0.63678E-01
        -0.33000E-01
        -0.31206E-01
        -0.17041E-01
        -0.10712E-01
        -0.99398E-02
        -0.24730E-02
        -0.12876E-01
        -0.58188E-02
        -0.46237E-02
        -0.16218E-01
        -0.10653E-01
        -0.15462E-01
         0.80145E-02
         0.34497E-01
         0.20489E-01
         0.29443E-02
         0.34310E-01
         0.64412E-02
        -0.20809E-02
         0.18421E-02
         0.84369E-02
         0.15529E-02
         0.73633E-02
         0.51652E-02
        -0.29994E-02
         0.24933E-02
        -0.10459E-01
         0.24600E-02
         0.69668E-03
         0.12456E-02
        -0.17444E-02
        -0.10258E-01
         0.69375E-02
         0.17729E-02
         0.45541E-02
         0.39390E-02
        -0.17327E-02
         0.56862E-02
         0.10801E-01
         0.26129E-01
         0.23149E-01
         0.20268E-01
         0.14858E-01
        -0.35403E-02
        -0.75470E-02
        -0.94553E-02
        -0.12116E-01
        -0.24697E-01
        -0.14384E-01
        -0.94671E-02
        -0.11833E-01
        -0.13960E-01
        -0.14555E-01
        -0.97908E-03
         0.18056E-01
        -0.26006E-01
         0.60565E-01
         0.78175E-01
         0.10078E+00
         0.12072E+00
         0.11820E+00
         0.10335E+00
         0.99118E-01
         0.97998E-01
         0.61586E-01
         0.20415E-01
         0.81057E-02
         0.70416E-02
        -0.30297E-02
        -0.27386E-01
        -0.54844E-01
        -0.76154E-01
        -0.98918E-01
        -0.10964E+00
        -0.96312E-01
        -0.91085E-01
        -0.90657E-01
        -0.63632E-01
        -0.32964E-01
        -0.31165E-01
        -0.17050E-01
        -0.10712E-01
        -0.99446E-02
        -0.24914E-02
        -0.12877E-01
        -0.58234E-02
        -0.46269E-02
        -0.16240E-01
        -0.10673E-01
        -0.15512E-01
         0.80213E-02
         0.34495E-01
         0.20496E-01
         0.29473E-02
         0.34354E-01
         0.64425E-02
        -0.21006E-02
         0.18392E-02
         0.84434E-02
         0.15423E-02
         0.73821E-02
         0.51691E-02
        -0.30039E-02
         0.24897E-02
        -0.10498E-01
         0.24508E-02
         0.70901E-03
         0.12591E-02
        -0.17225E-02
        -0.10274E-01
         0.69367E-02
         0.17624E-02
         0.45647E-02
         0.39461E-02
        -0.17148E-02
         0.56905E-02
         0.10802E-01
         0.26171E-01
         0.23201E-01
         0.20295E-01
         0.14875E-01
        -0.35221E-02
        -0.75507E-02
        -0.94692E-02
        -0.12124E-01
        -0.24702E-01
        -0.14391E-01
        -0.94665E-02
        -0.11822E-01
        -0.13942E-01
        -0.14549E-01
        -0.96223E-03
         0.18039E-01
        -0.26008E-01
         0.60575E-01
         0.78176E-01
         0.10077E+00
         0.12068E+00
         0.11815E+00
         0.10332E+00
         0.99097E-01
         0.97970E-01
         0.61576E-01
         0.20430E-01
         0.81071E-02
         0.70558E-02
        -0.30032E-02
        -0.27404E-01
        -0.54879E-01
        -0.76177E-01
        -0.98916E-01
        -0.10964E+00
        -0.96307E-01
        -0.91083E-01
        -0.90633E-01
        -0.63586E-01
        -0.32928E-01
        -0.31123E-01
        -0.17059E-01
        -0.10711E-01
        -0.99492E-02
        -0.25096E-02
        -0.12879E-01
        -0.58280E-02
        -0.46300E-02
        -0.16262E-01
        -0.10693E-01
        -0.15561E-01
         0.80285E-02
         0.34493E-01
         0.20503E-01
         0.29499E-02
         0.34398E-01
         0.64437E-02
        -0.21204E-02
         0.18362E-02
         0.84498E-02
         0.15317E-02
         0.74009E-02
         0.51728E-02
        -0.30082E-02
         0.24861E-02
        -0.10538E-01
         0.24417E-02
         0.72100E-03
         0.12724E-02
        -0.17007E-02
        -0.10289E-01
         0.69359E-02
         0.17519E-02
         0.45751E-02
         0.39533E-02
        -0.16968E-02
         0.56952E-02
         0.10803E-01
         0.26213E-01
         0.23254E-01
         0.20323E-01
         0.14891E-01
        -0.35040E-02
        -0.75545E-02
        -0.94829E-02
        -0.12132E-01
        -0.24708E-01
        -0.14397E-01
        -0.94662E-02
        -0.11811E-01
        -0.13925E-01
        -0.14543E-01
        -0.94545E-03
         0.18022E-01
        -0.26009E-01
         0.60585E-01
         0.78176E-01
         0.10076E+00
         0.12064E+00
         0.11810E+00
         0.10329E+00
         0.99077E-01
         0.97942E-01
         0.61566E-01
         0.20445E-01
         0.81084E-02
         0.70700E-02
        -0.29766E-02
        -0.27422E-01
        -0.54914E-01
        -0.76200E-01
        -0.98913E-01
        -0.10963E+00
        -0.96302E-01
        -0.91081E-01
        -0.90609E-01
        -0.63541E-01
        -0.32892E-01
        -0.31082E-01
        -0.17067E-01
        -0.10710E-01
        -0.99540E-02
        -0.25278E-02
        -0.12881E-01
        -0.58326E-02
        -0.46335E-02
        -0.16284E-01
        -0.10713E-01
        -0.15611E-01
         0.80357E-02
         0.34492E-01
         0.20510E-01
         0.29527E-02
         0.34442E-01
         0.64449E-02
        -0.21402E-02
         0.18333E-02
         0.84562E-02
         0.15209E-02
         0.74197E-02
         0.51765E-02
        -0.30127E-02
         0.24825E-02
        -0.10578E-01
         0.24326E-02
         0.73321E-03
         0.12855E-02
        -0.16789E-02
        -0.10304E-01
         0.69352E-02
         0.17414E-02
         0.45857E-02
         0.39605E-02
        -0.16788E-02
         0.56997E-02
         0.10804E-01
         0.26255E-01
         0.23306E-01
         0.20350E-01
         0.14908E-01
        -0.34858E-02
        -0.75581E-02
        -0.94965E-02
        -0.12141E-01
        -0.24713E-01
        -0.14404E-01
        -0.94655E-02
        -0.11799E-01
        -0.13907E-01
        -0.14538E-01
        -0.92862E-03
         0.18004E-01
        -0.26010E-01
         0.60596E-01
         0.78177E-01
         0.10075E+00
         0.12060E+00
         0.11805E+00
         0.10326E+00
         0.99057E-01
         0.97914E-01
         0.61556E-01
         0.20460E-01
         0.81096E-02
         0.70840E-02
        -0.29500E-02
        -0.27440E-01
        -0.54949E-01
        -0.76223E-01
        -0.98910E-01
        -0.10962E+00
        -0.96298E-01
        -0.91079E-01
        -0.90585E-01
        -0.63495E-01
        -0.32856E-01
        -0.31041E-01
        -0.17076E-01
        -0.10709E-01
        -0.99587E-02
        -0.25461E-02
        -0.12882E-01
        -0.58372E-02
        -0.46365E-02
        -0.16306E-01
        -0.10733E-01
        -0.15660E-01
         0.80429E-02
         0.34490E-01
         0.20516E-01
         0.29556E-02
         0.34486E-01
         0.64462E-02
        -0.21601E-02
         0.18303E-02
         0.84627E-02
         0.15103E-02
         0.74385E-02
         0.51801E-02
        -0.30171E-02
         0.24790E-02
        -0.10618E-01
         0.24235E-02
         0.74514E-03
         0.12986E-02
        -0.16570E-02
        -0.10319E-01
         0.69343E-02
         0.17308E-02
         0.45961E-02
         0.39677E-02
        -0.16606E-02
         0.57043E-02
         0.10804E-01
         0.26297E-01
         0.23359E-01
         0.20378E-01
         0.14924E-01
        -0.34678E-02
        -0.75617E-02
        -0.95102E-02
        -0.12149E-01
        -0.24719E-01
        -0.14410E-01
        -0.94653E-02
        -0.11788E-01
        -0.13890E-01
        -0.14532E-01
        -0.91182E-03
         0.17987E-01
        -0.26011E-01
         0.60606E-01
         0.78178E-01
         0.10074E+00
         0.12056E+00
         0.11800E+00
         0.10323E+00
         0.99037E-01
         0.97886E-01
         0.61546E-01
         0.20474E-01
         0.81109E-02
         0.70980E-02
        -0.29233E-02
        -0.27458E-01
        -0.54983E-01
        -0.76245E-01
        -0.98907E-01
        -0.10961E+00
        -0.96293E-01
        -0.91077E-01
        -0.90561E-01
        -0.63449E-01
        -0.32821E-01
        -0.30999E-01
        -0.17084E-01
        -0.10708E-01
        -0.99635E-02
        -0.25646E-02
        -0.12884E-01
        -0.58419E-02
        -0.46397E-02
        -0.16327E-01
        -0.10752E-01
        -0.15709E-01
         0.80500E-02
         0.34488E-01
         0.20524E-01
         0.29581E-02
         0.34531E-01
         0.64474E-02
        -0.21800E-02
         0.18273E-02
         0.84691E-02
         0.14997E-02
         0.74573E-02
         0.51838E-02
        -0.30215E-02
         0.24754E-02
        -0.10657E-01
         0.24144E-02
         0.75742E-03
         0.13115E-02
        -0.16353E-02
        -0.10335E-01
         0.69335E-02
         0.17202E-02
         0.46065E-02
         0.39749E-02
        -0.16425E-02
         0.57090E-02
         0.10805E-01
         0.26339E-01
         0.23412E-01
         0.20405E-01
         0.14941E-01
        -0.34497E-02
        -0.75654E-02
        -0.95240E-02
        -0.12158E-01
        -0.24724E-01
        -0.14417E-01
        -0.94648E-02
        -0.11777E-01
        -0.13872E-01
        -0.14525E-01
        -0.89506E-03
         0.17970E-01
        -0.26013E-01
         0.60616E-01
         0.78178E-01
         0.10072E+00
         0.12052E+00
         0.11795E+00
         0.10319E+00
         0.99016E-01
         0.97857E-01
         0.61536E-01
         0.20489E-01
         0.81121E-02
         0.71121E-02
        -0.28967E-02
        -0.27475E-01
        -0.55018E-01
        -0.76268E-01
        -0.98905E-01
        -0.10961E+00
        -0.96289E-01
        -0.91075E-01
        -0.90537E-01
        -0.63404E-01
        -0.32785E-01
        -0.30958E-01
        -0.17093E-01
        -0.10708E-01
        -0.99682E-02
        -0.25830E-02
        -0.12885E-01
        -0.58465E-02
        -0.46432E-02
        -0.16349E-01
        -0.10772E-01
        -0.15758E-01
         0.80572E-02
         0.34487E-01
         0.20530E-01
         0.29609E-02
         0.34575E-01
         0.64486E-02
        -0.22000E-02
         0.18243E-02
         0.84755E-02
         0.14892E-02
         0.74761E-02
         0.51875E-02
        -0.30259E-02
         0.24719E-02
        -0.10697E-01
         0.24052E-02
         0.76938E-03
         0.13243E-02
        -0.16136E-02
        -0.10350E-01
         0.69327E-02
         0.17096E-02
         0.46170E-02
         0.39821E-02
        -0.16243E-02
         0.57135E-02
         0.10806E-01
         0.26381E-01
         0.23464E-01
         0.20432E-01
         0.14958E-01
        -0.34315E-02
        -0.75690E-02
        -0.95376E-02
        -0.12166E-01
        -0.24730E-01
        -0.14424E-01
        -0.94642E-02
        -0.11766E-01
        -0.13855E-01
        -0.14520E-01
        -0.87840E-03
         0.17953E-01
        -0.26014E-01
         0.60626E-01
         0.78179E-01
         0.10071E+00
         0.12047E+00
         0.11789E+00
         0.10316E+00
         0.98996E-01
         0.97828E-01
         0.61526E-01
         0.20504E-01
         0.81133E-02
         0.71263E-02
        -0.28701E-02
        -0.27493E-01
        -0.55053E-01
        -0.76291E-01
        -0.98902E-01
        -0.10960E+00
        -0.96285E-01
        -0.91073E-01
        -0.90512E-01
        -0.63358E-01
        -0.32750E-01
        -0.30917E-01
        -0.17101E-01
        -0.10707E-01
        -0.99730E-02
        -0.26013E-02
        -0.12887E-01
        -0.58510E-02
        -0.46464E-02
        -0.16371E-01
        -0.10792E-01
        -0.15807E-01
         0.80644E-02
         0.34485E-01
         0.20537E-01
         0.29633E-02
         0.34619E-01
         0.64499E-02
        -0.22200E-02
         0.18214E-02
         0.84819E-02
         0.14785E-02
         0.74950E-02
         0.51911E-02
        -0.30303E-02
         0.24685E-02
        -0.10737E-01
         0.23961E-02
         0.78154E-03
         0.13368E-02
        -0.15920E-02
        -0.10365E-01
         0.69318E-02
         0.16990E-02
         0.46274E-02
         0.39894E-02
        -0.16061E-02
         0.57182E-02
         0.10806E-01
         0.26423E-01
         0.23517E-01
         0.20460E-01
         0.14975E-01
        -0.34134E-02
        -0.75727E-02
        -0.95512E-02
        -0.12174E-01
        -0.24736E-01
        -0.14430E-01
        -0.94640E-02
        -0.11754E-01
        -0.13837E-01
        -0.14514E-01
        -0.86163E-03
         0.17936E-01
        -0.26015E-01
         0.60636E-01
         0.78179E-01
         0.10070E+00
         0.12043E+00
         0.11784E+00
         0.10313E+00
         0.98976E-01
         0.97799E-01
         0.61516E-01
         0.20519E-01
         0.81145E-02
         0.71404E-02
        -0.28436E-02
        -0.27511E-01
        -0.55088E-01
        -0.76314E-01
        -0.98900E-01
        -0.10959E+00
        -0.96280E-01
        -0.91071E-01
        -0.90488E-01
        -0.63313E-01
        -0.32714E-01
        -0.30875E-01
        -0.17110E-01
        -0.10706E-01
        -0.99776E-02
        -0.26196E-02
        -0.12889E-01
        -0.58557E-02
        -0.46496E-02
        -0.16392E-01
        -0.10812E-01
        -0.15856E-01
         0.80716E-02
         0.34483E-01
         0.20544E-01
         0.29661E-02
         0.34663E-01
         0.64511E-02
        -0.22402E-02
         0.18184E-02
         0.84883E-02
         0.14679E-02
         0.75138E-02
         0.51945E-02
        -0.30347E-02
         0.24651E-02
        -0.10776E-01
         0.23869E-02
         0.79339E-03
         0.13492E-02
        -0.15705E-02
        -0.10380E-01
         0.69310E-02
         0.16885E-02
         0.46378E-02
         0.39967E-02
        -0.15877E-02
         0.57227E-02
         0.10807E-01
         0.26466E-01
         0.23570E-01
         0.20486E-01
         0.14991E-01
        -0.33953E-02
        -0.75765E-02
        -0.95647E-02
        -0.12183E-01
        -0.24741E-01
        -0.14437E-01
        -0.94635E-02
        -0.11743E-01
        -0.13820E-01
        -0.14508E-01
        -0.84485E-03
         0.17918E-01
        -0.26016E-01
         0.60646E-01
         0.78180E-01
         0.10069E+00
         0.12039E+00
         0.11779E+00
         0.10310E+00
         0.98955E-01
         0.97770E-01
         0.61506E-01
         0.20534E-01
         0.81157E-02
         0.71543E-02
        -0.28169E-02
        -0.27528E-01
        -0.55123E-01
        -0.76336E-01
        -0.98897E-01
        -0.10959E+00
        -0.96276E-01
        -0.91069E-01
        -0.90464E-01
        -0.63268E-01
        -0.32679E-01
        -0.30834E-01
        -0.17118E-01
        -0.10705E-01
        -0.99824E-02
        -0.26380E-02
        -0.12890E-01
        -0.58602E-02
        -0.46530E-02
        -0.16414E-01
        -0.10832E-01
        -0.15905E-01
         0.80788E-02
         0.34482E-01
         0.20551E-01
         0.29684E-02
         0.34707E-01
         0.64524E-02
        -0.22605E-02
         0.18153E-02
         0.84948E-02
         0.14574E-02
         0.75326E-02
         0.51979E-02
        -0.30390E-02
         0.24616E-02
        -0.10816E-01
         0.23777E-02
         0.80555E-03
         0.13614E-02
        -0.15490E-02
        -0.10395E-01
         0.69301E-02
         0.16779E-02
         0.46482E-02
         0.40039E-02
        -0.15693E-02
         0.57273E-02
         0.10808E-01
         0.26508E-01
         0.23622E-01
         0.20513E-01
         0.15008E-01
        -0.33774E-02
        -0.75802E-02
        -0.95785E-02
        -0.12191E-01
        -0.24747E-01
        -0.14444E-01
        -0.94632E-02
        -0.11732E-01
        -0.13802E-01
        -0.14502E-01
        -0.82822E-03
         0.17901E-01
        -0.26017E-01
         0.60656E-01
         0.78181E-01
         0.10068E+00
         0.12035E+00
         0.11774E+00
         0.10307E+00
         0.98935E-01
         0.97740E-01
         0.61496E-01
         0.20549E-01
         0.81165E-02
         0.71681E-02
        -0.27904E-02
        -0.27546E-01
        -0.55158E-01
        -0.76359E-01
        -0.98895E-01
        -0.10958E+00
        -0.96271E-01
        -0.91067E-01
        -0.90440E-01
        -0.63222E-01
        -0.32644E-01
        -0.30793E-01
        -0.17127E-01
        -0.10704E-01
        -0.99871E-02
        -0.26565E-02
        -0.12892E-01
        -0.58648E-02
        -0.46563E-02
        -0.16435E-01
        -0.10853E-01
        -0.15954E-01
         0.80860E-02
         0.34480E-01
         0.20558E-01
         0.29710E-02
         0.34751E-01
         0.64536E-02
        -0.22810E-02
         0.18122E-02
         0.85012E-02
         0.14473E-02
         0.75513E-02
         0.52011E-02
        -0.30435E-02
         0.24582E-02
        -0.10855E-01
         0.23686E-02
         0.81760E-03
         0.13736E-02
        -0.15275E-02
        -0.10409E-01
         0.69292E-02
         0.16672E-02
         0.46585E-02
         0.40112E-02
        -0.15509E-02
         0.57320E-02
         0.10808E-01
         0.26552E-01
         0.23675E-01
         0.20538E-01
         0.15024E-01
        -0.33593E-02
        -0.75842E-02
        -0.95921E-02
        -0.12200E-01
        -0.24753E-01
        -0.14450E-01
        -0.94628E-02
        -0.11721E-01
        -0.13785E-01
        -0.14497E-01
        -0.81156E-03
         0.17884E-01
        -0.26018E-01
         0.60666E-01
         0.78181E-01
         0.10066E+00
         0.12031E+00
         0.11769E+00
         0.10304E+00
         0.98915E-01
         0.97709E-01
         0.61487E-01
         0.20564E-01
         0.81169E-02
         0.71820E-02
        -0.27640E-02
        -0.27563E-01
        -0.55192E-01
        -0.76382E-01
        -0.98892E-01
        -0.10957E+00
        -0.96267E-01
        -0.91065E-01
        -0.90415E-01
        -0.63176E-01
        -0.32609E-01
        -0.30751E-01
        -0.17135E-01
        -0.10703E-01
        -0.99918E-02
        -0.26749E-02
        -0.12894E-01
        -0.58692E-02
        -0.46595E-02
        -0.16456E-01
        -0.10873E-01
        -0.16003E-01
         0.80932E-02
         0.34478E-01
         0.20565E-01
         0.29737E-02
         0.34796E-01
         0.64548E-02
        -0.23018E-02
         0.18092E-02
         0.85076E-02
         0.14377E-02
         0.75701E-02
         0.52043E-02
        -0.30478E-02
         0.24548E-02
        -0.10895E-01
         0.23594E-02
         0.83016E-03
         0.13856E-02
        -0.15061E-02
        -0.10422E-01
         0.69283E-02
         0.16566E-02
         0.46688E-02
         0.40185E-02
        -0.15324E-02
         0.57365E-02
         0.10809E-01
         0.26595E-01
         0.23727E-01
         0.20563E-01
         0.15040E-01
        -0.33412E-02
        -0.75883E-02
        -0.96056E-02
        -0.12208E-01
        -0.24758E-01
        -0.14457E-01
        -0.94623E-02
        -0.11710E-01
        -0.13767E-01
        -0.14490E-01
        -0.79478E-03
         0.17867E-01
        -0.26019E-01
         0.60676E-01
         0.78181E-01
         0.10065E+00
         0.12027E+00
         0.11764E+00
         0.10300E+00
         0.98894E-01
         0.97677E-01
         0.61480E-01
         0.20579E-01
         0.81166E-02
         0.71958E-02
        -0.27374E-02
        -0.27581E-01
        -0.55227E-01
        -0.76404E-01
        -0.98890E-01
        -0.10956E+00
        -0.96262E-01
        -0.91063E-01
        -0.90390E-01
        -0.63131E-01
        -0.32575E-01
        -0.30710E-01
        -0.17143E-01
        -0.10703E-01
        -0.99968E-02
        -0.26932E-02
        -0.12895E-01
        -0.58738E-02
        -0.46631E-02
        -0.16477E-01
        -0.10894E-01
        -0.16051E-01
         0.81004E-02
         0.34477E-01
         0.20572E-01
         0.29760E-02
         0.34840E-01
         0.64561E-02
        -0.23227E-02
         0.18061E-02
         0.85142E-02
         0.14284E-02
         0.75890E-02
         0.52075E-02
        -0.30519E-02
         0.24516E-02
        -0.10935E-01
         0.23506E-02
         0.84240E-03
         0.13971E-02
        -0.14849E-02
        -0.10435E-01
         0.69275E-02
         0.16462E-02
         0.46792E-02
         0.40259E-02
        -0.15141E-02
         0.57410E-02
         0.10809E-01
         0.26639E-01
         0.23779E-01
         0.20587E-01
         0.15056E-01
        -0.33234E-02
        -0.75927E-02
        -0.96190E-02
        -0.12217E-01
        -0.24764E-01
        -0.14464E-01
        -0.94619E-02
        -0.11699E-01
        -0.13750E-01
        -0.14485E-01
        -0.77812E-03
         0.17849E-01
        -0.26020E-01
         0.60686E-01
         0.78182E-01
         0.10064E+00
         0.12023E+00
         0.11759E+00
         0.10297E+00
         0.98873E-01
         0.97644E-01
         0.61472E-01
         0.20594E-01
         0.81158E-02
         0.72096E-02
        -0.27108E-02
        -0.27598E-01
        -0.55262E-01
        -0.76427E-01
        -0.98887E-01
        -0.10956E+00
        -0.96258E-01
        -0.91060E-01
        -0.90366E-01
        -0.63086E-01
        -0.32540E-01
        -0.30669E-01
        -0.17221E-01
        -0.10747E-01
        -0.10044E-01
        -0.27219E-02
        -0.12950E-01
        -0.59017E-02
        -0.46863E-02
        -0.16563E-01
        -0.10957E-01
        -0.16161E-01
         0.81399E-02
         0.34610E-01
         0.20658E-01
         0.29903E-02
         0.35022E-01
         0.64840E-02
        -0.23519E-02
         0.18104E-02
         0.85546E-02
         0.14258E-02
         0.76359E-02
         0.52309E-02
        -0.30653E-02
         0.24600E-02
        -0.11017E-01
         0.23541E-02
         0.85705E-03
         0.14117E-02
        -0.14738E-02
        -0.10491E-01
         0.69560E-02
         0.16455E-02
         0.47080E-02
         0.40495E-02
        -0.15035E-02
         0.57658E-02
         0.10850E-01
         0.26786E-01
         0.23924E-01
         0.20693E-01
         0.15130E-01
        -0.33232E-02
        -0.76291E-02
        -0.96646E-02
        -0.12268E-01
        -0.24861E-01
        -0.14523E-01
        -0.94954E-02
        -0.11733E-01
        -0.13787E-01
        -0.14536E-01
        -0.76471E-03
         0.17900E-01
        -0.26126E-01
         0.60932E-01
         0.78486E-01
         0.10103E+00
         0.12068E+00
         0.11802E+00
         0.10337E+00
         0.99266E-01
         0.98025E-01
         0.61720E-01
         0.20686E-01
         0.81439E-02
         0.72490E-02
        -0.26954E-02
        -0.27711E-01
        -0.55490E-01
        -0.76734E-01
        -0.99275E-01
        -0.10998E+00
        -0.96619E-01
        -0.91398E-01
        -0.90685E-01
        -0.63284E-01
        -0.32631E-01
        -0.30746E-01
        -0.25682E-01
        -0.16093E-01
        -0.14957E-01
        -0.40881E-02
        -0.18614E-01
        -0.85677E-02
        -0.70046E-02
        -0.24596E-01
        -0.16315E-01
        -0.23953E-01
         0.11959E-01
         0.48836E-01
         0.29591E-01
         0.43754E-02
         0.49706E-01
         0.96797E-02
        -0.35225E-02
         0.27006E-02
         0.12603E-01
         0.21001E-02
         0.10948E-01
         0.75866E-02
        -0.43972E-02
         0.36509E-02
        -0.16492E-01
         0.35217E-02
         0.12749E-02
         0.21142E-02
        -0.21965E-02
        -0.15676E-01
         0.10385E-01
         0.24484E-02
         0.70529E-02
         0.60580E-02
        -0.20920E-02
         0.83569E-02
         0.15726E-01
         0.38861E-01
         0.35211E-01
         0.30559E-01
         0.22037E-01
        -0.48660E-02
        -0.11192E-01
        -0.13974E-01
        -0.17677E-01
        -0.34800E-01
        -0.20856E-01
        -0.13799E-01
        -0.17136E-01
        -0.20047E-01
        -0.20636E-01
        -0.10890E-02
         0.22360E-01
        -0.32620E-01
         0.76080E-01
         0.98270E-01
         0.12639E+00
         0.15132E+00
         0.14965E+00
         0.13221E+00
         0.12673E+00
         0.12440E+00
         0.78424E-01
         0.26239E-01
         0.10439E-01
         0.93359E-02
        -0.34009E-02
        -0.34793E-01
        -0.69462E-01
        -0.95518E-01
        -0.12350E+00
        -0.13698E+00
        -0.12159E+00
        -0.11553E+00
        -0.11421E+00
        -0.79958E-01
        -0.41090E-01
        -0.38572E-01
  
SCALARS                      strain_xz  double 1
LOOKUP_TABLE default
        -0.61767E-02
         0.42216E-01
         0.14215E+00
        -0.10117E-01
        -0.28218E-09
         0.10005E-09
         0.33456E-09
         0.66818E-10
         0.39113E+00
         0.26434E+00
         0.10007E-08
         0.90137E-09
        -0.15960E-01
         0.65016E-01
        -0.12342E-09
        -0.57817E-09
         0.14717E-01
         0.62543E-01
        -0.41763E-09
        -0.62199E-09
         0.88379E-01
         0.14459E+00
         0.14332E+00
        -0.41533E-09
        -0.19152E-09
         0.33460E-09
         0.15298E+00
         0.11894E+00
        -0.77745E-09
        -0.61672E-09
        -0.34376E-01
         0.73289E-01
        -0.75977E-02
         0.79154E-10
        -0.30588E-09
        -0.18845E-09
        -0.99589E-01
        -0.45520E-01
        -0.45414E-09
        -0.48354E-09
        -0.19435E+00
        -0.26416E+00
        -0.10244E-08
        -0.75545E-09
        -0.21518E+00
        -0.11637E+00
        -0.11250E-08
        -0.54148E-09
         0.55382E-01
        -0.33989E-09
        -0.14894E+00
        -0.94612E-10
         0.54915E-01
        -0.66414E-09
        -0.40473E-01
        -0.17568E-09
        -0.17704E+00
        -0.50952E-01
        -0.15050E-09
        -0.36377E-09
         0.36675E-02
        -0.99569E-01
         0.30101E-09
         0.20642E-09
         0.26534E-01
        -0.30278E-10
         0.87173E-01
         0.19915E-09
         0.54430E+00
         0.37167E+00
         0.12448E-08
         0.90278E-09
         0.23642E+00
         0.65735E-09
        -0.48400E-01
        -0.45472E-09
        -0.15026E+00
        -0.89246E-10
        -0.31961E+00
        -0.13846E-09
        -0.43129E+00
        -0.31341E+00
        -0.50742E-09
        -0.58032E-09
        -0.28924E+00
        -0.62411E-09
        -0.26065E+00
        -0.89857E-09
        -0.15918E+00
        -0.57312E-09
        -0.24631E+00
        -0.17996E+00
        -0.24460E-09
         0.33544E-09
         0.41608E-01
         0.39346E-09
         0.11507E+00
         0.16521E-09
         0.27429E+00
         0.40797E-09
         0.40389E+00
         0.27940E+00
         0.94068E-09
         0.98160E-09
         0.94628E+00
         0.10653E+01
         0.17382E-08
         0.17129E-08
         0.93188E+00
         0.14849E-08
         0.86578E+00
         0.11097E-08
         0.60873E+00
         0.60982E-09
         0.42156E+00
         0.65211E-10
         0.14895E+00
        -0.23226E-09
        -0.18642E+00
        -0.18582E-09
        -0.44360E+00
        -0.18264E-09
        -0.65989E+00
        -0.41187E-09
        -0.91638E+00
        -0.78358E-09
        -0.11762E+01
        -0.93507E-09
        -0.13269E+01
        -0.88226E-09
        -0.13103E+01
        -0.95939E-09
        -0.12431E+01
        -0.12451E-08
        -0.11432E+01
        -0.14683E-08
        -0.10064E+01
        -0.13649E-08
        -0.76078E+00
        -0.11093E-08
        -0.43080E+00
        -0.52367E-09
        -0.36325E-01
         0.99996E-10
         0.24146E+00
         0.24277E-09
         0.38241E+00
         0.39699E-09
         0.56651E+00
         0.77693E-09
         0.74876E+00
         0.12749E-08
         0.99547E+00
         0.15317E-08
         0.11612E+01
         0.15667E-08
        -0.22902E-02
         0.11804E-02
         0.13868E-02
        -0.28278E-02
         0.10679E-01
         0.83722E-02
         0.12427E-02
        -0.18424E-02
        -0.96708E-03
        -0.17030E-02
         0.91004E-03
         0.39279E-02
         0.82775E-02
        -0.26490E-02
        -0.31696E-02
         0.37613E-02
         0.31492E-02
        -0.14691E-02
        -0.22437E-02
        -0.24225E-02
        -0.13174E-01
        -0.14077E-01
        -0.12630E-01
        -0.39314E-02
         0.15864E-02
        -0.11816E-02
        -0.37540E-02
        -0.42138E-03
        -0.42732E-02
        -0.29775E-02
         0.33543E-02
         0.65006E-03
        -0.15805E-02
        -0.50696E-03
         0.15484E-01
         0.99869E-02
         0.90881E-02
        -0.63212E-02
        -0.35974E-02
        -0.76080E-02
        -0.15520E-01
        -0.14767E-01
        -0.14834E-01
        -0.10880E-01
        -0.77365E-02
        -0.59519E-02
         0.11340E-02
         0.48030E-02
         0.13877E-02
         0.43520E-02
         0.11488E-01
         0.98311E-02
         0.43825E-01
         0.46850E-01
         0.41762E-01
         0.35679E-01
         0.26547E-01
         0.13400E-01
        -0.78685E-03
        -0.94100E-02
        -0.14357E-01
        -0.24627E-01
        -0.39954E-01
        -0.49922E-01
        -0.46123E-01
        -0.44375E-01
        -0.47149E-01
        -0.47342E-01
        -0.43007E-01
        -0.37397E-01
        -0.18453E-01
         0.29368E-02
         0.11388E-01
         0.12690E-01
         0.21457E-01
         0.33962E-01
         0.44630E-01
         0.47126E-01
        -0.57627E-02
         0.11830E-02
        -0.22521E-02
        -0.65576E-02
         0.13451E-01
         0.11495E-01
         0.33491E-02
        -0.73109E-02
        -0.33593E-02
        -0.69504E-02
        -0.14041E-02
         0.51222E-02
         0.16852E-01
        -0.12924E-01
        -0.13385E-01
         0.11322E-01
         0.63030E-02
        -0.37752E-02
        -0.25406E-02
        -0.44617E-02
        -0.26471E-01
        -0.25228E-01
        -0.24895E-01
        -0.60218E-02
         0.34202E-02
         0.23030E-02
        -0.12489E-01
         0.16583E-02
        -0.41797E-02
        -0.56997E-02
         0.86984E-02
         0.56287E-02
        -0.56417E-02
        -0.48691E-02
         0.23988E-01
         0.13240E-01
         0.15187E-01
        -0.14844E-01
        -0.24854E-02
        -0.72060E-02
        -0.26472E-01
        -0.27231E-01
        -0.26618E-01
        -0.19247E-01
        -0.14822E-01
        -0.86720E-02
         0.93728E-02
         0.11065E-01
        -0.14627E-02
         0.17611E-02
         0.18051E-01
         0.15902E-01
         0.10015E+00
         0.10092E+00
         0.90581E-01
         0.74712E-01
         0.55735E-01
         0.25663E-01
        -0.63727E-02
        -0.20656E-01
        -0.27214E-01
        -0.49874E-01
        -0.88594E-01
        -0.10452E+00
        -0.87689E-01
        -0.83434E-01
        -0.91901E-01
        -0.94630E-01
        -0.86361E-01
        -0.81668E-01
        -0.41616E-01
         0.10816E-01
         0.23928E-01
         0.24245E-01
         0.43099E-01
         0.74628E-01
         0.95514E-01
         0.95215E-01
        -0.57736E-02
         0.11874E-02
        -0.22564E-02
        -0.65620E-02
         0.13438E-01
         0.11484E-01
         0.33704E-02
        -0.72923E-02
        -0.33630E-02
        -0.69449E-02
        -0.13757E-02
         0.51347E-02
         0.16862E-01
        -0.12892E-01
        -0.13378E-01
         0.11333E-01
         0.63168E-02
        -0.37647E-02
        -0.25393E-02
        -0.44538E-02
        -0.26468E-01
        -0.25225E-01
        -0.24893E-01
        -0.60221E-02
         0.34279E-02
         0.23068E-02
        -0.12493E-01
         0.16271E-02
        -0.42091E-02
        -0.57034E-02
         0.87111E-02
         0.56279E-02
        -0.56182E-02
        -0.48713E-02
         0.24000E-01
         0.13234E-01
         0.15182E-01
        -0.14868E-01
        -0.25092E-02
        -0.72287E-02
        -0.26489E-01
        -0.27247E-01
        -0.26619E-01
        -0.19244E-01
        -0.14816E-01
        -0.86675E-02
         0.93710E-02
         0.11069E-01
        -0.14520E-02
         0.17551E-02
         0.18040E-01
         0.15878E-01
         0.10012E+00
         0.10089E+00
         0.90573E-01
         0.74713E-01
         0.55718E-01
         0.25655E-01
        -0.63799E-02
        -0.20669E-01
        -0.27191E-01
        -0.49855E-01
        -0.88580E-01
        -0.10452E+00
        -0.87681E-01
        -0.83429E-01
        -0.91912E-01
        -0.94650E-01
        -0.86376E-01
        -0.81684E-01
        -0.41604E-01
         0.10821E-01
         0.23911E-01
         0.24236E-01
         0.43067E-01
         0.74582E-01
         0.95467E-01
         0.95173E-01
        -0.57845E-02
         0.11917E-02
        -0.22606E-02
        -0.65664E-02
         0.13425E-01
         0.11474E-01
         0.33918E-02
        -0.72738E-02
        -0.33664E-02
        -0.69390E-02
        -0.13474E-02
         0.51471E-02
         0.16872E-01
        -0.12860E-01
        -0.13371E-01
         0.11346E-01
         0.63309E-02
        -0.37542E-02
        -0.25381E-02
        -0.44462E-02
        -0.26466E-01
        -0.25222E-01
        -0.24892E-01
        -0.60224E-02
         0.34362E-02
         0.23110E-02
        -0.12496E-01
         0.15963E-02
        -0.42387E-02
        -0.57069E-02
         0.87241E-02
         0.56275E-02
        -0.55946E-02
        -0.48735E-02
         0.24012E-01
         0.13228E-01
         0.15177E-01
        -0.14892E-01
        -0.25330E-02
        -0.72516E-02
        -0.26506E-01
        -0.27263E-01
        -0.26621E-01
        -0.19242E-01
        -0.14811E-01
        -0.86633E-02
         0.93693E-02
         0.11073E-01
        -0.14411E-02
         0.17489E-02
         0.18028E-01
         0.15855E-01
         0.10008E+00
         0.10087E+00
         0.90565E-01
         0.74713E-01
         0.55701E-01
         0.25647E-01
        -0.63872E-02
        -0.20682E-01
        -0.27168E-01
        -0.49835E-01
        -0.88567E-01
        -0.10452E+00
        -0.87673E-01
        -0.83424E-01
        -0.91925E-01
        -0.94671E-01
        -0.86392E-01
        -0.81700E-01
        -0.41593E-01
         0.10825E-01
         0.23893E-01
         0.24226E-01
         0.43036E-01
         0.74536E-01
         0.95420E-01
         0.95131E-01
        -0.57954E-02
         0.11962E-02
        -0.22648E-02
        -0.65707E-02
         0.13411E-01
         0.11463E-01
         0.34129E-02
        -0.72552E-02
        -0.33695E-02
        -0.69322E-02
        -0.13191E-02
         0.51598E-02
         0.16883E-01
        -0.12829E-01
        -0.13363E-01
         0.11359E-01
         0.63456E-02
        -0.37436E-02
        -0.25370E-02
        -0.44383E-02
        -0.26465E-01
        -0.25220E-01
        -0.24892E-01
        -0.60227E-02
         0.34460E-02
         0.23161E-02
        -0.12499E-01
         0.15665E-02
        -0.42681E-02
        -0.57103E-02
         0.87382E-02
         0.56280E-02
        -0.55708E-02
        -0.48757E-02
         0.24024E-01
         0.13222E-01
         0.15172E-01
        -0.14915E-01
        -0.25567E-02
        -0.72743E-02
        -0.26523E-01
        -0.27280E-01
        -0.26624E-01
        -0.19240E-01
        -0.14805E-01
        -0.86586E-02
         0.93679E-02
         0.11076E-01
        -0.14301E-02
         0.17427E-02
         0.18016E-01
         0.15831E-01
         0.10005E+00
         0.10084E+00
         0.90557E-01
         0.74714E-01
         0.55684E-01
         0.25640E-01
        -0.63946E-02
        -0.20695E-01
        -0.27145E-01
        -0.49815E-01
        -0.88553E-01
        -0.10453E+00
        -0.87667E-01
        -0.83421E-01
        -0.91938E-01
        -0.94696E-01
        -0.86409E-01
        -0.81715E-01
        -0.41581E-01
         0.10830E-01
         0.23876E-01
         0.24217E-01
         0.43004E-01
         0.74491E-01
         0.95372E-01
         0.95088E-01
        -0.58063E-02
         0.12006E-02
        -0.22690E-02
        -0.65750E-02
         0.13398E-01
         0.11453E-01
         0.34343E-02
        -0.72365E-02
        -0.33721E-02
        -0.69243E-02
        -0.12907E-02
         0.51723E-02
         0.16893E-01
        -0.12797E-01
        -0.13356E-01
         0.11373E-01
         0.63610E-02
        -0.37329E-02
        -0.25356E-02
        -0.44303E-02
        -0.26464E-01
        -0.25219E-01
        -0.24893E-01
        -0.60231E-02
         0.34573E-02
         0.23219E-02
        -0.12502E-01
         0.15376E-02
        -0.42975E-02
        -0.57134E-02
         0.87531E-02
         0.56294E-02
        -0.55470E-02
        -0.48778E-02
         0.24036E-01
         0.13216E-01
         0.15167E-01
        -0.14939E-01
        -0.25804E-02
        -0.72973E-02
        -0.26541E-01
        -0.27298E-01
        -0.26630E-01
        -0.19239E-01
        -0.14800E-01
        -0.86536E-02
         0.93668E-02
         0.11081E-01
        -0.14192E-02
         0.17366E-02
         0.18005E-01
         0.15808E-01
         0.10001E+00
         0.10082E+00
         0.90549E-01
         0.74714E-01
         0.55667E-01
         0.25632E-01
        -0.64018E-02
        -0.20708E-01
        -0.27122E-01
        -0.49795E-01
        -0.88539E-01
        -0.10453E+00
        -0.87663E-01
        -0.83418E-01
        -0.91952E-01
        -0.94723E-01
        -0.86428E-01
        -0.81731E-01
        -0.41569E-01
         0.10835E-01
         0.23858E-01
         0.24207E-01
         0.42972E-01
         0.74445E-01
         0.95325E-01
         0.95046E-01
        -0.58167E-02
         0.12055E-02
        -0.22727E-02
        -0.65792E-02
         0.13385E-01
         0.11442E-01
         0.34557E-02
        -0.72174E-02
        -0.33746E-02
        -0.69161E-02
        -0.12623E-02
         0.51848E-02
         0.16903E-01
        -0.12765E-01
        -0.13349E-01
         0.11387E-01
         0.63763E-02
        -0.37223E-02
        -0.25341E-02
        -0.44227E-02
        -0.26464E-01
        -0.25218E-01
        -0.24895E-01
        -0.60236E-02
         0.34686E-02
         0.23280E-02
        -0.12504E-01
         0.15089E-02
        -0.43270E-02
        -0.57171E-02
         0.87680E-02
         0.56307E-02
        -0.55229E-02
        -0.48798E-02
         0.24048E-01
         0.13211E-01
         0.15163E-01
        -0.14962E-01
        -0.26040E-02
        -0.73203E-02
        -0.26559E-01
        -0.27317E-01
        -0.26636E-01
        -0.19238E-01
        -0.14794E-01
        -0.86493E-02
         0.93655E-02
         0.11085E-01
        -0.14080E-02
         0.17309E-02
         0.17994E-01
         0.15785E-01
         0.99980E-01
         0.10079E+00
         0.90540E-01
         0.74714E-01
         0.55650E-01
         0.25624E-01
        -0.64089E-02
        -0.20720E-01
        -0.27099E-01
        -0.49776E-01
        -0.88525E-01
        -0.10453E+00
        -0.87660E-01
        -0.83415E-01
        -0.91967E-01
        -0.94752E-01
        -0.86448E-01
        -0.81746E-01
        -0.41558E-01
         0.10840E-01
         0.23840E-01
         0.24198E-01
         0.42941E-01
         0.74400E-01
         0.95278E-01
         0.95004E-01
        -0.58262E-02
         0.12113E-02
        -0.22756E-02
        -0.65833E-02
         0.13373E-01
         0.11432E-01
         0.34775E-02
        -0.71979E-02
        -0.33772E-02
        -0.69084E-02
        -0.12338E-02
         0.51974E-02
         0.16914E-01
        -0.12733E-01
        -0.13341E-01
         0.11401E-01
         0.63911E-02
        -0.37116E-02
        -0.25330E-02
        -0.44152E-02
        -0.26463E-01
        -0.25217E-01
        -0.24897E-01
        -0.60243E-02
         0.34786E-02
         0.23333E-02
        -0.12507E-01
         0.14795E-02
        -0.43569E-02
        -0.57213E-02
         0.87821E-02
         0.56309E-02
        -0.54983E-02
        -0.48812E-02
         0.24061E-01
         0.13206E-01
         0.15159E-01
        -0.14986E-01
        -0.26279E-02
        -0.73437E-02
        -0.26577E-01
        -0.27336E-01
        -0.26642E-01
        -0.19237E-01
        -0.14789E-01
        -0.86454E-02
         0.93634E-02
         0.11088E-01
        -0.13958E-02
         0.17266E-02
         0.17985E-01
         0.15762E-01
         0.99946E-01
         0.10076E+00
         0.90532E-01
         0.74715E-01
         0.55632E-01
         0.25617E-01
        -0.64160E-02
        -0.20733E-01
        -0.27076E-01
        -0.49756E-01
        -0.88510E-01
        -0.10454E+00
        -0.87656E-01
        -0.83412E-01
        -0.91982E-01
        -0.94781E-01
        -0.86467E-01
        -0.81760E-01
        -0.41546E-01
         0.10843E-01
         0.23822E-01
         0.24188E-01
         0.42910E-01
         0.74355E-01
         0.95231E-01
         0.94961E-01
        -0.58354E-02
         0.12174E-02
        -0.22781E-02
        -0.65872E-02
         0.13360E-01
         0.11421E-01
         0.34996E-02
        -0.71782E-02
        -0.33800E-02
        -0.69010E-02
        -0.12053E-02
         0.52099E-02
         0.16924E-01
        -0.12701E-01
        -0.13334E-01
         0.11416E-01
         0.64056E-02
        -0.37008E-02
        -0.25317E-02
        -0.44082E-02
        -0.26463E-01
        -0.25217E-01
        -0.24899E-01
        -0.60249E-02
         0.34879E-02
         0.23383E-02
        -0.12510E-01
         0.14500E-02
        -0.43871E-02
        -0.57259E-02
         0.87958E-02
         0.56305E-02
        -0.54734E-02
        -0.48823E-02
         0.24074E-01
         0.13202E-01
         0.15155E-01
        -0.15009E-01
        -0.26517E-02
        -0.73671E-02
        -0.26595E-01
        -0.27356E-01
        -0.26649E-01
        -0.19237E-01
        -0.14785E-01
        -0.86422E-02
         0.93609E-02
         0.11092E-01
        -0.13833E-02
         0.17228E-02
         0.17975E-01
         0.15740E-01
         0.99912E-01
         0.10074E+00
         0.90523E-01
         0.74715E-01
         0.55615E-01
         0.25609E-01
        -0.64231E-02
        -0.20746E-01
        -0.27054E-01
        -0.49736E-01
        -0.88496E-01
        -0.10454E+00
        -0.87653E-01
        -0.83409E-01
        -0.91996E-01
        -0.94810E-01
        -0.86487E-01
        -0.81774E-01
        -0.41534E-01
         0.10847E-01
         0.23803E-01
         0.24179E-01
         0.42880E-01
         0.74310E-01
         0.95184E-01
         0.94919E-01
        -0.58445E-02
         0.12236E-02
        -0.22805E-02
        -0.65912E-02
         0.13348E-01
         0.11411E-01
         0.35215E-02
        -0.71586E-02
        -0.33828E-02
        -0.68938E-02
        -0.11768E-02
         0.52224E-02
         0.16935E-01
        -0.12669E-01
        -0.13327E-01
         0.11430E-01
         0.64200E-02
        -0.36900E-02
        -0.25303E-02
        -0.44009E-02
        -0.26462E-01
        -0.25216E-01
        -0.24902E-01
        -0.60258E-02
         0.34972E-02
         0.23432E-02
        -0.12512E-01
         0.14205E-02
        -0.44173E-02
        -0.57305E-02
         0.88095E-02
         0.56302E-02
        -0.54486E-02
        -0.48835E-02
         0.24087E-01
         0.13197E-01
         0.15152E-01
        -0.15033E-01
        -0.26756E-02
        -0.73903E-02
        -0.26614E-01
        -0.27375E-01
        -0.26655E-01
        -0.19237E-01
        -0.14781E-01
        -0.86389E-02
         0.93585E-02
         0.11095E-01
        -0.13707E-02
         0.17192E-02
         0.17966E-01
         0.15717E-01
         0.99877E-01
         0.10071E+00
         0.90515E-01
         0.74715E-01
         0.55598E-01
         0.25601E-01
        -0.64301E-02
        -0.20758E-01
        -0.27031E-01
        -0.49717E-01
        -0.88482E-01
        -0.10455E+00
        -0.87650E-01
        -0.83406E-01
        -0.92011E-01
        -0.94839E-01
        -0.86506E-01
        -0.81788E-01
        -0.41521E-01
         0.10850E-01
         0.23785E-01
         0.24170E-01
         0.42849E-01
         0.74265E-01
         0.95137E-01
         0.94877E-01
        -0.58536E-02
         0.12299E-02
        -0.22829E-02
        -0.65952E-02
         0.13335E-01
         0.11400E-01
         0.35435E-02
        -0.71389E-02
        -0.33856E-02
        -0.68865E-02
        -0.11483E-02
         0.52350E-02
         0.16945E-01
        -0.12638E-01
        -0.13319E-01
         0.11444E-01
         0.64345E-02
        -0.36794E-02
        -0.25289E-02
        -0.43938E-02
        -0.26462E-01
        -0.25215E-01
        -0.24903E-01
        -0.60266E-02
         0.35065E-02
         0.23482E-02
        -0.12515E-01
         0.13911E-02
        -0.44474E-02
        -0.57350E-02
         0.88231E-02
         0.56297E-02
        -0.54238E-02
        -0.48847E-02
         0.24100E-01
         0.13193E-01
         0.15148E-01
        -0.15056E-01
        -0.26996E-02
        -0.74139E-02
        -0.26632E-01
        -0.27394E-01
        -0.26661E-01
        -0.19237E-01
        -0.14776E-01
        -0.86354E-02
         0.93561E-02
         0.11099E-01
        -0.13583E-02
         0.17153E-02
         0.17956E-01
         0.15694E-01
         0.99843E-01
         0.10069E+00
         0.90506E-01
         0.74715E-01
         0.55581E-01
         0.25593E-01
        -0.64371E-02
        -0.20771E-01
        -0.27008E-01
        -0.49697E-01
        -0.88467E-01
        -0.10455E+00
        -0.87646E-01
        -0.83404E-01
        -0.92026E-01
        -0.94868E-01
        -0.86526E-01
        -0.81803E-01
        -0.41509E-01
         0.10854E-01
         0.23766E-01
         0.24160E-01
         0.42819E-01
         0.74220E-01
         0.95090E-01
         0.94835E-01
        -0.58627E-02
         0.12361E-02
        -0.22854E-02
        -0.65991E-02
         0.13323E-01
         0.11390E-01
         0.35654E-02
        -0.71193E-02
        -0.33883E-02
        -0.68792E-02
        -0.11198E-02
         0.52476E-02
         0.16956E-01
        -0.12606E-01
        -0.13312E-01
         0.11458E-01
         0.64489E-02
        -0.36688E-02
        -0.25278E-02
        -0.43864E-02
        -0.26462E-01
        -0.25214E-01
        -0.24906E-01
        -0.60274E-02
         0.35157E-02
         0.23531E-02
        -0.12518E-01
         0.13618E-02
        -0.44774E-02
        -0.57394E-02
         0.88367E-02
         0.56294E-02
        -0.53990E-02
        -0.48859E-02
         0.24113E-01
         0.13188E-01
         0.15144E-01
        -0.15079E-01
        -0.27236E-02
        -0.74371E-02
        -0.26651E-01
        -0.27413E-01
        -0.26668E-01
        -0.19237E-01
        -0.14772E-01
        -0.86323E-02
         0.93536E-02
         0.11102E-01
        -0.13457E-02
         0.17115E-02
         0.17947E-01
         0.15672E-01
         0.99808E-01
         0.10066E+00
         0.90497E-01
         0.74715E-01
         0.55563E-01
         0.25585E-01
        -0.64440E-02
        -0.20783E-01
        -0.26985E-01
        -0.49677E-01
        -0.88453E-01
        -0.10455E+00
        -0.87642E-01
        -0.83401E-01
        -0.92041E-01
        -0.94897E-01
        -0.86546E-01
        -0.81817E-01
        -0.41497E-01
         0.10857E-01
         0.23747E-01
         0.24151E-01
         0.42788E-01
         0.74175E-01
         0.95043E-01
         0.94793E-01
        -0.58719E-02
         0.12423E-02
        -0.22878E-02
        -0.66031E-02
         0.13310E-01
         0.11379E-01
         0.35874E-02
        -0.70996E-02
        -0.33911E-02
        -0.68719E-02
        -0.10913E-02
         0.52603E-02
         0.16967E-01
        -0.12574E-01
        -0.13304E-01
         0.11472E-01
         0.64633E-02
        -0.36581E-02
        -0.25265E-02
        -0.43794E-02
        -0.26461E-01
        -0.25213E-01
        -0.24908E-01
        -0.60283E-02
         0.35248E-02
         0.23581E-02
        -0.12521E-01
         0.13326E-02
        -0.45072E-02
        -0.57440E-02
         0.88505E-02
         0.56290E-02
        -0.53740E-02
        -0.48871E-02
         0.24126E-01
         0.13184E-01
         0.15141E-01
        -0.15103E-01
        -0.27476E-02
        -0.74608E-02
        -0.26669E-01
        -0.27432E-01
        -0.26674E-01
        -0.19237E-01
        -0.14768E-01
        -0.86292E-02
         0.93512E-02
         0.11106E-01
        -0.13331E-02
         0.17079E-02
         0.17938E-01
         0.15649E-01
         0.99774E-01
         0.10064E+00
         0.90489E-01
         0.74715E-01
         0.55546E-01
         0.25578E-01
        -0.64509E-02
        -0.20796E-01
        -0.26962E-01
        -0.49657E-01
        -0.88438E-01
        -0.10456E+00
        -0.87639E-01
        -0.83398E-01
        -0.92056E-01
        -0.94926E-01
        -0.86565E-01
        -0.81831E-01
        -0.41485E-01
         0.10860E-01
         0.23728E-01
         0.24142E-01
         0.42758E-01
         0.74131E-01
         0.94997E-01
         0.94751E-01
        -0.58810E-02
         0.12485E-02
        -0.22901E-02
        -0.66070E-02
         0.13298E-01
         0.11369E-01
         0.36093E-02
        -0.70799E-02
        -0.33937E-02
        -0.68645E-02
        -0.10630E-02
         0.52728E-02
         0.16977E-01
        -0.12543E-01
        -0.13297E-01
         0.11487E-01
         0.64777E-02
        -0.36473E-02
        -0.25253E-02
        -0.43721E-02
        -0.26461E-01
        -0.25213E-01
        -0.24910E-01
        -0.60292E-02
         0.35338E-02
         0.23630E-02
        -0.12524E-01
         0.13033E-02
        -0.45372E-02
        -0.57485E-02
         0.88641E-02
         0.56285E-02
        -0.53491E-02
        -0.48883E-02
         0.24139E-01
         0.13180E-01
         0.15137E-01
        -0.15126E-01
        -0.27718E-02
        -0.74842E-02
        -0.26688E-01
        -0.27451E-01
        -0.26681E-01
        -0.19237E-01
        -0.14764E-01
        -0.86255E-02
         0.93488E-02
         0.11109E-01
        -0.13204E-02
         0.17041E-02
         0.17928E-01
         0.15626E-01
         0.99740E-01
         0.10061E+00
         0.90480E-01
         0.74715E-01
         0.55529E-01
         0.25570E-01
        -0.64580E-02
        -0.20808E-01
        -0.26939E-01
        -0.49638E-01
        -0.88424E-01
        -0.10456E+00
        -0.87635E-01
        -0.83395E-01
        -0.92070E-01
        -0.94955E-01
        -0.86584E-01
        -0.81845E-01
        -0.41473E-01
         0.10864E-01
         0.23710E-01
         0.24132E-01
         0.42727E-01
         0.74086E-01
         0.94950E-01
         0.94709E-01
        -0.58902E-02
         0.12547E-02
        -0.22925E-02
        -0.66108E-02
         0.13285E-01
         0.11358E-01
         0.36310E-02
        -0.70602E-02
        -0.33965E-02
        -0.68571E-02
        -0.10346E-02
         0.52853E-02
         0.16988E-01
        -0.12511E-01
        -0.13289E-01
         0.11501E-01
         0.64921E-02
        -0.36367E-02
        -0.25242E-02
        -0.43650E-02
        -0.26460E-01
        -0.25212E-01
        -0.24912E-01
        -0.60301E-02
         0.35429E-02
         0.23679E-02
        -0.12527E-01
         0.12742E-02
        -0.45672E-02
        -0.57529E-02
         0.88777E-02
         0.56281E-02
        -0.53241E-02
        -0.48894E-02
         0.24153E-01
         0.13175E-01
         0.15134E-01
        -0.15149E-01
        -0.27959E-02
        -0.75079E-02
        -0.26706E-01
        -0.27470E-01
        -0.26687E-01
        -0.19237E-01
        -0.14759E-01
        -0.86223E-02
         0.93463E-02
         0.11113E-01
        -0.13078E-02
         0.17003E-02
         0.17919E-01
         0.15604E-01
         0.99705E-01
         0.10059E+00
         0.90471E-01
         0.74715E-01
         0.55512E-01
         0.25562E-01
        -0.64649E-02
        -0.20820E-01
        -0.26916E-01
        -0.49618E-01
        -0.88410E-01
        -0.10457E+00
        -0.87632E-01
        -0.83393E-01
        -0.92085E-01
        -0.94984E-01
        -0.86604E-01
        -0.81859E-01
        -0.41461E-01
         0.10867E-01
         0.23691E-01
         0.24123E-01
         0.42697E-01
         0.74041E-01
         0.94903E-01
         0.94666E-01
        -0.58994E-02
         0.12608E-02
        -0.22949E-02
        -0.66147E-02
         0.13273E-01
         0.11347E-01
         0.36528E-02
        -0.70405E-02
        -0.33992E-02
        -0.68498E-02
        -0.10063E-02
         0.52981E-02
         0.16998E-01
        -0.12479E-01
        -0.13281E-01
         0.11515E-01
         0.65065E-02
        -0.36260E-02
        -0.25230E-02
        -0.43577E-02
        -0.26460E-01
        -0.25211E-01
        -0.24914E-01
        -0.60310E-02
         0.35518E-02
         0.23728E-02
        -0.12530E-01
         0.12451E-02
        -0.45972E-02
        -0.57572E-02
         0.88913E-02
         0.56276E-02
        -0.52991E-02
        -0.48906E-02
         0.24166E-01
         0.13171E-01
         0.15130E-01
        -0.15172E-01
        -0.28200E-02
        -0.75314E-02
        -0.26724E-01
        -0.27489E-01
        -0.26693E-01
        -0.19237E-01
        -0.14755E-01
        -0.86192E-02
         0.93438E-02
         0.11116E-01
        -0.12949E-02
         0.16966E-02
         0.17910E-01
         0.15581E-01
         0.99671E-01
         0.10056E+00
         0.90462E-01
         0.74715E-01
         0.55495E-01
         0.25554E-01
        -0.64717E-02
        -0.20832E-01
        -0.26894E-01
        -0.49598E-01
        -0.88395E-01
        -0.10457E+00
        -0.87628E-01
        -0.83390E-01
        -0.92100E-01
        -0.95013E-01
        -0.86624E-01
        -0.81873E-01
        -0.41449E-01
         0.10870E-01
         0.23672E-01
         0.24114E-01
         0.42666E-01
         0.73996E-01
         0.94856E-01
         0.94624E-01
        -0.59085E-02
         0.12670E-02
        -0.22972E-02
        -0.66186E-02
         0.13260E-01
         0.11337E-01
         0.36746E-02
        -0.70208E-02
        -0.34019E-02
        -0.68424E-02
        -0.97799E-03
         0.53107E-02
         0.17009E-01
        -0.12448E-01
        -0.13273E-01
         0.11529E-01
         0.65208E-02
        -0.36155E-02
        -0.25217E-02
        -0.43506E-02
        -0.26460E-01
        -0.25210E-01
        -0.24917E-01
        -0.60319E-02
         0.35607E-02
         0.23777E-02
        -0.12532E-01
         0.12160E-02
        -0.46271E-02
        -0.57616E-02
         0.89049E-02
         0.56272E-02
        -0.52742E-02
        -0.48917E-02
         0.24179E-01
         0.13167E-01
         0.15126E-01
        -0.15194E-01
        -0.28443E-02
        -0.75547E-02
        -0.26743E-01
        -0.27508E-01
        -0.26700E-01
        -0.19237E-01
        -0.14751E-01
        -0.86157E-02
         0.93413E-02
         0.11120E-01
        -0.12823E-02
         0.16928E-02
         0.17900E-01
         0.15558E-01
         0.99636E-01
         0.10054E+00
         0.90454E-01
         0.74715E-01
         0.55478E-01
         0.25546E-01
        -0.64783E-02
        -0.20844E-01
        -0.26871E-01
        -0.49578E-01
        -0.88381E-01
        -0.10458E+00
        -0.87625E-01
        -0.83387E-01
        -0.92115E-01
        -0.95042E-01
        -0.86643E-01
        -0.81887E-01
        -0.41437E-01
         0.10873E-01
         0.23654E-01
         0.24105E-01
         0.42636E-01
         0.73951E-01
         0.94810E-01
         0.94582E-01
        -0.59177E-02
         0.12732E-02
        -0.22996E-02
        -0.66224E-02
         0.13248E-01
         0.11327E-01
         0.36964E-02
        -0.70011E-02
        -0.34045E-02
        -0.68347E-02
        -0.94969E-03
         0.53233E-02
         0.17020E-01
        -0.12416E-01
        -0.13266E-01
         0.11543E-01
         0.65352E-02
        -0.36049E-02
        -0.25205E-02
        -0.43433E-02
        -0.26459E-01
        -0.25209E-01
        -0.24919E-01
        -0.60329E-02
         0.35693E-02
         0.23826E-02
        -0.12535E-01
         0.11867E-02
        -0.46567E-02
        -0.57659E-02
         0.89185E-02
         0.56269E-02
        -0.52493E-02
        -0.48930E-02
         0.24192E-01
         0.13162E-01
         0.15123E-01
        -0.15217E-01
        -0.28688E-02
        -0.75785E-02
        -0.26760E-01
        -0.27527E-01
        -0.26706E-01
        -0.19237E-01
        -0.14746E-01
        -0.86125E-02
         0.93390E-02
         0.11124E-01
        -0.12696E-02
         0.16889E-02
         0.17891E-01
         0.15536E-01
         0.99602E-01
         0.10051E+00
         0.90445E-01
         0.74715E-01
         0.55461E-01
         0.25538E-01
        -0.64849E-02
        -0.20856E-01
        -0.26848E-01
        -0.49558E-01
        -0.88367E-01
        -0.10458E+00
        -0.87622E-01
        -0.83384E-01
        -0.92129E-01
        -0.95070E-01
        -0.86663E-01
        -0.81901E-01
        -0.41425E-01
         0.10876E-01
         0.23635E-01
         0.24096E-01
         0.42605E-01
         0.73906E-01
         0.94763E-01
         0.94540E-01
        -0.59269E-02
         0.12793E-02
        -0.23019E-02
        -0.66262E-02
         0.13236E-01
         0.11316E-01
         0.37180E-02
        -0.69814E-02
        -0.34068E-02
        -0.68262E-02
        -0.92142E-03
         0.53360E-02
         0.17030E-01
        -0.12385E-01
        -0.13258E-01
         0.11557E-01
         0.65495E-02
        -0.35943E-02
        -0.25197E-02
        -0.43364E-02
        -0.26459E-01
        -0.25208E-01
        -0.24921E-01
        -0.60337E-02
         0.35774E-02
         0.23877E-02
        -0.12536E-01
         0.11566E-02
        -0.46865E-02
        -0.57705E-02
         0.89322E-02
         0.56263E-02
        -0.52243E-02
        -0.48942E-02
         0.24205E-01
         0.13158E-01
         0.15119E-01
        -0.15239E-01
        -0.28940E-02
        -0.76017E-02
        -0.26777E-01
        -0.27544E-01
        -0.26711E-01
        -0.19237E-01
        -0.14742E-01
        -0.86091E-02
         0.93365E-02
         0.11127E-01
        -0.12570E-02
         0.16851E-02
         0.17882E-01
         0.15513E-01
         0.99567E-01
         0.10048E+00
         0.90436E-01
         0.74715E-01
         0.55443E-01
         0.25531E-01
        -0.64916E-02
        -0.20869E-01
        -0.26826E-01
        -0.49538E-01
        -0.88352E-01
        -0.10459E+00
        -0.87621E-01
        -0.83382E-01
        -0.92144E-01
        -0.95099E-01
        -0.86683E-01
        -0.81914E-01
        -0.41413E-01
         0.10879E-01
         0.23616E-01
         0.24086E-01
         0.42575E-01
         0.73861E-01
         0.94716E-01
         0.94498E-01
        -0.59360E-02
         0.12855E-02
        -0.23042E-02
        -0.66300E-02
         0.13223E-01
         0.11305E-01
         0.37398E-02
        -0.69617E-02
        -0.34089E-02
        -0.68169E-02
        -0.89323E-03
         0.53486E-02
         0.17041E-01
        -0.12353E-01
        -0.13249E-01
         0.11571E-01
         0.65636E-02
        -0.35837E-02
        -0.25185E-02
        -0.43292E-02
        -0.26458E-01
        -0.25207E-01
        -0.24923E-01
        -0.60346E-02
         0.35848E-02
         0.23926E-02
        -0.12537E-01
         0.11256E-02
        -0.47163E-02
        -0.57750E-02
         0.89458E-02
         0.56259E-02
        -0.51993E-02
        -0.48955E-02
         0.24219E-01
         0.13154E-01
         0.15116E-01
        -0.15261E-01
        -0.29198E-02
        -0.76251E-02
        -0.26792E-01
        -0.27560E-01
        -0.26716E-01
        -0.19237E-01
        -0.14738E-01
        -0.86059E-02
         0.93341E-02
         0.11131E-01
        -0.12443E-02
         0.16814E-02
         0.17872E-01
         0.15490E-01
         0.99532E-01
         0.10046E+00
         0.90427E-01
         0.74715E-01
         0.55426E-01
         0.25523E-01
        -0.64981E-02
        -0.20880E-01
        -0.26804E-01
        -0.49517E-01
        -0.88337E-01
        -0.10460E+00
        -0.87621E-01
        -0.83380E-01
        -0.92159E-01
        -0.95128E-01
        -0.86702E-01
        -0.81928E-01
        -0.41400E-01
         0.10882E-01
         0.23598E-01
         0.24077E-01
         0.42544E-01
         0.73817E-01
         0.94669E-01
         0.94456E-01
        -0.59452E-02
         0.12916E-02
        -0.23066E-02
        -0.66339E-02
         0.13211E-01
         0.11295E-01
         0.37613E-02
        -0.69421E-02
        -0.34109E-02
        -0.68074E-02
        -0.86525E-03
         0.53610E-02
         0.17051E-01
        -0.12321E-01
        -0.13241E-01
         0.11585E-01
         0.65777E-02
        -0.35732E-02
        -0.25173E-02
        -0.43222E-02
        -0.26458E-01
        -0.25206E-01
        -0.24925E-01
        -0.60356E-02
         0.35921E-02
         0.23974E-02
        -0.12537E-01
         0.10945E-02
        -0.47458E-02
        -0.57793E-02
         0.89595E-02
         0.56254E-02
        -0.51744E-02
        -0.48967E-02
         0.24232E-01
         0.13150E-01
         0.15112E-01
        -0.15282E-01
        -0.29460E-02
        -0.76479E-02
        -0.26807E-01
        -0.27575E-01
        -0.26720E-01
        -0.19237E-01
        -0.14733E-01
        -0.86027E-02
         0.93318E-02
         0.11135E-01
        -0.12317E-02
         0.16775E-02
         0.17863E-01
         0.15468E-01
         0.99498E-01
         0.10043E+00
         0.90419E-01
         0.74715E-01
         0.55409E-01
         0.25515E-01
        -0.65046E-02
        -0.20892E-01
        -0.26782E-01
        -0.49495E-01
        -0.88322E-01
        -0.10461E+00
        -0.87622E-01
        -0.83377E-01
        -0.92173E-01
        -0.95157E-01
        -0.86722E-01
        -0.81942E-01
        -0.41388E-01
         0.10886E-01
         0.23579E-01
         0.24068E-01
         0.42514E-01
         0.73772E-01
         0.94623E-01
         0.94414E-01
        -0.59780E-02
         0.13017E-02
        -0.23185E-02
        -0.66638E-02
         0.13250E-01
         0.11329E-01
         0.37955E-02
        -0.69528E-02
        -0.34261E-02
        -0.68272E-02
        -0.84432E-03
         0.53915E-02
         0.17127E-01
        -0.12342E-01
        -0.13288E-01
         0.11644E-01
         0.66175E-02
        -0.35776E-02
        -0.25255E-02
        -0.43315E-02
        -0.26557E-01
        -0.25302E-01
        -0.25020E-01
        -0.60600E-02
         0.36130E-02
         0.24112E-02
        -0.12590E-01
         0.10698E-02
        -0.47923E-02
        -0.58065E-02
         0.90079E-02
         0.56469E-02
        -0.51723E-02
        -0.49178E-02
         0.24339E-01
         0.13197E-01
         0.15167E-01
        -0.15365E-01
        -0.29818E-02
        -0.76996E-02
        -0.26928E-01
        -0.27700E-01
        -0.26830E-01
        -0.19308E-01
        -0.14785E-01
        -0.86314E-02
         0.93662E-02
         0.11183E-01
        -0.12253E-02
         0.16801E-02
         0.17924E-01
         0.15507E-01
         0.99860E-01
         0.10080E+00
         0.90768E-01
         0.75006E-01
         0.55612E-01
         0.25607E-01
        -0.65397E-02
        -0.20987E-01
        -0.26871E-01
        -0.49682E-01
        -0.88674E-01
        -0.10504E+00
        -0.87956E-01
        -0.83684E-01
        -0.92523E-01
        -0.95525E-01
        -0.87052E-01
        -0.82262E-01
        -0.41540E-01
         0.10935E-01
         0.23655E-01
         0.24149E-01
         0.42649E-01
         0.74014E-01
         0.94937E-01
         0.94729E-01
        -0.89195E-02
         0.19554E-02
        -0.34526E-02
        -0.99582E-02
         0.19024E-01
         0.16421E-01
         0.56863E-02
        -0.10306E-01
        -0.50958E-02
        -0.10103E-01
        -0.12223E-02
         0.76100E-02
         0.24532E-01
        -0.18026E-01
        -0.18843E-01
         0.17387E-01
         0.98563E-02
        -0.53355E-02
        -0.37188E-02
        -0.63926E-02
        -0.38006E-01
        -0.36677E-01
        -0.35905E-01
        -0.89940E-02
         0.54006E-02
         0.36106E-02
        -0.18552E-01
         0.15708E-02
        -0.72064E-02
        -0.86680E-02
         0.13457E-01
         0.84101E-02
        -0.77110E-02
        -0.73500E-02
         0.34314E-01
         0.19120E-01
         0.21984E-01
        -0.22302E-01
        -0.44038E-02
        -0.11381E-01
        -0.39213E-01
        -0.40633E-01
        -0.39324E-01
        -0.27908E-01
        -0.21299E-01
        -0.12080E-01
         0.13448E-01
         0.16271E-01
        -0.17794E-02
         0.24418E-02
         0.25439E-01
         0.22407E-01
         0.12484E+00
         0.12579E+00
         0.11332E+00
         0.93915E-01
         0.69566E-01
         0.32101E-01
        -0.83049E-02
        -0.26848E-01
        -0.34290E-01
        -0.63039E-01
        -0.11267E+00
        -0.13323E+00
        -0.11280E+00
        -0.10765E+00
        -0.11750E+00
        -0.11993E+00
        -0.10895E+00
        -0.10239E+00
        -0.51668E-01
         0.13628E-01
         0.29764E-01
         0.30520E-01
         0.53703E-01
         0.93526E-01
         0.11959E+00
         0.11890E+00
  
SCALARS                      strain_xy  double 1
LOOKUP_TABLE default
         0.26633E-04
         0.59494E-04
         0.52640E-03
        -0.19649E-04
        -0.38374E-19
         0.37501E-20
         0.56384E-19
         0.85890E-20
         0.53695E-02
        -0.24000E-02
         0.25098E-18
         0.19903E-18
        -0.18719E-03
         0.38735E-04
         0.22153E-19
        -0.66534E-20
        -0.62643E-04
        -0.94047E-03
         0.11029E-20
         0.16806E-19
         0.67540E-03
         0.40927E-02
         0.43292E-02
         0.17089E-18
         0.13609E-18
        -0.19873E-18
         0.42694E-03
         0.33315E-02
         0.23010E-18
         0.35410E-18
         0.16707E-03
        -0.30346E-03
        -0.27935E-04
        -0.12145E-19
         0.47911E-19
        -0.61280E-21
         0.14198E-02
         0.60694E-03
         0.12823E-18
         0.10622E-18
         0.26925E-02
         0.22762E-02
         0.21859E-18
         0.14732E-18
         0.27560E-02
         0.51805E-03
        -0.79630E-20
         0.59285E-19
        -0.61903E-03
         0.17521E-19
         0.17570E-03
        -0.39502E-21
        -0.35123E-04
         0.13243E-18
        -0.17023E-03
         0.20378E-19
        -0.24295E-02
         0.12756E-03
         0.47359E-21
        -0.23234E-20
        -0.21606E-04
         0.21221E-02
         0.12906E-19
         0.33104E-19
        -0.94903E-04
        -0.26204E-20
        -0.13250E-02
         0.20997E-19
         0.65449E-02
         0.23583E-02
         0.16218E-19
        -0.15531E-18
         0.52099E-02
        -0.24832E-18
        -0.17056E-02
         0.16632E-18
        -0.53206E-02
         0.24780E-19
        -0.93467E-02
         0.32223E-19
        -0.18746E-01
        -0.10578E-01
         0.75755E-19
        -0.19209E-19
        -0.13985E-02
        -0.23116E-20
         0.52158E-02
        -0.20848E-18
         0.74535E-02
        -0.23279E-18
         0.15993E-01
         0.71995E-02
        -0.14736E-18
         0.16357E-18
        -0.11771E-02
         0.14893E-18
        -0.29333E-02
         0.63976E-19
        -0.67805E-02
         0.16987E-18
        -0.16607E-01
        -0.95777E-02
         0.36423E-18
         0.18212E-18
         0.25650E-01
        -0.11055E-01
        -0.23665E-18
         0.28981E-18
         0.62062E-01
        -0.67256E-18
         0.83633E-01
        -0.73520E-18
         0.71122E-01
        -0.49897E-18
         0.56276E-01
        -0.52926E-19
         0.22819E-01
         0.14918E-18
        -0.28722E-01
         0.92363E-19
        -0.64242E-01
         0.84435E-19
        -0.85068E-01
         0.18116E-18
        -0.87670E-01
         0.22026E-18
        -0.78597E-01
         0.86779E-19
        -0.46043E-01
         0.52907E-19
         0.33304E-02
         0.86475E-19
         0.42662E-01
         0.57966E-19
         0.71205E-01
        -0.20671E-18
         0.97031E-01
        -0.54240E-18
         0.80015E-01
        -0.68835E-18
         0.48443E-01
        -0.42601E-18
         0.51902E-02
         0.81278E-19
        -0.36193E-01
         0.17226E-18
        -0.53250E-01
         0.27453E-18
        -0.63407E-01
         0.54061E-18
        -0.56909E-01
         0.70150E-18
        -0.54068E-01
         0.49839E-18
        -0.45864E-01
         0.39415E-18
        -0.72553E-05
         0.19166E-05
         0.19682E-05
        -0.12607E-05
         0.15355E-04
         0.12960E-04
         0.19964E-06
        -0.45881E-05
        -0.21000E-05
        -0.53735E-05
        -0.14626E-05
        -0.26854E-04
        -0.38984E-04
         0.14475E-05
         0.21969E-04
        -0.31661E-05
         0.23438E-05
         0.70793E-06
         0.13871E-05
        -0.11360E-05
         0.56457E-05
         0.49909E-05
        -0.14951E-04
         0.39285E-06
         0.34186E-05
         0.37628E-06
         0.61256E-07
         0.12034E-06
         0.14684E-05
        -0.50008E-05
        -0.27533E-05
         0.57201E-06
         0.94334E-06
        -0.73142E-07
        -0.35683E-05
        -0.12620E-04
        -0.25889E-04
         0.38690E-04
         0.20101E-04
         0.35533E-04
         0.67696E-04
         0.16316E-04
        -0.13633E-04
        -0.27365E-04
        -0.31883E-04
        -0.39427E-04
         0.49973E-05
         0.15384E-04
         0.47380E-05
         0.15624E-04
         0.47828E-04
         0.18992E-04
        -0.15178E-03
         0.19840E-03
        -0.47780E-03
        -0.56621E-03
        -0.53670E-03
        -0.31898E-03
         0.18652E-04
         0.20118E-03
         0.29244E-03
         0.47372E-03
         0.49434E-03
         0.27796E-03
         0.11389E-03
         0.48449E-04
        -0.79275E-04
        -0.31598E-03
        -0.52755E-03
        -0.59476E-03
        -0.34653E-03
         0.63641E-04
         0.23437E-03
         0.24683E-03
         0.38772E-03
         0.42326E-03
         0.32886E-03
         0.30622E-03
        -0.48787E-04
         0.63165E-05
        -0.11128E-04
        -0.76852E-05
         0.86322E-04
         0.33178E-04
         0.76650E-05
        -0.58496E-04
        -0.17626E-04
        -0.52305E-04
         0.55865E-05
        -0.88212E-04
        -0.17192E-03
         0.18946E-04
         0.22710E-03
        -0.36349E-04
         0.61323E-05
         0.35066E-05
         0.10636E-04
         0.36114E-05
         0.95530E-04
         0.64640E-04
        -0.36980E-04
         0.75494E-05
         0.17332E-04
        -0.28866E-05
         0.39281E-05
        -0.96958E-06
        -0.39037E-05
        -0.28812E-04
        -0.30097E-04
        -0.51300E-05
         0.12617E-04
         0.94549E-05
         0.22211E-04
        -0.37368E-04
        -0.81840E-04
         0.19140E-03
         0.28260E-04
         0.72206E-04
         0.19488E-03
        -0.49535E-04
        -0.99733E-04
        -0.90076E-04
        -0.89321E-04
        -0.10676E-03
         0.67139E-04
         0.52415E-04
        -0.87080E-05
         0.12378E-04
         0.13146E-03
         0.86889E-05
        -0.91028E-03
         0.13122E-02
        -0.27410E-02
        -0.29217E-02
        -0.28136E-02
        -0.15550E-02
         0.37817E-03
         0.10701E-02
         0.13510E-02
         0.24501E-02
         0.27329E-02
         0.10626E-02
         0.35509E-03
         0.28947E-03
        -0.14770E-03
        -0.12903E-02
        -0.23593E-02
        -0.31058E-02
        -0.20595E-02
         0.59357E-03
         0.11529E-02
         0.11043E-02
         0.19573E-02
         0.23862E-02
         0.15867E-02
         0.14976E-02
        -0.48909E-04
         0.63410E-05
        -0.11154E-04
        -0.77468E-05
         0.86248E-04
         0.33173E-04
         0.77234E-05
        -0.58447E-04
        -0.17677E-04
        -0.52459E-04
         0.54767E-05
        -0.88418E-04
        -0.17207E-03
         0.18900E-04
         0.22727E-03
        -0.36388E-04
         0.62017E-05
         0.34917E-05
         0.10638E-04
         0.35849E-05
         0.95756E-04
         0.64694E-04
        -0.36986E-04
         0.75462E-05
         0.17450E-04
        -0.28861E-05
         0.39755E-05
        -0.95667E-06
        -0.39052E-05
        -0.28892E-04
        -0.30146E-04
        -0.51182E-05
         0.12592E-04
         0.94746E-05
         0.22013E-04
        -0.37375E-04
        -0.81810E-04
         0.19201E-03
         0.28592E-04
         0.72517E-04
         0.19515E-03
        -0.49430E-04
        -0.99840E-04
        -0.90109E-04
        -0.89292E-04
        -0.10670E-03
         0.67133E-04
         0.52401E-04
        -0.86329E-05
         0.12319E-04
         0.13132E-03
         0.85446E-05
        -0.90912E-03
         0.13119E-02
        -0.27413E-02
        -0.29217E-02
        -0.28124E-02
        -0.15540E-02
         0.37844E-03
         0.10705E-02
         0.13496E-02
         0.24485E-02
         0.27319E-02
         0.10631E-02
         0.35502E-03
         0.29005E-03
        -0.14651E-03
        -0.12913E-02
        -0.23608E-02
        -0.31071E-02
        -0.20589E-02
         0.59380E-03
         0.11519E-02
         0.11038E-02
         0.19554E-02
         0.23831E-02
         0.15841E-02
         0.14950E-02
        -0.49033E-04
         0.63654E-05
        -0.11181E-04
        -0.78090E-05
         0.86173E-04
         0.33170E-04
         0.77822E-05
        -0.58397E-04
        -0.17727E-04
        -0.52608E-04
         0.53670E-05
        -0.88625E-04
        -0.17222E-03
         0.18851E-04
         0.22744E-03
        -0.36430E-04
         0.62721E-05
         0.34766E-05
         0.10640E-04
         0.35584E-05
         0.95987E-04
         0.64748E-04
        -0.36998E-04
         0.75420E-05
         0.17570E-04
        -0.28853E-05
         0.40262E-05
        -0.94411E-06
        -0.39041E-05
        -0.28969E-04
        -0.30196E-04
        -0.51042E-05
         0.12567E-04
         0.94941E-05
         0.21815E-04
        -0.37385E-04
        -0.81778E-04
         0.19261E-03
         0.28925E-04
         0.72832E-04
         0.19544E-03
        -0.49312E-04
        -0.99943E-04
        -0.90156E-04
        -0.89271E-04
        -0.10666E-03
         0.67127E-04
         0.52386E-04
        -0.85565E-05
         0.12259E-04
         0.13118E-03
         0.84014E-05
        -0.90796E-03
         0.13116E-02
        -0.27416E-02
        -0.29218E-02
        -0.28112E-02
        -0.15530E-02
         0.37871E-03
         0.10708E-02
         0.13482E-02
         0.24468E-02
         0.27309E-02
         0.10637E-02
         0.35497E-03
         0.29063E-03
        -0.14532E-03
        -0.12923E-02
        -0.23623E-02
        -0.31085E-02
        -0.20583E-02
         0.59403E-03
         0.11510E-02
         0.11033E-02
         0.19535E-02
         0.23799E-02
         0.15816E-02
         0.14924E-02
        -0.49156E-04
         0.63904E-05
        -0.11207E-04
        -0.78715E-05
         0.86098E-04
         0.33166E-04
         0.78410E-05
        -0.58345E-04
        -0.17775E-04
        -0.52748E-04
         0.52574E-05
        -0.88836E-04
        -0.17237E-03
         0.18805E-04
         0.22761E-03
        -0.36475E-04
         0.63445E-05
         0.34614E-05
         0.10644E-04
         0.35305E-05
         0.96225E-04
         0.64798E-04
        -0.37030E-04
         0.75349E-05
         0.17695E-04
        -0.28838E-05
         0.40783E-05
        -0.93368E-06
        -0.38956E-05
        -0.29039E-04
        -0.30246E-04
        -0.50863E-05
         0.12541E-04
         0.95138E-05
         0.21616E-04
        -0.37392E-04
        -0.81746E-04
         0.19321E-03
         0.29261E-04
         0.73152E-04
         0.19575E-03
        -0.49156E-04
        -0.10004E-03
        -0.90236E-04
        -0.89263E-04
        -0.10660E-03
         0.67128E-04
         0.52372E-04
        -0.84801E-05
         0.12199E-04
         0.13104E-03
         0.82588E-05
        -0.90680E-03
         0.13114E-02
        -0.27418E-02
        -0.29218E-02
        -0.28100E-02
        -0.15520E-02
         0.37899E-03
         0.10711E-02
         0.13467E-02
         0.24452E-02
         0.27300E-02
         0.10643E-02
         0.35495E-03
         0.29120E-03
        -0.14412E-03
        -0.12934E-02
        -0.23641E-02
        -0.31099E-02
        -0.20577E-02
         0.59427E-03
         0.11501E-02
         0.11028E-02
         0.19515E-02
         0.23768E-02
         0.15791E-02
         0.14897E-02
        -0.49278E-04
         0.64155E-05
        -0.11234E-04
        -0.79337E-05
         0.86025E-04
         0.33162E-04
         0.78999E-05
        -0.58290E-04
        -0.17821E-04
        -0.52876E-04
         0.51475E-05
        -0.89044E-04
        -0.17252E-03
         0.18759E-04
         0.22777E-03
        -0.36523E-04
         0.64186E-05
         0.34461E-05
         0.10646E-04
         0.35014E-05
         0.96470E-04
         0.64842E-04
        -0.37080E-04
         0.75248E-05
         0.17827E-04
        -0.28811E-05
         0.41361E-05
        -0.92512E-06
        -0.38794E-05
        -0.29103E-04
        -0.30298E-04
        -0.50636E-05
         0.12515E-04
         0.95334E-05
         0.21416E-04
        -0.37400E-04
        -0.81717E-04
         0.19382E-03
         0.29597E-04
         0.73480E-04
         0.19609E-03
        -0.48958E-04
        -0.10012E-03
        -0.90351E-04
        -0.89271E-04
        -0.10656E-03
         0.67136E-04
         0.52363E-04
        -0.84045E-05
         0.12139E-04
         0.13090E-03
         0.81158E-05
        -0.90564E-03
         0.13111E-02
        -0.27421E-02
        -0.29219E-02
        -0.28088E-02
        -0.15510E-02
         0.37926E-03
         0.10715E-02
         0.13453E-02
         0.24435E-02
         0.27291E-02
         0.10651E-02
         0.35497E-03
         0.29177E-03
        -0.14292E-03
        -0.12946E-02
        -0.23660E-02
        -0.31114E-02
        -0.20571E-02
         0.59450E-03
         0.11492E-02
         0.11024E-02
         0.19496E-02
         0.23736E-02
         0.15766E-02
         0.14871E-02
        -0.49396E-04
         0.64421E-05
        -0.11257E-04
        -0.79966E-05
         0.85951E-04
         0.33158E-04
         0.79579E-05
        -0.58228E-04
        -0.17867E-04
        -0.52997E-04
         0.50378E-05
        -0.89252E-04
        -0.17266E-03
         0.18716E-04
         0.22794E-03
        -0.36574E-04
         0.64943E-05
         0.34310E-05
         0.10648E-04
         0.34722E-05
         0.96716E-04
         0.64886E-04
        -0.37139E-04
         0.75139E-05
         0.17956E-04
        -0.28779E-05
         0.41981E-05
        -0.91724E-06
        -0.38597E-05
        -0.29167E-04
        -0.30348E-04
        -0.50379E-05
         0.12488E-04
         0.95534E-05
         0.21215E-04
        -0.37412E-04
        -0.81692E-04
         0.19443E-03
         0.29936E-04
         0.73812E-04
         0.19643E-03
        -0.48748E-04
        -0.10019E-03
        -0.90478E-04
        -0.89294E-04
        -0.10652E-03
         0.67144E-04
         0.52359E-04
        -0.83277E-05
         0.12084E-04
         0.13077E-03
         0.79735E-05
        -0.90447E-03
         0.13109E-02
        -0.27423E-02
        -0.29219E-02
        -0.28076E-02
        -0.15500E-02
         0.37951E-03
         0.10718E-02
         0.13439E-02
         0.24419E-02
         0.27282E-02
         0.10659E-02
         0.35501E-03
         0.29233E-03
        -0.14173E-03
        -0.12958E-02
        -0.23681E-02
        -0.31130E-02
        -0.20565E-02
         0.59470E-03
         0.11482E-02
         0.11019E-02
         0.19477E-02
         0.23705E-02
         0.15740E-02
         0.14845E-02
        -0.49503E-04
         0.64730E-05
        -0.11277E-04
        -0.80609E-05
         0.85880E-04
         0.33155E-04
         0.80150E-05
        -0.58154E-04
        -0.17914E-04
        -0.53114E-04
         0.49281E-05
        -0.89464E-04
        -0.17283E-03
         0.18683E-04
         0.22811E-03
        -0.36626E-04
         0.65711E-05
         0.34159E-05
         0.10652E-04
         0.34431E-05
         0.96964E-04
         0.64933E-04
        -0.37199E-04
         0.75034E-05
         0.18078E-04
        -0.28737E-05
         0.42712E-05
        -0.90918E-06
        -0.38387E-05
        -0.29232E-04
        -0.30394E-04
        -0.50095E-05
         0.12461E-04
         0.95730E-05
         0.21013E-04
        -0.37427E-04
        -0.81672E-04
         0.19504E-03
         0.30278E-04
         0.74149E-04
         0.19679E-03
        -0.48532E-04
        -0.10026E-03
        -0.90606E-04
        -0.89323E-04
        -0.10649E-03
         0.67156E-04
         0.52368E-04
        -0.82471E-05
         0.12038E-04
         0.13064E-03
         0.78300E-05
        -0.90331E-03
         0.13106E-02
        -0.27426E-02
        -0.29219E-02
        -0.28064E-02
        -0.15490E-02
         0.37977E-03
         0.10721E-02
         0.13425E-02
         0.24402E-02
         0.27273E-02
         0.10668E-02
         0.35504E-03
         0.29290E-03
        -0.14053E-03
        -0.12970E-02
        -0.23701E-02
        -0.31145E-02
        -0.20559E-02
         0.59487E-03
         0.11473E-02
         0.11014E-02
         0.19458E-02
         0.23673E-02
         0.15715E-02
         0.14818E-02
        -0.49607E-04
         0.65053E-05
        -0.11295E-04
        -0.81259E-05
         0.85812E-04
         0.33151E-04
         0.80712E-05
        -0.58074E-04
        -0.17962E-04
        -0.53228E-04
         0.48182E-05
        -0.89675E-04
        -0.17299E-03
         0.18653E-04
         0.22827E-03
        -0.36679E-04
         0.66486E-05
         0.34005E-05
         0.10654E-04
         0.34146E-05
         0.97211E-04
         0.64979E-04
        -0.37257E-04
         0.74931E-05
         0.18196E-04
        -0.28692E-05
         0.43472E-05
        -0.90087E-06
        -0.38173E-05
        -0.29299E-04
        -0.30438E-04
        -0.49793E-05
         0.12434E-04
         0.95929E-05
         0.20810E-04
        -0.37446E-04
        -0.81659E-04
         0.19566E-03
         0.30622E-04
         0.74487E-04
         0.19715E-03
        -0.48317E-04
        -0.10034E-03
        -0.90738E-04
        -0.89357E-04
        -0.10648E-03
         0.67169E-04
         0.52380E-04
        -0.81651E-05
         0.11997E-04
         0.13052E-03
         0.76873E-05
        -0.90215E-03
         0.13103E-02
        -0.27428E-02
        -0.29220E-02
        -0.28052E-02
        -0.15480E-02
         0.38003E-03
         0.10725E-02
         0.13411E-02
         0.24386E-02
         0.27265E-02
         0.10676E-02
         0.35508E-03
         0.29348E-03
        -0.13932E-03
        -0.12983E-02
        -0.23722E-02
        -0.31160E-02
        -0.20552E-02
         0.59502E-03
         0.11463E-02
         0.11010E-02
         0.19439E-02
         0.23642E-02
         0.15690E-02
         0.14792E-02
        -0.49710E-04
         0.65380E-05
        -0.11312E-04
        -0.81910E-05
         0.85742E-04
         0.33146E-04
         0.81273E-05
        -0.57993E-04
        -0.18010E-04
        -0.53342E-04
         0.47084E-05
        -0.89886E-04
        -0.17316E-03
         0.18626E-04
         0.22844E-03
        -0.36732E-04
         0.67268E-05
         0.33852E-05
         0.10657E-04
         0.33857E-05
         0.97458E-04
         0.65026E-04
        -0.37317E-04
         0.74833E-05
         0.18314E-04
        -0.28645E-05
         0.44252E-05
        -0.89209E-06
        -0.37953E-05
        -0.29367E-04
        -0.30482E-04
        -0.49496E-05
         0.12406E-04
         0.96126E-05
         0.20605E-04
        -0.37461E-04
        -0.81644E-04
         0.19628E-03
         0.30969E-04
         0.74823E-04
         0.19751E-03
        -0.48102E-04
        -0.10041E-03
        -0.90872E-04
        -0.89395E-04
        -0.10646E-03
         0.67181E-04
         0.52393E-04
        -0.80832E-05
         0.11957E-04
         0.13040E-03
         0.75441E-05
        -0.90099E-03
         0.13101E-02
        -0.27430E-02
        -0.29220E-02
        -0.28040E-02
        -0.15470E-02
         0.38028E-03
         0.10728E-02
         0.13397E-02
         0.24369E-02
         0.27256E-02
         0.10684E-02
         0.35512E-03
         0.29406E-03
        -0.13812E-03
        -0.12995E-02
        -0.23742E-02
        -0.31174E-02
        -0.20545E-02
         0.59517E-03
         0.11454E-02
         0.11005E-02
         0.19420E-02
         0.23611E-02
         0.15665E-02
         0.14766E-02
        -0.49812E-04
         0.65709E-05
        -0.11330E-04
        -0.82560E-05
         0.85672E-04
         0.33141E-04
         0.81837E-05
        -0.57912E-04
        -0.18058E-04
        -0.53456E-04
         0.45986E-05
        -0.90097E-04
        -0.17333E-03
         0.18595E-04
         0.22860E-03
        -0.36784E-04
         0.68055E-05
         0.33701E-05
         0.10659E-04
         0.33569E-05
         0.97705E-04
         0.65071E-04
        -0.37373E-04
         0.74733E-05
         0.18432E-04
        -0.28599E-05
         0.45011E-05
        -0.88292E-06
        -0.37727E-05
        -0.29433E-04
        -0.30526E-04
        -0.49195E-05
         0.12378E-04
         0.96324E-05
         0.20400E-04
        -0.37480E-04
        -0.81631E-04
         0.19690E-03
         0.31316E-04
         0.75165E-04
         0.19786E-03
        -0.47888E-04
        -0.10048E-03
        -0.91004E-04
        -0.89429E-04
        -0.10644E-03
         0.67195E-04
         0.52408E-04
        -0.80020E-05
         0.11914E-04
         0.13028E-03
         0.74018E-05
        -0.89982E-03
         0.13098E-02
        -0.27432E-02
        -0.29220E-02
        -0.28027E-02
        -0.15460E-02
         0.38053E-03
         0.10731E-02
         0.13383E-02
         0.24352E-02
         0.27247E-02
         0.10692E-02
         0.35517E-03
         0.29464E-03
        -0.13693E-03
        -0.13008E-02
        -0.23762E-02
        -0.31189E-02
        -0.20539E-02
         0.59531E-03
         0.11444E-02
         0.11001E-02
         0.19401E-02
         0.23580E-02
         0.15641E-02
         0.14740E-02
        -0.49915E-04
         0.66035E-05
        -0.11348E-04
        -0.83207E-05
         0.85604E-04
         0.33138E-04
         0.82403E-05
        -0.57830E-04
        -0.18106E-04
        -0.53569E-04
         0.44883E-05
        -0.90310E-04
        -0.17350E-03
         0.18567E-04
         0.22877E-03
        -0.36837E-04
         0.68846E-05
         0.33550E-05
         0.10662E-04
         0.33278E-05
         0.97951E-04
         0.65115E-04
        -0.37432E-04
         0.74637E-05
         0.18550E-04
        -0.28551E-05
         0.45784E-05
        -0.87321E-06
        -0.37495E-05
        -0.29500E-04
        -0.30570E-04
        -0.48897E-05
         0.12349E-04
         0.96522E-05
         0.20194E-04
        -0.37497E-04
        -0.81618E-04
         0.19752E-03
         0.31666E-04
         0.75501E-04
         0.19822E-03
        -0.47673E-04
        -0.10056E-03
        -0.91132E-04
        -0.89464E-04
        -0.10643E-03
         0.67209E-04
         0.52421E-04
        -0.79203E-05
         0.11873E-04
         0.13016E-03
         0.72597E-05
        -0.89864E-03
         0.13095E-02
        -0.27434E-02
        -0.29220E-02
        -0.28015E-02
        -0.15450E-02
         0.38077E-03
         0.10734E-02
         0.13369E-02
         0.24336E-02
         0.27238E-02
         0.10700E-02
         0.35521E-03
         0.29522E-03
        -0.13572E-03
        -0.13020E-02
        -0.23783E-02
        -0.31204E-02
        -0.20532E-02
         0.59545E-03
         0.11435E-02
         0.10996E-02
         0.19382E-02
         0.23548E-02
         0.15616E-02
         0.14713E-02
        -0.50018E-04
         0.66360E-05
        -0.11365E-04
        -0.83862E-05
         0.85534E-04
         0.33133E-04
         0.82966E-05
        -0.57747E-04
        -0.18155E-04
        -0.53681E-04
         0.43782E-05
        -0.90523E-04
        -0.17366E-03
         0.18538E-04
         0.22893E-03
        -0.36890E-04
         0.69641E-05
         0.33397E-05
         0.10665E-04
         0.32992E-05
         0.98198E-04
         0.65159E-04
        -0.37491E-04
         0.74541E-05
         0.18668E-04
        -0.28506E-05
         0.46540E-05
        -0.86316E-06
        -0.37254E-05
        -0.29567E-04
        -0.30613E-04
        -0.48597E-05
         0.12320E-04
         0.96723E-05
         0.19987E-04
        -0.37514E-04
        -0.81603E-04
         0.19814E-03
         0.32018E-04
         0.75844E-04
         0.19858E-03
        -0.47460E-04
        -0.10063E-03
        -0.91264E-04
        -0.89498E-04
        -0.10641E-03
         0.67221E-04
         0.52437E-04
        -0.78387E-05
         0.11833E-04
         0.13004E-03
         0.71179E-05
        -0.89748E-03
         0.13092E-02
        -0.27436E-02
        -0.29221E-02
        -0.28003E-02
        -0.15440E-02
         0.38101E-03
         0.10738E-02
         0.13355E-02
         0.24319E-02
         0.27229E-02
         0.10709E-02
         0.35525E-03
         0.29579E-03
        -0.13452E-03
        -0.13033E-02
        -0.23803E-02
        -0.31219E-02
        -0.20526E-02
         0.59560E-03
         0.11425E-02
         0.10992E-02
         0.19363E-02
         0.23517E-02
         0.15591E-02
         0.14687E-02
        -0.50121E-04
         0.66689E-05
        -0.11382E-04
        -0.84518E-05
         0.85464E-04
         0.33129E-04
         0.83529E-05
        -0.57664E-04
        -0.18203E-04
        -0.53791E-04
         0.42682E-05
        -0.90734E-04
        -0.17383E-03
         0.18507E-04
         0.22910E-03
        -0.36942E-04
         0.70438E-05
         0.33244E-05
         0.10668E-04
         0.32707E-05
         0.98445E-04
         0.65204E-04
        -0.37548E-04
         0.74446E-05
         0.18786E-04
        -0.28457E-05
         0.47318E-05
        -0.85259E-06
        -0.37009E-05
        -0.29634E-04
        -0.30657E-04
        -0.48295E-05
         0.12291E-04
         0.96920E-05
         0.19780E-04
        -0.37533E-04
        -0.81590E-04
         0.19876E-03
         0.32372E-04
         0.76184E-04
         0.19894E-03
        -0.47244E-04
        -0.10070E-03
        -0.91397E-04
        -0.89537E-04
        -0.10639E-03
         0.67235E-04
         0.52451E-04
        -0.77569E-05
         0.11792E-04
         0.12991E-03
         0.69770E-05
        -0.89631E-03
         0.13090E-02
        -0.27438E-02
        -0.29221E-02
        -0.27991E-02
        -0.15430E-02
         0.38127E-03
         0.10741E-02
         0.13340E-02
         0.24302E-02
         0.27220E-02
         0.10717E-02
         0.35529E-03
         0.29637E-03
        -0.13331E-03
        -0.13045E-02
        -0.23824E-02
        -0.31233E-02
        -0.20519E-02
         0.59574E-03
         0.11416E-02
         0.10987E-02
         0.19344E-02
         0.23486E-02
         0.15567E-02
         0.14661E-02
        -0.50224E-04
         0.67013E-05
        -0.11399E-04
        -0.85174E-05
         0.85397E-04
         0.33124E-04
         0.84095E-05
        -0.57579E-04
        -0.18251E-04
        -0.53901E-04
         0.41582E-05
        -0.90945E-04
        -0.17400E-03
         0.18478E-04
         0.22926E-03
        -0.36994E-04
         0.71241E-05
         0.33093E-05
         0.10672E-04
         0.32423E-05
         0.98692E-04
         0.65247E-04
        -0.37607E-04
         0.74351E-05
         0.18904E-04
        -0.28408E-05
         0.48075E-05
        -0.84166E-06
        -0.36760E-05
        -0.29700E-04
        -0.30700E-04
        -0.47995E-05
         0.12261E-04
         0.97120E-05
         0.19571E-04
        -0.37550E-04
        -0.81574E-04
         0.19938E-03
         0.32727E-04
         0.76526E-04
         0.19930E-03
        -0.47028E-04
        -0.10077E-03
        -0.91528E-04
        -0.89571E-04
        -0.10638E-03
         0.67249E-04
         0.52464E-04
        -0.76753E-05
         0.11751E-04
         0.12980E-03
         0.68373E-05
        -0.89514E-03
         0.13087E-02
        -0.27440E-02
        -0.29221E-02
        -0.27979E-02
        -0.15420E-02
         0.38151E-03
         0.10743E-02
         0.13326E-02
         0.24285E-02
         0.27211E-02
         0.10725E-02
         0.35533E-03
         0.29695E-03
        -0.13211E-03
        -0.13057E-02
        -0.23844E-02
        -0.31248E-02
        -0.20513E-02
         0.59587E-03
         0.11406E-02
         0.10983E-02
         0.19325E-02
         0.23455E-02
         0.15542E-02
         0.14635E-02
        -0.50327E-04
         0.67334E-05
        -0.11416E-04
        -0.85830E-05
         0.85327E-04
         0.33119E-04
         0.84659E-05
        -0.57495E-04
        -0.18299E-04
        -0.54011E-04
         0.40480E-05
        -0.91161E-04
        -0.17416E-03
         0.18446E-04
         0.22942E-03
        -0.37047E-04
         0.72050E-05
         0.32943E-05
         0.10674E-04
         0.32137E-05
         0.98939E-04
         0.65290E-04
        -0.37664E-04
         0.74258E-05
         0.19022E-04
        -0.28359E-05
         0.48846E-05
        -0.83022E-06
        -0.36506E-05
        -0.29766E-04
        -0.30744E-04
        -0.47693E-05
         0.12231E-04
         0.97319E-05
         0.19362E-04
        -0.37569E-04
        -0.81561E-04
         0.20000E-03
         0.33084E-04
         0.76868E-04
         0.19966E-03
        -0.46812E-04
        -0.10085E-03
        -0.91658E-04
        -0.89606E-04
        -0.10636E-03
         0.67260E-04
         0.52480E-04
        -0.75927E-05
         0.11711E-04
         0.12968E-03
         0.66969E-05
        -0.89397E-03
         0.13084E-02
        -0.27442E-02
        -0.29221E-02
        -0.27967E-02
        -0.15410E-02
         0.38174E-03
         0.10746E-02
         0.13312E-02
         0.24268E-02
         0.27202E-02
         0.10733E-02
         0.35536E-03
         0.29753E-03
        -0.13091E-03
        -0.13070E-02
        -0.23865E-02
        -0.31263E-02
        -0.20506E-02
         0.59601E-03
         0.11397E-02
         0.10978E-02
         0.19306E-02
         0.23424E-02
         0.15518E-02
         0.14609E-02
        -0.50430E-04
         0.67662E-05
        -0.11433E-04
        -0.86484E-05
         0.85257E-04
         0.33115E-04
         0.85222E-05
        -0.57409E-04
        -0.18348E-04
        -0.54120E-04
         0.39376E-05
        -0.91373E-04
        -0.17433E-03
         0.18417E-04
         0.22957E-03
        -0.37100E-04
         0.72866E-05
         0.32793E-05
         0.10677E-04
         0.31854E-05
         0.99186E-04
         0.65332E-04
        -0.37722E-04
         0.74167E-05
         0.19140E-04
        -0.28309E-05
         0.49597E-05
        -0.81835E-06
        -0.36247E-05
        -0.29832E-04
        -0.30787E-04
        -0.47394E-05
         0.12201E-04
         0.97521E-05
         0.19151E-04
        -0.37586E-04
        -0.81547E-04
         0.20063E-03
         0.33443E-04
         0.77208E-04
         0.20002E-03
        -0.46596E-04
        -0.10092E-03
        -0.91785E-04
        -0.89644E-04
        -0.10634E-03
         0.67274E-04
         0.52493E-04
        -0.75112E-05
         0.11669E-04
         0.12956E-03
         0.65569E-05
        -0.89280E-03
         0.13081E-02
        -0.27444E-02
        -0.29222E-02
        -0.27955E-02
        -0.15399E-02
         0.38197E-03
         0.10749E-02
         0.13298E-02
         0.24251E-02
         0.27193E-02
         0.10741E-02
         0.35540E-03
         0.29809E-03
        -0.12970E-03
        -0.13082E-02
        -0.23886E-02
        -0.31277E-02
        -0.20499E-02
         0.59614E-03
         0.11387E-02
         0.10974E-02
         0.19287E-02
         0.23393E-02
         0.15493E-02
         0.14583E-02
        -0.50533E-04
         0.67986E-05
        -0.11451E-04
        -0.87142E-05
         0.85190E-04
         0.33110E-04
         0.85791E-05
        -0.57323E-04
        -0.18396E-04
        -0.54226E-04
         0.38270E-05
        -0.91586E-04
        -0.17450E-03
         0.18385E-04
         0.22973E-03
        -0.37153E-04
         0.73687E-05
         0.32642E-05
         0.10680E-04
         0.31573E-05
         0.99432E-04
         0.65371E-04
        -0.37779E-04
         0.74076E-05
         0.19256E-04
        -0.28258E-05
         0.50368E-05
        -0.80585E-06
        -0.35978E-05
        -0.29897E-04
        -0.30830E-04
        -0.47094E-05
         0.12171E-04
         0.97724E-05
         0.18940E-04
        -0.37603E-04
        -0.81531E-04
         0.20125E-03
         0.33807E-04
         0.77552E-04
         0.20037E-03
        -0.46382E-04
        -0.10099E-03
        -0.91918E-04
        -0.89679E-04
        -0.10633E-03
         0.67288E-04
         0.52509E-04
        -0.74302E-05
         0.11628E-04
         0.12944E-03
         0.64186E-05
        -0.89163E-03
         0.13079E-02
        -0.27446E-02
        -0.29222E-02
        -0.27943E-02
        -0.15389E-02
         0.38218E-03
         0.10752E-02
         0.13284E-02
         0.24234E-02
         0.27185E-02
         0.10750E-02
         0.35543E-03
         0.29866E-03
        -0.12850E-03
        -0.13094E-02
        -0.23906E-02
        -0.31292E-02
        -0.20493E-02
         0.59627E-03
         0.11377E-02
         0.10969E-02
         0.19268E-02
         0.23361E-02
         0.15469E-02
         0.14557E-02
        -0.50636E-04
         0.68309E-05
        -0.11468E-04
        -0.87802E-05
         0.85121E-04
         0.33105E-04
         0.86354E-05
        -0.57236E-04
        -0.18443E-04
        -0.54325E-04
         0.37164E-05
        -0.91800E-04
        -0.17466E-03
         0.18354E-04
         0.22988E-03
        -0.37205E-04
         0.74517E-05
         0.32491E-05
         0.10685E-04
         0.31306E-05
         0.99678E-04
         0.65410E-04
        -0.37838E-04
         0.73981E-05
         0.19371E-04
        -0.28210E-05
         0.51126E-05
        -0.79244E-06
        -0.35707E-05
        -0.29962E-04
        -0.30873E-04
        -0.46788E-05
         0.12140E-04
         0.97927E-05
         0.18728E-04
        -0.37623E-04
        -0.81519E-04
         0.20187E-03
         0.34180E-04
         0.77886E-04
         0.20071E-03
        -0.46162E-04
        -0.10107E-03
        -0.92049E-04
        -0.89715E-04
        -0.10631E-03
         0.67301E-04
         0.52524E-04
        -0.73493E-05
         0.11587E-04
         0.12932E-03
         0.62803E-05
        -0.89046E-03
         0.13076E-02
        -0.27447E-02
        -0.29222E-02
        -0.27931E-02
        -0.15379E-02
         0.38241E-03
         0.10755E-02
         0.13271E-02
         0.24216E-02
         0.27176E-02
         0.10758E-02
         0.35544E-03
         0.29923E-03
        -0.12731E-03
        -0.13107E-02
        -0.23927E-02
        -0.31307E-02
        -0.20486E-02
         0.59641E-03
         0.11368E-02
         0.10965E-02
         0.19249E-02
         0.23330E-02
         0.15445E-02
         0.14531E-02
        -0.50739E-04
         0.68631E-05
        -0.11484E-04
        -0.88462E-05
         0.85051E-04
         0.33099E-04
         0.86919E-05
        -0.57148E-04
        -0.18489E-04
        -0.54417E-04
         0.36059E-05
        -0.92012E-04
        -0.17483E-03
         0.18323E-04
         0.23004E-03
        -0.37257E-04
         0.75360E-05
         0.32340E-05
         0.10688E-04
         0.31046E-05
         0.99925E-04
         0.65447E-04
        -0.37896E-04
         0.73892E-05
         0.19482E-04
        -0.28158E-05
         0.51914E-05
        -0.77796E-06
        -0.35430E-05
        -0.30022E-04
        -0.30916E-04
        -0.46487E-05
         0.12108E-04
         0.98128E-05
         0.18515E-04
        -0.37640E-04
        -0.81505E-04
         0.20249E-03
         0.34561E-04
         0.78220E-04
         0.20104E-03
        -0.45939E-04
        -0.10114E-03
        -0.92179E-04
        -0.89754E-04
        -0.10630E-03
         0.67315E-04
         0.52538E-04
        -0.72678E-05
         0.11547E-04
         0.12920E-03
         0.61413E-05
        -0.88928E-03
         0.13073E-02
        -0.27449E-02
        -0.29222E-02
        -0.27919E-02
        -0.15369E-02
         0.38263E-03
         0.10758E-02
         0.13257E-02
         0.24198E-02
         0.27168E-02
         0.10767E-02
         0.35543E-03
         0.29980E-03
        -0.12610E-03
        -0.13119E-02
        -0.23947E-02
        -0.31321E-02
        -0.20480E-02
         0.59654E-03
         0.11358E-02
         0.10960E-02
         0.19230E-02
         0.23299E-02
         0.15421E-02
         0.14505E-02
        -0.50843E-04
         0.68955E-05
        -0.11502E-04
        -0.89121E-05
         0.84985E-04
         0.33095E-04
         0.87486E-05
        -0.57060E-04
        -0.18535E-04
        -0.54506E-04
         0.34960E-05
        -0.92222E-04
        -0.17500E-03
         0.18289E-04
         0.23018E-03
        -0.37310E-04
         0.76209E-05
         0.32191E-05
         0.10691E-04
         0.30795E-05
         0.10017E-03
         0.65483E-04
        -0.37950E-04
         0.73808E-05
         0.19592E-04
        -0.28109E-05
         0.52681E-05
        -0.76276E-06
        -0.35151E-05
        -0.30082E-04
        -0.30960E-04
        -0.46192E-05
         0.12077E-04
         0.98335E-05
         0.18303E-04
        -0.37658E-04
        -0.81488E-04
         0.20311E-03
         0.34947E-04
         0.78543E-04
         0.20136E-03
        -0.45720E-04
        -0.10122E-03
        -0.92307E-04
        -0.89787E-04
        -0.10628E-03
         0.67329E-04
         0.52554E-04
        -0.71873E-05
         0.11505E-04
         0.12908E-03
         0.60039E-05
        -0.88810E-03
         0.13070E-02
        -0.27451E-02
        -0.29223E-02
        -0.27907E-02
        -0.15359E-02
         0.38284E-03
         0.10760E-02
         0.13243E-02
         0.24179E-02
         0.27160E-02
         0.10776E-02
         0.35539E-03
         0.30036E-03
        -0.12490E-03
        -0.13131E-02
        -0.23968E-02
        -0.31336E-02
        -0.20473E-02
         0.59669E-03
         0.11349E-02
         0.10956E-02
         0.19211E-02
         0.23269E-02
         0.15397E-02
         0.14479E-02
        -0.51433E-04
         0.69893E-05
        -0.11634E-04
        -0.90604E-05
         0.85748E-04
         0.33409E-04
         0.88873E-05
        -0.57546E-04
        -0.18754E-04
        -0.55134E-04
         0.34346E-05
        -0.93309E-04
        -0.17686E-03
         0.18445E-04
         0.23273E-03
        -0.37717E-04
         0.77753E-05
         0.32351E-05
         0.10794E-04
         0.30858E-05
         0.10135E-03
         0.66148E-04
        -0.38327E-04
         0.74476E-05
         0.19889E-04
        -0.28356E-05
         0.53927E-05
        -0.75470E-06
        -0.35295E-05
        -0.30441E-04
        -0.31301E-04
        -0.46421E-05
         0.12164E-04
         0.99485E-05
         0.18292E-04
        -0.38026E-04
        -0.82243E-04
         0.20578E-03
         0.35661E-04
         0.79643E-04
         0.20370E-03
        -0.46015E-04
        -0.10231E-03
        -0.93246E-04
        -0.90641E-04
        -0.10727E-03
         0.67978E-04
         0.53059E-04
        -0.71829E-05
         0.11575E-04
         0.13023E-03
         0.59256E-05
        -0.89703E-03
         0.13217E-02
        -0.27767E-02
        -0.29551E-02
        -0.28216E-02
        -0.15529E-02
         0.38778E-03
         0.10891E-02
         0.13390E-02
         0.24458E-02
         0.27480E-02
         0.10907E-02
         0.35909E-03
         0.30400E-03
        -0.12503E-03
        -0.13276E-02
        -0.24233E-02
        -0.31691E-02
        -0.20703E-02
         0.60386E-03
         0.11466E-02
         0.11069E-02
         0.19404E-02
         0.23495E-02
         0.15541E-02
         0.14611E-02
        -0.11618E-03
         0.15971E-04
        -0.26201E-04
        -0.20625E-04
         0.18005E-03
         0.71449E-04
         0.20241E-04
        -0.12885E-03
        -0.42146E-04
        -0.12301E-03
         0.74422E-05
        -0.18977E-03
        -0.36980E-03
         0.40180E-04
         0.47868E-03
        -0.85295E-04
         0.17614E-04
         0.72948E-05
         0.23792E-04
         0.68209E-05
         0.21160E-03
         0.14156E-03
        -0.80227E-04
         0.16658E-04
         0.45281E-04
        -0.64468E-05
         0.12049E-04
        -0.16909E-05
        -0.80605E-05
        -0.69126E-04
        -0.70838E-04
        -0.10445E-04
         0.27557E-04
         0.22577E-04
         0.36571E-04
        -0.81247E-04
        -0.17581E-03
         0.44252E-03
         0.79115E-04
         0.17739E-03
         0.44102E-03
        -0.10079E-03
        -0.22409E-03
        -0.19806E-03
        -0.19135E-03
        -0.21417E-03
         0.14264E-03
         0.11406E-03
        -0.15484E-04
         0.24873E-04
         0.26721E-03
         0.12400E-04
        -0.14449E-02
         0.21226E-02
        -0.44649E-02
        -0.47742E-02
        -0.45555E-02
        -0.25232E-02
         0.64569E-03
         0.18419E-02
         0.22550E-02
         0.40749E-02
         0.45859E-02
         0.18102E-02
         0.60677E-03
         0.51691E-03
        -0.20564E-03
        -0.21492E-02
        -0.39003E-02
        -0.50564E-02
        -0.33050E-02
         0.96725E-03
         0.18688E-02
         0.18184E-02
         0.31675E-02
         0.38604E-02
         0.25364E-02
         0.23668E-02
  
SCALARS                      strain_eq  double 1
LOOKUP_TABLE default
         0.10678E+02
         0.10537E+02
         0.10626E+02
         0.10787E+02
         0.29131E-08
         0.32300E-08
         0.31381E-08
         0.28237E-08
         0.10527E+02
         0.10578E+02
         0.31768E-08
         0.30381E-08
         0.10332E+02
         0.10325E+02
         0.34757E-08
         0.33099E-08
         0.10764E+02
         0.10335E+02
         0.25928E-08
         0.29162E-08
         0.10178E+02
         0.10054E+02
         0.10248E+02
         0.35797E-08
         0.34147E-08
         0.33965E-08
         0.10060E+02
         0.98801E+01
         0.34674E-08
         0.31492E-08
         0.10756E+02
         0.10570E+02
         0.10936E+02
         0.28215E-08
         0.26495E-08
         0.25379E-08
         0.10648E+02
         0.10411E+02
         0.30760E-08
         0.28043E-08
         0.10553E+02
         0.10369E+02
         0.28612E-08
         0.24684E-08
         0.10707E+02
         0.10777E+02
         0.30896E-08
         0.32040E-08
         0.10224E+02
         0.27691E-08
         0.10764E+02
         0.32197E-08
         0.10009E+02
         0.30273E-08
         0.99532E+01
         0.27943E-08
         0.99527E+01
         0.10154E+02
         0.28317E-08
         0.27845E-08
         0.10752E+02
         0.10679E+02
         0.28571E-08
         0.32342E-08
         0.10797E+02
         0.27423E-08
         0.10711E+02
         0.30034E-08
         0.10478E+02
         0.10461E+02
         0.32126E-08
         0.32105E-08
         0.10412E+02
         0.32490E-08
         0.98159E+01
         0.25971E-08
         0.97838E+01
         0.24173E-08
         0.97976E+01
         0.25181E-08
         0.98789E+01
         0.99734E+01
         0.24356E-08
         0.25298E-08
         0.10157E+02
         0.23825E-08
         0.10703E+02
         0.31989E-08
         0.10615E+02
         0.32575E-08
         0.10539E+02
         0.10508E+02
         0.32545E-08
         0.31925E-08
         0.10558E+02
         0.28649E-08
         0.10591E+02
         0.28051E-08
         0.10559E+02
         0.30341E-08
         0.10543E+02
         0.10578E+02
         0.31192E-08
         0.31107E-08
         0.10352E+02
         0.10427E+02
         0.29660E-08
         0.28629E-08
         0.10329E+02
         0.28804E-08
         0.10415E+02
         0.28122E-08
         0.10326E+02
         0.28088E-08
         0.10120E+02
         0.26333E-08
         0.99158E+01
         0.22282E-08
         0.97968E+01
         0.18828E-08
         0.97849E+01
         0.18261E-08
         0.97896E+01
         0.19456E-08
         0.99202E+01
         0.20070E-08
         0.10152E+02
         0.18801E-08
         0.10412E+02
         0.17159E-08
         0.10571E+02
         0.17759E-08
         0.10727E+02
         0.21051E-08
         0.10829E+02
         0.24575E-08
         0.10822E+02
         0.26192E-08
         0.10587E+02
         0.27967E-08
         0.10427E+02
         0.29391E-08
         0.10357E+02
         0.27422E-08
         0.10441E+02
         0.24143E-08
         0.10493E+02
         0.24096E-08
         0.10423E+02
         0.26516E-08
         0.10432E+02
         0.28137E-08
         0.10485E+02
         0.27225E-08
         0.10555E+02
         0.26619E-08
         0.39661E+00
         0.39336E+00
         0.39381E+00
         0.39779E+00
         0.39005E+00
         0.39428E+00
         0.38877E+00
         0.39175E+00
         0.39723E+00
         0.39399E+00
         0.38539E+00
         0.38465E+00
         0.38739E+00
         0.38733E+00
         0.38588E+00
         0.39763E+00
         0.39693E+00
         0.39881E+00
         0.39298E+00
         0.39415E+00
         0.39269E+00
         0.39385E+00
         0.39169E+00
         0.39204E+00
         0.39408E+00
         0.39391E+00
         0.39037E+00
         0.39069E+00
         0.38786E+00
         0.39211E+00
         0.39729E+00
         0.39330E+00
         0.39725E+00
         0.39470E+00
         0.38384E+00
         0.38760E+00
         0.38939E+00
         0.38747E+00
         0.38711E+00
         0.38346E+00
         0.38088E+00
         0.38733E+00
         0.39282E+00
         0.39203E+00
         0.38925E+00
         0.38404E+00
         0.38844E+00
         0.39284E+00
         0.39253E+00
         0.38915E+00
         0.38551E+00
         0.39044E+00
         0.37583E+00
         0.38186E+00
         0.38118E+00
         0.38269E+00
         0.38276E+00
         0.38026E+00
         0.37680E+00
         0.37507E+00
         0.37537E+00
         0.37527E+00
         0.37362E+00
         0.38214E+00
         0.38427E+00
         0.38507E+00
         0.38719E+00
         0.38881E+00
         0.38900E+00
         0.38692E+00
         0.37811E+00
         0.38055E+00
         0.38319E+00
         0.38286E+00
         0.38241E+00
         0.37937E+00
         0.38375E+00
         0.38538E+00
         0.20696E-01
         0.12436E-01
         0.11730E-01
         0.80435E-02
         0.21493E-01
         0.14860E-01
         0.65594E-02
         0.20355E-01
         0.12751E-01
         0.19180E-01
         0.93518E-02
         0.40297E-01
         0.30600E-01
         0.15305E-01
         0.42204E-01
         0.15038E-01
         0.76186E-02
         0.48607E-02
         0.10126E-01
         0.54821E-02
         0.31690E-01
         0.29731E-01
         0.28953E-01
         0.75347E-02
         0.12378E-01
         0.39358E-02
         0.14439E-01
         0.23453E-02
         0.52885E-02
         0.13426E-01
         0.12847E-01
         0.68333E-02
         0.83211E-02
         0.71985E-02
         0.27783E-01
         0.16626E-01
         0.21521E-01
         0.34419E-01
         0.26476E-01
         0.24643E-01
         0.34999E-01
         0.31727E-01
         0.31939E-01
         0.24725E-01
         0.22080E-01
         0.30205E-01
         0.19801E-01
         0.16837E-01
         0.13885E-01
         0.16396E-01
         0.26809E-01
         0.18406E-01
         0.11769E+00
         0.12050E+00
         0.12596E+00
         0.12504E+00
         0.13329E+00
         0.14311E+00
         0.13733E+00
         0.12212E+00
         0.11901E+00
         0.12736E+00
         0.12482E+00
         0.12312E+00
         0.10178E+00
         0.96759E-01
         0.10629E+00
         0.11385E+00
         0.11815E+00
         0.12902E+00
         0.12411E+00
         0.12747E+00
         0.11478E+00
         0.10898E+00
         0.11622E+00
         0.11362E+00
         0.11692E+00
         0.11593E+00
         0.20712E-01
         0.12438E-01
         0.11736E-01
         0.80551E-02
         0.21483E-01
         0.14852E-01
         0.65793E-02
         0.20375E-01
         0.12773E-01
         0.19237E-01
         0.93516E-02
         0.40296E-01
         0.30612E-01
         0.15269E-01
         0.42248E-01
         0.15050E-01
         0.76400E-02
         0.48485E-02
         0.10132E-01
         0.54700E-02
         0.31692E-01
         0.29729E-01
         0.28951E-01
         0.75345E-02
         0.12431E-01
         0.39349E-02
         0.14444E-01
         0.23204E-02
         0.53137E-02
         0.13449E-01
         0.12859E-01
         0.68311E-02
         0.83071E-02
         0.72051E-02
         0.27796E-01
         0.16621E-01
         0.21516E-01
         0.34473E-01
         0.26535E-01
         0.24677E-01
         0.35022E-01
         0.31744E-01
         0.31942E-01
         0.24725E-01
         0.22076E-01
         0.30203E-01
         0.19802E-01
         0.16836E-01
         0.13865E-01
         0.16374E-01
         0.26794E-01
         0.18378E-01
         0.11764E+00
         0.12047E+00
         0.12596E+00
         0.12504E+00
         0.13327E+00
         0.14306E+00
         0.13727E+00
         0.12209E+00
         0.11898E+00
         0.12732E+00
         0.12480E+00
         0.12313E+00
         0.10177E+00
         0.96755E-01
         0.10631E+00
         0.11388E+00
         0.11818E+00
         0.12905E+00
         0.12410E+00
         0.12746E+00
         0.11477E+00
         0.10898E+00
         0.11618E+00
         0.11355E+00
         0.11685E+00
         0.11587E+00
         0.20728E-01
         0.12441E-01
         0.11743E-01
         0.80667E-02
         0.21473E-01
         0.14844E-01
         0.65993E-02
         0.20394E-01
         0.12795E-01
         0.19293E-01
         0.93515E-02
         0.40294E-01
         0.30624E-01
         0.15233E-01
         0.42292E-01
         0.15063E-01
         0.76617E-02
         0.48361E-02
         0.10138E-01
         0.54582E-02
         0.31695E-01
         0.29727E-01
         0.28950E-01
         0.75342E-02
         0.12484E-01
         0.39338E-02
         0.14449E-01
         0.22965E-02
         0.53387E-02
         0.13472E-01
         0.12872E-01
         0.68289E-02
         0.82930E-02
         0.72116E-02
         0.27808E-01
         0.16617E-01
         0.21511E-01
         0.34526E-01
         0.26595E-01
         0.24711E-01
         0.35046E-01
         0.31761E-01
         0.31947E-01
         0.24725E-01
         0.22072E-01
         0.30203E-01
         0.19802E-01
         0.16835E-01
         0.13845E-01
         0.16351E-01
         0.26779E-01
         0.18349E-01
         0.11760E+00
         0.12044E+00
         0.12596E+00
         0.12505E+00
         0.13325E+00
         0.14302E+00
         0.13722E+00
         0.12205E+00
         0.11895E+00
         0.12728E+00
         0.12478E+00
         0.12313E+00
         0.10177E+00
         0.96751E-01
         0.10632E+00
         0.11391E+00
         0.11821E+00
         0.12908E+00
         0.12409E+00
         0.12745E+00
         0.11476E+00
         0.10897E+00
         0.11614E+00
         0.11347E+00
         0.11679E+00
         0.11581E+00
         0.20744E-01
         0.12444E-01
         0.11750E-01
         0.80783E-02
         0.21464E-01
         0.14835E-01
         0.66194E-02
         0.20414E-01
         0.12817E-01
         0.19348E-01
         0.93515E-02
         0.40293E-01
         0.30637E-01
         0.15197E-01
         0.42335E-01
         0.15076E-01
         0.76842E-02
         0.48237E-02
         0.10144E-01
         0.54457E-02
         0.31699E-01
         0.29725E-01
         0.28950E-01
         0.75334E-02
         0.12536E-01
         0.39320E-02
         0.14453E-01
         0.22754E-02
         0.53623E-02
         0.13493E-01
         0.12885E-01
         0.68272E-02
         0.82788E-02
         0.72181E-02
         0.27820E-01
         0.16612E-01
         0.21506E-01
         0.34580E-01
         0.26656E-01
         0.24748E-01
         0.35071E-01
         0.31778E-01
         0.31953E-01
         0.24728E-01
         0.22070E-01
         0.30202E-01
         0.19803E-01
         0.16834E-01
         0.13826E-01
         0.16329E-01
         0.26764E-01
         0.18321E-01
         0.11756E+00
         0.12041E+00
         0.12596E+00
         0.12505E+00
         0.13323E+00
         0.14297E+00
         0.13716E+00
         0.12202E+00
         0.11892E+00
         0.12725E+00
         0.12476E+00
         0.12314E+00
         0.10176E+00
         0.96748E-01
         0.10633E+00
         0.11394E+00
         0.11825E+00
         0.12911E+00
         0.12409E+00
         0.12745E+00
         0.11474E+00
         0.10896E+00
         0.11611E+00
         0.11340E+00
         0.11672E+00
         0.11575E+00
         0.20759E-01
         0.12447E-01
         0.11757E-01
         0.80898E-02
         0.21454E-01
         0.14827E-01
         0.66394E-02
         0.20433E-01
         0.12839E-01
         0.19401E-01
         0.93518E-02
         0.40292E-01
         0.30649E-01
         0.15161E-01
         0.42379E-01
         0.15091E-01
         0.77076E-02
         0.48112E-02
         0.10151E-01
         0.54330E-02
         0.31704E-01
         0.29725E-01
         0.28952E-01
         0.75323E-02
         0.12586E-01
         0.39293E-02
         0.14456E-01
         0.22570E-02
         0.53844E-02
         0.13512E-01
         0.12898E-01
         0.68257E-02
         0.82647E-02
         0.72247E-02
         0.27833E-01
         0.16608E-01
         0.21501E-01
         0.34634E-01
         0.26717E-01
         0.24785E-01
         0.35098E-01
         0.31797E-01
         0.31960E-01
         0.24733E-01
         0.22069E-01
         0.30204E-01
         0.19806E-01
         0.16834E-01
         0.13806E-01
         0.16306E-01
         0.26749E-01
         0.18293E-01
         0.11752E+00
         0.12039E+00
         0.12595E+00
         0.12505E+00
         0.13321E+00
         0.14292E+00
         0.13710E+00
         0.12199E+00
         0.11889E+00
         0.12721E+00
         0.12474E+00
         0.12315E+00
         0.10175E+00
         0.96746E-01
         0.10635E+00
         0.11398E+00
         0.11828E+00
         0.12914E+00
         0.12408E+00
         0.12744E+00
         0.11473E+00
         0.10896E+00
         0.11607E+00
         0.11332E+00
         0.11666E+00
         0.11569E+00
         0.20774E-01
         0.12449E-01
         0.11763E-01
         0.81014E-02
         0.21444E-01
         0.14818E-01
         0.66589E-02
         0.20451E-01
         0.12861E-01
         0.19454E-01
         0.93528E-02
         0.40291E-01
         0.30661E-01
         0.15126E-01
         0.42423E-01
         0.15106E-01
         0.77311E-02
         0.47987E-02
         0.10158E-01
         0.54207E-02
         0.31710E-01
         0.29725E-01
         0.28955E-01
         0.75311E-02
         0.12636E-01
         0.39263E-02
         0.14460E-01
         0.22401E-02
         0.54064E-02
         0.13530E-01
         0.12912E-01
         0.68237E-02
         0.82505E-02
         0.72312E-02
         0.27845E-01
         0.16604E-01
         0.21497E-01
         0.34688E-01
         0.26780E-01
         0.24824E-01
         0.35125E-01
         0.31815E-01
         0.31968E-01
         0.24739E-01
         0.22069E-01
         0.30206E-01
         0.19809E-01
         0.16834E-01
         0.13788E-01
         0.16284E-01
         0.26735E-01
         0.18265E-01
         0.11747E+00
         0.12036E+00
         0.12595E+00
         0.12505E+00
         0.13318E+00
         0.14287E+00
         0.13704E+00
         0.12196E+00
         0.11886E+00
         0.12717E+00
         0.12472E+00
         0.12315E+00
         0.10175E+00
         0.96744E-01
         0.10637E+00
         0.11401E+00
         0.11833E+00
         0.12917E+00
         0.12408E+00
         0.12743E+00
         0.11472E+00
         0.10895E+00
         0.11603E+00
         0.11325E+00
         0.11659E+00
         0.11563E+00
         0.20787E-01
         0.12449E-01
         0.11769E-01
         0.81131E-02
         0.21435E-01
         0.14810E-01
         0.66777E-02
         0.20466E-01
         0.12883E-01
         0.19503E-01
         0.93552E-02
         0.40291E-01
         0.30675E-01
         0.15090E-01
         0.42467E-01
         0.15121E-01
         0.77542E-02
         0.47861E-02
         0.10165E-01
         0.54084E-02
         0.31715E-01
         0.29725E-01
         0.28958E-01
         0.75302E-02
         0.12683E-01
         0.39228E-02
         0.14463E-01
         0.22236E-02
         0.54286E-02
         0.13548E-01
         0.12924E-01
         0.68204E-02
         0.82362E-02
         0.72375E-02
         0.27858E-01
         0.16601E-01
         0.21493E-01
         0.34743E-01
         0.26843E-01
         0.24863E-01
         0.35153E-01
         0.31834E-01
         0.31976E-01
         0.24746E-01
         0.22071E-01
         0.30210E-01
         0.19813E-01
         0.16836E-01
         0.13772E-01
         0.16263E-01
         0.26722E-01
         0.18237E-01
         0.11743E+00
         0.12033E+00
         0.12595E+00
         0.12505E+00
         0.13316E+00
         0.14282E+00
         0.13699E+00
         0.12192E+00
         0.11883E+00
         0.12713E+00
         0.12470E+00
         0.12316E+00
         0.10175E+00
         0.96742E-01
         0.10638E+00
         0.11405E+00
         0.11837E+00
         0.12920E+00
         0.12407E+00
         0.12742E+00
         0.11471E+00
         0.10894E+00
         0.11599E+00
         0.11317E+00
         0.11653E+00
         0.11557E+00
         0.20800E-01
         0.12449E-01
         0.11775E-01
         0.81248E-02
         0.21426E-01
         0.14801E-01
         0.66959E-02
         0.20480E-01
         0.12906E-01
         0.19552E-01
         0.93584E-02
         0.40291E-01
         0.30689E-01
         0.15055E-01
         0.42511E-01
         0.15136E-01
         0.77771E-02
         0.47735E-02
         0.10171E-01
         0.53968E-02
         0.31721E-01
         0.29725E-01
         0.28961E-01
         0.75292E-02
         0.12731E-01
         0.39190E-02
         0.14467E-01
         0.22077E-02
         0.54516E-02
         0.13566E-01
         0.12936E-01
         0.68163E-02
         0.82219E-02
         0.72438E-02
         0.27872E-01
         0.16598E-01
         0.21490E-01
         0.34798E-01
         0.26906E-01
         0.24903E-01
         0.35181E-01
         0.31854E-01
         0.31984E-01
         0.24753E-01
         0.22073E-01
         0.30215E-01
         0.19818E-01
         0.16839E-01
         0.13757E-01
         0.16242E-01
         0.26709E-01
         0.18210E-01
         0.11739E+00
         0.12030E+00
         0.12595E+00
         0.12505E+00
         0.13314E+00
         0.14277E+00
         0.13693E+00
         0.12189E+00
         0.11880E+00
         0.12709E+00
         0.12468E+00
         0.12317E+00
         0.10174E+00
         0.96740E-01
         0.10640E+00
         0.11409E+00
         0.11841E+00
         0.12923E+00
         0.12406E+00
         0.12742E+00
         0.11470E+00
         0.10894E+00
         0.11595E+00
         0.11310E+00
         0.11646E+00
         0.11550E+00
         0.20813E-01
         0.12449E-01
         0.11781E-01
         0.81365E-02
         0.21417E-01
         0.14793E-01
         0.67141E-02
         0.20494E-01
         0.12929E-01
         0.19601E-01
         0.93614E-02
         0.40292E-01
         0.30703E-01
         0.15020E-01
         0.42556E-01
         0.15151E-01
         0.78000E-02
         0.47609E-02
         0.10178E-01
         0.53848E-02
         0.31726E-01
         0.29725E-01
         0.28964E-01
         0.75285E-02
         0.12778E-01
         0.39153E-02
         0.14471E-01
         0.21923E-02
         0.54748E-02
         0.13584E-01
         0.12948E-01
         0.68123E-02
         0.82077E-02
         0.72500E-02
         0.27886E-01
         0.16595E-01
         0.21487E-01
         0.34854E-01
         0.26970E-01
         0.24942E-01
         0.35209E-01
         0.31873E-01
         0.31993E-01
         0.24760E-01
         0.22075E-01
         0.30220E-01
         0.19822E-01
         0.16842E-01
         0.13743E-01
         0.16222E-01
         0.26697E-01
         0.18183E-01
         0.11734E+00
         0.12027E+00
         0.12595E+00
         0.12505E+00
         0.13312E+00
         0.14272E+00
         0.13687E+00
         0.12186E+00
         0.11877E+00
         0.12705E+00
         0.12466E+00
         0.12318E+00
         0.10174E+00
         0.96738E-01
         0.10641E+00
         0.11413E+00
         0.11845E+00
         0.12926E+00
         0.12405E+00
         0.12741E+00
         0.11469E+00
         0.10893E+00
         0.11591E+00
         0.11303E+00
         0.11640E+00
         0.11544E+00
         0.20826E-01
         0.12449E-01
         0.11787E-01
         0.81483E-02
         0.21408E-01
         0.14784E-01
         0.67324E-02
         0.20508E-01
         0.12951E-01
         0.19650E-01
         0.93649E-02
         0.40292E-01
         0.30717E-01
         0.14985E-01
         0.42600E-01
         0.15166E-01
         0.78230E-02
         0.47484E-02
         0.10185E-01
         0.53730E-02
         0.31731E-01
         0.29725E-01
         0.28967E-01
         0.75278E-02
         0.12825E-01
         0.39117E-02
         0.14476E-01
         0.21774E-02
         0.54981E-02
         0.13602E-01
         0.12959E-01
         0.68082E-02
         0.81935E-02
         0.72563E-02
         0.27899E-01
         0.16593E-01
         0.21485E-01
         0.34909E-01
         0.27033E-01
         0.24981E-01
         0.35237E-01
         0.31893E-01
         0.32001E-01
         0.24767E-01
         0.22078E-01
         0.30225E-01
         0.19827E-01
         0.16845E-01
         0.13728E-01
         0.16201E-01
         0.26684E-01
         0.18156E-01
         0.11730E+00
         0.12024E+00
         0.12595E+00
         0.12505E+00
         0.13310E+00
         0.14268E+00
         0.13681E+00
         0.12182E+00
         0.11874E+00
         0.12701E+00
         0.12464E+00
         0.12319E+00
         0.10174E+00
         0.96737E-01
         0.10643E+00
         0.11417E+00
         0.11849E+00
         0.12929E+00
         0.12404E+00
         0.12740E+00
         0.11468E+00
         0.10893E+00
         0.11587E+00
         0.11295E+00
         0.11633E+00
         0.11538E+00
         0.20839E-01
         0.12449E-01
         0.11793E-01
         0.81600E-02
         0.21399E-01
         0.14776E-01
         0.67509E-02
         0.20522E-01
         0.12974E-01
         0.19699E-01
         0.93685E-02
         0.40292E-01
         0.30731E-01
         0.14950E-01
         0.42645E-01
         0.15181E-01
         0.78460E-02
         0.47359E-02
         0.10191E-01
         0.53609E-02
         0.31737E-01
         0.29725E-01
         0.28970E-01
         0.75271E-02
         0.12872E-01
         0.39080E-02
         0.14480E-01
         0.21629E-02
         0.55216E-02
         0.13620E-01
         0.12971E-01
         0.68041E-02
         0.81795E-02
         0.72626E-02
         0.27913E-01
         0.16590E-01
         0.21482E-01
         0.34965E-01
         0.27097E-01
         0.25020E-01
         0.35265E-01
         0.31912E-01
         0.32009E-01
         0.24773E-01
         0.22080E-01
         0.30230E-01
         0.19832E-01
         0.16847E-01
         0.13713E-01
         0.16180E-01
         0.26671E-01
         0.18129E-01
         0.11726E+00
         0.12021E+00
         0.12595E+00
         0.12505E+00
         0.13307E+00
         0.14263E+00
         0.13675E+00
         0.12179E+00
         0.11871E+00
         0.12697E+00
         0.12462E+00
         0.12319E+00
         0.10173E+00
         0.96735E-01
         0.10645E+00
         0.11420E+00
         0.11853E+00
         0.12932E+00
         0.12403E+00
         0.12739E+00
         0.11467E+00
         0.10892E+00
         0.11582E+00
         0.11288E+00
         0.11627E+00
         0.11532E+00
         0.20852E-01
         0.12449E-01
         0.11799E-01
         0.81719E-02
         0.21390E-01
         0.14768E-01
         0.67692E-02
         0.20536E-01
         0.12997E-01
         0.19747E-01
         0.93722E-02
         0.40292E-01
         0.30744E-01
         0.14915E-01
         0.42689E-01
         0.15196E-01
         0.78690E-02
         0.47233E-02
         0.10198E-01
         0.53492E-02
         0.31742E-01
         0.29725E-01
         0.28974E-01
         0.75265E-02
         0.12918E-01
         0.39046E-02
         0.14484E-01
         0.21490E-02
         0.55451E-02
         0.13638E-01
         0.12983E-01
         0.68001E-02
         0.81654E-02
         0.72689E-02
         0.27927E-01
         0.16588E-01
         0.21479E-01
         0.35020E-01
         0.27160E-01
         0.25059E-01
         0.35293E-01
         0.31931E-01
         0.32017E-01
         0.24780E-01
         0.22082E-01
         0.30235E-01
         0.19837E-01
         0.16850E-01
         0.13699E-01
         0.16160E-01
         0.26659E-01
         0.18101E-01
         0.11722E+00
         0.12019E+00
         0.12594E+00
         0.12505E+00
         0.13305E+00
         0.14258E+00
         0.13669E+00
         0.12176E+00
         0.11868E+00
         0.12693E+00
         0.12460E+00
         0.12320E+00
         0.10173E+00
         0.96733E-01
         0.10646E+00
         0.11424E+00
         0.11857E+00
         0.12935E+00
         0.12403E+00
         0.12738E+00
         0.11466E+00
         0.10892E+00
         0.11578E+00
         0.11281E+00
         0.11620E+00
         0.11526E+00
         0.20864E-01
         0.12449E-01
         0.11805E-01
         0.81838E-02
         0.21381E-01
         0.14759E-01
         0.67876E-02
         0.20550E-01
         0.13020E-01
         0.19796E-01
         0.93761E-02
         0.40292E-01
         0.30759E-01
         0.14880E-01
         0.42734E-01
         0.15210E-01
         0.78921E-02
         0.47106E-02
         0.10205E-01
         0.53372E-02
         0.31747E-01
         0.29725E-01
         0.28977E-01
         0.75259E-02
         0.12965E-01
         0.39009E-02
         0.14488E-01
         0.21355E-02
         0.55691E-02
         0.13655E-01
         0.12995E-01
         0.67960E-02
         0.81514E-02
         0.72752E-02
         0.27940E-01
         0.16585E-01
         0.21476E-01
         0.35075E-01
         0.27224E-01
         0.25098E-01
         0.35321E-01
         0.31950E-01
         0.32026E-01
         0.24788E-01
         0.22085E-01
         0.30239E-01
         0.19842E-01
         0.16853E-01
         0.13685E-01
         0.16139E-01
         0.26646E-01
         0.18074E-01
         0.11717E+00
         0.12016E+00
         0.12594E+00
         0.12505E+00
         0.13303E+00
         0.14253E+00
         0.13664E+00
         0.12173E+00
         0.11865E+00
         0.12689E+00
         0.12458E+00
         0.12321E+00
         0.10172E+00
         0.96731E-01
         0.10648E+00
         0.11428E+00
         0.11861E+00
         0.12938E+00
         0.12402E+00
         0.12738E+00
         0.11465E+00
         0.10891E+00
         0.11574E+00
         0.11273E+00
         0.11614E+00
         0.11520E+00
         0.20877E-01
         0.12449E-01
         0.11811E-01
         0.81956E-02
         0.21372E-01
         0.14751E-01
         0.68062E-02
         0.20564E-01
         0.13043E-01
         0.19845E-01
         0.93801E-02
         0.40293E-01
         0.30772E-01
         0.14846E-01
         0.42778E-01
         0.15225E-01
         0.79152E-02
         0.46981E-02
         0.10212E-01
         0.53256E-02
         0.31753E-01
         0.29725E-01
         0.28980E-01
         0.75253E-02
         0.13012E-01
         0.38974E-02
         0.14492E-01
         0.21225E-02
         0.55933E-02
         0.13673E-01
         0.13007E-01
         0.67920E-02
         0.81375E-02
         0.72815E-02
         0.27954E-01
         0.16583E-01
         0.21473E-01
         0.35131E-01
         0.27288E-01
         0.25137E-01
         0.35349E-01
         0.31969E-01
         0.32034E-01
         0.24795E-01
         0.22087E-01
         0.30244E-01
         0.19847E-01
         0.16855E-01
         0.13670E-01
         0.16119E-01
         0.26633E-01
         0.18047E-01
         0.11713E+00
         0.12013E+00
         0.12594E+00
         0.12505E+00
         0.13301E+00
         0.14248E+00
         0.13658E+00
         0.12169E+00
         0.11862E+00
         0.12685E+00
         0.12455E+00
         0.12322E+00
         0.10172E+00
         0.96729E-01
         0.10650E+00
         0.11432E+00
         0.11865E+00
         0.12941E+00
         0.12401E+00
         0.12737E+00
         0.11464E+00
         0.10891E+00
         0.11570E+00
         0.11266E+00
         0.11607E+00
         0.11514E+00
         0.20890E-01
         0.12449E-01
         0.11817E-01
         0.82076E-02
         0.21363E-01
         0.14742E-01
         0.68247E-02
         0.20578E-01
         0.13066E-01
         0.19893E-01
         0.93843E-02
         0.40293E-01
         0.30786E-01
         0.14811E-01
         0.42823E-01
         0.15240E-01
         0.79384E-02
         0.46856E-02
         0.10218E-01
         0.53136E-02
         0.31759E-01
         0.29724E-01
         0.28983E-01
         0.75247E-02
         0.13058E-01
         0.38938E-02
         0.14496E-01
         0.21099E-02
         0.56177E-02
         0.13691E-01
         0.13018E-01
         0.67879E-02
         0.81236E-02
         0.72878E-02
         0.27968E-01
         0.16581E-01
         0.21470E-01
         0.35187E-01
         0.27352E-01
         0.25176E-01
         0.35377E-01
         0.31989E-01
         0.32042E-01
         0.24801E-01
         0.22089E-01
         0.30249E-01
         0.19852E-01
         0.16858E-01
         0.13655E-01
         0.16098E-01
         0.26620E-01
         0.18020E-01
         0.11709E+00
         0.12010E+00
         0.12594E+00
         0.12505E+00
         0.13299E+00
         0.14243E+00
         0.13652E+00
         0.12166E+00
         0.11859E+00
         0.12681E+00
         0.12453E+00
         0.12323E+00
         0.10172E+00
         0.96728E-01
         0.10651E+00
         0.11436E+00
         0.11869E+00
         0.12944E+00
         0.12400E+00
         0.12736E+00
         0.11463E+00
         0.10890E+00
         0.11566E+00
         0.11258E+00
         0.11601E+00
         0.11507E+00
         0.20902E-01
         0.12448E-01
         0.11823E-01
         0.82194E-02
         0.21354E-01
         0.14734E-01
         0.68432E-02
         0.20592E-01
         0.13089E-01
         0.19942E-01
         0.93885E-02
         0.40293E-01
         0.30800E-01
         0.14776E-01
         0.42867E-01
         0.15255E-01
         0.79616E-02
         0.46731E-02
         0.10225E-01
         0.53019E-02
         0.31764E-01
         0.29724E-01
         0.28986E-01
         0.75242E-02
         0.13105E-01
         0.38903E-02
         0.14500E-01
         0.20978E-02
         0.56423E-02
         0.13709E-01
         0.13030E-01
         0.67840E-02
         0.81099E-02
         0.72942E-02
         0.27982E-01
         0.16578E-01
         0.21467E-01
         0.35242E-01
         0.27415E-01
         0.25214E-01
         0.35405E-01
         0.32008E-01
         0.32050E-01
         0.24808E-01
         0.22092E-01
         0.30254E-01
         0.19857E-01
         0.16861E-01
         0.13641E-01
         0.16077E-01
         0.26608E-01
         0.17992E-01
         0.11704E+00
         0.12007E+00
         0.12594E+00
         0.12505E+00
         0.13296E+00
         0.14238E+00
         0.13646E+00
         0.12163E+00
         0.11856E+00
         0.12677E+00
         0.12451E+00
         0.12323E+00
         0.10171E+00
         0.96726E-01
         0.10653E+00
         0.11439E+00
         0.11873E+00
         0.12947E+00
         0.12399E+00
         0.12735E+00
         0.11462E+00
         0.10890E+00
         0.11562E+00
         0.11251E+00
         0.11594E+00
         0.11501E+00
         0.20915E-01
         0.12448E-01
         0.11829E-01
         0.82314E-02
         0.21345E-01
         0.14726E-01
         0.68619E-02
         0.20606E-01
         0.13112E-01
         0.19990E-01
         0.93929E-02
         0.40294E-01
         0.30814E-01
         0.14741E-01
         0.42911E-01
         0.15270E-01
         0.79850E-02
         0.46607E-02
         0.10232E-01
         0.52901E-02
         0.31769E-01
         0.29724E-01
         0.28989E-01
         0.75238E-02
         0.13152E-01
         0.38868E-02
         0.14504E-01
         0.20859E-02
         0.56668E-02
         0.13726E-01
         0.13042E-01
         0.67801E-02
         0.80963E-02
         0.73007E-02
         0.27996E-01
         0.16575E-01
         0.21464E-01
         0.35298E-01
         0.27479E-01
         0.25253E-01
         0.35432E-01
         0.32027E-01
         0.32058E-01
         0.24815E-01
         0.22094E-01
         0.30259E-01
         0.19862E-01
         0.16864E-01
         0.13627E-01
         0.16057E-01
         0.26595E-01
         0.17965E-01
         0.11700E+00
         0.12005E+00
         0.12593E+00
         0.12505E+00
         0.13294E+00
         0.14233E+00
         0.13640E+00
         0.12159E+00
         0.11853E+00
         0.12673E+00
         0.12449E+00
         0.12324E+00
         0.10171E+00
         0.96724E-01
         0.10654E+00
         0.11443E+00
         0.11877E+00
         0.12950E+00
         0.12398E+00
         0.12734E+00
         0.11461E+00
         0.10889E+00
         0.11558E+00
         0.11244E+00
         0.11588E+00
         0.11495E+00
         0.20928E-01
         0.12448E-01
         0.11835E-01
         0.82434E-02
         0.21336E-01
         0.14718E-01
         0.68804E-02
         0.20619E-01
         0.13135E-01
         0.20038E-01
         0.93974E-02
         0.40294E-01
         0.30828E-01
         0.14706E-01
         0.42955E-01
         0.15285E-01
         0.80083E-02
         0.46481E-02
         0.10238E-01
         0.52787E-02
         0.31775E-01
         0.29724E-01
         0.28992E-01
         0.75231E-02
         0.13198E-01
         0.38836E-02
         0.14507E-01
         0.20740E-02
         0.56917E-02
         0.13743E-01
         0.13054E-01
         0.67760E-02
         0.80826E-02
         0.73071E-02
         0.28009E-01
         0.16573E-01
         0.21461E-01
         0.35354E-01
         0.27543E-01
         0.25289E-01
         0.35458E-01
         0.32044E-01
         0.32066E-01
         0.24822E-01
         0.22096E-01
         0.30264E-01
         0.19866E-01
         0.16867E-01
         0.13612E-01
         0.16036E-01
         0.26583E-01
         0.17938E-01
         0.11696E+00
         0.12002E+00
         0.12593E+00
         0.12505E+00
         0.13292E+00
         0.14229E+00
         0.13634E+00
         0.12156E+00
         0.11850E+00
         0.12669E+00
         0.12447E+00
         0.12326E+00
         0.10171E+00
         0.96722E-01
         0.10656E+00
         0.11447E+00
         0.11882E+00
         0.12953E+00
         0.12398E+00
         0.12734E+00
         0.11460E+00
         0.10889E+00
         0.11554E+00
         0.11236E+00
         0.11581E+00
         0.11489E+00
         0.20940E-01
         0.12448E-01
         0.11841E-01
         0.82554E-02
         0.21327E-01
         0.14709E-01
         0.68990E-02
         0.20633E-01
         0.13158E-01
         0.20086E-01
         0.94020E-02
         0.40294E-01
         0.30842E-01
         0.14671E-01
         0.43000E-01
         0.15300E-01
         0.80316E-02
         0.46355E-02
         0.10245E-01
         0.52674E-02
         0.31780E-01
         0.29723E-01
         0.28996E-01
         0.75227E-02
         0.13244E-01
         0.38801E-02
         0.14508E-01
         0.20619E-02
         0.57169E-02
         0.13759E-01
         0.13066E-01
         0.67720E-02
         0.80690E-02
         0.73135E-02
         0.28024E-01
         0.16571E-01
         0.21459E-01
         0.35410E-01
         0.27606E-01
         0.25326E-01
         0.35482E-01
         0.32059E-01
         0.32072E-01
         0.24829E-01
         0.22099E-01
         0.30269E-01
         0.19871E-01
         0.16870E-01
         0.13598E-01
         0.16016E-01
         0.26570E-01
         0.17911E-01
         0.11692E+00
         0.11999E+00
         0.12593E+00
         0.12505E+00
         0.13290E+00
         0.14224E+00
         0.13628E+00
         0.12153E+00
         0.11847E+00
         0.12664E+00
         0.12446E+00
         0.12327E+00
         0.10171E+00
         0.96721E-01
         0.10658E+00
         0.11451E+00
         0.11886E+00
         0.12956E+00
         0.12397E+00
         0.12733E+00
         0.11459E+00
         0.10888E+00
         0.11550E+00
         0.11229E+00
         0.11575E+00
         0.11483E+00
         0.20953E-01
         0.12448E-01
         0.11847E-01
         0.82675E-02
         0.21319E-01
         0.14701E-01
         0.69178E-02
         0.20647E-01
         0.13181E-01
         0.20133E-01
         0.94068E-02
         0.40295E-01
         0.30856E-01
         0.14636E-01
         0.43044E-01
         0.15315E-01
         0.80550E-02
         0.46231E-02
         0.10252E-01
         0.52563E-02
         0.31786E-01
         0.29722E-01
         0.28998E-01
         0.75223E-02
         0.13290E-01
         0.38769E-02
         0.14510E-01
         0.20499E-02
         0.57420E-02
         0.13774E-01
         0.13078E-01
         0.67681E-02
         0.80557E-02
         0.73201E-02
         0.28038E-01
         0.16569E-01
         0.21455E-01
         0.35466E-01
         0.27669E-01
         0.25360E-01
         0.35506E-01
         0.32074E-01
         0.32078E-01
         0.24836E-01
         0.22101E-01
         0.30274E-01
         0.19876E-01
         0.16873E-01
         0.13583E-01
         0.15995E-01
         0.26558E-01
         0.17884E-01
         0.11687E+00
         0.11996E+00
         0.12593E+00
         0.12506E+00
         0.13288E+00
         0.14219E+00
         0.13622E+00
         0.12149E+00
         0.11844E+00
         0.12660E+00
         0.12444E+00
         0.12329E+00
         0.10171E+00
         0.96720E-01
         0.10659E+00
         0.11454E+00
         0.11890E+00
         0.12959E+00
         0.12396E+00
         0.12732E+00
         0.11458E+00
         0.10888E+00
         0.11546E+00
         0.11222E+00
         0.11569E+00
         0.11477E+00
         0.21398E-01
         0.13097E-01
         0.12518E-01
         0.90302E-02
         0.21878E-01
         0.15342E-01
         0.81219E-02
         0.21193E-01
         0.13765E-01
         0.20719E-01
         0.10534E-01
         0.40873E-01
         0.31406E-01
         0.15437E-01
         0.43682E-01
         0.15811E-01
         0.89768E-02
         0.57205E-02
         0.11054E-01
         0.67196E-02
         0.32258E-01
         0.30209E-01
         0.29453E-01
         0.84629E-02
         0.14057E-01
         0.53336E-02
         0.15330E-01
         0.50003E-02
         0.73930E-02
         0.14540E-01
         0.13637E-01
         0.77751E-02
         0.88208E-02
         0.82377E-02
         0.28628E-01
         0.17227E-01
         0.22012E-01
         0.36099E-01
         0.28335E-01
         0.26013E-01
         0.36091E-01
         0.32624E-01
         0.32580E-01
         0.25302E-01
         0.22626E-01
         0.30835E-01
         0.20479E-01
         0.17468E-01
         0.14236E-01
         0.16611E-01
         0.27099E-01
         0.18457E-01
         0.11792E+00
         0.12101E+00
         0.12704E+00
         0.12614E+00
         0.13401E+00
         0.14339E+00
         0.13740E+00
         0.12263E+00
         0.11957E+00
         0.12778E+00
         0.12560E+00
         0.12440E+00
         0.10261E+00
         0.97547E-01
         0.10747E+00
         0.11549E+00
         0.11987E+00
         0.13068E+00
         0.12508E+00
         0.12846E+00
         0.11556E+00
         0.10981E+00
         0.11642E+00
         0.11313E+00
         0.11661E+00
         0.11569E+00
         0.51172E-01
         0.46118E-01
         0.45174E-01
         0.39976E-01
         0.55871E-01
         0.48744E-01
         0.46629E-01
         0.55331E-01
         0.44097E-01
         0.54874E-01
         0.51705E-01
         0.80258E-01
         0.67601E-01
         0.55570E-01
         0.84778E-01
         0.44998E-01
         0.43150E-01
         0.36940E-01
         0.45368E-01
         0.45556E-01
         0.65424E-01
         0.64451E-01
         0.61357E-01
         0.42648E-01
         0.50498E-01
         0.40158E-01
         0.55424E-01
         0.50247E-01
         0.51136E-01
         0.52223E-01
         0.43720E-01
         0.42201E-01
         0.40142E-01
         0.41465E-01
         0.64718E-01
         0.52629E-01
         0.56441E-01
         0.76533E-01
         0.68376E-01
         0.65862E-01
         0.75859E-01
         0.70609E-01
         0.68547E-01
         0.56728E-01
         0.55606E-01
         0.66525E-01
         0.55202E-01
         0.50774E-01
         0.47832E-01
         0.50759E-01
         0.61934E-01
         0.52133E-01
         0.16999E+00
         0.17228E+00
         0.18003E+00
         0.17825E+00
         0.18831E+00
         0.20149E+00
         0.19690E+00
         0.18082E+00
         0.17732E+00
         0.18691E+00
         0.18334E+00
         0.17928E+00
         0.15145E+00
         0.14404E+00
         0.15414E+00
         0.16239E+00
         0.16736E+00
         0.18170E+00
         0.17761E+00
         0.18179E+00
         0.16561E+00
         0.15847E+00
         0.16674E+00
         0.16313E+00
         0.16635E+00
         0.16471E+00
  
SCALARS                     nodal_mass  double 1
LOOKUP_TABLE default
         0.24608E-05
         0.19551E-05
         0.20945E-05
         0.35953E-05
         0.12304E-05
         0.97770E-06
         0.10472E-05
         0.17973E-05
         0.19315E-05
         0.24627E-05
         0.96570E-06
         0.12312E-05
         0.13823E-05
         0.16614E-05
         0.69133E-06
         0.83095E-06
         0.27274E-05
         0.20125E-05
         0.13635E-05
         0.10066E-05
         0.81737E-06
         0.15393E-05
         0.16929E-05
         0.40889E-06
         0.76975E-06
         0.84649E-06
         0.13859E-05
         0.17532E-05
         0.69345E-06
         0.87672E-06
         0.32470E-05
         0.25355E-05
         0.32225E-05
         0.16233E-05
         0.12675E-05
         0.16109E-05
         0.18980E-05
         0.21673E-05
         0.94902E-06
         0.10836E-05
         0.20482E-05
         0.22683E-05
         0.10242E-05
         0.11342E-05
         0.17426E-05
         0.10823E-05
         0.87140E-06
         0.54121E-06
         0.20598E-05
         0.10301E-05
         0.17103E-05
         0.85523E-06
         0.17977E-05
         0.89958E-06
         0.18362E-05
         0.91859E-06
         0.15911E-05
         0.19369E-05
         0.79575E-06
         0.96860E-06
         0.24553E-05
         0.17361E-05
         0.12277E-05
         0.86816E-06
         0.27409E-05
         0.13702E-05
         0.23792E-05
         0.11891E-05
         0.10821E-05
         0.16705E-05
         0.54106E-06
         0.83538E-06
         0.18955E-05
         0.94787E-06
         0.20026E-05
         0.10014E-05
         0.19316E-05
         0.96578E-06
         0.15181E-05
         0.75906E-06
         0.95443E-06
         0.15782E-05
         0.47723E-06
         0.78918E-06
         0.20886E-05
         0.10443E-05
         0.16867E-05
         0.84342E-06
         0.14838E-05
         0.74203E-06
         0.97224E-06
         0.16569E-05
         0.48620E-06
         0.82849E-06
         0.22482E-05
         0.11241E-05
         0.23568E-05
         0.11783E-05
         0.19018E-05
         0.95085E-06
         0.11709E-05
         0.20091E-05
         0.58544E-06
         0.10044E-05
         0.74681E-06
         0.94889E-06
         0.37348E-06
         0.47447E-06
         0.88885E-06
         0.44455E-06
         0.10466E-05
         0.52333E-06
         0.10205E-05
         0.51021E-06
         0.99108E-06
         0.49550E-06
         0.10560E-05
         0.52791E-06
         0.11142E-05
         0.55694E-06
         0.10497E-05
         0.52469E-06
         0.82085E-06
         0.41039E-06
         0.66950E-06
         0.33475E-06
         0.86397E-06
         0.43199E-06
         0.11504E-05
         0.57519E-06
         0.12637E-05
         0.63182E-06
         0.12132E-05
         0.60658E-06
         0.10948E-05
         0.54745E-06
         0.99429E-06
         0.49718E-06
         0.80759E-06
         0.40382E-06
         0.67982E-06
         0.33995E-06
         0.88797E-06
         0.44401E-06
         0.11753E-05
         0.58766E-06
         0.12140E-05
         0.60702E-06
         0.98236E-06
         0.49125E-06
         0.79766E-06
         0.39889E-06
         0.97540E-06
         0.48769E-06
         0.11548E-05
         0.57743E-06
         0.24609E-05
         0.19547E-05
         0.20946E-05
         0.35969E-05
         0.19318E-05
         0.24634E-05
         0.13815E-05
         0.16603E-05
         0.27283E-05
         0.20111E-05
         0.81658E-06
         0.15390E-05
         0.16927E-05
         0.13839E-05
         0.17528E-05
         0.32479E-05
         0.25367E-05
         0.32241E-05
         0.18980E-05
         0.21675E-05
         0.20481E-05
         0.22684E-05
         0.17424E-05
         0.10822E-05
         0.20589E-05
         0.17102E-05
         0.17950E-05
         0.18344E-05
         0.15904E-05
         0.19365E-05
         0.24555E-05
         0.17359E-05
         0.27423E-05
         0.23814E-05
         0.10820E-05
         0.16702E-05
         0.18953E-05
         0.20025E-05
         0.19317E-05
         0.15181E-05
         0.95442E-06
         0.15780E-05
         0.20884E-05
         0.16864E-05
         0.14835E-05
         0.97197E-06
         0.16567E-05
         0.22482E-05
         0.23571E-05
         0.19022E-05
         0.11709E-05
         0.20101E-05
         0.74658E-06
         0.94886E-06
         0.88841E-06
         0.10467E-05
         0.10207E-05
         0.99128E-06
         0.10565E-05
         0.11150E-05
         0.10503E-05
         0.82102E-06
         0.66954E-06
         0.86398E-06
         0.11506E-05
         0.12640E-05
         0.12133E-05
         0.10948E-05
         0.99421E-06
         0.80751E-06
         0.67970E-06
         0.88789E-06
         0.11752E-05
         0.12140E-05
         0.98215E-06
         0.79747E-06
         0.97551E-06
         0.11548E-05
         0.24611E-05
         0.19543E-05
         0.20949E-05
         0.35987E-05
         0.19321E-05
         0.24642E-05
         0.13808E-05
         0.16594E-05
         0.27293E-05
         0.20098E-05
         0.81582E-06
         0.15388E-05
         0.16927E-05
         0.13821E-05
         0.17525E-05
         0.32489E-05
         0.25379E-05
         0.32257E-05
         0.18982E-05
         0.21678E-05
         0.20480E-05
         0.22685E-05
         0.17423E-05
         0.10821E-05
         0.20580E-05
         0.17101E-05
         0.17924E-05
         0.18326E-05
         0.15898E-05
         0.19361E-05
         0.24558E-05
         0.17357E-05
         0.27438E-05
         0.23836E-05
         0.10821E-05
         0.16699E-05
         0.18951E-05
         0.20024E-05
         0.19318E-05
         0.15183E-05
         0.95445E-06
         0.15778E-05
         0.20884E-05
         0.16862E-05
         0.14831E-05
         0.97174E-06
         0.16566E-05
         0.22483E-05
         0.23575E-05
         0.19026E-05
         0.11709E-05
         0.20112E-05
         0.74636E-06
         0.94886E-06
         0.88800E-06
         0.10467E-05
         0.10210E-05
         0.99152E-06
         0.10570E-05
         0.11159E-05
         0.10509E-05
         0.82122E-06
         0.66961E-06
         0.86402E-06
         0.11507E-05
         0.12643E-05
         0.12135E-05
         0.10948E-05
         0.99417E-06
         0.80747E-06
         0.67961E-06
         0.88784E-06
         0.11752E-05
         0.12140E-05
         0.98197E-06
         0.79731E-06
         0.97565E-06
         0.11548E-05
         0.24612E-05
         0.19539E-05
         0.20950E-05
         0.36004E-05
         0.19324E-05
         0.24650E-05
         0.13801E-05
         0.16584E-05
         0.27303E-05
         0.20085E-05
         0.81504E-06
         0.15385E-05
         0.16925E-05
         0.13801E-05
         0.17521E-05
         0.32498E-05
         0.25390E-05
         0.32274E-05
         0.18982E-05
         0.21681E-05
         0.20479E-05
         0.22686E-05
         0.17421E-05
         0.10820E-05
         0.20571E-05
         0.17099E-05
         0.17897E-05
         0.18308E-05
         0.15891E-05
         0.19356E-05
         0.24561E-05
         0.17355E-05
         0.27453E-05
         0.23857E-05
         0.10820E-05
         0.16696E-05
         0.18948E-05
         0.20022E-05
         0.19320E-05
         0.15183E-05
         0.95445E-06
         0.15776E-05
         0.20883E-05
         0.16859E-05
         0.14828E-05
         0.97149E-06
         0.16564E-05
         0.22483E-05
         0.23578E-05
         0.19030E-05
         0.11710E-05
         0.20122E-05
         0.74613E-06
         0.94884E-06
         0.88756E-06
         0.10467E-05
         0.10212E-05
         0.99173E-06
         0.10574E-05
         0.11167E-05
         0.10515E-05
         0.82140E-06
         0.66966E-06
         0.86404E-06
         0.11509E-05
         0.12646E-05
         0.12136E-05
         0.10947E-05
         0.99410E-06
         0.80740E-06
         0.67950E-06
         0.88777E-06
         0.11752E-05
         0.12140E-05
         0.98177E-06
         0.79713E-06
         0.97576E-06
         0.11547E-05
         0.24613E-05
         0.19535E-05
         0.20952E-05
         0.36022E-05
         0.19327E-05
         0.24657E-05
         0.13794E-05
         0.16574E-05
         0.27313E-05
         0.20072E-05
         0.81426E-06
         0.15382E-05
         0.16924E-05
         0.13782E-05
         0.17517E-05
         0.32508E-05
         0.25402E-05
         0.32290E-05
         0.18983E-05
         0.21684E-05
         0.20479E-05
         0.22687E-05
         0.17420E-05
         0.10819E-05
         0.20563E-05
         0.17098E-05
         0.17870E-05
         0.18290E-05
         0.15884E-05
         0.19352E-05
         0.24563E-05
         0.17353E-05
         0.27467E-05
         0.23879E-05
         0.10820E-05
         0.16693E-05
         0.18946E-05
         0.20021E-05
         0.19321E-05
         0.15184E-05
         0.95445E-06
         0.15773E-05
         0.20882E-05
         0.16857E-05
         0.14824E-05
         0.97124E-06
         0.16563E-05
         0.22484E-05
         0.23582E-05
         0.19034E-05
         0.11710E-05
         0.20132E-05
         0.74590E-06
         0.94883E-06
         0.88713E-06
         0.10468E-05
         0.10215E-05
         0.99194E-06
         0.10579E-05
         0.11175E-05
         0.10521E-05
         0.82159E-06
         0.66972E-06
         0.86406E-06
         0.11510E-05
         0.12649E-05
         0.12138E-05
         0.10947E-05
         0.99404E-06
         0.80734E-06
         0.67940E-06
         0.88771E-06
         0.11752E-05
         0.12140E-05
         0.98157E-06
         0.79696E-06
         0.97588E-06
         0.11547E-05
         0.24615E-05
         0.19531E-05
         0.20954E-05
         0.36039E-05
         0.19331E-05
         0.24665E-05
         0.13787E-05
         0.16564E-05
         0.27322E-05
         0.20059E-05
         0.81349E-06
         0.15380E-05
         0.16923E-05
         0.13763E-05
         0.17514E-05
         0.32518E-05
         0.25414E-05
         0.32306E-05
         0.18984E-05
         0.21687E-05
         0.20478E-05
         0.22688E-05
         0.17418E-05
         0.10818E-05
         0.20554E-05
         0.17096E-05
         0.17843E-05
         0.18272E-05
         0.15878E-05
         0.19347E-05
         0.24566E-05
         0.17351E-05
         0.27482E-05
         0.23901E-05
         0.10820E-05
         0.16690E-05
         0.18943E-05
         0.20019E-05
         0.19322E-05
         0.15185E-05
         0.95446E-06
         0.15771E-05
         0.20881E-05
         0.16855E-05
         0.14821E-05
         0.97100E-06
         0.16562E-05
         0.22484E-05
         0.23586E-05
         0.19038E-05
         0.11710E-05
         0.20142E-05
         0.74568E-06
         0.94882E-06
         0.88671E-06
         0.10468E-05
         0.10217E-05
         0.99216E-06
         0.10583E-05
         0.11183E-05
         0.10528E-05
         0.82178E-06
         0.66977E-06
         0.86408E-06
         0.11512E-05
         0.12652E-05
         0.12139E-05
         0.10947E-05
         0.99398E-06
         0.80728E-06
         0.67930E-06
         0.88766E-06
         0.11752E-05
         0.12140E-05
         0.98138E-06
         0.79679E-06
         0.97601E-06
         0.11547E-05
         0.24616E-05
         0.19527E-05
         0.20956E-05
         0.36056E-05
         0.19334E-05
         0.24672E-05
         0.13779E-05
         0.16554E-05
         0.27332E-05
         0.20046E-05
         0.81271E-06
         0.15377E-05
         0.16922E-05
         0.13744E-05
         0.17510E-05
         0.32527E-05
         0.25425E-05
         0.32322E-05
         0.18984E-05
         0.21689E-05
         0.20477E-05
         0.22689E-05
         0.17416E-05
         0.10816E-05
         0.20545E-05
         0.17095E-05
         0.17817E-05
         0.18254E-05
         0.15871E-05
         0.19343E-05
         0.24568E-05
         0.17349E-05
         0.27496E-05
         0.23922E-05
         0.10820E-05
         0.16686E-05
         0.18941E-05
         0.20018E-05
         0.19324E-05
         0.15186E-05
         0.95446E-06
         0.15769E-05
         0.20880E-05
         0.16852E-05
         0.14817E-05
         0.97074E-06
         0.16560E-05
         0.22484E-05
         0.23589E-05
         0.19042E-05
         0.11710E-05
         0.20152E-05
         0.74544E-06
         0.94880E-06
         0.88627E-06
         0.10469E-05
         0.10219E-05
         0.99237E-06
         0.10588E-05
         0.11191E-05
         0.10534E-05
         0.82196E-06
         0.66982E-06
         0.86410E-06
         0.11513E-05
         0.12654E-05
         0.12140E-05
         0.10947E-05
         0.99391E-06
         0.80721E-06
         0.67919E-06
         0.88759E-06
         0.11751E-05
         0.12140E-05
         0.98118E-06
         0.79661E-06
         0.97612E-06
         0.11546E-05
         0.24618E-05
         0.19523E-05
         0.20957E-05
         0.36073E-05
         0.19337E-05
         0.24680E-05
         0.13772E-05
         0.16545E-05
         0.27341E-05
         0.20033E-05
         0.81194E-06
         0.15374E-05
         0.16921E-05
         0.13725E-05
         0.17506E-05
         0.32537E-05
         0.25437E-05
         0.32339E-05
         0.18985E-05
         0.21692E-05
         0.20476E-05
         0.22690E-05
         0.17414E-05
         0.10815E-05
         0.20536E-05
         0.17093E-05
         0.17790E-05
         0.18236E-05
         0.15864E-05
         0.19339E-05
         0.24571E-05
         0.17347E-05
         0.27511E-05
         0.23944E-05
         0.10820E-05
         0.16683E-05
         0.18938E-05
         0.20016E-05
         0.19325E-05
         0.15186E-05
         0.95446E-06
         0.15767E-05
         0.20878E-05
         0.16850E-05
         0.14814E-05
         0.97050E-06
         0.16559E-05
         0.22484E-05
         0.23593E-05
         0.19046E-05
         0.11711E-05
         0.20162E-05
         0.74522E-06
         0.94878E-06
         0.88584E-06
         0.10469E-05
         0.10222E-05
         0.99258E-06
         0.10593E-05
         0.11199E-05
         0.10540E-05
         0.82215E-06
         0.66988E-06
         0.86413E-06
         0.11515E-05
         0.12657E-05
         0.12142E-05
         0.10946E-05
         0.99385E-06
         0.80715E-06
         0.67909E-06
         0.88752E-06
         0.11751E-05
         0.12140E-05
         0.98098E-06
         0.79643E-06
         0.97624E-06
         0.11546E-05
         0.24619E-05
         0.19519E-05
         0.20959E-05
         0.36091E-05
         0.19340E-05
         0.24688E-05
         0.13765E-05
         0.16535E-05
         0.27351E-05
         0.20020E-05
         0.81117E-06
         0.15372E-05
         0.16920E-05
         0.13706E-05
         0.17503E-05
         0.32546E-05
         0.25448E-05
         0.32355E-05
         0.18986E-05
         0.21695E-05
         0.20475E-05
         0.22691E-05
         0.17413E-05
         0.10814E-05
         0.20527E-05
         0.17092E-05
         0.17763E-05
         0.18219E-05
         0.15858E-05
         0.19334E-05
         0.24573E-05
         0.17345E-05
         0.27525E-05
         0.23966E-05
         0.10820E-05
         0.16680E-05
         0.18936E-05
         0.20015E-05
         0.19326E-05
         0.15187E-05
         0.95447E-06
         0.15765E-05
         0.20878E-05
         0.16848E-05
         0.14810E-05
         0.97025E-06
         0.16557E-05
         0.22485E-05
         0.23597E-05
         0.19050E-05
         0.11711E-05
         0.20172E-05
         0.74499E-06
         0.94877E-06
         0.88541E-06
         0.10469E-05
         0.10224E-05
         0.99280E-06
         0.10597E-05
         0.11207E-05
         0.10546E-05
         0.82234E-06
         0.66994E-06
         0.86415E-06
         0.11517E-05
         0.12660E-05
         0.12143E-05
         0.10946E-05
         0.99379E-06
         0.80709E-06
         0.67898E-06
         0.88746E-06
         0.11751E-05
         0.12140E-05
         0.98079E-06
         0.79626E-06
         0.97636E-06
         0.11546E-05
         0.24621E-05
         0.19515E-05
         0.20961E-05
         0.36108E-05
         0.19343E-05
         0.24695E-05
         0.13758E-05
         0.16525E-05
         0.27361E-05
         0.20006E-05
         0.81039E-06
         0.15369E-05
         0.16919E-05
         0.13686E-05
         0.17499E-05
         0.32556E-05
         0.25460E-05
         0.32371E-05
         0.18986E-05
         0.21697E-05
         0.20474E-05
         0.22692E-05
         0.17411E-05
         0.10813E-05
         0.20519E-05
         0.17091E-05
         0.17736E-05
         0.18201E-05
         0.15851E-05
         0.19330E-05
         0.24575E-05
         0.17342E-05
         0.27540E-05
         0.23987E-05
         0.10820E-05
         0.16677E-05
         0.18933E-05
         0.20014E-05
         0.19328E-05
         0.15188E-05
         0.95448E-06
         0.15763E-05
         0.20876E-05
         0.16845E-05
         0.14807E-05
         0.97000E-06
         0.16556E-05
         0.22485E-05
         0.23600E-05
         0.19053E-05
         0.11711E-05
         0.20182E-05
         0.74476E-06
         0.94875E-06
         0.88498E-06
         0.10470E-05
         0.10227E-05
         0.99301E-06
         0.10602E-05
         0.11215E-05
         0.10553E-05
         0.82252E-06
         0.66999E-06
         0.86417E-06
         0.11518E-05
         0.12663E-05
         0.12145E-05
         0.10946E-05
         0.99373E-06
         0.80702E-06
         0.67888E-06
         0.88740E-06
         0.11751E-05
         0.12140E-05
         0.98058E-06
         0.79608E-06
         0.97648E-06
         0.11546E-05
         0.24622E-05
         0.19511E-05
         0.20963E-05
         0.36125E-05
         0.19346E-05
         0.24703E-05
         0.13751E-05
         0.16515E-05
         0.27370E-05
         0.19993E-05
         0.80962E-06
         0.15366E-05
         0.16917E-05
         0.13667E-05
         0.17495E-05
         0.32565E-05
         0.25471E-05
         0.32388E-05
         0.18987E-05
         0.21700E-05
         0.20473E-05
         0.22693E-05
         0.17409E-05
         0.10812E-05
         0.20510E-05
         0.17089E-05
         0.17710E-05
         0.18183E-05
         0.15844E-05
         0.19325E-05
         0.24578E-05
         0.17340E-05
         0.27554E-05
         0.24009E-05
         0.10820E-05
         0.16674E-05
         0.18931E-05
         0.20012E-05
         0.19329E-05
         0.15189E-05
         0.95448E-06
         0.15760E-05
         0.20875E-05
         0.16843E-05
         0.14803E-05
         0.96975E-06
         0.16555E-05
         0.22485E-05
         0.23604E-05
         0.19057E-05
         0.11712E-05
         0.20192E-05
         0.74453E-06
         0.94874E-06
         0.88455E-06
         0.10470E-05
         0.10229E-05
         0.99322E-06
         0.10606E-05
         0.11223E-05
         0.10559E-05
         0.82270E-06
         0.67004E-06
         0.86419E-06
         0.11520E-05
         0.12666E-05
         0.12146E-05
         0.10945E-05
         0.99366E-06
         0.80696E-06
         0.67877E-06
         0.88733E-06
         0.11751E-05
         0.12140E-05
         0.98038E-06
         0.79590E-06
         0.97660E-06
         0.11545E-05
         0.24623E-05
         0.19507E-05
         0.20964E-05
         0.36142E-05
         0.19349E-05
         0.24710E-05
         0.13743E-05
         0.16505E-05
         0.27380E-05
         0.19980E-05
         0.80885E-06
         0.15364E-05
         0.16916E-05
         0.13648E-05
         0.17492E-05
         0.32575E-05
         0.25483E-05
         0.32404E-05
         0.18988E-05
         0.21703E-05
         0.20473E-05
         0.22694E-05
         0.17407E-05
         0.10811E-05
         0.20501E-05
         0.17088E-05
         0.17683E-05
         0.18165E-05
         0.15837E-05
         0.19321E-05
         0.24580E-05
         0.17338E-05
         0.27569E-05
         0.24031E-05
         0.10820E-05
         0.16670E-05
         0.18928E-05
         0.20011E-05
         0.19330E-05
         0.15189E-05
         0.95448E-06
         0.15758E-05
         0.20874E-05
         0.16840E-05
         0.14800E-05
         0.96950E-06
         0.16553E-05
         0.22485E-05
         0.23608E-05
         0.19061E-05
         0.11712E-05
         0.20202E-05
         0.74430E-06
         0.94872E-06
         0.88412E-06
         0.10470E-05
         0.10231E-05
         0.99344E-06
         0.10611E-05
         0.11231E-05
         0.10565E-05
         0.82289E-06
         0.67009E-06
         0.86422E-06
         0.11521E-05
         0.12669E-05
         0.12147E-05
         0.10945E-05
         0.99360E-06
         0.80690E-06
         0.67867E-06
         0.88727E-06
         0.11750E-05
         0.12140E-05
         0.98019E-06
         0.79573E-06
         0.97672E-06
         0.11545E-05
         0.24625E-05
         0.19503E-05
         0.20966E-05
         0.36160E-05
         0.19352E-05
         0.24718E-05
         0.13736E-05
         0.16496E-05
         0.27389E-05
         0.19967E-05
         0.80807E-06
         0.15361E-05
         0.16915E-05
         0.13629E-05
         0.17488E-05
         0.32584E-05
         0.25495E-05
         0.32420E-05
         0.18988E-05
         0.21705E-05
         0.20472E-05
         0.22695E-05
         0.17406E-05
         0.10810E-05
         0.20492E-05
         0.17086E-05
         0.17656E-05
         0.18147E-05
         0.15831E-05
         0.19317E-05
         0.24583E-05
         0.17336E-05
         0.27583E-05
         0.24053E-05
         0.10820E-05
         0.16667E-05
         0.18926E-05
         0.20009E-05
         0.19331E-05
         0.15190E-05
         0.95449E-06
         0.15756E-05
         0.20873E-05
         0.16838E-05
         0.14796E-05
         0.96925E-06
         0.16552E-05
         0.22486E-05
         0.23611E-05
         0.19065E-05
         0.11712E-05
         0.20212E-05
         0.74407E-06
         0.94870E-06
         0.88368E-06
         0.10471E-05
         0.10234E-05
         0.99365E-06
         0.10616E-05
         0.11239E-05
         0.10571E-05
         0.82307E-06
         0.67014E-06
         0.86424E-06
         0.11523E-05
         0.12672E-05
         0.12149E-05
         0.10945E-05
         0.99354E-06
         0.80683E-06
         0.67856E-06
         0.88721E-06
         0.11750E-05
         0.12140E-05
         0.97999E-06
         0.79555E-06
         0.97684E-06
         0.11545E-05
         0.24626E-05
         0.19499E-05
         0.20968E-05
         0.36177E-05
         0.19355E-05
         0.24725E-05
         0.13729E-05
         0.16486E-05
         0.27399E-05
         0.19954E-05
         0.80730E-06
         0.15358E-05
         0.16914E-05
         0.13610E-05
         0.17484E-05
         0.32594E-05
         0.25506E-05
         0.32437E-05
         0.18989E-05
         0.21708E-05
         0.20471E-05
         0.22696E-05
         0.17404E-05
         0.10808E-05
         0.20483E-05
         0.17085E-05
         0.17629E-05
         0.18129E-05
         0.15824E-05
         0.19312E-05
         0.24585E-05
         0.17334E-05
         0.27598E-05
         0.24074E-05
         0.10820E-05
         0.16664E-05
         0.18923E-05
         0.20008E-05
         0.19333E-05
         0.15191E-05
         0.95449E-06
         0.15754E-05
         0.20872E-05
         0.16835E-05
         0.14793E-05
         0.96901E-06
         0.16550E-05
         0.22486E-05
         0.23615E-05
         0.19069E-05
         0.11713E-05
         0.20222E-05
         0.74384E-06
         0.94869E-06
         0.88325E-06
         0.10471E-05
         0.10236E-05
         0.99386E-06
         0.10620E-05
         0.11247E-05
         0.10577E-05
         0.82326E-06
         0.67020E-06
         0.86426E-06
         0.11524E-05
         0.12674E-05
         0.12150E-05
         0.10944E-05
         0.99348E-06
         0.80677E-06
         0.67846E-06
         0.88714E-06
         0.11750E-05
         0.12140E-05
         0.97979E-06
         0.79538E-06
         0.97696E-06
         0.11544E-05
         0.24628E-05
         0.19495E-05
         0.20970E-05
         0.36194E-05
         0.19358E-05
         0.24733E-05
         0.13722E-05
         0.16476E-05
         0.27409E-05
         0.19941E-05
         0.80652E-06
         0.15355E-05
         0.16913E-05
         0.13591E-05
         0.17481E-05
         0.32604E-05
         0.25518E-05
         0.32453E-05
         0.18990E-05
         0.21711E-05
         0.20470E-05
         0.22697E-05
         0.17402E-05
         0.10807E-05
         0.20474E-05
         0.17084E-05
         0.17603E-05
         0.18111E-05
         0.15817E-05
         0.19308E-05
         0.24588E-05
         0.17332E-05
         0.27613E-05
         0.24096E-05
         0.10819E-05
         0.16661E-05
         0.18921E-05
         0.20006E-05
         0.19334E-05
         0.15192E-05
         0.95450E-06
         0.15752E-05
         0.20871E-05
         0.16833E-05
         0.14789E-05
         0.96876E-06
         0.16549E-05
         0.22486E-05
         0.23619E-05
         0.19073E-05
         0.11713E-05
         0.20232E-05
         0.74362E-06
         0.94868E-06
         0.88282E-06
         0.10472E-05
         0.10238E-05
         0.99408E-06
         0.10625E-05
         0.11255E-05
         0.10584E-05
         0.82345E-06
         0.67025E-06
         0.86428E-06
         0.11526E-05
         0.12677E-05
         0.12152E-05
         0.10944E-05
         0.99342E-06
         0.80671E-06
         0.67836E-06
         0.88709E-06
         0.11750E-05
         0.12140E-05
         0.97959E-06
         0.79521E-06
         0.97708E-06
         0.11544E-05
         0.24629E-05
         0.19491E-05
         0.20972E-05
         0.36212E-05
         0.19361E-05
         0.24741E-05
         0.13715E-05
         0.16466E-05
         0.27418E-05
         0.19928E-05
         0.80575E-06
         0.15353E-05
         0.16912E-05
         0.13572E-05
         0.17477E-05
         0.32613E-05
         0.25529E-05
         0.32469E-05
         0.18990E-05
         0.21714E-05
         0.20469E-05
         0.22698E-05
         0.17400E-05
         0.10806E-05
         0.20466E-05
         0.17082E-05
         0.17576E-05
         0.18093E-05
         0.15810E-05
         0.19303E-05
         0.24590E-05
         0.17330E-05
         0.27627E-05
         0.24118E-05
         0.10819E-05
         0.16658E-05
         0.18919E-05
         0.20005E-05
         0.19335E-05
         0.15192E-05
         0.95450E-06
         0.15750E-05
         0.20870E-05
         0.16831E-05
         0.14786E-05
         0.96851E-06
         0.16548E-05
         0.22487E-05
         0.23622E-05
         0.19077E-05
         0.11713E-05
         0.20242E-05
         0.74339E-06
         0.94866E-06
         0.88239E-06
         0.10472E-05
         0.10241E-05
         0.99429E-06
         0.10630E-05
         0.11263E-05
         0.10590E-05
         0.82363E-06
         0.67030E-06
         0.86430E-06
         0.11527E-05
         0.12680E-05
         0.12153E-05
         0.10944E-05
         0.99335E-06
         0.80665E-06
         0.67825E-06
         0.88702E-06
         0.11749E-05
         0.12140E-05
         0.97939E-06
         0.79503E-06
         0.97720E-06
         0.11544E-05
         0.24631E-05
         0.19487E-05
         0.20973E-05
         0.36229E-05
         0.19364E-05
         0.24748E-05
         0.13707E-05
         0.16456E-05
         0.27428E-05
         0.19915E-05
         0.80498E-06
         0.15350E-05
         0.16911E-05
         0.13553E-05
         0.17473E-05
         0.32623E-05
         0.25541E-05
         0.32486E-05
         0.18991E-05
         0.21716E-05
         0.20468E-05
         0.22699E-05
         0.17399E-05
         0.10805E-05
         0.20457E-05
         0.17081E-05
         0.17549E-05
         0.18075E-05
         0.15804E-05
         0.19299E-05
         0.24592E-05
         0.17328E-05
         0.27642E-05
         0.24140E-05
         0.10819E-05
         0.16654E-05
         0.18916E-05
         0.20003E-05
         0.19337E-05
         0.15193E-05
         0.95450E-06
         0.15748E-05
         0.20869E-05
         0.16828E-05
         0.14782E-05
         0.96826E-06
         0.16546E-05
         0.22487E-05
         0.23626E-05
         0.19081E-05
         0.11714E-05
         0.20253E-05
         0.74316E-06
         0.94864E-06
         0.88196E-06
         0.10472E-05
         0.10243E-05
         0.99450E-06
         0.10634E-05
         0.11271E-05
         0.10596E-05
         0.82381E-06
         0.67036E-06
         0.86432E-06
         0.11529E-05
         0.12683E-05
         0.12154E-05
         0.10943E-05
         0.99329E-06
         0.80658E-06
         0.67815E-06
         0.88696E-06
         0.11749E-05
         0.12140E-05
         0.97919E-06
         0.79485E-06
         0.97732E-06
         0.11544E-05
         0.24632E-05
         0.19483E-05
         0.20975E-05
         0.36246E-05
         0.19368E-05
         0.24756E-05
         0.13700E-05
         0.16447E-05
         0.27437E-05
         0.19902E-05
         0.80421E-06
         0.15347E-05
         0.16910E-05
         0.13534E-05
         0.17470E-05
         0.32632E-05
         0.25552E-05
         0.32502E-05
         0.18992E-05
         0.21719E-05
         0.20467E-05
         0.22700E-05
         0.17397E-05
         0.10804E-05
         0.20448E-05
         0.17079E-05
         0.17523E-05
         0.18057E-05
         0.15797E-05
         0.19295E-05
         0.24595E-05
         0.17326E-05
         0.27656E-05
         0.24161E-05
         0.10819E-05
         0.16651E-05
         0.18914E-05
         0.20002E-05
         0.19338E-05
         0.15194E-05
         0.95451E-06
         0.15745E-05
         0.20868E-05
         0.16826E-05
         0.14779E-05
         0.96801E-06
         0.16545E-05
         0.22487E-05
         0.23630E-05
         0.19085E-05
         0.11714E-05
         0.20263E-05
         0.74293E-06
         0.94863E-06
         0.88153E-06
         0.10473E-05
         0.10245E-05
         0.99472E-06
         0.10639E-05
         0.11279E-05
         0.10602E-05
         0.82400E-06
         0.67041E-06
         0.86435E-06
         0.11530E-05
         0.12686E-05
         0.12156E-05
         0.10943E-05
         0.99323E-06
         0.80652E-06
         0.67804E-06
         0.88690E-06
         0.11749E-05
         0.12140E-05
         0.97900E-06
         0.79468E-06
         0.97744E-06
         0.11543E-05
         0.24633E-05
         0.19479E-05
         0.20977E-05
         0.36264E-05
         0.19371E-05
         0.24763E-05
         0.13693E-05
         0.16437E-05
         0.27447E-05
         0.19888E-05
         0.80343E-06
         0.15345E-05
         0.16908E-05
         0.13515E-05
         0.17466E-05
         0.32642E-05
         0.25564E-05
         0.32518E-05
         0.18992E-05
         0.21722E-05
         0.20466E-05
         0.22701E-05
         0.17395E-05
         0.10803E-05
         0.20439E-05
         0.17078E-05
         0.17496E-05
         0.18039E-05
         0.15790E-05
         0.19290E-05
         0.24597E-05
         0.17323E-05
         0.27671E-05
         0.24183E-05
         0.10819E-05
         0.16648E-05
         0.18911E-05
         0.20001E-05
         0.19339E-05
         0.15195E-05
         0.95452E-06
         0.15743E-05
         0.20867E-05
         0.16823E-05
         0.14775E-05
         0.96776E-06
         0.16543E-05
         0.22487E-05
         0.23633E-05
         0.19089E-05
         0.11714E-05
         0.20273E-05
         0.74270E-06
         0.94861E-06
         0.88109E-06
         0.10473E-05
         0.10248E-05
         0.99493E-06
         0.10643E-05
         0.11287E-05
         0.10609E-05
         0.82418E-06
         0.67046E-06
         0.86437E-06
         0.11532E-05
         0.12689E-05
         0.12157E-05
         0.10943E-05
         0.99316E-06
         0.80646E-06
         0.67794E-06
         0.88683E-06
         0.11749E-05
         0.12140E-05
         0.97879E-06
         0.79450E-06
         0.97755E-06
         0.11543E-05
         0.24635E-05
         0.19475E-05
         0.20979E-05
         0.36281E-05
         0.19374E-05
         0.24771E-05
         0.13686E-05
         0.16427E-05
         0.27456E-05
         0.19875E-05
         0.80266E-06
         0.15342E-05
         0.16907E-05
         0.13496E-05
         0.17463E-05
         0.32651E-05
         0.25575E-05
         0.32534E-05
         0.18993E-05
         0.21724E-05
         0.20466E-05
         0.22702E-05
         0.17393E-05
         0.10802E-05
         0.20430E-05
         0.17076E-05
         0.17469E-05
         0.18021E-05
         0.15784E-05
         0.19286E-05
         0.24600E-05
         0.17321E-05
         0.27685E-05
         0.24205E-05
         0.10819E-05
         0.16645E-05
         0.18909E-05
         0.19999E-05
         0.19341E-05
         0.15195E-05
         0.95452E-06
         0.15741E-05
         0.20866E-05
         0.16821E-05
         0.14772E-05
         0.96751E-06
         0.16542E-05
         0.22488E-05
         0.23637E-05
         0.19092E-05
         0.11715E-05
         0.20283E-05
         0.74247E-06
         0.94860E-06
         0.88066E-06
         0.10473E-05
         0.10250E-05
         0.99514E-06
         0.10648E-05
         0.11295E-05
         0.10615E-05
         0.82437E-06
         0.67052E-06
         0.86439E-06
         0.11533E-05
         0.12691E-05
         0.12159E-05
         0.10942E-05
         0.99310E-06
         0.80639E-06
         0.67783E-06
         0.88676E-06
         0.11748E-05
         0.12140E-05
         0.97859E-06
         0.79433E-06
         0.97767E-06
         0.11543E-05
         0.24636E-05
         0.19471E-05
         0.20980E-05
         0.36298E-05
         0.19377E-05
         0.24779E-05
         0.13679E-05
         0.16417E-05
         0.27466E-05
         0.19862E-05
         0.80189E-06
         0.15339E-05
         0.16906E-05
         0.13477E-05
         0.17459E-05
         0.32661E-05
         0.25587E-05
         0.32551E-05
         0.18994E-05
         0.21727E-05
         0.20465E-05
         0.22703E-05
         0.17392E-05
         0.10800E-05
         0.20421E-05
         0.17075E-05
         0.17443E-05
         0.18003E-05
         0.15777E-05
         0.19281E-05
         0.24602E-05
         0.17319E-05
         0.27700E-05
         0.24227E-05
         0.10819E-05
         0.16642E-05
         0.18906E-05
         0.19998E-05
         0.19342E-05
         0.15196E-05
         0.95453E-06
         0.15739E-05
         0.20865E-05
         0.16819E-05
         0.14768E-05
         0.96727E-06
         0.16541E-05
         0.22488E-05
         0.23640E-05
         0.19096E-05
         0.11715E-05
         0.20293E-05
         0.74225E-06
         0.94859E-06
         0.88023E-06
         0.10474E-05
         0.10253E-05
         0.99535E-06
         0.10653E-05
         0.11303E-05
         0.10621E-05
         0.82456E-06
         0.67057E-06
         0.86441E-06
         0.11535E-05
         0.12694E-05
         0.12160E-05
         0.10942E-05
         0.99304E-06
         0.80633E-06
         0.67773E-06
         0.88671E-06
         0.11748E-05
         0.12140E-05
         0.97840E-06
         0.79415E-06
         0.97780E-06
         0.11542E-05
         0.24637E-05
         0.19466E-05
         0.20982E-05
         0.36315E-05
         0.19380E-05
         0.24786E-05
         0.13671E-05
         0.16407E-05
         0.27475E-05
         0.19849E-05
         0.80110E-06
         0.15336E-05
         0.16905E-05
         0.13457E-05
         0.17455E-05
         0.32669E-05
         0.25598E-05
         0.32567E-05
         0.18994E-05
         0.21729E-05
         0.20464E-05
         0.22703E-05
         0.17390E-05
         0.10799E-05
         0.20412E-05
         0.17073E-05
         0.17416E-05
         0.17985E-05
         0.15770E-05
         0.19277E-05
         0.24604E-05
         0.17317E-05
         0.27714E-05
         0.24248E-05
         0.10819E-05
         0.16638E-05
         0.18903E-05
         0.19996E-05
         0.19343E-05
         0.15196E-05
         0.95451E-06
         0.15737E-05
         0.20864E-05
         0.16816E-05
         0.14765E-05
         0.96700E-06
         0.16539E-05
         0.22488E-05
         0.23644E-05
         0.19100E-05
         0.11715E-05
         0.20303E-05
         0.74200E-06
         0.94855E-06
         0.87978E-06
         0.10474E-05
         0.10255E-05
         0.99555E-06
         0.10657E-05
         0.11311E-05
         0.10627E-05
         0.82472E-06
         0.67061E-06
         0.86442E-06
         0.11536E-05
         0.12697E-05
         0.12161E-05
         0.10941E-05
         0.99295E-06
         0.80625E-06
         0.67761E-06
         0.88662E-06
         0.11748E-05
         0.12140E-05
         0.97818E-06
         0.79396E-06
         0.97790E-06
         0.11542E-05
         0.24639E-05
         0.19463E-05
         0.20984E-05
         0.36333E-05
         0.19383E-05
         0.24794E-05
         0.13664E-05
         0.16398E-05
         0.27485E-05
         0.19836E-05
         0.80034E-06
         0.15334E-05
         0.16904E-05
         0.13439E-05
         0.17452E-05
         0.32679E-05
         0.25610E-05
         0.32583E-05
         0.18995E-05
         0.21732E-05
         0.20463E-05
         0.22704E-05
         0.17388E-05
         0.10798E-05
         0.20404E-05
         0.17072E-05
         0.17389E-05
         0.17967E-05
         0.15763E-05
         0.19272E-05
         0.24607E-05
         0.17315E-05
         0.27729E-05
         0.24270E-05
         0.10819E-05
         0.16635E-05
         0.18901E-05
         0.19995E-05
         0.19345E-05
         0.15197E-05
         0.95453E-06
         0.15735E-05
         0.20863E-05
         0.16814E-05
         0.14761E-05
         0.96677E-06
         0.16538E-05
         0.22488E-05
         0.23647E-05
         0.19104E-05
         0.11716E-05
         0.20313E-05
         0.74179E-06
         0.94855E-06
         0.87936E-06
         0.10475E-05
         0.10257E-05
         0.99577E-06
         0.10662E-05
         0.11319E-05
         0.10633E-05
         0.82492E-06
         0.67068E-06
         0.86446E-06
         0.11538E-05
         0.12700E-05
         0.12163E-05
         0.10941E-05
         0.99291E-06
         0.80620E-06
         0.67752E-06
         0.88657E-06
         0.11748E-05
         0.12140E-05
         0.97800E-06
         0.79380E-06
         0.97803E-06
         0.11542E-05
         0.12320E-05
         0.97306E-06
         0.10493E-05
         0.18171E-05
         0.96926E-06
         0.12399E-05
         0.68306E-06
         0.81967E-06
         0.13745E-05
         0.99152E-06
         0.39999E-06
         0.76665E-06
         0.84519E-06
         0.67148E-06
         0.87252E-06
         0.16343E-05
         0.12808E-05
         0.16296E-05
         0.94981E-06
         0.10867E-05
         0.10232E-05
         0.11353E-05
         0.86940E-06
         0.53990E-06
         0.10200E-05
         0.85360E-06
         0.86884E-06
         0.89793E-06
         0.78802E-06
         0.96354E-06
         0.12305E-05
         0.86572E-06
         0.13869E-05
         0.12141E-05
         0.54095E-06
         0.83170E-06
         0.94503E-06
         0.99975E-06
         0.96729E-06
         0.75992E-06
         0.47728E-06
         0.78670E-06
         0.10432E-05
         0.84065E-06
         0.73800E-06
         0.48334E-06
         0.82688E-06
         0.11245E-05
         0.11825E-05
         0.95534E-06
         0.58581E-06
         0.10159E-05
         0.37085E-06
         0.47429E-06
         0.43959E-06
         0.52375E-06
         0.51294E-06
         0.49796E-06
         0.53322E-06
         0.56619E-06
         0.53185E-06
         0.41252E-06
         0.33536E-06
         0.43225E-06
         0.57696E-06
         0.63509E-06
         0.60820E-06
         0.54708E-06
         0.49646E-06
         0.40310E-06
         0.33875E-06
         0.44329E-06
         0.58740E-06
         0.60700E-06
         0.48897E-06
         0.39687E-06
         0.48906E-06
         0.57710E-06
  
SCALARS                 Poissons_ratio  double 1
LOOKUP_TABLE default
         0.30000E+00
         0.30000E+00
         0.30000E+00
         0.30000E+00
         0.30000E+00
         0.30000E+00
         0.30000E+00
         0.30000E+00
         0.30000E+00
         0.30000E+00
         0.30000E+00
         0.30000E+00
         0.30000E+00
         0.30000E+00
         0.30000E+00
         0.30000E+00
         0.30000E+00
         0.30000E+00
         0.30000E+00
         0.30000E+00
         0.30000E+00
         0.30000E+00
         0.30000E+00
         0.30000E+00
         0.30000E+00
         0.30000E+00
         0.30000E+00
         0.30000E+00
         0.30000E+00
         0.30000E+00
         0.30000E+00
         0.30000E+00
         0.30000E+00
         0.30000E+00
         0.30000E+00
         0.30000E+00
         0.30000E+00
         0.30000E+00
         0.30000E+00
         0.30000E+00
         0.30000E+00
         0.30000E+00
         0.30000E+00
         0.30000E+00
         0.30000E+00
         0.30000E+00
         0.30000E+00
         0.30000E+00
         0.30000E+00
         0.30000E+00
         0.30000E+00
         0.30000E+00
         0.30000E+00
         0.30000E+00
         0.30000E+00
         0.30000E+00
         0.30000E+00
         0.30000E+00
         0.30000E+00
         0.30000E+00
         0.30000E+00
         0.30000E+00
         0.30000E+00
         0.30000E+00
         0.30000E+00
         0.30000E+00
         0.30000E+00
         0.30000E+00
         0.30000E+00
         0.30000E+00
         0.30000E+00
         0.30000E+00
         0.30000E+00
         0.30000E+00
         0.30000E+00
         0.30000E+00
         0.30000E+00
         0.30000E+00
         0.30000E+00
         0.30000E+00
         0.30000E+00
         0.30000E+00
         0.30000E+00
         0.30000E+00
         0.30000E+00
         0.30000E+00
         0.30000E+00
         0.30000E+00
         0.30000E+00
         0.30000E+00
         0.30000E+00
         0.30000E+00
         0.30000E+00
         0.30000E+00
         0.30000E+00
         0.30000E+00
         0.30000E+00
         0.30000E+00
         0.30000E+00
         0.30000E+00
         0.30000E+00
         0.30000E+00
         0.30000E+00
         0.30000E+00
         0.30000E+00
         0.30000E+00
         0.30000E+00
         0.30000E+00
         0.30000E+00
         0.30000E+00
         0.30000E+00
         0.30000E+00
         0.30000E+00
         0.30000E+00
         0.30000E+00
         0.30000E+00
         0.30000E+00
         0.30000E+00
         0.30000E+00
         0.30000E+00
         0.30000E+00
         0.30000E+00
         0.30000E+00
         0.30000E+00
         0.30000E+00
         0.30000E+00
         0.30000E+00
         0.30000E+00
         0.30000E+00
         0.30000E+00
         0.30000E+00
         0.30000E+00
         0.30000E+00
         0.30000E+00
         0.30000E+00
         0.30000E+00
         0.30000E+00
         0.30000E+00
         0.30000E+00
         0.30000E+00
         0.30000E+00
         0.30000E+00
         0.30000E+00
         0.30000E+00
         0.30000E+00
         0.30000E+00
         0.30000E+00
         0.30000E+00
         0.30000E+00
         0.30000E+00
         0.30000E+00
         0.30000E+00
         0.30000E+00
         0.30000E+00
         0.30000E+00
         0.30000E+00
         0.30000E+00
         0.30000E+00
         0.30000E+00
         0.30000E+00
         0.30000E+00
         0.30000E+00
         0.30000E+00
         0.30000E+00
         0.30000E+00
         0.30000E+00
         0.30000E+00
         0.30000E+00
         0.30000E+00
         0.30000E+00
         0.30000E+00
         0.30000E+00
         0.30000E+00
         0.30000E+00
         0.30000E+00
         0.30000E+00
         0.30000E+00
         0.30000E+00
         0.30000E+00
         0.30000E+00
         0.30000E+00
         0.30000E+00
         0.30000E+00
         0.30000E+00
         0.30000E+00
         0.30000E+00
         0.30000E+00
         0.30000E+00
         0.30000E+00
         0.30000E+00
         0.30000E+00
         0.30000E+00
         0.30000E+00
         0.30000E+00
         0.30000E+00
         0.30000E+00
         0.30000E+00
         0.30000E+00
         0.30000E+00
         0.30000E+00
         0.30000E+00
         0.30000E+00
         0.30000E+00
         0.30000E+00
         0.30000E+00
         0.30000E+00
         0.30000E+00
         0.30000E+00
         0.30000E+00
         0.30000E+00
         0.30000E+00
         0.30000E+00
         0.30000E+00
         0.30000E+00
         0.30000E+00
         0.30000E+00
         0.30000E+00
         0.30000E+00
         0.30000E+00
         0.30000E+00
         0.30000E+00
         0.30000E+00
         0.30000E+00
         0.30000E+00
         0.30000E+00
         0.30000E+00
         0.30000E+00
         0.30000E+00
         0.30000E+00
         0.30000E+00
         0.30000E+00
         0.30000E+00
         0.30000E+00
         0.30000E+00
         0.30000E+00
         0.30000E+00
         0.30000E+00
         0.30000E+00
         0.30000E+00
         0.30000E+00
         0.30000E+00
         0.30000E+00
         0.30000E+00
         0.30000E+00
         0.30000E+00
         0.30000E+00
         0.30000E+00
         0.30000E+00
         0.30000E+00
         0.30000E+00
         0.30000E+00
         0.30000E+00
         0.30000E+00
         0.30000E+00
         0.30000E+00
         0.30000E+00
         0.30000E+00
         0.30000E+00
         0.30000E+00
         0.30000E+00
         0.30000E+00
         0.30000E+00
         0.30000E+00
         0.30000E+00
         0.30000E+00
         0.30000E+00
         0.30000E+00
         0.30000E+00
         0.30000E+00
         0.30000E+00
         0.30000E+00
         0.30000E+00
         0.30000E+00
         0.30000E+00
         0.30000E+00
         0.30000E+00
         0.30000E+00
         0.30000E+00
         0.30000E+00
         0.30000E+00
         0.30000E+00
         0.30000E+00
         0.30000E+00
         0.30000E+00
         0.30000E+00
         0.30000E+00
         0.30000E+00
         0.30000E+00
         0.30000E+00
         0.30000E+00
         0.30000E+00
         0.30000E+00
         0.30000E+00
         0.30000E+00
         0.30000E+00
         0.30000E+00
         0.30000E+00
         0.30000E+00
         0.30000E+00
         0.30000E+00
         0.30000E+00
         0.30000E+00
         0.30000E+00
         0.30000E+00
         0.30000E+00
         0.30000E+00
         0.30000E+00
         0.30000E+00
         0.30000E+00
         0.30000E+00
         0.30000E+00
         0.30000E+00
         0.30000E+00
         0.30000E+00
         0.30000E+00
         0.30000E+00
         0.30000E+00
         0.30000E+00
         0.30000E+00
         0.30000E+00
         0.30000E+00
         0.30000E+00
         0.30000E+00
         0.30000E+00
         0.30000E+00
         0.30000E+00
         0.30000E+00
         0.30000E+00
         0.30000E+00
         0.30000E+00
         0.30000E+00
         0.30000E+00
         0.30000E+00
         0.30000E+00
         0.30000E+00
         0.30000E+00
         0.30000E+00
         0.30000E+00
         0.30000E+00
         0.30000E+00
         0.30000E+00
         0.30000E+00
         0.30000E+00
         0.30000E+00
         0.30000E+00
         0.30000E+00
         0.30000E+00
         0.30000E+00
         0.30000E+00
         0.30000E+00
         0.30000E+00
         0.30000E+00
         0.30000E+00
         0.30000E+00
         0.30000E+00
         0.30000E+00
         0.30000E+00
         0.30000E+00
         0.30000E+00
         0.30000E+00
         0.30000E+00
         0.30000E+00
         0.30000E+00
         0.30000E+00
         0.30000E+00
         0.30000E+00
         0.30000E+00
         0.30000E+00
         0.30000E+00
         0.30000E+00
         0.30000E+00
         0.30000E+00
         0.30000E+00
         0.30000E+00
         0.30000E+00
         0.30000E+00
         0.30000E+00
         0.30000E+00
         0.30000E+00
         0.30000E+00
         0.30000E+00
         0.30000E+00
         0.30000E+00
         0.30000E+00
         0.30000E+00
         0.30000E+00
         0.30000E+00
         0.30000E+00
         0.30000E+00
         0.30000E+00
         0.30000E+00
         0.30000E+00
         0.30000E+00
         0.30000E+00
         0.30000E+00
         0.30000E+00
         0.30000E+00
         0.30000E+00
         0.30000E+00
         0.30000E+00
         0.30000E+00
         0.30000E+00
         0.30000E+00
         0.30000E+00
         0.30000E+00
         0.30000E+00
         0.30000E+00
         0.30000E+00
         0.30000E+00
         0.30000E+00
         0.30000E+00
         0.30000E+00
         0.30000E+00
         0.30000E+00
         0.30000E+00
         0.30000E+00
         0.30000E+00
         0.30000E+00
         0.30000E+00
         0.30000E+00
         0.30000E+00
         0.30000E+00
         0.30000E+00
         0.30000E+00
         0.30000E+00
         0.30000E+00
         0.30000E+00
         0.30000E+00
         0.30000E+00
         0.30000E+00
         0.30000E+00
         0.30000E+00
         0.30000E+00
         0.30000E+00
         0.30000E+00
         0.30000E+00
         0.30000E+00
         0.30000E+00
         0.30000E+00
         0.30000E+00
         0.30000E+00
         0.30000E+00
         0.30000E+00
         0.30000E+00
         0.30000E+00
         0.30000E+00
         0.30000E+00
         0.30000E+00
         0.30000E+00
         0.30000E+00
         0.30000E+00
         0.30000E+00
         0.30000E+00
         0.30000E+00
         0.30000E+00
         0.30000E+00
         0.30000E+00
         0.30000E+00
         0.30000E+00
         0.30000E+00
         0.30000E+00
         0.30000E+00
         0.30000E+00
         0.30000E+00
         0.30000E+00
         0.30000E+00
         0.30000E+00
         0.30000E+00
         0.30000E+00
         0.30000E+00
         0.30000E+00
         0.30000E+00
         0.30000E+00
         0.30000E+00
         0.30000E+00
         0.30000E+00
         0.30000E+00
         0.30000E+00
         0.30000E+00
         0.30000E+00
         0.30000E+00
         0.30000E+00
         0.30000E+00
         0.30000E+00
         0.30000E+00
         0.30000E+00
         0.30000E+00
         0.30000E+00
         0.30000E+00
         0.30000E+00
         0.30000E+00
         0.30000E+00
         0.30000E+00
         0.30000E+00
         0.30000E+00
         0.30000E+00
         0.30000E+00
         0.30000E+00
         0.30000E+00
         0.30000E+00
         0.30000E+00
         0.30000E+00
         0.30000E+00
         0.30000E+00
         0.30000E+00
         0.30000E+00
         0.30000E+00
         0.30000E+00
         0.30000E+00
         0.30000E+00
         0.30000E+00
         0.30000E+00
         0.30000E+00
         0.30000E+00
         0.30000E+00
         0.30000E+00
         0.30000E+00
         0.30000E+00
         0.30000E+00
         0.30000E+00
         0.30000E+00
         0.30000E+00
         0.30000E+00
         0.30000E+00
         0.30000E+00
         0.30000E+00
         0.30000E+00
         0.30000E+00
         0.30000E+00
         0.30000E+00
         0.30000E+00
         0.30000E+00
         0.30000E+00
         0.30000E+00
         0.30000E+00
         0.30000E+00
         0.30000E+00
         0.30000E+00
         0.30000E+00
         0.30000E+00
         0.30000E+00
         0.30000E+00
         0.30000E+00
         0.30000E+00
         0.30000E+00
         0.30000E+00
         0.30000E+00
         0.30000E+00
         0.30000E+00
         0.30000E+00
         0.30000E+00
         0.30000E+00
         0.30000E+00
         0.30000E+00
         0.30000E+00
         0.30000E+00
         0.30000E+00
         0.30000E+00
         0.30000E+00
         0.30000E+00
         0.30000E+00
         0.30000E+00
         0.30000E+00
         0.30000E+00
         0.30000E+00
         0.30000E+00
         0.30000E+00
         0.30000E+00
         0.30000E+00
         0.30000E+00
         0.30000E+00
         0.30000E+00
         0.30000E+00
         0.30000E+00
         0.30000E+00
         0.30000E+00
         0.30000E+00
         0.30000E+00
         0.30000E+00
         0.30000E+00
         0.30000E+00
         0.30000E+00
         0.30000E+00
         0.30000E+00
         0.30000E+00
         0.30000E+00
         0.30000E+00
         0.30000E+00
         0.30000E+00
         0.30000E+00
         0.30000E+00
         0.30000E+00
         0.30000E+00
         0.30000E+00
         0.30000E+00
         0.30000E+00
         0.30000E+00
         0.30000E+00
         0.30000E+00
         0.30000E+00
         0.30000E+00
         0.30000E+00
         0.30000E+00
         0.30000E+00
         0.30000E+00
         0.30000E+00
         0.30000E+00
         0.30000E+00
         0.30000E+00
         0.30000E+00
         0.30000E+00
         0.30000E+00
         0.30000E+00
         0.30000E+00
         0.30000E+00
         0.30000E+00
         0.30000E+00
         0.30000E+00
         0.30000E+00
         0.30000E+00
         0.30000E+00
         0.30000E+00
         0.30000E+00
         0.30000E+00
         0.30000E+00
         0.30000E+00
         0.30000E+00
         0.30000E+00
         0.30000E+00
         0.30000E+00
         0.30000E+00
         0.30000E+00
         0.30000E+00
         0.30000E+00
         0.30000E+00
         0.30000E+00
         0.30000E+00
         0.30000E+00
         0.30000E+00
         0.30000E+00
         0.30000E+00
         0.30000E+00
         0.30000E+00
         0.30000E+00
         0.30000E+00
         0.30000E+00
         0.30000E+00
         0.30000E+00
         0.30000E+00
         0.30000E+00
         0.30000E+00
         0.30000E+00
         0.30000E+00
         0.30000E+00
         0.30000E+00
         0.30000E+00
         0.30000E+00
         0.30000E+00
         0.30000E+00
         0.30000E+00
         0.30000E+00
         0.30000E+00
         0.30000E+00
         0.30000E+00
         0.30000E+00
         0.30000E+00
         0.30000E+00
         0.30000E+00
         0.30000E+00
         0.30000E+00
         0.30000E+00
         0.30000E+00
         0.30000E+00
         0.30000E+00
         0.30000E+00
         0.30000E+00
         0.30000E+00
         0.30000E+00
         0.30000E+00
         0.30000E+00
         0.30000E+00
         0.30000E+00
         0.30000E+00
         0.30000E+00
         0.30000E+00
         0.30000E+00
         0.30000E+00
         0.30000E+00
         0.30000E+00
         0.30000E+00
         0.30000E+00
         0.30000E+00
         0.30000E+00
         0.30000E+00
         0.30000E+00
         0.30000E+00
         0.30000E+00
         0.30000E+00
         0.30000E+00
         0.30000E+00
         0.30000E+00
         0.30000E+00
         0.30000E+00
         0.30000E+00
         0.30000E+00
         0.30000E+00
         0.30000E+00
         0.30000E+00
         0.30000E+00
         0.30000E+00
         0.30000E+00
         0.30000E+00
         0.30000E+00
         0.30000E+00
         0.30000E+00
         0.30000E+00
         0.30000E+00
         0.30000E+00
         0.30000E+00
         0.30000E+00
         0.30000E+00
         0.30000E+00
         0.30000E+00
         0.30000E+00
         0.30000E+00
         0.30000E+00
         0.30000E+00
         0.30000E+00
         0.30000E+00
         0.30000E+00
         0.30000E+00
         0.30000E+00
         0.30000E+00
         0.30000E+00
         0.30000E+00
         0.30000E+00
         0.30000E+00
         0.30000E+00
         0.30000E+00
         0.30000E+00
         0.30000E+00
         0.30000E+00
         0.30000E+00
         0.30000E+00
         0.30000E+00
         0.30000E+00
         0.30000E+00
         0.30000E+00
         0.30000E+00
         0.30000E+00
         0.30000E+00
         0.30000E+00
         0.30000E+00
         0.30000E+00
         0.30000E+00
         0.30000E+00
         0.30000E+00
         0.30000E+00
         0.30000E+00
         0.30000E+00
         0.30000E+00
         0.30000E+00
         0.30000E+00
         0.30000E+00
         0.30000E+00
         0.30000E+00
         0.30000E+00
         0.30000E+00
         0.30000E+00
         0.30000E+00
         0.30000E+00
         0.30000E+00
         0.30000E+00
         0.30000E+00
         0.30000E+00
         0.30000E+00
         0.30000E+00
         0.30000E+00
         0.30000E+00
         0.30000E+00
         0.30000E+00
         0.30000E+00
         0.30000E+00
         0.30000E+00
         0.30000E+00
         0.30000E+00
         0.30000E+00
         0.30000E+00
         0.30000E+00
         0.30000E+00
         0.30000E+00
         0.30000E+00
         0.30000E+00
         0.30000E+00
         0.30000E+00
         0.30000E+00
         0.30000E+00
         0.30000E+00
         0.30000E+00
         0.30000E+00
         0.30000E+00
         0.30000E+00
         0.30000E+00
         0.30000E+00
         0.30000E+00
         0.30000E+00
         0.30000E+00
         0.30000E+00
         0.30000E+00
         0.30000E+00
         0.30000E+00
         0.30000E+00
         0.30000E+00
         0.30000E+00
         0.30000E+00
         0.30000E+00
         0.30000E+00
         0.30000E+00
         0.30000E+00
         0.30000E+00
         0.30000E+00
         0.30000E+00
         0.30000E+00
         0.30000E+00
         0.30000E+00
         0.30000E+00
         0.30000E+00
         0.30000E+00
         0.30000E+00
         0.30000E+00
         0.30000E+00
         0.30000E+00
         0.30000E+00
         0.30000E+00
         0.30000E+00
         0.30000E+00
         0.30000E+00
         0.30000E+00
         0.30000E+00
         0.30000E+00
         0.30000E+00
         0.30000E+00
         0.30000E+00
         0.30000E+00
         0.30000E+00
         0.30000E+00
         0.30000E+00
         0.30000E+00
         0.30000E+00
         0.30000E+00
         0.30000E+00
         0.30000E+00
         0.30000E+00
         0.30000E+00
         0.30000E+00
         0.30000E+00
         0.30000E+00
         0.30000E+00
         0.30000E+00
         0.30000E+00
         0.30000E+00
         0.30000E+00
         0.30000E+00
         0.30000E+00
         0.30000E+00
         0.30000E+00
         0.30000E+00
         0.30000E+00
         0.30000E+00
         0.30000E+00
         0.30000E+00
         0.30000E+00
         0.30000E+00
         0.30000E+00
         0.30000E+00
         0.30000E+00
         0.30000E+00
         0.30000E+00
         0.30000E+00
         0.30000E+00
         0.30000E+00
         0.30000E+00
         0.30000E+00
         0.30000E+00
         0.30000E+00
         0.30000E+00
         0.30000E+00
         0.30000E+00
         0.30000E+00
         0.30000E+00
         0.30000E+00
         0.30000E+00
         0.30000E+00
         0.30000E+00
         0.30000E+00
         0.30000E+00
         0.30000E+00
         0.30000E+00
         0.30000E+00
         0.30000E+00
         0.30000E+00
         0.30000E+00
         0.30000E+00
         0.30000E+00
         0.30000E+00
         0.30000E+00
         0.30000E+00
         0.30000E+00
         0.30000E+00
         0.30000E+00
         0.30000E+00
         0.30000E+00
         0.30000E+00
         0.30000E+00
         0.30000E+00
         0.30000E+00
         0.30000E+00
         0.30000E+00
         0.30000E+00
         0.30000E+00
         0.30000E+00
         0.30000E+00
         0.30000E+00
         0.30000E+00
         0.30000E+00
         0.30000E+00
         0.30000E+00
         0.30000E+00
         0.30000E+00
         0.30000E+00
         0.30000E+00
         0.30000E+00
         0.30000E+00
         0.30000E+00
         0.30000E+00
         0.30000E+00
         0.30000E+00
         0.30000E+00
         0.30000E+00
         0.30000E+00
         0.30000E+00
         0.30000E+00
         0.30000E+00
         0.30000E+00
         0.30000E+00
         0.30000E+00
         0.30000E+00
         0.30000E+00
         0.30000E+00
         0.30000E+00
         0.30000E+00
         0.30000E+00
         0.30000E+00
         0.30000E+00
         0.30000E+00
         0.30000E+00
         0.30000E+00
         0.30000E+00
         0.30000E+00
         0.30000E+00
         0.30000E+00
         0.30000E+00
         0.30000E+00
         0.30000E+00
         0.30000E+00
         0.30000E+00
         0.30000E+00
         0.30000E+00
         0.30000E+00
         0.30000E+00
         0.30000E+00
         0.30000E+00
         0.30000E+00
         0.30000E+00
         0.30000E+00
         0.30000E+00
         0.30000E+00
         0.30000E+00
         0.30000E+00
         0.30000E+00
         0.30000E+00
         0.30000E+00
         0.30000E+00
         0.30000E+00
         0.30000E+00
         0.30000E+00
         0.30000E+00
         0.30000E+00
         0.30000E+00
         0.30000E+00
         0.30000E+00
         0.30000E+00
         0.30000E+00
         0.30000E+00
         0.30000E+00
         0.30000E+00
         0.30000E+00
         0.30000E+00
         0.30000E+00
         0.30000E+00
         0.30000E+00
         0.30000E+00
         0.30000E+00
         0.30000E+00
         0.30000E+00
         0.30000E+00
         0.30000E+00
         0.30000E+00
         0.30000E+00
         0.30000E+00
         0.30000E+00
         0.30000E+00
         0.30000E+00
         0.30000E+00
         0.30000E+00
         0.30000E+00
         0.30000E+00
         0.30000E+00
         0.30000E+00
         0.30000E+00
         0.30000E+00
         0.30000E+00
         0.30000E+00
         0.30000E+00
         0.30000E+00
         0.30000E+00
         0.30000E+00
         0.30000E+00
         0.30000E+00
         0.30000E+00
         0.30000E+00
         0.30000E+00
         0.30000E+00
         0.30000E+00
         0.30000E+00
         0.30000E+00
         0.30000E+00
         0.30000E+00
         0.30000E+00
         0.30000E+00
         0.30000E+00
         0.30000E+00
         0.30000E+00
         0.30000E+00
         0.30000E+00
         0.30000E+00
         0.30000E+00
         0.30000E+00
         0.30000E+00
         0.30000E+00
         0.30000E+00
         0.30000E+00
         0.30000E+00
         0.30000E+00
         0.30000E+00
         0.30000E+00
         0.30000E+00
         0.30000E+00
         0.30000E+00
         0.30000E+00
         0.30000E+00
         0.30000E+00
         0.30000E+00
         0.30000E+00
         0.30000E+00
         0.30000E+00
         0.30000E+00
         0.30000E+00
         0.30000E+00
         0.30000E+00
         0.30000E+00
         0.30000E+00
         0.30000E+00
         0.30000E+00
         0.30000E+00
         0.30000E+00
         0.30000E+00
         0.30000E+00
         0.30000E+00
         0.30000E+00
         0.30000E+00
         0.30000E+00
         0.30000E+00
         0.30000E+00
         0.30000E+00
         0.30000E+00
         0.30000E+00
         0.30000E+00
         0.30000E+00
         0.30000E+00
         0.30000E+00
         0.30000E+00
         0.30000E+00
         0.30000E+00
         0.30000E+00
         0.30000E+00
         0.30000E+00
         0.30000E+00
         0.30000E+00
         0.30000E+00
         0.30000E+00
         0.30000E+00
         0.30000E+00
         0.30000E+00
         0.30000E+00
         0.30000E+00
         0.30000E+00
         0.30000E+00
         0.30000E+00
         0.30000E+00
         0.30000E+00
         0.30000E+00
         0.30000E+00
         0.30000E+00
         0.30000E+00
         0.30000E+00
         0.30000E+00
         0.30000E+00
         0.30000E+00
         0.30000E+00
         0.30000E+00
         0.30000E+00
         0.30000E+00
         0.30000E+00
         0.30000E+00
         0.30000E+00
         0.30000E+00
         0.30000E+00
         0.30000E+00
         0.30000E+00
         0.30000E+00
         0.30000E+00
         0.30000E+00
         0.30000E+00
         0.30000E+00
         0.30000E+00
         0.30000E+00
         0.30000E+00
         0.30000E+00
         0.30000E+00
         0.30000E+00
         0.30000E+00
         0.30000E+00
         0.30000E+00
         0.30000E+00
         0.30000E+00
         0.30000E+00
         0.30000E+00
         0.30000E+00
         0.30000E+00
         0.30000E+00
         0.30000E+00
         0.30000E+00
         0.30000E+00
         0.30000E+00
         0.30000E+00
         0.30000E+00
         0.30000E+00
         0.30000E+00
         0.30000E+00
         0.30000E+00
         0.30000E+00
         0.30000E+00
         0.30000E+00
         0.30000E+00
         0.30000E+00
         0.30000E+00
         0.30000E+00
         0.30000E+00
         0.30000E+00
         0.30000E+00
         0.30000E+00
         0.30000E+00
         0.30000E+00
         0.30000E+00
         0.30000E+00
         0.30000E+00
         0.30000E+00
         0.30000E+00
         0.30000E+00
         0.30000E+00
         0.30000E+00
         0.30000E+00
         0.30000E+00
         0.30000E+00
         0.30000E+00
         0.30000E+00
         0.30000E+00
         0.30000E+00
         0.30000E+00
         0.30000E+00
         0.30000E+00
         0.30000E+00
         0.30000E+00
         0.30000E+00
         0.30000E+00
         0.30000E+00
         0.30000E+00
         0.30000E+00
         0.30000E+00
         0.30000E+00
         0.30000E+00
         0.30000E+00
         0.30000E+00
         0.30000E+00
         0.30000E+00
         0.30000E+00
         0.30000E+00
         0.30000E+00
         0.30000E+00
         0.30000E+00
         0.30000E+00
         0.30000E+00
         0.30000E+00
         0.30000E+00
         0.30000E+00
         0.30000E+00
         0.30000E+00
         0.30000E+00
         0.30000E+00
         0.30000E+00
         0.30000E+00
         0.30000E+00
         0.30000E+00
         0.30000E+00
         0.30000E+00
         0.30000E+00
         0.30000E+00
         0.30000E+00
         0.30000E+00
         0.30000E+00
         0.30000E+00
         0.30000E+00
         0.30000E+00
         0.30000E+00
         0.30000E+00
         0.30000E+00
         0.30000E+00
         0.30000E+00
         0.30000E+00
         0.30000E+00
         0.30000E+00
         0.30000E+00
         0.30000E+00
         0.30000E+00
         0.30000E+00
         0.30000E+00
         0.30000E+00
         0.30000E+00
         0.30000E+00
         0.30000E+00
         0.30000E+00
         0.30000E+00
         0.30000E+00
         0.30000E+00
         0.30000E+00
         0.30000E+00
         0.30000E+00
         0.30000E+00
         0.30000E+00
         0.30000E+00
         0.30000E+00
         0.30000E+00
         0.30000E+00
         0.30000E+00
         0.30000E+00
         0.30000E+00
         0.30000E+00
         0.30000E+00
         0.30000E+00
         0.30000E+00
         0.30000E+00
         0.30000E+00
         0.30000E+00
         0.30000E+00
         0.30000E+00
         0.30000E+00
         0.30000E+00
         0.30000E+00
         0.30000E+00
         0.30000E+00
         0.30000E+00
         0.30000E+00
         0.30000E+00
         0.30000E+00
         0.30000E+00
         0.30000E+00
         0.30000E+00
         0.30000E+00
         0.30000E+00
         0.30000E+00
         0.30000E+00
         0.30000E+00
         0.30000E+00
         0.30000E+00
         0.30000E+00
         0.30000E+00
         0.30000E+00
         0.30000E+00
         0.30000E+00
         0.30000E+00
         0.30000E+00
         0.30000E+00
         0.30000E+00
         0.30000E+00
         0.30000E+00
         0.30000E+00
         0.30000E+00
         0.30000E+00
         0.30000E+00
         0.30000E+00
         0.30000E+00
         0.30000E+00
         0.30000E+00
         0.30000E+00
         0.30000E+00
         0.30000E+00
         0.30000E+00
         0.30000E+00
         0.30000E+00
         0.30000E+00
         0.30000E+00
         0.30000E+00
         0.30000E+00
         0.30000E+00
         0.30000E+00
         0.30000E+00
         0.30000E+00
         0.30000E+00
         0.30000E+00
         0.30000E+00
         0.30000E+00
         0.30000E+00
         0.30000E+00
         0.30000E+00
         0.30000E+00
         0.30000E+00
         0.30000E+00
         0.30000E+00
         0.30000E+00
         0.30000E+00
         0.30000E+00
         0.30000E+00
         0.30000E+00
         0.30000E+00
         0.30000E+00
         0.30000E+00
         0.30000E+00
         0.30000E+00
         0.30000E+00
         0.30000E+00
         0.30000E+00
         0.30000E+00
         0.30000E+00
         0.30000E+00
         0.30000E+00
         0.30000E+00
         0.30000E+00
         0.30000E+00
         0.30000E+00
         0.30000E+00
         0.30000E+00
         0.30000E+00
         0.30000E+00
         0.30000E+00
         0.30000E+00
         0.30000E+00
         0.30000E+00
         0.30000E+00
         0.30000E+00
         0.30000E+00
         0.30000E+00
         0.30000E+00
         0.30000E+00
         0.30000E+00
         0.30000E+00
         0.30000E+00
         0.30000E+00
         0.30000E+00
         0.30000E+00
         0.30000E+00
         0.30000E+00
         0.30000E+00
         0.30000E+00
         0.30000E+00
         0.30000E+00
         0.30000E+00
         0.30000E+00
         0.30000E+00
         0.30000E+00
         0.30000E+00
         0.30000E+00
         0.30000E+00
         0.30000E+00
         0.30000E+00
         0.30000E+00
         0.30000E+00
         0.30000E+00
         0.30000E+00
         0.30000E+00
         0.30000E+00
         0.30000E+00
         0.30000E+00
         0.30000E+00
         0.30000E+00
         0.30000E+00
         0.30000E+00
         0.30000E+00
         0.30000E+00
         0.30000E+00
         0.30000E+00
         0.30000E+00
         0.30000E+00
         0.30000E+00
         0.30000E+00
         0.30000E+00
         0.30000E+00
         0.30000E+00
         0.30000E+00
         0.30000E+00
         0.30000E+00
         0.30000E+00
         0.30000E+00
         0.30000E+00
         0.30000E+00
         0.30000E+00
         0.30000E+00
         0.30000E+00
         0.30000E+00
         0.30000E+00
         0.30000E+00
         0.30000E+00
         0.30000E+00
         0.30000E+00
         0.30000E+00
         0.30000E+00
         0.30000E+00
         0.30000E+00
         0.30000E+00
         0.30000E+00
         0.30000E+00
         0.30000E+00
         0.30000E+00
         0.30000E+00
         0.30000E+00
         0.30000E+00
         0.30000E+00
         0.30000E+00
         0.30000E+00
         0.30000E+00
         0.30000E+00
         0.30000E+00
         0.30000E+00
         0.30000E+00
         0.30000E+00
         0.30000E+00
         0.30000E+00
         0.30000E+00
         0.30000E+00
         0.30000E+00
         0.30000E+00
         0.30000E+00
         0.30000E+00
         0.30000E+00
         0.30000E+00
         0.30000E+00
         0.30000E+00
         0.30000E+00
         0.30000E+00
         0.30000E+00
         0.30000E+00
         0.30000E+00
         0.30000E+00
         0.30000E+00
         0.30000E+00
         0.30000E+00
         0.30000E+00
         0.30000E+00
         0.30000E+00
         0.30000E+00
         0.30000E+00
         0.30000E+00
         0.30000E+00
         0.30000E+00
         0.30000E+00
         0.30000E+00
         0.30000E+00
         0.30000E+00
         0.30000E+00
         0.30000E+00
         0.30000E+00
         0.30000E+00
         0.30000E+00
         0.30000E+00
         0.30000E+00
         0.30000E+00
         0.30000E+00
         0.30000E+00
         0.30000E+00
         0.30000E+00
         0.30000E+00
         0.30000E+00
         0.30000E+00
         0.30000E+00
         0.30000E+00
         0.30000E+00
         0.30000E+00
         0.30000E+00
         0.30000E+00
         0.30000E+00
         0.30000E+00
         0.30000E+00
         0.30000E+00
         0.30000E+00
         0.30000E+00
         0.30000E+00
         0.30000E+00
         0.30000E+00
         0.30000E+00
         0.30000E+00
         0.30000E+00
         0.30000E+00
         0.30000E+00
         0.30000E+00
         0.30000E+00
         0.30000E+00
         0.30000E+00
         0.30000E+00
         0.30000E+00
         0.30000E+00
         0.30000E+00
         0.30000E+00
         0.30000E+00
         0.30000E+00
         0.30000E+00
         0.30000E+00
         0.30000E+00
         0.30000E+00
         0.30000E+00
         0.30000E+00
         0.30000E+00
         0.30000E+00
         0.30000E+00
         0.30000E+00
         0.30000E+00
         0.30000E+00
         0.30000E+00
         0.30000E+00
         0.30000E+00
         0.30000E+00
         0.30000E+00
         0.30000E+00
         0.30000E+00
         0.30000E+00
         0.30000E+00
         0.30000E+00
         0.30000E+00
         0.30000E+00
         0.30000E+00
         0.30000E+00
         0.30000E+00
         0.30000E+00
         0.30000E+00
         0.30000E+00
         0.30000E+00
         0.30000E+00
         0.30000E+00
         0.30000E+00
         0.30000E+00
         0.30000E+00
         0.30000E+00
         0.30000E+00
         0.30000E+00
         0.30000E+00
         0.30000E+00
         0.30000E+00
         0.30000E+00
         0.30000E+00
         0.30000E+00
         0.30000E+00
         0.30000E+00
         0.30000E+00
         0.30000E+00
         0.30000E+00
         0.30000E+00
         0.30000E+00
         0.30000E+00
         0.30000E+00
         0.30000E+00
         0.30000E+00
         0.30000E+00
         0.30000E+00
         0.30000E+00
         0.30000E+00
         0.30000E+00
         0.30000E+00
         0.30000E+00
         0.30000E+00
         0.30000E+00
         0.30000E+00
         0.30000E+00
         0.30000E+00
         0.30000E+00
         0.30000E+00
         0.30000E+00
         0.30000E+00
         0.30000E+00
         0.30000E+00
         0.30000E+00
         0.30000E+00
         0.30000E+00
         0.30000E+00
         0.30000E+00
         0.30000E+00
         0.30000E+00
         0.30000E+00
         0.30000E+00
         0.30000E+00
         0.30000E+00
         0.30000E+00
         0.30000E+00
         0.30000E+00
         0.30000E+00
         0.30000E+00
         0.30000E+00
         0.30000E+00
         0.30000E+00
         0.30000E+00
         0.30000E+00
         0.30000E+00
         0.30000E+00
         0.30000E+00
         0.30000E+00
         0.30000E+00
         0.30000E+00
         0.30000E+00
         0.30000E+00
         0.30000E+00
         0.30000E+00
         0.30000E+00
         0.30000E+00
         0.30000E+00
         0.30000E+00
         0.30000E+00
         0.30000E+00
         0.30000E+00
         0.30000E+00
         0.30000E+00
         0.30000E+00
         0.30000E+00
         0.30000E+00
         0.30000E+00
         0.30000E+00
         0.30000E+00
         0.30000E+00
         0.30000E+00
         0.30000E+00
         0.30000E+00
         0.30000E+00
         0.30000E+00
         0.30000E+00
         0.30000E+00
         0.30000E+00
         0.30000E+00
         0.30000E+00
         0.30000E+00
         0.30000E+00
         0.30000E+00
         0.30000E+00
         0.30000E+00
         0.30000E+00
         0.30000E+00
         0.30000E+00
         0.30000E+00
         0.30000E+00
         0.30000E+00
         0.30000E+00
         0.30000E+00
         0.30000E+00
         0.30000E+00
         0.30000E+00
         0.30000E+00
         0.30000E+00
         0.30000E+00
         0.30000E+00
         0.30000E+00
         0.30000E+00
         0.30000E+00
         0.30000E+00
         0.30000E+00
         0.30000E+00
         0.30000E+00
         0.30000E+00
         0.30000E+00
         0.30000E+00
         0.30000E+00
         0.30000E+00
         0.30000E+00
         0.30000E+00
         0.30000E+00
         0.30000E+00
         0.30000E+00
         0.30000E+00
         0.30000E+00
         0.30000E+00
         0.30000E+00
         0.30000E+00
         0.30000E+00
         0.30000E+00
         0.30000E+00
         0.30000E+00
         0.30000E+00
         0.30000E+00
         0.30000E+00
         0.30000E+00
         0.30000E+00
         0.30000E+00
         0.30000E+00
         0.30000E+00
         0.30000E+00
         0.30000E+00
         0.30000E+00
         0.30000E+00
         0.30000E+00
         0.30000E+00
         0.30000E+00
         0.30000E+00
         0.30000E+00
         0.30000E+00
         0.30000E+00
         0.30000E+00
         0.30000E+00
         0.30000E+00
         0.30000E+00
         0.30000E+00
         0.30000E+00
         0.30000E+00
         0.30000E+00
         0.30000E+00
         0.30000E+00
         0.30000E+00
         0.30000E+00
         0.30000E+00
         0.30000E+00
         0.30000E+00
         0.30000E+00
         0.30000E+00
         0.30000E+00
         0.30000E+00
         0.30000E+00
         0.30000E+00
         0.30000E+00
         0.30000E+00
         0.30000E+00
         0.30000E+00
         0.30000E+00
         0.30000E+00
         0.30000E+00
         0.30000E+00
         0.30000E+00
         0.30000E+00
         0.30000E+00
         0.30000E+00
         0.30000E+00
         0.30000E+00
         0.30000E+00
         0.30000E+00
         0.30000E+00
         0.30000E+00
         0.30000E+00
         0.30000E+00
         0.30000E+00
         0.30000E+00
         0.30000E+00
         0.30000E+00
         0.30000E+00
         0.30000E+00
         0.30000E+00
         0.30000E+00
         0.30000E+00
         0.30000E+00
         0.30000E+00
         0.30000E+00
         0.30000E+00
         0.30000E+00
         0.30000E+00
         0.30000E+00
         0.30000E+00
         0.30000E+00
         0.30000E+00
         0.30000E+00
         0.30000E+00
         0.30000E+00
         0.30000E+00
         0.30000E+00
         0.30000E+00
         0.30000E+00
         0.30000E+00
         0.30000E+00
         0.30000E+00
         0.30000E+00
         0.30000E+00
         0.30000E+00
         0.30000E+00
         0.30000E+00
         0.30000E+00
         0.30000E+00
         0.30000E+00
         0.30000E+00
         0.30000E+00
         0.30000E+00
         0.30000E+00
         0.30000E+00
         0.30000E+00
         0.30000E+00
         0.30000E+00
         0.30000E+00
         0.30000E+00
         0.30000E+00
         0.30000E+00
         0.30000E+00
         0.30000E+00
         0.30000E+00
         0.30000E+00
         0.30000E+00
         0.30000E+00
         0.30000E+00
         0.30000E+00
         0.30000E+00
         0.30000E+00
         0.30000E+00
         0.30000E+00
         0.30000E+00
         0.30000E+00
         0.30000E+00
         0.30000E+00
         0.30000E+00
         0.30000E+00
         0.30000E+00
         0.30000E+00
         0.30000E+00
         0.30000E+00
         0.30000E+00
         0.30000E+00
         0.30000E+00
         0.30000E+00
         0.30000E+00
         0.30000E+00
         0.30000E+00
         0.30000E+00
         0.30000E+00
         0.30000E+00
         0.30000E+00
         0.30000E+00
         0.30000E+00
         0.30000E+00
         0.30000E+00
         0.30000E+00
         0.30000E+00
         0.30000E+00
         0.30000E+00
         0.30000E+00
         0.30000E+00
         0.30000E+00
         0.30000E+00
         0.30000E+00
         0.30000E+00
         0.30000E+00
         0.30000E+00
         0.30000E+00
         0.30000E+00
         0.30000E+00
         0.30000E+00
         0.30000E+00
         0.30000E+00
         0.30000E+00
         0.30000E+00
         0.30000E+00
         0.30000E+00
         0.30000E+00
         0.30000E+00
         0.30000E+00
         0.30000E+00
         0.30000E+00
         0.30000E+00
         0.30000E+00
         0.30000E+00
         0.30000E+00
         0.30000E+00
         0.30000E+00
         0.30000E+00
         0.30000E+00
         0.30000E+00
         0.30000E+00
         0.30000E+00
         0.30000E+00
         0.30000E+00
         0.30000E+00
         0.30000E+00
         0.30000E+00
         0.30000E+00
         0.30000E+00
         0.30000E+00
         0.30000E+00
         0.30000E+00
         0.30000E+00
         0.30000E+00
         0.30000E+00
         0.30000E+00
         0.30000E+00
         0.30000E+00
         0.30000E+00
         0.30000E+00
         0.30000E+00
         0.30000E+00
         0.30000E+00
         0.30000E+00
         0.30000E+00
         0.30000E+00
         0.30000E+00
         0.30000E+00
         0.30000E+00
         0.30000E+00
         0.30000E+00
         0.30000E+00
         0.30000E+00
         0.30000E+00
         0.30000E+00
         0.30000E+00
         0.30000E+00
         0.30000E+00
         0.30000E+00
         0.30000E+00
         0.30000E+00
         0.30000E+00
         0.30000E+00
         0.30000E+00
         0.30000E+00
         0.30000E+00
         0.30000E+00
         0.30000E+00
         0.30000E+00
         0.30000E+00
         0.30000E+00
         0.30000E+00
         0.30000E+00
         0.30000E+00
         0.30000E+00
         0.30000E+00
         0.30000E+00
  
SCALARS                 Youngs_modulus  double 1
LOOKUP_TABLE default
         0.78200E+11
         0.78200E+11
         0.78200E+11
         0.78200E+11
         0.78200E+11
         0.78200E+11
         0.78200E+11
         0.78200E+11
         0.78200E+11
         0.78200E+11
         0.78200E+11
         0.78200E+11
         0.78200E+11
         0.78200E+11
         0.78200E+11
         0.78200E+11
         0.78200E+11
         0.78200E+11
         0.78200E+11
         0.78200E+11
         0.78200E+11
         0.78200E+11
         0.78200E+11
         0.78200E+11
         0.78200E+11
         0.78200E+11
         0.78200E+11
         0.78200E+11
         0.78200E+11
         0.78200E+11
         0.78200E+11
         0.78200E+11
         0.78200E+11
         0.78200E+11
         0.78200E+11
         0.78200E+11
         0.78200E+11
         0.78200E+11
         0.78200E+11
         0.78200E+11
         0.78200E+11
         0.78200E+11
         0.78200E+11
         0.78200E+11
         0.78200E+11
         0.78200E+11
         0.78200E+11
         0.78200E+11
         0.78200E+11
         0.78200E+11
         0.78200E+11
         0.78200E+11
         0.78200E+11
         0.78200E+11
         0.78200E+11
         0.78200E+11
         0.78200E+11
         0.78200E+11
         0.78200E+11
         0.78200E+11
         0.78200E+11
         0.78200E+11
         0.78200E+11
         0.78200E+11
         0.78200E+11
         0.78200E+11
         0.78200E+11
         0.78200E+11
         0.78200E+11
         0.78200E+11
         0.78200E+11
         0.78200E+11
         0.78200E+11
         0.78200E+11
         0.78200E+11
         0.78200E+11
         0.78200E+11
         0.78200E+11
         0.78200E+11
         0.78200E+11
         0.78200E+11
         0.78200E+11
         0.78200E+11
         0.78200E+11
         0.78200E+11
         0.78200E+11
         0.78200E+11
         0.78200E+11
         0.78200E+11
         0.78200E+11
         0.78200E+11
         0.78200E+11
         0.78200E+11
         0.78200E+11
         0.78200E+11
         0.78200E+11
         0.78200E+11
         0.78200E+11
         0.78200E+11
         0.78200E+11
         0.78200E+11
         0.78200E+11
         0.78200E+11
         0.78200E+11
         0.78200E+11
         0.78200E+11
         0.78200E+11
         0.78200E+11
         0.78200E+11
         0.78200E+11
         0.78200E+11
         0.78200E+11
         0.78200E+11
         0.78200E+11
         0.78200E+11
         0.78200E+11
         0.78200E+11
         0.78200E+11
         0.78200E+11
         0.78200E+11
         0.78200E+11
         0.78200E+11
         0.78200E+11
         0.78200E+11
         0.78200E+11
         0.78200E+11
         0.78200E+11
         0.78200E+11
         0.78200E+11
         0.78200E+11
         0.78200E+11
         0.78200E+11
         0.78200E+11
         0.78200E+11
         0.78200E+11
         0.78200E+11
         0.78200E+11
         0.78200E+11
         0.78200E+11
         0.78200E+11
         0.78200E+11
         0.78200E+11
         0.78200E+11
         0.78200E+11
         0.78200E+11
         0.78200E+11
         0.78200E+11
         0.78200E+11
         0.78200E+11
         0.78200E+11
         0.78200E+11
         0.78200E+11
         0.78200E+11
         0.78200E+11
         0.78200E+11
         0.78200E+11
         0.78200E+11
         0.78200E+11
         0.78200E+11
         0.78200E+11
         0.78200E+11
         0.78200E+11
         0.78200E+11
         0.78200E+11
         0.78200E+11
         0.78200E+11
         0.78200E+11
         0.78200E+11
         0.78200E+11
         0.78200E+11
         0.78200E+11
         0.78200E+11
         0.78200E+11
         0.78200E+11
         0.78200E+11
         0.78200E+11
         0.78200E+11
         0.78200E+11
         0.78200E+11
         0.78200E+11
         0.78200E+11
         0.78200E+11
         0.78200E+11
         0.78200E+11
         0.78200E+11
         0.78200E+11
         0.78200E+11
         0.78200E+11
         0.78200E+11
         0.78200E+11
         0.78200E+11
         0.78200E+11
         0.78200E+11
         0.78200E+11
         0.78200E+11
         0.78200E+11
         0.78200E+11
         0.78200E+11
         0.78200E+11
         0.78200E+11
         0.78200E+11
         0.78200E+11
         0.78200E+11
         0.78200E+11
         0.78200E+11
         0.78200E+11
         0.78200E+11
         0.78200E+11
         0.78200E+11
         0.78200E+11
         0.78200E+11
         0.78200E+11
         0.78200E+11
         0.78200E+11
         0.78200E+11
         0.78200E+11
         0.78200E+11
         0.78200E+11
         0.78200E+11
         0.78200E+11
         0.78200E+11
         0.78200E+11
         0.78200E+11
         0.78200E+11
         0.78200E+11
         0.78200E+11
         0.78200E+11
         0.78200E+11
         0.78200E+11
         0.78200E+11
         0.78200E+11
         0.78200E+11
         0.78200E+11
         0.78200E+11
         0.78200E+11
         0.78200E+11
         0.78200E+11
         0.78200E+11
         0.78200E+11
         0.78200E+11
         0.78200E+11
         0.78200E+11
         0.78200E+11
         0.78200E+11
         0.78200E+11
         0.78200E+11
         0.78200E+11
         0.78200E+11
         0.78200E+11
         0.78200E+11
         0.78200E+11
         0.78200E+11
         0.78200E+11
         0.78200E+11
         0.78200E+11
         0.78200E+11
         0.78200E+11
         0.78200E+11
         0.78200E+11
         0.78200E+11
         0.78200E+11
         0.78200E+11
         0.78200E+11
         0.78200E+11
         0.78200E+11
         0.78200E+11
         0.78200E+11
         0.78200E+11
         0.78200E+11
         0.78200E+11
         0.78200E+11
         0.78200E+11
         0.78200E+11
         0.78200E+11
         0.78200E+11
         0.78200E+11
         0.78200E+11
         0.78200E+11
         0.78200E+11
         0.78200E+11
         0.78200E+11
         0.78200E+11
         0.78200E+11
         0.78200E+11
         0.78200E+11
         0.78200E+11
         0.78200E+11
         0.78200E+11
         0.78200E+11
         0.78200E+11
         0.78200E+11
         0.78200E+11
         0.78200E+11
         0.78200E+11
         0.78200E+11
         0.78200E+11
         0.78200E+11
         0.78200E+11
         0.78200E+11
         0.78200E+11
         0.78200E+11
         0.78200E+11
         0.78200E+11
         0.78200E+11
         0.78200E+11
         0.78200E+11
         0.78200E+11
         0.78200E+11
         0.78200E+11
         0.78200E+11
         0.78200E+11
         0.78200E+11
         0.78200E+11
         0.78200E+11
         0.78200E+11
         0.78200E+11
         0.78200E+11
         0.78200E+11
         0.78200E+11
         0.78200E+11
         0.78200E+11
         0.78200E+11
         0.78200E+11
         0.78200E+11
         0.78200E+11
         0.78200E+11
         0.78200E+11
         0.78200E+11
         0.78200E+11
         0.78200E+11
         0.78200E+11
         0.78200E+11
         0.78200E+11
         0.78200E+11
         0.78200E+11
         0.78200E+11
         0.78200E+11
         0.78200E+11
         0.78200E+11
         0.78200E+11
         0.78200E+11
         0.78200E+11
         0.78200E+11
         0.78200E+11
         0.78200E+11
         0.78200E+11
         0.78200E+11
         0.78200E+11
         0.78200E+11
         0.78200E+11
         0.78200E+11
         0.78200E+11
         0.78200E+11
         0.78200E+11
         0.78200E+11
         0.78200E+11
         0.78200E+11
         0.78200E+11
         0.78200E+11
         0.78200E+11
         0.78200E+11
         0.78200E+11
         0.78200E+11
         0.78200E+11
         0.78200E+11
         0.78200E+11
         0.78200E+11
         0.78200E+11
         0.78200E+11
         0.78200E+11
         0.78200E+11
         0.78200E+11
         0.78200E+11
         0.78200E+11
         0.78200E+11
         0.78200E+11
         0.78200E+11
         0.78200E+11
         0.78200E+11
         0.78200E+11
         0.78200E+11
         0.78200E+11
         0.78200E+11
         0.78200E+11
         0.78200E+11
         0.78200E+11
         0.78200E+11
         0.78200E+11
         0.78200E+11
         0.78200E+11
         0.78200E+11
         0.78200E+11
         0.78200E+11
         0.78200E+11
         0.78200E+11
         0.78200E+11
         0.78200E+11
         0.78200E+11
         0.78200E+11
         0.78200E+11
         0.78200E+11
         0.78200E+11
         0.78200E+11
         0.78200E+11
         0.78200E+11
         0.78200E+11
         0.78200E+11
         0.78200E+11
         0.78200E+11
         0.78200E+11
         0.78200E+11
         0.78200E+11
         0.78200E+11
         0.78200E+11
         0.78200E+11
         0.78200E+11
         0.78200E+11
         0.78200E+11
         0.78200E+11
         0.78200E+11
         0.78200E+11
         0.78200E+11
         0.78200E+11
         0.78200E+11
         0.78200E+11
         0.78200E+11
         0.78200E+11
         0.78200E+11
         0.78200E+11
         0.78200E+11
         0.78200E+11
         0.78200E+11
         0.78200E+11
         0.78200E+11
         0.78200E+11
         0.78200E+11
         0.78200E+11
         0.78200E+11
         0.78200E+11
         0.78200E+11
         0.78200E+11
         0.78200E+11
         0.78200E+11
         0.78200E+11
         0.78200E+11
         0.78200E+11
         0.78200E+11
         0.78200E+11
         0.78200E+11
         0.78200E+11
         0.78200E+11
         0.78200E+11
         0.78200E+11
         0.78200E+11
         0.78200E+11
         0.78200E+11
         0.78200E+11
         0.78200E+11
         0.78200E+11
         0.78200E+11
         0.78200E+11
         0.78200E+11
         0.78200E+11
         0.78200E+11
         0.78200E+11
         0.78200E+11
         0.78200E+11
         0.78200E+11
         0.78200E+11
         0.78200E+11
         0.78200E+11
         0.78200E+11
         0.78200E+11
         0.78200E+11
         0.78200E+11
         0.78200E+11
         0.78200E+11
         0.78200E+11
         0.78200E+11
         0.78200E+11
         0.78200E+11
         0.78200E+11
         0.78200E+11
         0.78200E+11
         0.78200E+11
         0.78200E+11
         0.78200E+11
         0.78200E+11
         0.78200E+11
         0.78200E+11
         0.78200E+11
         0.78200E+11
         0.78200E+11
         0.78200E+11
         0.78200E+11
         0.78200E+11
         0.78200E+11
         0.78200E+11
         0.78200E+11
         0.78200E+11
         0.78200E+11
         0.78200E+11
         0.78200E+11
         0.78200E+11
         0.78200E+11
         0.78200E+11
         0.78200E+11
         0.78200E+11
         0.78200E+11
         0.78200E+11
         0.78200E+11
         0.78200E+11
         0.78200E+11
         0.78200E+11
         0.78200E+11
         0.78200E+11
         0.78200E+11
         0.78200E+11
         0.78200E+11
         0.78200E+11
         0.78200E+11
         0.78200E+11
         0.78200E+11
         0.78200E+11
         0.78200E+11
         0.78200E+11
         0.78200E+11
         0.78200E+11
         0.78200E+11
         0.78200E+11
         0.78200E+11
         0.78200E+11
         0.78200E+11
         0.78200E+11
         0.78200E+11
         0.78200E+11
         0.78200E+11
         0.78200E+11
         0.78200E+11
         0.78200E+11
         0.78200E+11
         0.78200E+11
         0.78200E+11
         0.78200E+11
         0.78200E+11
         0.78200E+11
         0.78200E+11
         0.78200E+11
         0.78200E+11
         0.78200E+11
         0.78200E+11
         0.78200E+11
         0.78200E+11
         0.78200E+11
         0.78200E+11
         0.78200E+11
         0.78200E+11
         0.78200E+11
         0.78200E+11
         0.78200E+11
         0.78200E+11
         0.78200E+11
         0.78200E+11
         0.78200E+11
         0.78200E+11
         0.78200E+11
         0.78200E+11
         0.78200E+11
         0.78200E+11
         0.78200E+11
         0.78200E+11
         0.78200E+11
         0.78200E+11
         0.78200E+11
         0.78200E+11
         0.78200E+11
         0.78200E+11
         0.78200E+11
         0.78200E+11
         0.78200E+11
         0.78200E+11
         0.78200E+11
         0.78200E+11
         0.78200E+11
         0.78200E+11
         0.78200E+11
         0.78200E+11
         0.78200E+11
         0.78200E+11
         0.78200E+11
         0.78200E+11
         0.78200E+11
         0.78200E+11
         0.78200E+11
         0.78200E+11
         0.78200E+11
         0.78200E+11
         0.78200E+11
         0.78200E+11
         0.78200E+11
         0.78200E+11
         0.78200E+11
         0.78200E+11
         0.78200E+11
         0.78200E+11
         0.78200E+11
         0.78200E+11
         0.78200E+11
         0.78200E+11
         0.78200E+11
         0.78200E+11
         0.78200E+11
         0.78200E+11
         0.78200E+11
         0.78200E+11
         0.78200E+11
         0.78200E+11
         0.78200E+11
         0.78200E+11
         0.78200E+11
         0.78200E+11
         0.78200E+11
         0.78200E+11
         0.78200E+11
         0.78200E+11
         0.78200E+11
         0.78200E+11
         0.78200E+11
         0.78200E+11
         0.78200E+11
         0.78200E+11
         0.78200E+11
         0.78200E+11
         0.78200E+11
         0.78200E+11
         0.78200E+11
         0.78200E+11
         0.78200E+11
         0.78200E+11
         0.78200E+11
         0.78200E+11
         0.78200E+11
         0.78200E+11
         0.78200E+11
         0.78200E+11
         0.78200E+11
         0.78200E+11
         0.78200E+11
         0.78200E+11
         0.78200E+11
         0.78200E+11
         0.78200E+11
         0.78200E+11
         0.78200E+11
         0.78200E+11
         0.78200E+11
         0.78200E+11
         0.78200E+11
         0.78200E+11
         0.78200E+11
         0.78200E+11
         0.78200E+11
         0.78200E+11
         0.78200E+11
         0.78200E+11
         0.78200E+11
         0.78200E+11
         0.78200E+11
         0.78200E+11
         0.78200E+11
         0.78200E+11
         0.78200E+11
         0.78200E+11
         0.78200E+11
         0.78200E+11
         0.78200E+11
         0.78200E+11
         0.78200E+11
         0.78200E+11
         0.78200E+11
         0.78200E+11
         0.78200E+11
         0.78200E+11
         0.78200E+11
         0.78200E+11
         0.78200E+11
         0.78200E+11
         0.78200E+11
         0.78200E+11
         0.78200E+11
         0.78200E+11
         0.78200E+11
         0.78200E+11
         0.78200E+11
         0.78200E+11
         0.78200E+11
         0.78200E+11
         0.78200E+11
         0.78200E+11
         0.78200E+11
         0.78200E+11
         0.78200E+11
         0.78200E+11
         0.78200E+11
         0.78200E+11
         0.78200E+11
         0.78200E+11
         0.78200E+11
         0.78200E+11
         0.78200E+11
         0.78200E+11
         0.78200E+11
         0.78200E+11
         0.78200E+11
         0.78200E+11
         0.78200E+11
         0.78200E+11
         0.78200E+11
         0.78200E+11
         0.78200E+11
         0.78200E+11
         0.78200E+11
         0.78200E+11
         0.78200E+11
         0.78200E+11
         0.78200E+11
         0.78200E+11
         0.78200E+11
         0.78200E+11
         0.78200E+11
         0.78200E+11
         0.78200E+11
         0.78200E+11
         0.78200E+11
         0.78200E+11
         0.78200E+11
         0.78200E+11
         0.78200E+11
         0.78200E+11
         0.78200E+11
         0.78200E+11
         0.78200E+11
         0.78200E+11
         0.78200E+11
         0.78200E+11
         0.78200E+11
         0.78200E+11
         0.78200E+11
         0.78200E+11
         0.78200E+11
         0.78200E+11
         0.78200E+11
         0.78200E+11
         0.78200E+11
         0.78200E+11
         0.78200E+11
         0.78200E+11
         0.78200E+11
         0.78200E+11
         0.78200E+11
         0.78200E+11
         0.78200E+11
         0.78200E+11
         0.78200E+11
         0.78200E+11
         0.78200E+11
         0.78200E+11
         0.78200E+11
         0.78200E+11
         0.78200E+11
         0.78200E+11
         0.78200E+11
         0.78200E+11
         0.78200E+11
         0.78200E+11
         0.78200E+11
         0.78200E+11
         0.78200E+11
         0.78200E+11
         0.78200E+11
         0.78200E+11
         0.78200E+11
         0.78200E+11
         0.78200E+11
         0.78200E+11
         0.78200E+11
         0.78200E+11
         0.78200E+11
         0.78200E+11
         0.78200E+11
         0.78200E+11
         0.78200E+11
         0.78200E+11
         0.78200E+11
         0.78200E+11
         0.78200E+11
         0.78200E+11
         0.78200E+11
         0.78200E+11
         0.78200E+11
         0.78200E+11
         0.78200E+11
         0.78200E+11
         0.78200E+11
         0.78200E+11
         0.78200E+11
         0.78200E+11
         0.78200E+11
         0.78200E+11
         0.78200E+11
         0.78200E+11
         0.78200E+11
         0.78200E+11
         0.78200E+11
         0.78200E+11
         0.78200E+11
         0.78200E+11
         0.78200E+11
         0.78200E+11
         0.78200E+11
         0.78200E+11
         0.78200E+11
         0.78200E+11
         0.78200E+11
         0.78200E+11
         0.78200E+11
         0.78200E+11
         0.78200E+11
         0.78200E+11
         0.78200E+11
         0.78200E+11
         0.78200E+11
         0.78200E+11
         0.78200E+11
         0.78200E+11
         0.78200E+11
         0.78200E+11
         0.78200E+11
         0.78200E+11
         0.78200E+11
         0.78200E+11
         0.78200E+11
         0.78200E+11
         0.78200E+11
         0.78200E+11
         0.78200E+11
         0.78200E+11
         0.78200E+11
         0.78200E+11
         0.78200E+11
         0.78200E+11
         0.78200E+11
         0.78200E+11
         0.78200E+11
         0.78200E+11
         0.78200E+11
         0.78200E+11
         0.78200E+11
         0.78200E+11
         0.78200E+11
         0.78200E+11
         0.78200E+11
         0.78200E+11
         0.78200E+11
         0.78200E+11
         0.78200E+11
         0.78200E+11
         0.78200E+11
         0.78200E+11
         0.78200E+11
         0.78200E+11
         0.78200E+11
         0.78200E+11
         0.78200E+11
         0.78200E+11
         0.78200E+11
         0.78200E+11
         0.78200E+11
         0.78200E+11
         0.78200E+11
         0.78200E+11
         0.78200E+11
         0.78200E+11
         0.78200E+11
         0.78200E+11
         0.78200E+11
         0.78200E+11
         0.78200E+11
         0.78200E+11
         0.78200E+11
         0.78200E+11
         0.78200E+11
         0.78200E+11
         0.78200E+11
         0.78200E+11
         0.78200E+11
         0.78200E+11
         0.78200E+11
         0.78200E+11
         0.78200E+11
         0.78200E+11
         0.78200E+11
         0.78200E+11
         0.78200E+11
         0.78200E+11
         0.78200E+11
         0.78200E+11
         0.78200E+11
         0.78200E+11
         0.78200E+11
         0.78200E+11
         0.78200E+11
         0.78200E+11
         0.78200E+11
         0.78200E+11
         0.78200E+11
         0.78200E+11
         0.78200E+11
         0.78200E+11
         0.78200E+11
         0.78200E+11
         0.78200E+11
         0.78200E+11
         0.78200E+11
         0.78200E+11
         0.78200E+11
         0.78200E+11
         0.78200E+11
         0.78200E+11
         0.78200E+11
         0.78200E+11
         0.78200E+11
         0.78200E+11
         0.78200E+11
         0.78200E+11
         0.78200E+11
         0.78200E+11
         0.78200E+11
         0.78200E+11
         0.78200E+11
         0.78200E+11
         0.78200E+11
         0.78200E+11
         0.78200E+11
         0.78200E+11
         0.78200E+11
         0.78200E+11
         0.78200E+11
         0.78200E+11
         0.78200E+11
         0.78200E+11
         0.78200E+11
         0.78200E+11
         0.78200E+11
         0.78200E+11
         0.78200E+11
         0.78200E+11
         0.78200E+11
         0.78200E+11
         0.78200E+11
         0.78200E+11
         0.78200E+11
         0.78200E+11
         0.78200E+11
         0.78200E+11
         0.78200E+11
         0.78200E+11
         0.78200E+11
         0.78200E+11
         0.78200E+11
         0.78200E+11
         0.78200E+11
         0.78200E+11
         0.78200E+11
         0.78200E+11
         0.78200E+11
         0.78200E+11
         0.78200E+11
         0.78200E+11
         0.78200E+11
         0.78200E+11
         0.78200E+11
         0.78200E+11
         0.78200E+11
         0.78200E+11
         0.78200E+11
         0.78200E+11
         0.78200E+11
         0.78200E+11
         0.78200E+11
         0.78200E+11
         0.78200E+11
         0.78200E+11
         0.78200E+11
         0.78200E+11
         0.78200E+11
         0.78200E+11
         0.78200E+11
         0.78200E+11
         0.78200E+11
         0.78200E+11
         0.78200E+11
         0.78200E+11
         0.78200E+11
         0.78200E+11
         0.78200E+11
         0.78200E+11
         0.78200E+11
         0.78200E+11
         0.78200E+11
         0.78200E+11
         0.78200E+11
         0.78200E+11
         0.78200E+11
         0.78200E+11
         0.78200E+11
         0.78200E+11
         0.78200E+11
         0.78200E+11
         0.78200E+11
         0.78200E+11
         0.78200E+11
         0.78200E+11
         0.78200E+11
         0.78200E+11
         0.78200E+11
         0.78200E+11
         0.78200E+11
         0.78200E+11
         0.78200E+11
         0.78200E+11
         0.78200E+11
         0.78200E+11
         0.78200E+11
         0.78200E+11
         0.78200E+11
         0.78200E+11
         0.78200E+11
         0.78200E+11
         0.78200E+11
         0.78200E+11
         0.78200E+11
         0.78200E+11
         0.78200E+11
         0.78200E+11
         0.78200E+11
         0.78200E+11
         0.78200E+11
         0.78200E+11
         0.78200E+11
         0.78200E+11
         0.78200E+11
         0.78200E+11
         0.78200E+11
         0.78200E+11
         0.78200E+11
         0.78200E+11
         0.78200E+11
         0.78200E+11
         0.78200E+11
         0.78200E+11
         0.78200E+11
         0.78200E+11
         0.78200E+11
         0.78200E+11
         0.78200E+11
         0.78200E+11
         0.78200E+11
         0.78200E+11
         0.78200E+11
         0.78200E+11
         0.78200E+11
         0.78200E+11
         0.78200E+11
         0.78200E+11
         0.78200E+11
         0.78200E+11
         0.78200E+11
         0.78200E+11
         0.78200E+11
         0.78200E+11
         0.78200E+11
         0.78200E+11
         0.78200E+11
         0.78200E+11
         0.78200E+11
         0.78200E+11
         0.78200E+11
         0.78200E+11
         0.78200E+11
         0.78200E+11
         0.78200E+11
         0.78200E+11
         0.78200E+11
         0.78200E+11
         0.78200E+11
         0.78200E+11
         0.78200E+11
         0.78200E+11
         0.78200E+11
         0.78200E+11
         0.78200E+11
         0.78200E+11
         0.78200E+11
         0.78200E+11
         0.78200E+11
         0.78200E+11
         0.78200E+11
         0.78200E+11
         0.78200E+11
         0.78200E+11
         0.78200E+11
         0.78200E+11
         0.78200E+11
         0.78200E+11
         0.78200E+11
         0.78200E+11
         0.78200E+11
         0.78200E+11
         0.78200E+11
         0.78200E+11
         0.78200E+11
         0.78200E+11
         0.78200E+11
         0.78200E+11
         0.78200E+11
         0.78200E+11
         0.78200E+11
         0.78200E+11
         0.78200E+11
         0.78200E+11
         0.78200E+11
         0.78200E+11
         0.78200E+11
         0.78200E+11
         0.78200E+11
         0.78200E+11
         0.78200E+11
         0.78200E+11
         0.78200E+11
         0.78200E+11
         0.78200E+11
         0.78200E+11
         0.78200E+11
         0.78200E+11
         0.78200E+11
         0.78200E+11
         0.78200E+11
         0.78200E+11
         0.78200E+11
         0.78200E+11
         0.78200E+11
         0.78200E+11
         0.78200E+11
         0.78200E+11
         0.78200E+11
         0.78200E+11
         0.78200E+11
         0.78200E+11
         0.78200E+11
         0.78200E+11
         0.78200E+11
         0.78200E+11
         0.78200E+11
         0.78200E+11
         0.78200E+11
         0.78200E+11
         0.78200E+11
         0.78200E+11
         0.78200E+11
         0.78200E+11
         0.78200E+11
         0.78200E+11
         0.78200E+11
         0.78200E+11
         0.78200E+11
         0.78200E+11
         0.78200E+11
         0.78200E+11
         0.78200E+11
         0.78200E+11
         0.78200E+11
         0.78200E+11
         0.78200E+11
         0.78200E+11
         0.78200E+11
         0.78200E+11
         0.78200E+11
         0.78200E+11
         0.78200E+11
         0.78200E+11
         0.78200E+11
         0.78200E+11
         0.78200E+11
         0.78200E+11
         0.78200E+11
         0.78200E+11
         0.78200E+11
         0.78200E+11
         0.78200E+11
         0.78200E+11
         0.78200E+11
         0.78200E+11
         0.78200E+11
         0.78200E+11
         0.78200E+11
         0.78200E+11
         0.78200E+11
         0.78200E+11
         0.78200E+11
         0.78200E+11
         0.78200E+11
         0.78200E+11
         0.78200E+11
         0.78200E+11
         0.78200E+11
         0.78200E+11
         0.78200E+11
         0.78200E+11
         0.78200E+11
         0.78200E+11
         0.78200E+11
         0.78200E+11
         0.78200E+11
         0.78200E+11
         0.78200E+11
         0.78200E+11
         0.78200E+11
         0.78200E+11
         0.78200E+11
         0.78200E+11
         0.78200E+11
         0.78200E+11
         0.78200E+11
         0.78200E+11
         0.78200E+11
         0.78200E+11
         0.78200E+11
         0.78200E+11
         0.78200E+11
         0.78200E+11
         0.78200E+11
         0.78200E+11
         0.78200E+11
         0.78200E+11
         0.78200E+11
         0.78200E+11
         0.78200E+11
         0.78200E+11
         0.78200E+11
         0.78200E+11
         0.78200E+11
         0.78200E+11
         0.78200E+11
         0.78200E+11
         0.78200E+11
         0.78200E+11
         0.78200E+11
         0.78200E+11
         0.78200E+11
         0.78200E+11
         0.78200E+11
         0.78200E+11
         0.78200E+11
         0.78200E+11
         0.78200E+11
         0.78200E+11
         0.78200E+11
         0.78200E+11
         0.78200E+11
         0.78200E+11
         0.78200E+11
         0.78200E+11
         0.78200E+11
         0.78200E+11
         0.78200E+11
         0.78200E+11
         0.78200E+11
         0.78200E+11
         0.78200E+11
         0.78200E+11
         0.78200E+11
         0.78200E+11
         0.78200E+11
         0.78200E+11
         0.78200E+11
         0.78200E+11
         0.78200E+11
         0.78200E+11
         0.78200E+11
         0.78200E+11
         0.78200E+11
         0.78200E+11
         0.78200E+11
         0.78200E+11
         0.78200E+11
         0.78200E+11
         0.78200E+11
         0.78200E+11
         0.78200E+11
         0.78200E+11
         0.78200E+11
         0.78200E+11
         0.78200E+11
         0.78200E+11
         0.78200E+11
         0.78200E+11
         0.78200E+11
         0.78200E+11
         0.78200E+11
         0.78200E+11
         0.78200E+11
         0.78200E+11
         0.78200E+11
         0.78200E+11
         0.78200E+11
         0.78200E+11
         0.78200E+11
         0.78200E+11
         0.78200E+11
         0.78200E+11
         0.78200E+11
         0.78200E+11
         0.78200E+11
         0.78200E+11
         0.78200E+11
         0.78200E+11
         0.78200E+11
         0.78200E+11
         0.78200E+11
         0.78200E+11
         0.78200E+11
         0.78200E+11
         0.78200E+11
         0.78200E+11
         0.78200E+11
         0.78200E+11
         0.78200E+11
         0.78200E+11
         0.78200E+11
         0.78200E+11
         0.78200E+11
         0.78200E+11
         0.78200E+11
         0.78200E+11
         0.78200E+11
         0.78200E+11
         0.78200E+11
         0.78200E+11
         0.78200E+11
         0.78200E+11
         0.78200E+11
         0.78200E+11
         0.78200E+11
         0.78200E+11
         0.78200E+11
         0.78200E+11
         0.78200E+11
         0.78200E+11
         0.78200E+11
         0.78200E+11
         0.78200E+11
         0.78200E+11
         0.78200E+11
         0.78200E+11
         0.78200E+11
         0.78200E+11
         0.78200E+11
         0.78200E+11
         0.78200E+11
         0.78200E+11
         0.78200E+11
         0.78200E+11
         0.78200E+11
         0.78200E+11
         0.78200E+11
         0.78200E+11
         0.78200E+11
         0.78200E+11
         0.78200E+11
         0.78200E+11
         0.78200E+11
         0.78200E+11
         0.78200E+11
         0.78200E+11
         0.78200E+11
         0.78200E+11
         0.78200E+11
         0.78200E+11
         0.78200E+11
         0.78200E+11
         0.78200E+11
         0.78200E+11
         0.78200E+11
         0.78200E+11
         0.78200E+11
         0.78200E+11
         0.78200E+11
         0.78200E+11
         0.78200E+11
         0.78200E+11
         0.78200E+11
         0.78200E+11
         0.78200E+11
         0.78200E+11
         0.78200E+11
         0.78200E+11
         0.78200E+11
         0.78200E+11
         0.78200E+11
         0.78200E+11
         0.78200E+11
         0.78200E+11
         0.78200E+11
         0.78200E+11
         0.78200E+11
         0.78200E+11
         0.78200E+11
         0.78200E+11
         0.78200E+11
         0.78200E+11
         0.78200E+11
         0.78200E+11
         0.78200E+11
         0.78200E+11
         0.78200E+11
         0.78200E+11
         0.78200E+11
         0.78200E+11
         0.78200E+11
         0.78200E+11
         0.78200E+11
         0.78200E+11
         0.78200E+11
         0.78200E+11
         0.78200E+11
         0.78200E+11
         0.78200E+11
         0.78200E+11
         0.78200E+11
         0.78200E+11
         0.78200E+11
         0.78200E+11
         0.78200E+11
         0.78200E+11
         0.78200E+11
         0.78200E+11
         0.78200E+11
         0.78200E+11
         0.78200E+11
         0.78200E+11
         0.78200E+11
         0.78200E+11
         0.78200E+11
         0.78200E+11
         0.78200E+11
         0.78200E+11
         0.78200E+11
         0.78200E+11
         0.78200E+11
         0.78200E+11
         0.78200E+11
         0.78200E+11
         0.78200E+11
         0.78200E+11
         0.78200E+11
         0.78200E+11
         0.78200E+11
         0.78200E+11
         0.78200E+11
         0.78200E+11
         0.78200E+11
         0.78200E+11
         0.78200E+11
         0.78200E+11
         0.78200E+11
         0.78200E+11
         0.78200E+11
         0.78200E+11
         0.78200E+11
         0.78200E+11
         0.78200E+11
         0.78200E+11
         0.78200E+11
         0.78200E+11
         0.78200E+11
         0.78200E+11
         0.78200E+11
         0.78200E+11
         0.78200E+11
         0.78200E+11
         0.78200E+11
         0.78200E+11
         0.78200E+11
         0.78200E+11
         0.78200E+11
         0.78200E+11
         0.78200E+11
         0.78200E+11
         0.78200E+11
         0.78200E+11
         0.78200E+11
         0.78200E+11
         0.78200E+11
         0.78200E+11
         0.78200E+11
         0.78200E+11
         0.78200E+11
         0.78200E+11
         0.78200E+11
         0.78200E+11
         0.78200E+11
         0.78200E+11
         0.78200E+11
         0.78200E+11
         0.78200E+11
         0.78200E+11
         0.78200E+11
         0.78200E+11
         0.78200E+11
         0.78200E+11
         0.78200E+11
         0.78200E+11
         0.78200E+11
         0.78200E+11
         0.78200E+11
         0.78200E+11
         0.78200E+11
         0.78200E+11
         0.78200E+11
         0.78200E+11
         0.78200E+11
         0.78200E+11
         0.78200E+11
         0.78200E+11
         0.78200E+11
         0.78200E+11
         0.78200E+11
         0.78200E+11
         0.78200E+11
         0.78200E+11
         0.78200E+11
         0.78200E+11
         0.78200E+11
         0.78200E+11
         0.78200E+11
         0.78200E+11
         0.78200E+11
         0.78200E+11
         0.78200E+11
         0.78200E+11
         0.78200E+11
         0.78200E+11
         0.78200E+11
         0.78200E+11
         0.78200E+11
         0.78200E+11
         0.78200E+11
         0.78200E+11
         0.78200E+11
         0.78200E+11
         0.78200E+11
         0.78200E+11
         0.78200E+11
         0.78200E+11
         0.78200E+11
         0.78200E+11
         0.78200E+11
         0.78200E+11
         0.78200E+11
         0.78200E+11
         0.78200E+11
         0.78200E+11
         0.78200E+11
         0.78200E+11
         0.78200E+11
         0.78200E+11
         0.78200E+11
         0.78200E+11
         0.78200E+11
         0.78200E+11
         0.78200E+11
         0.78200E+11
         0.78200E+11
         0.78200E+11
         0.78200E+11
         0.78200E+11
         0.78200E+11
         0.78200E+11
         0.78200E+11
         0.78200E+11
         0.78200E+11
         0.78200E+11
         0.78200E+11
         0.78200E+11
         0.78200E+11
         0.78200E+11
         0.78200E+11
         0.78200E+11
         0.78200E+11
         0.78200E+11
         0.78200E+11
         0.78200E+11
         0.78200E+11
         0.78200E+11
         0.78200E+11
         0.78200E+11
         0.78200E+11
         0.78200E+11
         0.78200E+11
         0.78200E+11
         0.78200E+11
         0.78200E+11
         0.78200E+11
         0.78200E+11
         0.78200E+11
         0.78200E+11
         0.78200E+11
         0.78200E+11
         0.78200E+11
         0.78200E+11
         0.78200E+11
         0.78200E+11
         0.78200E+11
         0.78200E+11
         0.78200E+11
         0.78200E+11
         0.78200E+11
         0.78200E+11
         0.78200E+11
         0.78200E+11
         0.78200E+11
         0.78200E+11
         0.78200E+11
         0.78200E+11
         0.78200E+11
         0.78200E+11
         0.78200E+11
         0.78200E+11
         0.78200E+11
         0.78200E+11
         0.78200E+11
         0.78200E+11
         0.78200E+11
         0.78200E+11
         0.78200E+11
         0.78200E+11
         0.78200E+11
         0.78200E+11
         0.78200E+11
         0.78200E+11
         0.78200E+11
         0.78200E+11
         0.78200E+11
         0.78200E+11
         0.78200E+11
         0.78200E+11
         0.78200E+11
         0.78200E+11
         0.78200E+11
         0.78200E+11
         0.78200E+11
         0.78200E+11
         0.78200E+11
         0.78200E+11
         0.78200E+11
         0.78200E+11
         0.78200E+11
         0.78200E+11
         0.78200E+11
         0.78200E+11
         0.78200E+11
         0.78200E+11
         0.78200E+11
         0.78200E+11
         0.78200E+11
         0.78200E+11
         0.78200E+11
         0.78200E+11
         0.78200E+11
         0.78200E+11
         0.78200E+11
         0.78200E+11
         0.78200E+11
         0.78200E+11
         0.78200E+11
         0.78200E+11
         0.78200E+11
         0.78200E+11
         0.78200E+11
         0.78200E+11
         0.78200E+11
         0.78200E+11
         0.78200E+11
         0.78200E+11
         0.78200E+11
         0.78200E+11
         0.78200E+11
         0.78200E+11
         0.78200E+11
         0.78200E+11
         0.78200E+11
         0.78200E+11
         0.78200E+11
         0.78200E+11
         0.78200E+11
         0.78200E+11
         0.78200E+11
         0.78200E+11
         0.78200E+11
         0.78200E+11
         0.78200E+11
         0.78200E+11
         0.78200E+11
         0.78200E+11
         0.78200E+11
         0.78200E+11
         0.78200E+11
         0.78200E+11
         0.78200E+11
         0.78200E+11
         0.78200E+11
         0.78200E+11
         0.78200E+11
         0.78200E+11
         0.78200E+11
         0.78200E+11
         0.78200E+11
         0.78200E+11
         0.78200E+11
         0.78200E+11
         0.78200E+11
         0.78200E+11
         0.78200E+11
         0.78200E+11
         0.78200E+11
         0.78200E+11
         0.78200E+11
         0.78200E+11
         0.78200E+11
         0.78200E+11
         0.78200E+11
         0.78200E+11
         0.78200E+11
         0.78200E+11
         0.78200E+11
         0.78200E+11
         0.78200E+11
         0.78200E+11
         0.78200E+11
         0.78200E+11
         0.78200E+11
         0.78200E+11
         0.78200E+11
         0.78200E+11
         0.78200E+11
         0.78200E+11
         0.78200E+11
         0.78200E+11
         0.78200E+11
         0.78200E+11
         0.78200E+11
         0.78200E+11
         0.78200E+11
         0.78200E+11
         0.78200E+11
         0.78200E+11
         0.78200E+11
         0.78200E+11
         0.78200E+11
         0.78200E+11
         0.78200E+11
         0.78200E+11
         0.78200E+11
         0.78200E+11
         0.78200E+11
         0.78200E+11
         0.78200E+11
         0.78200E+11
         0.78200E+11
         0.78200E+11
         0.78200E+11
         0.78200E+11
         0.78200E+11
         0.78200E+11
         0.78200E+11
         0.78200E+11
         0.78200E+11
         0.78200E+11
         0.78200E+11
         0.78200E+11
         0.78200E+11
         0.78200E+11
         0.78200E+11
         0.78200E+11
         0.78200E+11
         0.78200E+11
         0.78200E+11
         0.78200E+11
         0.78200E+11
         0.78200E+11
         0.78200E+11
         0.78200E+11
         0.78200E+11
         0.78200E+11
         0.78200E+11
         0.78200E+11
         0.78200E+11
         0.78200E+11
         0.78200E+11
         0.78200E+11
         0.78200E+11
         0.78200E+11
         0.78200E+11
         0.78200E+11
         0.78200E+11
         0.78200E+11
         0.78200E+11
         0.78200E+11
         0.78200E+11
         0.78200E+11
         0.78200E+11
         0.78200E+11
         0.78200E+11
         0.78200E+11
         0.78200E+11
         0.78200E+11
         0.78200E+11
         0.78200E+11
         0.78200E+11
         0.78200E+11
         0.78200E+11
         0.78200E+11
         0.78200E+11
         0.78200E+11
         0.78200E+11
         0.78200E+11
         0.78200E+11
         0.78200E+11
         0.78200E+11
         0.78200E+11
         0.78200E+11
         0.78200E+11
         0.78200E+11
         0.78200E+11
         0.78200E+11
         0.78200E+11
         0.78200E+11
         0.78200E+11
         0.78200E+11
         0.78200E+11
         0.78200E+11
         0.78200E+11
         0.78200E+11
         0.78200E+11
         0.78200E+11
         0.78200E+11
         0.78200E+11
         0.78200E+11
         0.78200E+11
         0.78200E+11
         0.78200E+11
         0.78200E+11
         0.78200E+11
         0.78200E+11
         0.78200E+11
         0.78200E+11
         0.78200E+11
         0.78200E+11
         0.78200E+11
         0.78200E+11
         0.78200E+11
         0.78200E+11
         0.78200E+11
         0.78200E+11
         0.78200E+11
         0.78200E+11
         0.78200E+11
         0.78200E+11
         0.78200E+11
         0.78200E+11
         0.78200E+11
         0.78200E+11
         0.78200E+11
         0.78200E+11
         0.78200E+11
         0.78200E+11
         0.78200E+11
         0.78200E+11
         0.78200E+11
         0.78200E+11
         0.78200E+11
         0.78200E+11
         0.78200E+11
         0.78200E+11
         0.78200E+11
         0.78200E+11
         0.78200E+11
         0.78200E+11
         0.78200E+11
         0.78200E+11
         0.78200E+11
         0.78200E+11
         0.78200E+11
         0.78200E+11
         0.78200E+11
         0.78200E+11
         0.78200E+11
         0.78200E+11
         0.78200E+11
         0.78200E+11
         0.78200E+11
         0.78200E+11
         0.78200E+11
         0.78200E+11
         0.78200E+11
         0.78200E+11
         0.78200E+11
         0.78200E+11
         0.78200E+11
         0.78200E+11
         0.78200E+11
         0.78200E+11
         0.78200E+11
         0.78200E+11
         0.78200E+11
         0.78200E+11
         0.78200E+11
         0.78200E+11
         0.78200E+11
         0.78200E+11
         0.78200E+11
         0.78200E+11
         0.78200E+11
         0.78200E+11
         0.78200E+11
         0.78200E+11
         0.78200E+11
         0.78200E+11
         0.78200E+11
         0.78200E+11
         0.78200E+11
         0.78200E+11
         0.78200E+11
         0.78200E+11
         0.78200E+11
         0.78200E+11
         0.78200E+11
         0.78200E+11
         0.78200E+11
  
SCALARS                        density  double 1
LOOKUP_TABLE default
         0.27000E+04
         0.27000E+04
         0.27000E+04
         0.27000E+04
         0.27000E+04
         0.27000E+04
         0.27000E+04
         0.27000E+04
         0.27000E+04
         0.27000E+04
         0.27000E+04
         0.27000E+04
         0.27000E+04
         0.27000E+04
         0.27000E+04
         0.27000E+04
         0.27000E+04
         0.27000E+04
         0.27000E+04
         0.27000E+04
         0.27000E+04
         0.27000E+04
         0.27000E+04
         0.27000E+04
         0.27000E+04
         0.27000E+04
         0.27000E+04
         0.27000E+04
         0.27000E+04
         0.27000E+04
         0.27000E+04
         0.27000E+04
         0.27000E+04
         0.27000E+04
         0.27000E+04
         0.27000E+04
         0.27000E+04
         0.27000E+04
         0.27000E+04
         0.27000E+04
         0.27000E+04
         0.27000E+04
         0.27000E+04
         0.27000E+04
         0.27000E+04
         0.27000E+04
         0.27000E+04
         0.27000E+04
         0.27000E+04
         0.27000E+04
         0.27000E+04
         0.27000E+04
         0.27000E+04
         0.27000E+04
         0.27000E+04
         0.27000E+04
         0.27000E+04
         0.27000E+04
         0.27000E+04
         0.27000E+04
         0.27000E+04
         0.27000E+04
         0.27000E+04
         0.27000E+04
         0.27000E+04
         0.27000E+04
         0.27000E+04
         0.27000E+04
         0.27000E+04
         0.27000E+04
         0.27000E+04
         0.27000E+04
         0.27000E+04
         0.27000E+04
         0.27000E+04
         0.27000E+04
         0.27000E+04
         0.27000E+04
         0.27000E+04
         0.27000E+04
         0.27000E+04
         0.27000E+04
         0.27000E+04
         0.27000E+04
         0.27000E+04
         0.27000E+04
         0.27000E+04
         0.27000E+04
         0.27000E+04
         0.27000E+04
         0.27000E+04
         0.27000E+04
         0.27000E+04
         0.27000E+04
         0.27000E+04
         0.27000E+04
         0.27000E+04
         0.27000E+04
         0.27000E+04
         0.27000E+04
         0.27000E+04
         0.27000E+04
         0.27000E+04
         0.27000E+04
         0.27000E+04
         0.27000E+04
         0.27000E+04
         0.27000E+04
         0.27000E+04
         0.27000E+04
         0.27000E+04
         0.27000E+04
         0.27000E+04
         0.27000E+04
         0.27000E+04
         0.27000E+04
         0.27000E+04
         0.27000E+04
         0.27000E+04
         0.27000E+04
         0.27000E+04
         0.27000E+04
         0.27000E+04
         0.27000E+04
         0.27000E+04
         0.27000E+04
         0.27000E+04
         0.27000E+04
         0.27000E+04
         0.27000E+04
         0.27000E+04
         0.27000E+04
         0.27000E+04
         0.27000E+04
         0.27000E+04
         0.27000E+04
         0.27000E+04
         0.27000E+04
         0.27000E+04
         0.27000E+04
         0.27000E+04
         0.27000E+04
         0.27000E+04
         0.27000E+04
         0.27000E+04
         0.27000E+04
         0.27000E+04
         0.27000E+04
         0.27000E+04
         0.27000E+04
         0.27000E+04
         0.27000E+04
         0.27000E+04
         0.27000E+04
         0.27000E+04
         0.27000E+04
         0.27000E+04
         0.27000E+04
         0.27000E+04
         0.27000E+04
         0.27000E+04
         0.27000E+04
         0.27000E+04
         0.27000E+04
         0.27000E+04
         0.27000E+04
         0.27000E+04
         0.27000E+04
         0.27000E+04
         0.27000E+04
         0.27000E+04
         0.27000E+04
         0.27000E+04
         0.27000E+04
         0.27000E+04
         0.27000E+04
         0.27000E+04
         0.27000E+04
         0.27000E+04
         0.27000E+04
         0.27000E+04
         0.27000E+04
         0.27000E+04
         0.27000E+04
         0.27000E+04
         0.27000E+04
         0.27000E+04
         0.27000E+04
         0.27000E+04
         0.27000E+04
         0.27000E+04
         0.27000E+04
         0.27000E+04
         0.27000E+04
         0.27000E+04
         0.27000E+04
         0.27000E+04
         0.27000E+04
         0.27000E+04
         0.27000E+04
         0.27000E+04
         0.27000E+04
         0.27000E+04
         0.27000E+04
         0.27000E+04
         0.27000E+04
         0.27000E+04
         0.27000E+04
         0.27000E+04
         0.27000E+04
         0.27000E+04
         0.27000E+04
         0.27000E+04
         0.27000E+04
         0.27000E+04
         0.27000E+04
         0.27000E+04
         0.27000E+04
         0.27000E+04
         0.27000E+04
         0.27000E+04
         0.27000E+04
         0.27000E+04
         0.27000E+04
         0.27000E+04
         0.27000E+04
         0.27000E+04
         0.27000E+04
         0.27000E+04
         0.27000E+04
         0.27000E+04
         0.27000E+04
         0.27000E+04
         0.27000E+04
         0.27000E+04
         0.27000E+04
         0.27000E+04
         0.27000E+04
         0.27000E+04
         0.27000E+04
         0.27000E+04
         0.27000E+04
         0.27000E+04
         0.27000E+04
         0.27000E+04
         0.27000E+04
         0.27000E+04
         0.27000E+04
         0.27000E+04
         0.27000E+04
         0.27000E+04
         0.27000E+04
         0.27000E+04
         0.27000E+04
         0.27000E+04
         0.27000E+04
         0.27000E+04
         0.27000E+04
         0.27000E+04
         0.27000E+04
         0.27000E+04
         0.27000E+04
         0.27000E+04
         0.27000E+04
         0.27000E+04
         0.27000E+04
         0.27000E+04
         0.27000E+04
         0.27000E+04
         0.27000E+04
         0.27000E+04
         0.27000E+04
         0.27000E+04
         0.27000E+04
         0.27000E+04
         0.27000E+04
         0.27000E+04
         0.27000E+04
         0.27000E+04
         0.27000E+04
         0.27000E+04
         0.27000E+04
         0.27000E+04
         0.27000E+04
         0.27000E+04
         0.27000E+04
         0.27000E+04
         0.27000E+04
         0.27000E+04
         0.27000E+04
         0.27000E+04
         0.27000E+04
         0.27000E+04
         0.27000E+04
         0.27000E+04
         0.27000E+04
         0.27000E+04
         0.27000E+04
         0.27000E+04
         0.27000E+04
         0.27000E+04
         0.27000E+04
         0.27000E+04
         0.27000E+04
         0.27000E+04
         0.27000E+04
         0.27000E+04
         0.27000E+04
         0.27000E+04
         0.27000E+04
         0.27000E+04
         0.27000E+04
         0.27000E+04
         0.27000E+04
         0.27000E+04
         0.27000E+04
         0.27000E+04
         0.27000E+04
         0.27000E+04
         0.27000E+04
         0.27000E+04
         0.27000E+04
         0.27000E+04
         0.27000E+04
         0.27000E+04
         0.27000E+04
         0.27000E+04
         0.27000E+04
         0.27000E+04
         0.27000E+04
         0.27000E+04
         0.27000E+04
         0.27000E+04
         0.27000E+04
         0.27000E+04
         0.27000E+04
         0.27000E+04
         0.27000E+04
         0.27000E+04
         0.27000E+04
         0.27000E+04
         0.27000E+04
         0.27000E+04
         0.27000E+04
         0.27000E+04
         0.27000E+04
         0.27000E+04
         0.27000E+04
         0.27000E+04
         0.27000E+04
         0.27000E+04
         0.27000E+04
         0.27000E+04
         0.27000E+04
         0.27000E+04
         0.27000E+04
         0.27000E+04
         0.27000E+04
         0.27000E+04
         0.27000E+04
         0.27000E+04
         0.27000E+04
         0.27000E+04
         0.27000E+04
         0.27000E+04
         0.27000E+04
         0.27000E+04
         0.27000E+04
         0.27000E+04
         0.27000E+04
         0.27000E+04
         0.27000E+04
         0.27000E+04
         0.27000E+04
         0.27000E+04
         0.27000E+04
         0.27000E+04
         0.27000E+04
         0.27000E+04
         0.27000E+04
         0.27000E+04
         0.27000E+04
         0.27000E+04
         0.27000E+04
         0.27000E+04
         0.27000E+04
         0.27000E+04
         0.27000E+04
         0.27000E+04
         0.27000E+04
         0.27000E+04
         0.27000E+04
         0.27000E+04
         0.27000E+04
         0.27000E+04
         0.27000E+04
         0.27000E+04
         0.27000E+04
         0.27000E+04
         0.27000E+04
         0.27000E+04
         0.27000E+04
         0.27000E+04
         0.27000E+04
         0.27000E+04
         0.27000E+04
         0.27000E+04
         0.27000E+04
         0.27000E+04
         0.27000E+04
         0.27000E+04
         0.27000E+04
         0.27000E+04
         0.27000E+04
         0.27000E+04
         0.27000E+04
         0.27000E+04
         0.27000E+04
         0.27000E+04
         0.27000E+04
         0.27000E+04
         0.27000E+04
         0.27000E+04
         0.27000E+04
         0.27000E+04
         0.27000E+04
         0.27000E+04
         0.27000E+04
         0.27000E+04
         0.27000E+04
         0.27000E+04
         0.27000E+04
         0.27000E+04
         0.27000E+04
         0.27000E+04
         0.27000E+04
         0.27000E+04
         0.27000E+04
         0.27000E+04
         0.27000E+04
         0.27000E+04
         0.27000E+04
         0.27000E+04
         0.27000E+04
         0.27000E+04
         0.27000E+04
         0.27000E+04
         0.27000E+04
         0.27000E+04
         0.27000E+04
         0.27000E+04
         0.27000E+04
         0.27000E+04
         0.27000E+04
         0.27000E+04
         0.27000E+04
         0.27000E+04
         0.27000E+04
         0.27000E+04
         0.27000E+04
         0.27000E+04
         0.27000E+04
         0.27000E+04
         0.27000E+04
         0.27000E+04
         0.27000E+04
         0.27000E+04
         0.27000E+04
         0.27000E+04
         0.27000E+04
         0.27000E+04
         0.27000E+04
         0.27000E+04
         0.27000E+04
         0.27000E+04
         0.27000E+04
         0.27000E+04
         0.27000E+04
         0.27000E+04
         0.27000E+04
         0.27000E+04
         0.27000E+04
         0.27000E+04
         0.27000E+04
         0.27000E+04
         0.27000E+04
         0.27000E+04
         0.27000E+04
         0.27000E+04
         0.27000E+04
         0.27000E+04
         0.27000E+04
         0.27000E+04
         0.27000E+04
         0.27000E+04
         0.27000E+04
         0.27000E+04
         0.27000E+04
         0.27000E+04
         0.27000E+04
         0.27000E+04
         0.27000E+04
         0.27000E+04
         0.27000E+04
         0.27000E+04
         0.27000E+04
         0.27000E+04
         0.27000E+04
         0.27000E+04
         0.27000E+04
         0.27000E+04
         0.27000E+04
         0.27000E+04
         0.27000E+04
         0.27000E+04
         0.27000E+04
         0.27000E+04
         0.27000E+04
         0.27000E+04
         0.27000E+04
         0.27000E+04
         0.27000E+04
         0.27000E+04
         0.27000E+04
         0.27000E+04
         0.27000E+04
         0.27000E+04
         0.27000E+04
         0.27000E+04
         0.27000E+04
         0.27000E+04
         0.27000E+04
         0.27000E+04
         0.27000E+04
         0.27000E+04
         0.27000E+04
         0.27000E+04
         0.27000E+04
         0.27000E+04
         0.27000E+04
         0.27000E+04
         0.27000E+04
         0.27000E+04
         0.27000E+04
         0.27000E+04
         0.27000E+04
         0.27000E+04
         0.27000E+04
         0.27000E+04
         0.27000E+04
         0.27000E+04
         0.27000E+04
         0.27000E+04
         0.27000E+04
         0.27000E+04
         0.27000E+04
         0.27000E+04
         0.27000E+04
         0.27000E+04
         0.27000E+04
         0.27000E+04
         0.27000E+04
         0.27000E+04
         0.27000E+04
         0.27000E+04
         0.27000E+04
         0.27000E+04
         0.27000E+04
         0.27000E+04
         0.27000E+04
         0.27000E+04
         0.27000E+04
         0.27000E+04
         0.27000E+04
         0.27000E+04
         0.27000E+04
         0.27000E+04
         0.27000E+04
         0.27000E+04
         0.27000E+04
         0.27000E+04
         0.27000E+04
         0.27000E+04
         0.27000E+04
         0.27000E+04
         0.27000E+04
         0.27000E+04
         0.27000E+04
         0.27000E+04
         0.27000E+04
         0.27000E+04
         0.27000E+04
         0.27000E+04
         0.27000E+04
         0.27000E+04
         0.27000E+04
         0.27000E+04
         0.27000E+04
         0.27000E+04
         0.27000E+04
         0.27000E+04
         0.27000E+04
         0.27000E+04
         0.27000E+04
         0.27000E+04
         0.27000E+04
         0.27000E+04
         0.27000E+04
         0.27000E+04
         0.27000E+04
         0.27000E+04
         0.27000E+04
         0.27000E+04
         0.27000E+04
         0.27000E+04
         0.27000E+04
         0.27000E+04
         0.27000E+04
         0.27000E+04
         0.27000E+04
         0.27000E+04
         0.27000E+04
         0.27000E+04
         0.27000E+04
         0.27000E+04
         0.27000E+04
         0.27000E+04
         0.27000E+04
         0.27000E+04
         0.27000E+04
         0.27000E+04
         0.27000E+04
         0.27000E+04
         0.27000E+04
         0.27000E+04
         0.27000E+04
         0.27000E+04
         0.27000E+04
         0.27000E+04
         0.27000E+04
         0.27000E+04
         0.27000E+04
         0.27000E+04
         0.27000E+04
         0.27000E+04
         0.27000E+04
         0.27000E+04
         0.27000E+04
         0.27000E+04
         0.27000E+04
         0.27000E+04
         0.27000E+04
         0.27000E+04
         0.27000E+04
         0.27000E+04
         0.27000E+04
         0.27000E+04
         0.27000E+04
         0.27000E+04
         0.27000E+04
         0.27000E+04
         0.27000E+04
         0.27000E+04
         0.27000E+04
         0.27000E+04
         0.27000E+04
         0.27000E+04
         0.27000E+04
         0.27000E+04
         0.27000E+04
         0.27000E+04
         0.27000E+04
         0.27000E+04
         0.27000E+04
         0.27000E+04
         0.27000E+04
         0.27000E+04
         0.27000E+04
         0.27000E+04
         0.27000E+04
         0.27000E+04
         0.27000E+04
         0.27000E+04
         0.27000E+04
         0.27000E+04
         0.27000E+04
         0.27000E+04
         0.27000E+04
         0.27000E+04
         0.27000E+04
         0.27000E+04
         0.27000E+04
         0.27000E+04
         0.27000E+04
         0.27000E+04
         0.27000E+04
         0.27000E+04
         0.27000E+04
         0.27000E+04
         0.27000E+04
         0.27000E+04
         0.27000E+04
         0.27000E+04
         0.27000E+04
         0.27000E+04
         0.27000E+04
         0.27000E+04
         0.27000E+04
         0.27000E+04
         0.27000E+04
         0.27000E+04
         0.27000E+04
         0.27000E+04
         0.27000E+04
         0.27000E+04
         0.27000E+04
         0.27000E+04
         0.27000E+04
         0.27000E+04
         0.27000E+04
         0.27000E+04
         0.27000E+04
         0.27000E+04
         0.27000E+04
         0.27000E+04
         0.27000E+04
         0.27000E+04
         0.27000E+04
         0.27000E+04
         0.27000E+04
         0.27000E+04
         0.27000E+04
         0.27000E+04
         0.27000E+04
         0.27000E+04
         0.27000E+04
         0.27000E+04
         0.27000E+04
         0.27000E+04
         0.27000E+04
         0.27000E+04
         0.27000E+04
         0.27000E+04
         0.27000E+04
         0.27000E+04
         0.27000E+04
         0.27000E+04
         0.27000E+04
         0.27000E+04
         0.27000E+04
         0.27000E+04
         0.27000E+04
         0.27000E+04
         0.27000E+04
         0.27000E+04
         0.27000E+04
         0.27000E+04
         0.27000E+04
         0.27000E+04
         0.27000E+04
         0.27000E+04
         0.27000E+04
         0.27000E+04
         0.27000E+04
         0.27000E+04
         0.27000E+04
         0.27000E+04
         0.27000E+04
         0.27000E+04
         0.27000E+04
         0.27000E+04
         0.27000E+04
         0.27000E+04
         0.27000E+04
         0.27000E+04
         0.27000E+04
         0.27000E+04
         0.27000E+04
         0.27000E+04
         0.27000E+04
         0.27000E+04
         0.27000E+04
         0.27000E+04
         0.27000E+04
         0.27000E+04
         0.27000E+04
         0.27000E+04
         0.27000E+04
         0.27000E+04
         0.27000E+04
         0.27000E+04
         0.27000E+04
         0.27000E+04
         0.27000E+04
         0.27000E+04
         0.27000E+04
         0.27000E+04
         0.27000E+04
         0.27000E+04
         0.27000E+04
         0.27000E+04
         0.27000E+04
         0.27000E+04
         0.27000E+04
         0.27000E+04
         0.27000E+04
         0.27000E+04
         0.27000E+04
         0.27000E+04
         0.27000E+04
         0.27000E+04
         0.27000E+04
         0.27000E+04
         0.27000E+04
         0.27000E+04
         0.27000E+04
         0.27000E+04
         0.27000E+04
         0.27000E+04
         0.27000E+04
         0.27000E+04
         0.27000E+04
         0.27000E+04
         0.27000E+04
         0.27000E+04
         0.27000E+04
         0.27000E+04
         0.27000E+04
         0.27000E+04
         0.27000E+04
         0.27000E+04
         0.27000E+04
         0.27000E+04
         0.27000E+04
         0.27000E+04
         0.27000E+04
         0.27000E+04
         0.27000E+04
         0.27000E+04
         0.27000E+04
         0.27000E+04
         0.27000E+04
         0.27000E+04
         0.27000E+04
         0.27000E+04
         0.27000E+04
         0.27000E+04
         0.27000E+04
         0.27000E+04
         0.27000E+04
         0.27000E+04
         0.27000E+04
         0.27000E+04
         0.27000E+04
         0.27000E+04
         0.27000E+04
         0.27000E+04
         0.27000E+04
         0.27000E+04
         0.27000E+04
         0.27000E+04
         0.27000E+04
         0.27000E+04
         0.27000E+04
         0.27000E+04
         0.27000E+04
         0.27000E+04
         0.27000E+04
         0.27000E+04
         0.27000E+04
         0.27000E+04
         0.27000E+04
         0.27000E+04
         0.27000E+04
         0.27000E+04
         0.27000E+04
         0.27000E+04
         0.27000E+04
         0.27000E+04
         0.27000E+04
         0.27000E+04
         0.27000E+04
         0.27000E+04
         0.27000E+04
         0.27000E+04
         0.27000E+04
         0.27000E+04
         0.27000E+04
         0.27000E+04
         0.27000E+04
         0.27000E+04
         0.27000E+04
         0.27000E+04
         0.27000E+04
         0.27000E+04
         0.27000E+04
         0.27000E+04
         0.27000E+04
         0.27000E+04
         0.27000E+04
         0.27000E+04
         0.27000E+04
         0.27000E+04
         0.27000E+04
         0.27000E+04
         0.27000E+04
         0.27000E+04
         0.27000E+04
         0.27000E+04
         0.27000E+04
         0.27000E+04
         0.27000E+04
         0.27000E+04
         0.27000E+04
         0.27000E+04
         0.27000E+04
         0.27000E+04
         0.27000E+04
         0.27000E+04
         0.27000E+04
         0.27000E+04
         0.27000E+04
         0.27000E+04
         0.27000E+04
         0.27000E+04
         0.27000E+04
         0.27000E+04
         0.27000E+04
         0.27000E+04
         0.27000E+04
         0.27000E+04
         0.27000E+04
         0.27000E+04
         0.27000E+04
         0.27000E+04
         0.27000E+04
         0.27000E+04
         0.27000E+04
         0.27000E+04
         0.27000E+04
         0.27000E+04
         0.27000E+04
         0.27000E+04
         0.27000E+04
         0.27000E+04
         0.27000E+04
         0.27000E+04
         0.27000E+04
         0.27000E+04
         0.27000E+04
         0.27000E+04
         0.27000E+04
         0.27000E+04
         0.27000E+04
         0.27000E+04
         0.27000E+04
         0.27000E+04
         0.27000E+04
         0.27000E+04
         0.27000E+04
         0.27000E+04
         0.27000E+04
         0.27000E+04
         0.27000E+04
         0.27000E+04
         0.27000E+04
         0.27000E+04
         0.27000E+04
         0.27000E+04
         0.27000E+04
         0.27000E+04
         0.27000E+04
         0.27000E+04
         0.27000E+04
         0.27000E+04
         0.27000E+04
         0.27000E+04
         0.27000E+04
         0.27000E+04
         0.27000E+04
         0.27000E+04
         0.27000E+04
         0.27000E+04
         0.27000E+04
         0.27000E+04
         0.27000E+04
         0.27000E+04
         0.27000E+04
         0.27000E+04
         0.27000E+04
         0.27000E+04
         0.27000E+04
         0.27000E+04
         0.27000E+04
         0.27000E+04
         0.27000E+04
         0.27000E+04
         0.27000E+04
         0.27000E+04
         0.27000E+04
         0.27000E+04
         0.27000E+04
         0.27000E+04
         0.27000E+04
         0.27000E+04
         0.27000E+04
         0.27000E+04
         0.27000E+04
         0.27000E+04
         0.27000E+04
         0.27000E+04
         0.27000E+04
         0.27000E+04
         0.27000E+04
         0.27000E+04
         0.27000E+04
         0.27000E+04
         0.27000E+04
         0.27000E+04
         0.27000E+04
         0.27000E+04
         0.27000E+04
         0.27000E+04
         0.27000E+04
         0.27000E+04
         0.27000E+04
         0.27000E+04
         0.27000E+04
         0.27000E+04
         0.27000E+04
         0.27000E+04
         0.27000E+04
         0.27000E+04
         0.27000E+04
         0.27000E+04
         0.27000E+04
         0.27000E+04
         0.27000E+04
         0.27000E+04
         0.27000E+04
         0.27000E+04
         0.27000E+04
         0.27000E+04
         0.27000E+04
         0.27000E+04
         0.27000E+04
         0.27000E+04
         0.27000E+04
         0.27000E+04
         0.27000E+04
         0.27000E+04
         0.27000E+04
         0.27000E+04
         0.27000E+04
         0.27000E+04
         0.27000E+04
         0.27000E+04
         0.27000E+04
         0.27000E+04
         0.27000E+04
         0.27000E+04
         0.27000E+04
         0.27000E+04
         0.27000E+04
         0.27000E+04
         0.27000E+04
         0.27000E+04
         0.27000E+04
         0.27000E+04
         0.27000E+04
         0.27000E+04
         0.27000E+04
         0.27000E+04
         0.27000E+04
         0.27000E+04
         0.27000E+04
         0.27000E+04
         0.27000E+04
         0.27000E+04
         0.27000E+04
         0.27000E+04
         0.27000E+04
         0.27000E+04
         0.27000E+04
         0.27000E+04
         0.27000E+04
         0.27000E+04
         0.27000E+04
         0.27000E+04
         0.27000E+04
         0.27000E+04
         0.27000E+04
         0.27000E+04
         0.27000E+04
         0.27000E+04
         0.27000E+04
         0.27000E+04
         0.27000E+04
         0.27000E+04
         0.27000E+04
         0.27000E+04
         0.27000E+04
         0.27000E+04
         0.27000E+04
         0.27000E+04
         0.27000E+04
         0.27000E+04
         0.27000E+04
         0.27000E+04
         0.27000E+04
         0.27000E+04
         0.27000E+04
         0.27000E+04
         0.27000E+04
         0.27000E+04
         0.27000E+04
         0.27000E+04
         0.27000E+04
         0.27000E+04
         0.27000E+04
         0.27000E+04
         0.27000E+04
         0.27000E+04
         0.27000E+04
         0.27000E+04
         0.27000E+04
         0.27000E+04
         0.27000E+04
         0.27000E+04
         0.27000E+04
         0.27000E+04
         0.27000E+04
         0.27000E+04
         0.27000E+04
         0.27000E+04
         0.27000E+04
         0.27000E+04
         0.27000E+04
         0.27000E+04
         0.27000E+04
         0.27000E+04
         0.27000E+04
         0.27000E+04
         0.27000E+04
         0.27000E+04
         0.27000E+04
         0.27000E+04
         0.27000E+04
         0.27000E+04
         0.27000E+04
         0.27000E+04
         0.27000E+04
         0.27000E+04
         0.27000E+04
         0.27000E+04
         0.27000E+04
         0.27000E+04
         0.27000E+04
         0.27000E+04
         0.27000E+04
         0.27000E+04
         0.27000E+04
         0.27000E+04
         0.27000E+04
         0.27000E+04
         0.27000E+04
         0.27000E+04
         0.27000E+04
         0.27000E+04
         0.27000E+04
         0.27000E+04
         0.27000E+04
         0.27000E+04
         0.27000E+04
         0.27000E+04
         0.27000E+04
         0.27000E+04
         0.27000E+04
         0.27000E+04
         0.27000E+04
         0.27000E+04
         0.27000E+04
         0.27000E+04
         0.27000E+04
         0.27000E+04
         0.27000E+04
         0.27000E+04
         0.27000E+04
         0.27000E+04
         0.27000E+04
         0.27000E+04
         0.27000E+04
         0.27000E+04
         0.27000E+04
         0.27000E+04
         0.27000E+04
         0.27000E+04
         0.27000E+04
         0.27000E+04
         0.27000E+04
         0.27000E+04
         0.27000E+04
         0.27000E+04
         0.27000E+04
         0.27000E+04
         0.27000E+04
         0.27000E+04
         0.27000E+04
         0.27000E+04
         0.27000E+04
         0.27000E+04
         0.27000E+04
         0.27000E+04
         0.27000E+04
         0.27000E+04
         0.27000E+04
         0.27000E+04
         0.27000E+04
         0.27000E+04
         0.27000E+04
         0.27000E+04
         0.27000E+04
         0.27000E+04
         0.27000E+04
         0.27000E+04
         0.27000E+04
         0.27000E+04
         0.27000E+04
         0.27000E+04
         0.27000E+04
         0.27000E+04
         0.27000E+04
         0.27000E+04
         0.27000E+04
         0.27000E+04
         0.27000E+04
         0.27000E+04
         0.27000E+04
         0.27000E+04
         0.27000E+04
         0.27000E+04
         0.27000E+04
         0.27000E+04
         0.27000E+04
         0.27000E+04
         0.27000E+04
         0.27000E+04
         0.27000E+04
         0.27000E+04
         0.27000E+04
         0.27000E+04
         0.27000E+04
         0.27000E+04
         0.27000E+04
         0.27000E+04
         0.27000E+04
         0.27000E+04
         0.27000E+04
         0.27000E+04
         0.27000E+04
         0.27000E+04
         0.27000E+04
         0.27000E+04
         0.27000E+04
         0.27000E+04
         0.27000E+04
         0.27000E+04
         0.27000E+04
         0.27000E+04
         0.27000E+04
         0.27000E+04
         0.27000E+04
         0.27000E+04
         0.27000E+04
         0.27000E+04
         0.27000E+04
         0.27000E+04
         0.27000E+04
         0.27000E+04
         0.27000E+04
         0.27000E+04
         0.27000E+04
         0.27000E+04
         0.27000E+04
         0.27000E+04
         0.27000E+04
         0.27000E+04
         0.27000E+04
         0.27000E+04
         0.27000E+04
         0.27000E+04
         0.27000E+04
         0.27000E+04
         0.27000E+04
         0.27000E+04
         0.27000E+04
         0.27000E+04
         0.27000E+04
         0.27000E+04
         0.27000E+04
         0.27000E+04
         0.27000E+04
         0.27000E+04
         0.27000E+04
         0.27000E+04
         0.27000E+04
         0.27000E+04
         0.27000E+04
         0.27000E+04
         0.27000E+04
         0.27000E+04
         0.27000E+04
         0.27000E+04
         0.27000E+04
         0.27000E+04
         0.27000E+04
         0.27000E+04
         0.27000E+04
         0.27000E+04
         0.27000E+04
         0.27000E+04
         0.27000E+04
         0.27000E+04
         0.27000E+04
         0.27000E+04
         0.27000E+04
         0.27000E+04
         0.27000E+04
         0.27000E+04
         0.27000E+04
         0.27000E+04
         0.27000E+04
         0.27000E+04
         0.27000E+04
         0.27000E+04
         0.27000E+04
         0.27000E+04
         0.27000E+04
         0.27000E+04
         0.27000E+04
         0.27000E+04
         0.27000E+04
         0.27000E+04
         0.27000E+04
         0.27000E+04
         0.27000E+04
         0.27000E+04
         0.27000E+04
         0.27000E+04
         0.27000E+04
         0.27000E+04
         0.27000E+04
         0.27000E+04
         0.27000E+04
         0.27000E+04
         0.27000E+04
         0.27000E+04
         0.27000E+04
         0.27000E+04
         0.27000E+04
         0.27000E+04
         0.27000E+04
         0.27000E+04
         0.27000E+04
         0.27000E+04
         0.27000E+04
         0.27000E+04
         0.27000E+04
         0.27000E+04
         0.27000E+04
         0.27000E+04
         0.27000E+04
         0.27000E+04
         0.27000E+04
         0.27000E+04
         0.27000E+04
         0.27000E+04
         0.27000E+04
         0.27000E+04
         0.27000E+04
         0.27000E+04
         0.27000E+04
         0.27000E+04
         0.27000E+04
         0.27000E+04
         0.27000E+04
         0.27000E+04
         0.27000E+04
         0.27000E+04
         0.27000E+04
         0.27000E+04
         0.27000E+04
         0.27000E+04
         0.27000E+04
         0.27000E+04
         0.27000E+04
         0.27000E+04
         0.27000E+04
         0.27000E+04
         0.27000E+04
         0.27000E+04
         0.27000E+04
         0.27000E+04
         0.27000E+04
         0.27000E+04
         0.27000E+04
         0.27000E+04
         0.27000E+04
         0.27000E+04
         0.27000E+04
         0.27000E+04
         0.27000E+04
         0.27000E+04
         0.27000E+04
         0.27000E+04
         0.27000E+04
         0.27000E+04
         0.27000E+04
         0.27000E+04
         0.27000E+04
         0.27000E+04
         0.27000E+04
         0.27000E+04
         0.27000E+04
         0.27000E+04
         0.27000E+04
         0.27000E+04
         0.27000E+04
         0.27000E+04
         0.27000E+04
         0.27000E+04
         0.27000E+04
         0.27000E+04
         0.27000E+04
         0.27000E+04
         0.27000E+04
         0.27000E+04
         0.27000E+04
         0.27000E+04
         0.27000E+04
         0.27000E+04
         0.27000E+04
         0.27000E+04
         0.27000E+04
         0.27000E+04
         0.27000E+04
         0.27000E+04
         0.27000E+04
         0.27000E+04
         0.27000E+04
         0.27000E+04
         0.27000E+04
         0.27000E+04
         0.27000E+04
         0.27000E+04
         0.27000E+04
         0.27000E+04
         0.27000E+04
         0.27000E+04
         0.27000E+04
         0.27000E+04
         0.27000E+04
         0.27000E+04
         0.27000E+04
         0.27000E+04
         0.27000E+04
         0.27000E+04
         0.27000E+04
         0.27000E+04
         0.27000E+04
         0.27000E+04
         0.27000E+04
         0.27000E+04
         0.27000E+04
         0.27000E+04
         0.27000E+04
         0.27000E+04
         0.27000E+04
         0.27000E+04
         0.27000E+04
         0.27000E+04
         0.27000E+04
         0.27000E+04
         0.27000E+04
         0.27000E+04
         0.27000E+04
         0.27000E+04
         0.27000E+04
         0.27000E+04
         0.27000E+04
         0.27000E+04
         0.27000E+04
         0.27000E+04
         0.27000E+04
         0.27000E+04
         0.27000E+04
         0.27000E+04
         0.27000E+04
         0.27000E+04
         0.27000E+04
         0.27000E+04
         0.27000E+04
         0.27000E+04
         0.27000E+04
         0.27000E+04
         0.27000E+04
         0.27000E+04
         0.27000E+04
         0.27000E+04
         0.27000E+04
         0.27000E+04
         0.27000E+04
         0.27000E+04
         0.27000E+04
         0.27000E+04
         0.27000E+04
         0.27000E+04
         0.27000E+04
         0.27000E+04
         0.27000E+04
         0.27000E+04
         0.27000E+04
         0.27000E+04
         0.27000E+04
         0.27000E+04
         0.27000E+04
         0.27000E+04
         0.27000E+04
         0.27000E+04
         0.27000E+04
         0.27000E+04
         0.27000E+04
         0.27000E+04
         0.27000E+04
         0.27000E+04
         0.27000E+04
         0.27000E+04
         0.27000E+04
         0.27000E+04
         0.27000E+04
         0.27000E+04
         0.27000E+04
         0.27000E+04
         0.27000E+04
         0.27000E+04
         0.27000E+04
         0.27000E+04
         0.27000E+04
         0.27000E+04
         0.27000E+04
         0.27000E+04
         0.27000E+04
         0.27000E+04
         0.27000E+04
         0.27000E+04
         0.27000E+04
         0.27000E+04
         0.27000E+04
         0.27000E+04
         0.27000E+04
         0.27000E+04
         0.27000E+04
         0.27000E+04
         0.27000E+04
         0.27000E+04
         0.27000E+04
         0.27000E+04
         0.27000E+04
         0.27000E+04
         0.27000E+04
         0.27000E+04
         0.27000E+04
         0.27000E+04
         0.27000E+04
         0.27000E+04
         0.27000E+04
         0.27000E+04
         0.27000E+04
         0.27000E+04
         0.27000E+04
         0.27000E+04
         0.27000E+04
         0.27000E+04
         0.27000E+04
         0.27000E+04
         0.27000E+04
         0.27000E+04
         0.27000E+04
         0.27000E+04
         0.27000E+04
         0.27000E+04
         0.27000E+04
         0.27000E+04
         0.27000E+04
         0.27000E+04
         0.27000E+04
         0.27000E+04
         0.27000E+04
         0.27000E+04
         0.27000E+04
         0.27000E+04
         0.27000E+04
         0.27000E+04
         0.27000E+04
         0.27000E+04
         0.27000E+04
         0.27000E+04
         0.27000E+04
         0.27000E+04
         0.27000E+04
         0.27000E+04
         0.27000E+04
         0.27000E+04
         0.27000E+04
         0.27000E+04
         0.27000E+04
         0.27000E+04
         0.27000E+04
         0.27000E+04
         0.27000E+04
         0.27000E+04
         0.27000E+04
         0.27000E+04
         0.27000E+04
         0.27000E+04
         0.27000E+04
         0.27000E+04
         0.27000E+04
         0.27000E+04
         0.27000E+04
         0.27000E+04
         0.27000E+04
         0.27000E+04
         0.27000E+04
         0.27000E+04
         0.27000E+04
         0.27000E+04
         0.27000E+04
         0.27000E+04
         0.27000E+04
         0.27000E+04
         0.27000E+04
         0.27000E+04
         0.27000E+04
         0.27000E+04
         0.27000E+04
         0.27000E+04
         0.27000E+04
         0.27000E+04
         0.27000E+04
         0.27000E+04
         0.27000E+04
         0.27000E+04
         0.27000E+04
         0.27000E+04
         0.27000E+04
         0.27000E+04
         0.27000E+04
         0.27000E+04
         0.27000E+04
         0.27000E+04
         0.27000E+04
         0.27000E+04
         0.27000E+04
         0.27000E+04
         0.27000E+04
         0.27000E+04
         0.27000E+04
         0.27000E+04
         0.27000E+04
         0.27000E+04
         0.27000E+04
         0.27000E+04
         0.27000E+04
         0.27000E+04
         0.27000E+04
         0.27000E+04
         0.27000E+04
         0.27000E+04
         0.27000E+04
         0.27000E+04
         0.27000E+04
         0.27000E+04
         0.27000E+04
         0.27000E+04
         0.27000E+04
         0.27000E+04
         0.27000E+04
         0.27000E+04
         0.27000E+04
         0.27000E+04
         0.27000E+04
         0.27000E+04
         0.27000E+04
         0.27000E+04
         0.27000E+04
         0.27000E+04
         0.27000E+04
         0.27000E+04
         0.27000E+04
         0.27000E+04
         0.27000E+04
         0.27000E+04
         0.27000E+04
         0.27000E+04
         0.27000E+04
         0.27000E+04
         0.27000E+04
         0.27000E+04
         0.27000E+04
         0.27000E+04
         0.27000E+04
         0.27000E+04
         0.27000E+04
         0.27000E+04
         0.27000E+04
         0.27000E+04
         0.27000E+04
         0.27000E+04
         0.27000E+04
         0.27000E+04
         0.27000E+04
         0.27000E+04
         0.27000E+04
         0.27000E+04
         0.27000E+04
         0.27000E+04
         0.27000E+04
         0.27000E+04
         0.27000E+04
         0.27000E+04
         0.27000E+04
         0.27000E+04
         0.27000E+04
         0.27000E+04
         0.27000E+04
         0.27000E+04
         0.27000E+04
         0.27000E+04
         0.27000E+04
         0.27000E+04
         0.27000E+04
         0.27000E+04
         0.27000E+04
         0.27000E+04
         0.27000E+04
         0.27000E+04
         0.27000E+04
         0.27000E+04
         0.27000E+04
         0.27000E+04
         0.27000E+04
         0.27000E+04
         0.27000E+04
         0.27000E+04
         0.27000E+04
         0.27000E+04
         0.27000E+04
         0.27000E+04
         0.27000E+04
         0.27000E+04
         0.27000E+04
         0.27000E+04
         0.27000E+04
         0.27000E+04
         0.27000E+04
         0.27000E+04
         0.27000E+04
         0.27000E+04
         0.27000E+04
         0.27000E+04
         0.27000E+04
         0.27000E+04
         0.27000E+04
         0.27000E+04
         0.27000E+04
         0.27000E+04
         0.27000E+04
         0.27000E+04
         0.27000E+04
         0.27000E+04
         0.27000E+04
         0.27000E+04
         0.27000E+04
         0.27000E+04
         0.27000E+04
         0.27000E+04
         0.27000E+04
         0.27000E+04
         0.27000E+04
         0.27000E+04
         0.27000E+04
         0.27000E+04
         0.27000E+04
         0.27000E+04
         0.27000E+04
         0.27000E+04
         0.27000E+04
         0.27000E+04
         0.27000E+04
         0.27000E+04
         0.27000E+04
         0.27000E+04
         0.27000E+04
         0.27000E+04
         0.27000E+04
         0.27000E+04
         0.27000E+04
         0.27000E+04
         0.27000E+04
         0.27000E+04
         0.27000E+04
         0.27000E+04
         0.27000E+04
         0.27000E+04
         0.27000E+04
         0.27000E+04
         0.27000E+04
         0.27000E+04
         0.27000E+04
         0.27000E+04
         0.27000E+04
         0.27000E+04
         0.27000E+04
         0.27000E+04
         0.27000E+04
         0.27000E+04
         0.27000E+04
         0.27000E+04
         0.27000E+04
         0.27000E+04
         0.27000E+04
         0.27000E+04
         0.27000E+04
         0.27000E+04
         0.27000E+04
         0.27000E+04
         0.27000E+04
         0.27000E+04
         0.27000E+04
         0.27000E+04
         0.27000E+04
         0.27000E+04
         0.27000E+04
         0.27000E+04
         0.27000E+04
         0.27000E+04
         0.27000E+04
         0.27000E+04
         0.27000E+04
         0.27000E+04
         0.27000E+04
         0.27000E+04
         0.27000E+04
         0.27000E+04
         0.27000E+04
         0.27000E+04
         0.27000E+04
         0.27000E+04
         0.27000E+04
         0.27000E+04
         0.27000E+04
         0.27000E+04
         0.27000E+04
         0.27000E+04
         0.27000E+04
         0.27000E+04
         0.27000E+04
         0.27000E+04
         0.27000E+04
         0.27000E+04
         0.27000E+04
         0.27000E+04
         0.27000E+04
         0.27000E+04
         0.27000E+04
         0.27000E+04
         0.27000E+04
         0.27000E+04
         0.27000E+04
         0.27000E+04
         0.27000E+04
         0.27000E+04
         0.27000E+04
         0.27000E+04
         0.27000E+04
         0.27000E+04
         0.27000E+04
         0.27000E+04
         0.27000E+04
         0.27000E+04
         0.27000E+04
         0.27000E+04
         0.27000E+04
         0.27000E+04
         0.27000E+04
         0.27000E+04
         0.27000E+04
         0.27000E+04
         0.27000E+04
         0.27000E+04
         0.27000E+04
         0.27000E+04
         0.27000E+04
         0.27000E+04
         0.27000E+04
         0.27000E+04
         0.27000E+04
         0.27000E+04
         0.27000E+04
         0.27000E+04
         0.27000E+04
         0.27000E+04
         0.27000E+04
         0.27000E+04
         0.27000E+04
         0.27000E+04
         0.27000E+04
         0.27000E+04
         0.27000E+04
         0.27000E+04
         0.27000E+04
         0.27000E+04
         0.27000E+04
         0.27000E+04
         0.27000E+04
         0.27000E+04
         0.27000E+04
         0.27000E+04
         0.27000E+04
         0.27000E+04
         0.27000E+04
         0.27000E+04
         0.27000E+04
         0.27000E+04
         0.27000E+04
         0.27000E+04
         0.27000E+04
         0.27000E+04
         0.27000E+04
         0.27000E+04
         0.27000E+04
         0.27000E+04
         0.27000E+04
         0.27000E+04
         0.27000E+04
         0.27000E+04
         0.27000E+04
         0.27000E+04
         0.27000E+04
