# vtk DataFile Version 2.0
               (MEGA VTK FILE)
ASCII
DATASET UNSTRUCTURED_GRID
POINTS       1950    double
  0.10378E-02  0.67292E-03 -0.13384E-01
  0.17452E-02  0.12308E-02 -0.13380E-01
  0.23177E-02  0.59151E-03 -0.13379E-01
  0.16698E-02 -0.33775E-03 -0.13387E-01
  0.10379E-02  0.67237E-03 -0.11750E-01
  0.17453E-02  0.12301E-02 -0.11750E-01
  0.23178E-02  0.59098E-03 -0.11750E-01
  0.16700E-02 -0.33851E-03 -0.11750E-01
  0.30377E-02  0.14882E-03 -0.13371E-01
  0.27791E-02 -0.67643E-03 -0.13380E-01
  0.30377E-02  0.14846E-03 -0.11750E-01
  0.27788E-02 -0.67692E-03 -0.11750E-01
  0.12850E-02  0.18412E-02 -0.13375E-01
  0.65139E-03  0.14576E-02 -0.13381E-01
  0.12851E-02  0.18410E-02 -0.11750E-01
  0.65164E-03  0.14566E-02 -0.11750E-01
  0.12757E-03  0.29933E-03 -0.13384E-01
 -0.12822E-03  0.11672E-02 -0.13385E-01
  0.12783E-03  0.29819E-03 -0.11750E-01
 -0.12804E-03  0.11655E-02 -0.11750E-01
  0.94500E-03  0.22748E-02 -0.13372E-01
  0.11327E-02  0.28286E-02 -0.13368E-01
  0.17490E-02  0.24238E-02 -0.13370E-01
  0.94533E-03  0.22746E-02 -0.11750E-01
  0.11330E-02  0.28291E-02 -0.11750E-01
  0.17494E-02  0.24236E-02 -0.11750E-01
  0.40588E-03  0.21685E-02 -0.13379E-01
  0.39779E-03  0.29366E-02 -0.13377E-01
  0.40594E-03  0.21684E-02 -0.11750E-01
  0.39781E-03  0.29369E-02 -0.11750E-01
 -0.76303E-03 -0.10033E-02 -0.13387E-01
 -0.86604E-03  0.78969E-04 -0.13389E-01
  0.46119E-03 -0.70318E-03 -0.13386E-01
 -0.76268E-03 -0.10032E-02 -0.11750E-01
 -0.86593E-03  0.78160E-04 -0.11750E-01
  0.46164E-03 -0.70391E-03 -0.11750E-01
 -0.18300E-02 -0.71196E-03 -0.13379E-01
 -0.18440E-02  0.82749E-04 -0.13388E-01
 -0.18297E-02 -0.71210E-03 -0.11750E-01
 -0.18441E-02  0.82626E-04 -0.11750E-01
 -0.27238E-02 -0.77865E-03 -0.13377E-01
 -0.28028E-02  0.40713E-04 -0.13384E-01
 -0.27238E-02 -0.77882E-03 -0.11750E-01
 -0.28031E-02  0.40439E-04 -0.11750E-01
 -0.25365E-02 -0.15195E-02 -0.13370E-01
 -0.19287E-02 -0.13230E-02 -0.13373E-01
 -0.25363E-02 -0.15195E-02 -0.11750E-01
 -0.19283E-02 -0.13231E-02 -0.11750E-01
 -0.99363E-03  0.98847E-03 -0.13390E-01
 -0.99377E-03  0.98712E-03 -0.11750E-01
 -0.14380E-02 -0.17325E-02 -0.13378E-01
 -0.14377E-02 -0.17325E-02 -0.11750E-01
 -0.31574E-03  0.20220E-02 -0.13387E-01
 -0.31594E-03  0.20217E-02 -0.11750E-01
 -0.11068E-02  0.18615E-02 -0.13390E-01
 -0.11071E-02  0.18616E-02 -0.11750E-01
 -0.18845E-02  0.17175E-02 -0.13382E-01
 -0.18713E-02  0.90940E-03 -0.13388E-01
 -0.18846E-02  0.17175E-02 -0.11750E-01
 -0.18714E-02  0.90916E-03 -0.11750E-01
 -0.15871E-03 -0.19800E-02 -0.13386E-01
 -0.94089E-03 -0.23489E-02 -0.13378E-01
 -0.15844E-03 -0.19800E-02 -0.11750E-01
 -0.94029E-03 -0.23489E-02 -0.11750E-01
  0.78856E-03 -0.17074E-02 -0.13385E-01
  0.78922E-03 -0.17074E-02 -0.11750E-01
  0.17211E-02 -0.14894E-02 -0.13382E-01
  0.17211E-02 -0.14892E-02 -0.11750E-01
  0.32050E-02  0.76036E-03 -0.13360E-01
  0.28046E-02  0.12477E-02 -0.13369E-01
  0.32047E-02  0.75936E-03 -0.11750E-01
  0.28047E-02  0.12473E-02 -0.11750E-01
  0.23059E-02  0.18665E-02 -0.13372E-01
  0.23060E-02  0.18664E-02 -0.11750E-01
 -0.40614E-03  0.29038E-02 -0.13382E-01
 -0.40627E-03  0.29049E-02 -0.11750E-01
 -0.12092E-02  0.27207E-02 -0.13381E-01
 -0.12092E-02  0.27212E-02 -0.11750E-01
 -0.19448E-02  0.24642E-02 -0.13372E-01
 -0.19448E-02  0.24645E-02 -0.11750E-01
 -0.25029E-02  0.22359E-02 -0.13363E-01
 -0.26371E-02  0.16503E-02 -0.13375E-01
 -0.25029E-02  0.22359E-02 -0.11750E-01
 -0.26372E-02  0.16503E-02 -0.11750E-01
 -0.27671E-02  0.87493E-03 -0.13385E-01
 -0.27674E-02  0.87466E-03 -0.11750E-01
 -0.21123E-02 -0.21373E-02 -0.13371E-01
 -0.21122E-02 -0.21373E-02 -0.11750E-01
 -0.16087E-02 -0.26931E-02 -0.13367E-01
 -0.16087E-02 -0.26931E-02 -0.11750E-01
 -0.11939E-02 -0.31291E-02 -0.13359E-01
 -0.58641E-03 -0.30382E-02 -0.13371E-01
 -0.11937E-02 -0.31291E-02 -0.11750E-01
 -0.58606E-03 -0.30382E-02 -0.11750E-01
  0.20912E-03 -0.28748E-02 -0.13379E-01
  0.20952E-03 -0.28748E-02 -0.11750E-01
  0.10586E-02 -0.26423E-02 -0.13378E-01
  0.10589E-02 -0.26420E-02 -0.11750E-01
  0.18413E-02 -0.23707E-02 -0.13371E-01
  0.18413E-02 -0.23705E-02 -0.11750E-01
  0.24544E-02 -0.21445E-02 -0.13362E-01
  0.26022E-02 -0.15105E-02 -0.13373E-01
  0.24543E-02 -0.21439E-02 -0.11750E-01
  0.26021E-02 -0.15106E-02 -0.11750E-01
  0.37964E-02  0.93572E-03 -0.13335E-01
  0.39100E-02  0.00000E+00 -0.13339E-01
  0.37964E-02  0.93572E-03 -0.11750E-01
  0.39100E-02  0.00000E+00 -0.11750E-01
  0.34621E-02  0.18171E-02 -0.13338E-01
  0.34621E-02  0.18171E-02 -0.11750E-01
  0.29267E-02  0.25928E-02 -0.13335E-01
  0.29267E-02  0.25928E-02 -0.11750E-01
  0.22211E-02  0.32179E-02 -0.13336E-01
  0.22211E-02  0.32179E-02 -0.11750E-01
  0.13865E-02  0.36559E-02 -0.13335E-01
  0.13865E-02  0.36559E-02 -0.11750E-01
  0.47130E-03  0.38815E-02 -0.13338E-01
  0.47130E-03  0.38815E-02 -0.11750E-01
 -0.47130E-03  0.38815E-02 -0.13339E-01
 -0.47130E-03  0.38815E-02 -0.11750E-01
 -0.13865E-02  0.36559E-02 -0.13338E-01
 -0.13865E-02  0.36559E-02 -0.11750E-01
 -0.22211E-02  0.32179E-02 -0.13338E-01
 -0.22211E-02  0.32179E-02 -0.11750E-01
 -0.29267E-02  0.25928E-02 -0.13334E-01
 -0.29267E-02  0.25928E-02 -0.11750E-01
 -0.34621E-02  0.18171E-02 -0.13339E-01
 -0.34621E-02  0.18171E-02 -0.11750E-01
 -0.37964E-02  0.93572E-03 -0.13340E-01
 -0.37964E-02  0.93572E-03 -0.11750E-01
 -0.39100E-02  0.22152E-17 -0.13340E-01
 -0.39100E-02 -0.47884E-18 -0.11750E-01
 -0.37964E-02 -0.93572E-03 -0.13338E-01
 -0.37964E-02 -0.93572E-03 -0.11750E-01
 -0.34621E-02 -0.18171E-02 -0.13336E-01
 -0.34621E-02 -0.18171E-02 -0.11750E-01
 -0.29267E-02 -0.25928E-02 -0.13335E-01
 -0.29267E-02 -0.25928E-02 -0.11750E-01
 -0.22211E-02 -0.32179E-02 -0.13338E-01
 -0.22211E-02 -0.32179E-02 -0.11750E-01
 -0.13865E-02 -0.36559E-02 -0.13335E-01
 -0.13865E-02 -0.36559E-02 -0.11750E-01
 -0.47130E-03 -0.38815E-02 -0.13340E-01
 -0.47130E-03 -0.38815E-02 -0.11750E-01
  0.47130E-03 -0.38815E-02 -0.13338E-01
  0.47130E-03 -0.38815E-02 -0.11750E-01
  0.13865E-02 -0.36559E-02 -0.13337E-01
  0.13865E-02 -0.36559E-02 -0.11750E-01
  0.22211E-02 -0.32179E-02 -0.13339E-01
  0.22211E-02 -0.32179E-02 -0.11750E-01
  0.29267E-02 -0.25928E-02 -0.13336E-01
  0.29267E-02 -0.25928E-02 -0.11750E-01
  0.34621E-02 -0.18171E-02 -0.13339E-01
  0.34621E-02 -0.18171E-02 -0.11750E-01
  0.37964E-02 -0.93572E-03 -0.13339E-01
  0.37964E-02 -0.93572E-03 -0.11750E-01
  0.10376E-02  0.67348E-03 -0.13475E-01
  0.17450E-02  0.12314E-02 -0.13474E-01
  0.23175E-02  0.59203E-03 -0.13474E-01
  0.16696E-02 -0.33700E-03 -0.13475E-01
  0.30377E-02  0.14918E-03 -0.13473E-01
  0.27795E-02 -0.67594E-03 -0.13474E-01
  0.12849E-02  0.18414E-02 -0.13473E-01
  0.65115E-03  0.14586E-02 -0.13474E-01
  0.12731E-03  0.30048E-03 -0.13475E-01
 -0.12841E-03  0.11690E-02 -0.13475E-01
  0.94467E-03  0.22749E-02 -0.13473E-01
  0.11323E-02  0.28282E-02 -0.13472E-01
  0.17487E-02  0.24239E-02 -0.13472E-01
  0.40583E-03  0.21685E-02 -0.13474E-01
  0.39777E-03  0.29364E-02 -0.13474E-01
 -0.76338E-03 -0.10035E-02 -0.13475E-01
 -0.86615E-03  0.79778E-04 -0.13475E-01
  0.46074E-03 -0.70245E-03 -0.13475E-01
 -0.18303E-02 -0.71182E-03 -0.13474E-01
 -0.18439E-02  0.82873E-04 -0.13475E-01
 -0.27238E-02 -0.77848E-03 -0.13473E-01
 -0.28025E-02  0.40986E-04 -0.13475E-01
 -0.25366E-02 -0.15194E-02 -0.13472E-01
 -0.19292E-02 -0.13228E-02 -0.13473E-01
 -0.99349E-03  0.98983E-03 -0.13476E-01
 -0.14384E-02 -0.17324E-02 -0.13474E-01
 -0.31554E-03  0.20223E-02 -0.13475E-01
 -0.11064E-02  0.18614E-02 -0.13475E-01
 -0.18845E-02  0.17175E-02 -0.13474E-01
 -0.18712E-02  0.90964E-03 -0.13475E-01
 -0.15899E-03 -0.19800E-02 -0.13475E-01
 -0.94149E-03 -0.23489E-02 -0.13474E-01
  0.78790E-03 -0.17074E-02 -0.13475E-01
  0.17210E-02 -0.14896E-02 -0.13474E-01
  0.32053E-02  0.76137E-03 -0.13471E-01
  0.28046E-02  0.12481E-02 -0.13472E-01
  0.23058E-02  0.18665E-02 -0.13473E-01
 -0.40600E-03  0.29027E-02 -0.13474E-01
 -0.12092E-02  0.27202E-02 -0.13474E-01
 -0.19447E-02  0.24640E-02 -0.13473E-01
 -0.25028E-02  0.22359E-02 -0.13471E-01
 -0.26370E-02  0.16503E-02 -0.13473E-01
 -0.27668E-02  0.87519E-03 -0.13475E-01
 -0.21125E-02 -0.21373E-02 -0.13473E-01
 -0.16088E-02 -0.26932E-02 -0.13472E-01
 -0.11940E-02 -0.31291E-02 -0.13471E-01
 -0.58676E-03 -0.30382E-02 -0.13472E-01
  0.20871E-03 -0.28748E-02 -0.13474E-01
  0.10583E-02 -0.26426E-02 -0.13474E-01
  0.18413E-02 -0.23709E-02 -0.13473E-01
  0.24545E-02 -0.21450E-02 -0.13471E-01
  0.26022E-02 -0.15104E-02 -0.13473E-01
  0.37964E-02  0.93572E-03 -0.13468E-01
  0.39100E-02  0.00000E+00 -0.13469E-01
  0.34621E-02  0.18171E-02 -0.13469E-01
  0.29267E-02  0.25928E-02 -0.13469E-01
  0.22211E-02  0.32179E-02 -0.13469E-01
  0.13865E-02  0.36559E-02 -0.13469E-01
  0.47130E-03  0.38815E-02 -0.13469E-01
 -0.47130E-03  0.38815E-02 -0.13469E-01
 -0.13865E-02  0.36559E-02 -0.13469E-01
 -0.22211E-02  0.32179E-02 -0.13469E-01
 -0.29267E-02  0.25928E-02 -0.13468E-01
 -0.34621E-02  0.18171E-02 -0.13469E-01
 -0.37964E-02  0.93572E-03 -0.13469E-01
 -0.39100E-02 -0.47884E-18 -0.13469E-01
 -0.37964E-02 -0.93572E-03 -0.13469E-01
 -0.34621E-02 -0.18171E-02 -0.13469E-01
 -0.29267E-02 -0.25928E-02 -0.13469E-01
 -0.22211E-02 -0.32179E-02 -0.13469E-01
 -0.13865E-02 -0.36559E-02 -0.13468E-01
 -0.47130E-03 -0.38815E-02 -0.13469E-01
  0.47130E-03 -0.38815E-02 -0.13469E-01
  0.13865E-02 -0.36559E-02 -0.13469E-01
  0.22211E-02 -0.32179E-02 -0.13469E-01
  0.29267E-02 -0.25928E-02 -0.13468E-01
  0.34621E-02 -0.18171E-02 -0.13469E-01
  0.37964E-02 -0.93572E-03 -0.13469E-01
  0.10375E-02  0.67403E-03 -0.12583E-01
  0.17448E-02  0.12321E-02 -0.12583E-01
  0.23174E-02  0.59255E-03 -0.12583E-01
  0.16694E-02 -0.33624E-03 -0.12583E-01
  0.30377E-02  0.14955E-03 -0.12583E-01
  0.27798E-02 -0.67544E-03 -0.12583E-01
  0.12848E-02  0.18415E-02 -0.12583E-01
  0.65090E-03  0.14596E-02 -0.12583E-01
  0.12705E-03  0.30163E-03 -0.12583E-01
 -0.12859E-03  0.11707E-02 -0.12583E-01
  0.94434E-03  0.22750E-02 -0.12583E-01
  0.11320E-02  0.28277E-02 -0.12583E-01
  0.17483E-02  0.24241E-02 -0.12583E-01
  0.40577E-03  0.21685E-02 -0.12583E-01
  0.39776E-03  0.29361E-02 -0.12583E-01
 -0.76374E-03 -0.10036E-02 -0.12583E-01
 -0.86626E-03  0.80588E-04 -0.12583E-01
  0.46029E-03 -0.70173E-03 -0.12583E-01
 -0.18306E-02 -0.71168E-03 -0.12583E-01
 -0.18438E-02  0.82996E-04 -0.12583E-01
 -0.27238E-02 -0.77831E-03 -0.12583E-01
 -0.28022E-02  0.41259E-04 -0.12583E-01
 -0.25368E-02 -0.15194E-02 -0.12583E-01
 -0.19296E-02 -0.13227E-02 -0.12583E-01
 -0.99334E-03  0.99119E-03 -0.12583E-01
 -0.14387E-02 -0.17324E-02 -0.12583E-01
 -0.31534E-03  0.20226E-02 -0.12583E-01
 -0.11061E-02  0.18613E-02 -0.12583E-01
 -0.18844E-02  0.17175E-02 -0.12583E-01
 -0.18710E-02  0.90988E-03 -0.12583E-01
 -0.15926E-03 -0.19801E-02 -0.12583E-01
 -0.94209E-03 -0.23490E-02 -0.12583E-01
  0.78724E-03 -0.17074E-02 -0.12583E-01
  0.17210E-02 -0.14899E-02 -0.12583E-01
  0.32056E-02  0.76237E-03 -0.12583E-01
  0.28046E-02  0.12485E-02 -0.12583E-01
  0.23057E-02  0.18666E-02 -0.12583E-01
 -0.40586E-03  0.29017E-02 -0.12583E-01
 -0.12092E-02  0.27198E-02 -0.12583E-01
 -0.19447E-02  0.24638E-02 -0.12583E-01
 -0.25028E-02  0.22359E-02 -0.12583E-01
 -0.26369E-02  0.16503E-02 -0.12583E-01
 -0.27665E-02  0.87545E-03 -0.12583E-01
 -0.21126E-02 -0.21374E-02 -0.12583E-01
 -0.16088E-02 -0.26932E-02 -0.12583E-01
 -0.11941E-02 -0.31291E-02 -0.12583E-01
 -0.58711E-03 -0.30382E-02 -0.12583E-01
  0.20830E-03 -0.28748E-02 -0.12583E-01
  0.10580E-02 -0.26428E-02 -0.12583E-01
  0.18414E-02 -0.23711E-02 -0.12583E-01
  0.24546E-02 -0.21456E-02 -0.12583E-01
  0.26023E-02 -0.15103E-02 -0.12583E-01
  0.37964E-02  0.93572E-03 -0.12583E-01
  0.39100E-02  0.00000E+00 -0.12583E-01
  0.34621E-02  0.18171E-02 -0.12583E-01
  0.29267E-02  0.25928E-02 -0.12583E-01
  0.22211E-02  0.32179E-02 -0.12583E-01
  0.13865E-02  0.36559E-02 -0.12583E-01
  0.47130E-03  0.38815E-02 -0.12583E-01
 -0.47130E-03  0.38815E-02 -0.12583E-01
 -0.13865E-02  0.36559E-02 -0.12583E-01
 -0.22211E-02  0.32179E-02 -0.12583E-01
 -0.29267E-02  0.25928E-02 -0.12583E-01
 -0.34621E-02  0.18171E-02 -0.12583E-01
 -0.37964E-02  0.93572E-03 -0.12583E-01
 -0.39100E-02  0.39516E-17 -0.12583E-01
 -0.37964E-02 -0.93572E-03 -0.12583E-01
 -0.34621E-02 -0.18171E-02 -0.12583E-01
 -0.29267E-02 -0.25928E-02 -0.12583E-01
 -0.22211E-02 -0.32179E-02 -0.12583E-01
 -0.13865E-02 -0.36559E-02 -0.12583E-01
 -0.47130E-03 -0.38815E-02 -0.12583E-01
  0.47130E-03 -0.38815E-02 -0.12583E-01
  0.13865E-02 -0.36559E-02 -0.12583E-01
  0.22211E-02 -0.32179E-02 -0.12583E-01
  0.29267E-02 -0.25928E-02 -0.12583E-01
  0.34621E-02 -0.18171E-02 -0.12583E-01
  0.37964E-02 -0.93572E-03 -0.12583E-01
  0.10374E-02  0.67459E-03 -0.11604E-01
  0.17446E-02  0.12328E-02 -0.11604E-01
  0.23173E-02  0.59308E-03 -0.11604E-01
  0.16692E-02 -0.33549E-03 -0.11604E-01
  0.30376E-02  0.14991E-03 -0.11604E-01
  0.27801E-02 -0.67495E-03 -0.11604E-01
  0.12847E-02  0.18417E-02 -0.11604E-01
  0.65065E-03  0.14606E-02 -0.11604E-01
  0.12678E-03  0.30278E-03 -0.11604E-01
 -0.12878E-03  0.11725E-02 -0.11604E-01
  0.94401E-03  0.22752E-02 -0.11604E-01
  0.11316E-02  0.28273E-02 -0.11604E-01
  0.17479E-02  0.24242E-02 -0.11604E-01
  0.40572E-03  0.21686E-02 -0.11604E-01
  0.39774E-03  0.29359E-02 -0.11604E-01
 -0.76409E-03 -0.10038E-02 -0.11604E-01
 -0.86637E-03  0.81397E-04 -0.11604E-01
  0.45985E-03 -0.70100E-03 -0.11604E-01
 -0.18309E-02 -0.71154E-03 -0.11604E-01
 -0.18437E-02  0.83120E-04 -0.11604E-01
 -0.27237E-02 -0.77814E-03 -0.11604E-01
 -0.28020E-02  0.41533E-04 -0.11604E-01
 -0.25369E-02 -0.15193E-02 -0.11604E-01
 -0.19300E-02 -0.13227E-02 -0.11604E-01
 -0.99320E-03  0.99254E-03 -0.11604E-01
 -0.14391E-02 -0.17324E-02 -0.11604E-01
 -0.31514E-03  0.20228E-02 -0.11604E-01
 -0.11057E-02  0.18611E-02 -0.11604E-01
 -0.18844E-02  0.17175E-02 -0.11604E-01
 -0.18709E-02  0.91012E-03 -0.11604E-01
 -0.15954E-03 -0.19801E-02 -0.11604E-01
 -0.94269E-03 -0.23490E-02 -0.11604E-01
  0.78658E-03 -0.17074E-02 -0.11604E-01
  0.17209E-02 -0.14901E-02 -0.11604E-01
  0.32060E-02  0.76338E-03 -0.11604E-01
  0.28046E-02  0.12490E-02 -0.11604E-01
  0.23056E-02  0.18666E-02 -0.11604E-01
 -0.40572E-03  0.29006E-02 -0.11604E-01
 -0.12092E-02  0.27193E-02 -0.11604E-01
 -0.19446E-02  0.24636E-02 -0.11604E-01
 -0.25028E-02  0.22359E-02 -0.11604E-01
 -0.26368E-02  0.16503E-02 -0.11604E-01
 -0.27662E-02  0.87571E-03 -0.11604E-01
 -0.21128E-02 -0.21374E-02 -0.11604E-01
 -0.16088E-02 -0.26932E-02 -0.11604E-01
 -0.11942E-02 -0.31291E-02 -0.11604E-01
 -0.58746E-03 -0.30382E-02 -0.11604E-01
  0.20790E-03 -0.28748E-02 -0.11604E-01
  0.10577E-02 -0.26431E-02 -0.11604E-01
  0.18414E-02 -0.23713E-02 -0.11604E-01
  0.24548E-02 -0.21461E-02 -0.11604E-01
  0.26024E-02 -0.15102E-02 -0.11604E-01
  0.37964E-02  0.93572E-03 -0.11604E-01
  0.39100E-02  0.00000E+00 -0.11604E-01
  0.34621E-02  0.18171E-02 -0.11604E-01
  0.29267E-02  0.25928E-02 -0.11604E-01
  0.22211E-02  0.32179E-02 -0.11604E-01
  0.13865E-02  0.36559E-02 -0.11604E-01
  0.47130E-03  0.38815E-02 -0.11604E-01
 -0.47130E-03  0.38815E-02 -0.11604E-01
 -0.13865E-02  0.36559E-02 -0.11604E-01
 -0.22211E-02  0.32179E-02 -0.11604E-01
 -0.29267E-02  0.25928E-02 -0.11604E-01
 -0.34621E-02  0.18171E-02 -0.11604E-01
 -0.37964E-02  0.93572E-03 -0.11604E-01
 -0.39100E-02 -0.47884E-18 -0.11604E-01
 -0.37964E-02 -0.93572E-03 -0.11604E-01
 -0.34621E-02 -0.18171E-02 -0.11604E-01
 -0.29267E-02 -0.25928E-02 -0.11604E-01
 -0.22211E-02 -0.32179E-02 -0.11604E-01
 -0.13865E-02 -0.36559E-02 -0.11604E-01
 -0.47130E-03 -0.38815E-02 -0.11604E-01
  0.47130E-03 -0.38815E-02 -0.11604E-01
  0.13865E-02 -0.36559E-02 -0.11604E-01
  0.22211E-02 -0.32179E-02 -0.11604E-01
  0.29267E-02 -0.25928E-02 -0.11604E-01
  0.34621E-02 -0.18171E-02 -0.11604E-01
  0.37964E-02 -0.93572E-03 -0.11604E-01
  0.10373E-02  0.67514E-03 -0.10625E-01
  0.17445E-02  0.12334E-02 -0.10625E-01
  0.23172E-02  0.59360E-03 -0.10625E-01
  0.16689E-02 -0.33474E-03 -0.10625E-01
  0.30376E-02  0.15027E-03 -0.10625E-01
  0.27805E-02 -0.67446E-03 -0.10625E-01
  0.12846E-02  0.18419E-02 -0.10625E-01
  0.65041E-03  0.14616E-02 -0.10625E-01
  0.12652E-03  0.30393E-03 -0.10625E-01
 -0.12896E-03  0.11742E-02 -0.10625E-01
  0.94367E-03  0.22753E-02 -0.10625E-01
  0.11313E-02  0.28269E-02 -0.10625E-01
  0.17475E-02  0.24244E-02 -0.10625E-01
  0.40566E-03  0.21686E-02 -0.10625E-01
  0.39772E-03  0.29356E-02 -0.10625E-01
 -0.76444E-03 -0.10039E-02 -0.10625E-01
 -0.86648E-03  0.82206E-04 -0.10625E-01
  0.45940E-03 -0.70028E-03 -0.10625E-01
 -0.18312E-02 -0.71140E-03 -0.10625E-01
 -0.18436E-02  0.83243E-04 -0.10625E-01
 -0.27237E-02 -0.77797E-03 -0.10625E-01
 -0.28017E-02  0.41806E-04 -0.10625E-01
 -0.25371E-02 -0.15193E-02 -0.10625E-01
 -0.19305E-02 -0.13226E-02 -0.10625E-01
 -0.99305E-03  0.99390E-03 -0.10625E-01
 -0.14394E-02 -0.17323E-02 -0.10625E-01
 -0.31494E-03  0.20231E-02 -0.10625E-01
 -0.11054E-02  0.18610E-02 -0.10625E-01
 -0.18843E-02  0.17175E-02 -0.10625E-01
 -0.18708E-02  0.91036E-03 -0.10625E-01
 -0.15981E-03 -0.19801E-02 -0.10625E-01
 -0.94328E-03 -0.23490E-02 -0.10625E-01
  0.78592E-03 -0.17074E-02 -0.10625E-01
  0.17209E-02 -0.14904E-02 -0.10625E-01
  0.32063E-02  0.76439E-03 -0.10625E-01
  0.28045E-02  0.12494E-02 -0.10625E-01
  0.23055E-02  0.18666E-02 -0.10625E-01
 -0.40558E-03  0.28995E-02 -0.10625E-01
 -0.12092E-02  0.27188E-02 -0.10625E-01
 -0.19446E-02  0.24633E-02 -0.10625E-01
 -0.25027E-02  0.22359E-02 -0.10625E-01
 -0.26367E-02  0.16503E-02 -0.10625E-01
 -0.27658E-02  0.87597E-03 -0.10625E-01
 -0.21129E-02 -0.21374E-02 -0.10625E-01
 -0.16089E-02 -0.26932E-02 -0.10625E-01
 -0.11943E-02 -0.31291E-02 -0.10625E-01
 -0.58781E-03 -0.30382E-02 -0.10625E-01
  0.20749E-03 -0.28748E-02 -0.10625E-01
  0.10574E-02 -0.26434E-02 -0.10625E-01
  0.18415E-02 -0.23715E-02 -0.10625E-01
  0.24549E-02 -0.21467E-02 -0.10625E-01
  0.26025E-02 -0.15101E-02 -0.10625E-01
  0.37964E-02  0.93572E-03 -0.10625E-01
  0.39100E-02  0.00000E+00 -0.10625E-01
  0.34621E-02  0.18171E-02 -0.10625E-01
  0.29267E-02  0.25928E-02 -0.10625E-01
  0.22211E-02  0.32179E-02 -0.10625E-01
  0.13865E-02  0.36559E-02 -0.10625E-01
  0.47130E-03  0.38815E-02 -0.10625E-01
 -0.47130E-03  0.38815E-02 -0.10625E-01
 -0.13865E-02  0.36559E-02 -0.10625E-01
 -0.22211E-02  0.32179E-02 -0.10625E-01
 -0.29267E-02  0.25928E-02 -0.10625E-01
 -0.34621E-02  0.18171E-02 -0.10625E-01
 -0.37964E-02  0.93572E-03 -0.10625E-01
 -0.39100E-02 -0.47884E-18 -0.10625E-01
 -0.37964E-02 -0.93572E-03 -0.10625E-01
 -0.34621E-02 -0.18171E-02 -0.10625E-01
 -0.29267E-02 -0.25928E-02 -0.10625E-01
 -0.22211E-02 -0.32179E-02 -0.10625E-01
 -0.13865E-02 -0.36559E-02 -0.10625E-01
 -0.47130E-03 -0.38815E-02 -0.10625E-01
  0.47130E-03 -0.38815E-02 -0.10625E-01
  0.13865E-02 -0.36559E-02 -0.10625E-01
  0.22211E-02 -0.32179E-02 -0.10625E-01
  0.29267E-02 -0.25928E-02 -0.10625E-01
  0.34621E-02 -0.18171E-02 -0.10625E-01
  0.37964E-02 -0.93572E-03 -0.10625E-01
  0.10372E-02  0.67570E-03 -0.96456E-02
  0.17443E-02  0.12341E-02 -0.96456E-02
  0.23171E-02  0.59412E-03 -0.96456E-02
  0.16687E-02 -0.33398E-03 -0.96456E-02
  0.30376E-02  0.15064E-03 -0.96456E-02
  0.27808E-02 -0.67396E-03 -0.96456E-02
  0.12845E-02  0.18421E-02 -0.96456E-02
  0.65016E-03  0.14626E-02 -0.96456E-02
  0.12626E-03  0.30507E-03 -0.96456E-02
 -0.12915E-03  0.11760E-02 -0.96456E-02
  0.94334E-03  0.22754E-02 -0.96456E-02
  0.11310E-02  0.28264E-02 -0.96456E-02
  0.17471E-02  0.24245E-02 -0.96456E-02
  0.40561E-03  0.21686E-02 -0.96456E-02
  0.39770E-03  0.29353E-02 -0.96456E-02
 -0.76480E-03 -0.10040E-02 -0.96456E-02
 -0.86659E-03  0.83015E-04 -0.96456E-02
  0.45895E-03 -0.69955E-03 -0.96456E-02
 -0.18315E-02 -0.71126E-03 -0.96456E-02
 -0.18435E-02  0.83367E-04 -0.96456E-02
 -0.27237E-02 -0.77780E-03 -0.96456E-02
 -0.28014E-02  0.42080E-04 -0.96456E-02
 -0.25372E-02 -0.15192E-02 -0.96456E-02
 -0.19309E-02 -0.13224E-02 -0.96456E-02
 -0.99291E-03  0.99526E-03 -0.96456E-02
 -0.14398E-02 -0.17323E-02 -0.96456E-02
 -0.31474E-03  0.20234E-02 -0.96456E-02
 -0.11051E-02  0.18609E-02 -0.96456E-02
 -0.18843E-02  0.17175E-02 -0.96456E-02
 -0.18706E-02  0.91060E-03 -0.96456E-02
 -0.16009E-03 -0.19801E-02 -0.96456E-02
 -0.94388E-03 -0.23490E-02 -0.96456E-02
  0.78526E-03 -0.17074E-02 -0.96456E-02
  0.17208E-02 -0.14906E-02 -0.96456E-02
  0.32066E-02  0.76539E-03 -0.96456E-02
  0.28045E-02  0.12498E-02 -0.96456E-02
  0.23053E-02  0.18667E-02 -0.96456E-02
 -0.40545E-03  0.28984E-02 -0.96456E-02
 -0.12092E-02  0.27184E-02 -0.96456E-02
 -0.19446E-02  0.24631E-02 -0.96456E-02
 -0.25027E-02  0.22359E-02 -0.96456E-02
 -0.26366E-02  0.16503E-02 -0.96456E-02
 -0.27655E-02  0.87623E-03 -0.96456E-02
 -0.21130E-02 -0.21374E-02 -0.96456E-02
 -0.16089E-02 -0.26932E-02 -0.96456E-02
 -0.11944E-02 -0.31291E-02 -0.96456E-02
 -0.58816E-03 -0.30382E-02 -0.96456E-02
  0.20709E-03 -0.28748E-02 -0.96456E-02
  0.10571E-02 -0.26436E-02 -0.96456E-02
  0.18415E-02 -0.23717E-02 -0.96456E-02
  0.24550E-02 -0.21472E-02 -0.96456E-02
  0.26025E-02 -0.15100E-02 -0.96456E-02
  0.37964E-02  0.93572E-03 -0.96456E-02
  0.39100E-02  0.00000E+00 -0.96456E-02
  0.34621E-02  0.18171E-02 -0.96456E-02
  0.29267E-02  0.25928E-02 -0.96456E-02
  0.22211E-02  0.32179E-02 -0.96456E-02
  0.13865E-02  0.36559E-02 -0.96456E-02
  0.47130E-03  0.38815E-02 -0.96456E-02
 -0.47130E-03  0.38815E-02 -0.96456E-02
 -0.13865E-02  0.36559E-02 -0.96456E-02
 -0.22211E-02  0.32179E-02 -0.96456E-02
 -0.29267E-02  0.25928E-02 -0.96456E-02
 -0.34621E-02  0.18171E-02 -0.96456E-02
 -0.37964E-02  0.93572E-03 -0.96456E-02
 -0.39100E-02 -0.47884E-18 -0.96456E-02
 -0.37964E-02 -0.93572E-03 -0.96456E-02
 -0.34621E-02 -0.18171E-02 -0.96456E-02
 -0.29267E-02 -0.25928E-02 -0.96456E-02
 -0.22211E-02 -0.32179E-02 -0.96456E-02
 -0.13865E-02 -0.36559E-02 -0.96456E-02
 -0.47130E-03 -0.38815E-02 -0.96456E-02
  0.47130E-03 -0.38815E-02 -0.96456E-02
  0.13865E-02 -0.36559E-02 -0.96456E-02
  0.22211E-02 -0.32179E-02 -0.96456E-02
  0.29267E-02 -0.25928E-02 -0.96456E-02
  0.34621E-02 -0.18171E-02 -0.96456E-02
  0.37964E-02 -0.93572E-03 -0.96456E-02
  0.10371E-02  0.67625E-03 -0.86664E-02
  0.17441E-02  0.12348E-02 -0.86664E-02
  0.23169E-02  0.59465E-03 -0.86664E-02
  0.16685E-02 -0.33323E-03 -0.86664E-02
  0.30376E-02  0.15100E-03 -0.86664E-02
  0.27812E-02 -0.67347E-03 -0.86664E-02
  0.12844E-02  0.18423E-02 -0.86664E-02
  0.64992E-03  0.14636E-02 -0.86664E-02
  0.12600E-03  0.30622E-03 -0.86664E-02
 -0.12933E-03  0.11777E-02 -0.86664E-02
  0.94301E-03  0.22755E-02 -0.86664E-02
  0.11306E-02  0.28260E-02 -0.86664E-02
  0.17467E-02  0.24247E-02 -0.86664E-02
  0.40556E-03  0.21687E-02 -0.86664E-02
  0.39769E-03  0.29351E-02 -0.86664E-02
 -0.76515E-03 -0.10042E-02 -0.86664E-02
 -0.86670E-03  0.83825E-04 -0.86664E-02
  0.45850E-03 -0.69882E-03 -0.86664E-02
 -0.18318E-02 -0.71112E-03 -0.86664E-02
 -0.18434E-02  0.83490E-04 -0.86664E-02
 -0.27236E-02 -0.77763E-03 -0.86664E-02
 -0.28011E-02  0.42353E-04 -0.86664E-02
 -0.25374E-02 -0.15192E-02 -0.86664E-02
 -0.19313E-02 -0.13223E-02 -0.86664E-02
 -0.99277E-03  0.99661E-03 -0.86664E-02
 -0.14401E-02 -0.17322E-02 -0.86664E-02
 -0.31454E-03  0.20237E-02 -0.86664E-02
 -0.11047E-02  0.18607E-02 -0.86664E-02
 -0.18842E-02  0.17175E-02 -0.86664E-02
 -0.18705E-02  0.91084E-03 -0.86664E-02
 -0.16036E-03 -0.19801E-02 -0.86664E-02
 -0.94448E-03 -0.23491E-02 -0.86664E-02
  0.78460E-03 -0.17074E-02 -0.86664E-02
  0.17208E-02 -0.14909E-02 -0.86664E-02
  0.32070E-02  0.76640E-03 -0.86664E-02
  0.28045E-02  0.12503E-02 -0.86664E-02
  0.23052E-02  0.18667E-02 -0.86664E-02
 -0.40531E-03  0.28974E-02 -0.86664E-02
 -0.12092E-02  0.27179E-02 -0.86664E-02
 -0.19445E-02  0.24629E-02 -0.86664E-02
 -0.25027E-02  0.22359E-02 -0.86664E-02
 -0.26366E-02  0.16503E-02 -0.86664E-02
 -0.27652E-02  0.87650E-03 -0.86664E-02
 -0.21132E-02 -0.21374E-02 -0.86664E-02
 -0.16090E-02 -0.26933E-02 -0.86664E-02
 -0.11946E-02 -0.31291E-02 -0.86664E-02
 -0.58851E-03 -0.30382E-02 -0.86664E-02
  0.20668E-03 -0.28749E-02 -0.86664E-02
  0.10567E-02 -0.26439E-02 -0.86664E-02
  0.18416E-02 -0.23719E-02 -0.86664E-02
  0.24551E-02 -0.21478E-02 -0.86664E-02
  0.26026E-02 -0.15099E-02 -0.86664E-02
  0.37964E-02  0.93572E-03 -0.86664E-02
  0.39100E-02  0.00000E+00 -0.86664E-02
  0.34621E-02  0.18171E-02 -0.86664E-02
  0.29267E-02  0.25928E-02 -0.86664E-02
  0.22211E-02  0.32179E-02 -0.86664E-02
  0.13865E-02  0.36559E-02 -0.86664E-02
  0.47130E-03  0.38815E-02 -0.86664E-02
 -0.47130E-03  0.38815E-02 -0.86664E-02
 -0.13865E-02  0.36559E-02 -0.86664E-02
 -0.22211E-02  0.32179E-02 -0.86664E-02
 -0.29267E-02  0.25928E-02 -0.86664E-02
 -0.34621E-02  0.18171E-02 -0.86664E-02
 -0.37964E-02  0.93572E-03 -0.86664E-02
 -0.39100E-02 -0.47884E-18 -0.86664E-02
 -0.37964E-02 -0.93572E-03 -0.86664E-02
 -0.34621E-02 -0.18171E-02 -0.86664E-02
 -0.29267E-02 -0.25928E-02 -0.86664E-02
 -0.22211E-02 -0.32179E-02 -0.86664E-02
 -0.13865E-02 -0.36559E-02 -0.86664E-02
 -0.47130E-03 -0.38815E-02 -0.86664E-02
  0.47130E-03 -0.38815E-02 -0.86664E-02
  0.13865E-02 -0.36559E-02 -0.86664E-02
  0.22211E-02 -0.32179E-02 -0.86664E-02
  0.29267E-02 -0.25928E-02 -0.86664E-02
  0.34621E-02 -0.18171E-02 -0.86664E-02
  0.37964E-02 -0.93572E-03 -0.86664E-02
  0.10370E-02  0.67680E-03 -0.76873E-02
  0.17439E-02  0.12354E-02 -0.76873E-02
  0.23168E-02  0.59517E-03 -0.76873E-02
  0.16683E-02 -0.33247E-03 -0.76873E-02
  0.30375E-02  0.15136E-03 -0.76873E-02
  0.27815E-02 -0.67298E-03 -0.76873E-02
  0.12843E-02  0.18425E-02 -0.76873E-02
  0.64967E-03  0.14646E-02 -0.76873E-02
  0.12573E-03  0.30737E-03 -0.76873E-02
 -0.12952E-03  0.11795E-02 -0.76873E-02
  0.94268E-03  0.22757E-02 -0.76873E-02
  0.11303E-02  0.28255E-02 -0.76873E-02
  0.17463E-02  0.24248E-02 -0.76873E-02
  0.40550E-03  0.21687E-02 -0.76873E-02
  0.39767E-03  0.29348E-02 -0.76873E-02
 -0.76551E-03 -0.10043E-02 -0.76873E-02
 -0.86680E-03  0.84634E-04 -0.76873E-02
  0.45806E-03 -0.69810E-03 -0.76873E-02
 -0.18321E-02 -0.71098E-03 -0.76873E-02
 -0.18433E-02  0.83614E-04 -0.76873E-02
 -0.27236E-02 -0.77746E-03 -0.76873E-02
 -0.28009E-02  0.42626E-04 -0.76873E-02
 -0.25375E-02 -0.15191E-02 -0.76873E-02
 -0.19317E-02 -0.13223E-02 -0.76873E-02
 -0.99262E-03  0.99797E-03 -0.76873E-02
 -0.14405E-02 -0.17322E-02 -0.76873E-02
 -0.31434E-03  0.20240E-02 -0.76873E-02
 -0.11044E-02  0.18606E-02 -0.76873E-02
 -0.18842E-02  0.17175E-02 -0.76873E-02
 -0.18704E-02  0.91108E-03 -0.76873E-02
 -0.16064E-03 -0.19802E-02 -0.76873E-02
 -0.94508E-03 -0.23491E-02 -0.76873E-02
  0.78394E-03 -0.17074E-02 -0.76873E-02
  0.17208E-02 -0.14911E-02 -0.76873E-02
  0.32073E-02  0.76740E-03 -0.76873E-02
  0.28045E-02  0.12507E-02 -0.76873E-02
  0.23051E-02  0.18668E-02 -0.76873E-02
 -0.40517E-03  0.28963E-02 -0.76873E-02
 -0.12092E-02  0.27174E-02 -0.76873E-02
 -0.19445E-02  0.24627E-02 -0.76873E-02
 -0.25026E-02  0.22358E-02 -0.76873E-02
 -0.26365E-02  0.16503E-02 -0.76873E-02
 -0.27649E-02  0.87676E-03 -0.76873E-02
 -0.21133E-02 -0.21374E-02 -0.76873E-02
 -0.16090E-02 -0.26933E-02 -0.76873E-02
 -0.11947E-02 -0.31291E-02 -0.76873E-02
 -0.58886E-03 -0.30382E-02 -0.76873E-02
  0.20627E-03 -0.28749E-02 -0.76873E-02
  0.10564E-02 -0.26442E-02 -0.76873E-02
  0.18416E-02 -0.23721E-02 -0.76873E-02
  0.24553E-02 -0.21483E-02 -0.76873E-02
  0.26027E-02 -0.15097E-02 -0.76873E-02
  0.37964E-02  0.93572E-03 -0.76873E-02
  0.39100E-02  0.00000E+00 -0.76873E-02
  0.34621E-02  0.18171E-02 -0.76873E-02
  0.29267E-02  0.25928E-02 -0.76873E-02
  0.22211E-02  0.32179E-02 -0.76873E-02
  0.13865E-02  0.36559E-02 -0.76873E-02
  0.47130E-03  0.38815E-02 -0.76873E-02
 -0.47130E-03  0.38815E-02 -0.76873E-02
 -0.13865E-02  0.36559E-02 -0.76873E-02
 -0.22211E-02  0.32179E-02 -0.76873E-02
 -0.29267E-02  0.25928E-02 -0.76873E-02
 -0.34621E-02  0.18171E-02 -0.76873E-02
 -0.37964E-02  0.93572E-03 -0.76873E-02
 -0.39100E-02 -0.47884E-18 -0.76873E-02
 -0.37964E-02 -0.93572E-03 -0.76873E-02
 -0.34621E-02 -0.18171E-02 -0.76873E-02
 -0.29267E-02 -0.25928E-02 -0.76873E-02
 -0.22211E-02 -0.32179E-02 -0.76873E-02
 -0.13865E-02 -0.36559E-02 -0.76873E-02
 -0.47130E-03 -0.38815E-02 -0.76873E-02
  0.47130E-03 -0.38815E-02 -0.76873E-02
  0.13865E-02 -0.36559E-02 -0.76873E-02
  0.22211E-02 -0.32179E-02 -0.76873E-02
  0.29267E-02 -0.25928E-02 -0.76873E-02
  0.34621E-02 -0.18171E-02 -0.76873E-02
  0.37964E-02 -0.93572E-03 -0.76873E-02
  0.10368E-02  0.67736E-03 -0.67081E-02
  0.17438E-02  0.12361E-02 -0.67081E-02
  0.23167E-02  0.59570E-03 -0.67081E-02
  0.16681E-02 -0.33172E-03 -0.67081E-02
  0.30375E-02  0.15173E-03 -0.67081E-02
  0.27819E-02 -0.67248E-03 -0.67081E-02
  0.12842E-02  0.18427E-02 -0.67081E-02
  0.64943E-03  0.14656E-02 -0.67081E-02
  0.12547E-03  0.30852E-03 -0.67081E-02
 -0.12970E-03  0.11812E-02 -0.67081E-02
  0.94235E-03  0.22758E-02 -0.67081E-02
  0.11300E-02  0.28251E-02 -0.67081E-02
  0.17459E-02  0.24249E-02 -0.67081E-02
  0.40545E-03  0.21688E-02 -0.67081E-02
  0.39766E-03  0.29345E-02 -0.67081E-02
 -0.76586E-03 -0.10044E-02 -0.67081E-02
 -0.86691E-03  0.85443E-04 -0.67081E-02
  0.45761E-03 -0.69737E-03 -0.67081E-02
 -0.18324E-02 -0.71084E-03 -0.67081E-02
 -0.18432E-02  0.83737E-04 -0.67081E-02
 -0.27236E-02 -0.77729E-03 -0.67081E-02
 -0.28006E-02  0.42899E-04 -0.67081E-02
 -0.25377E-02 -0.15191E-02 -0.67081E-02
 -0.19322E-02 -0.13222E-02 -0.67081E-02
 -0.99248E-03  0.99932E-03 -0.67081E-02
 -0.14408E-02 -0.17322E-02 -0.67081E-02
 -0.31414E-03  0.20243E-02 -0.67081E-02
 -0.11040E-02  0.18605E-02 -0.67081E-02
 -0.18841E-02  0.17175E-02 -0.67081E-02
 -0.18703E-02  0.91132E-03 -0.67081E-02
 -0.16091E-03 -0.19802E-02 -0.67081E-02
 -0.94568E-03 -0.23491E-02 -0.67081E-02
  0.78328E-03 -0.17074E-02 -0.67081E-02
  0.17207E-02 -0.14914E-02 -0.67081E-02
  0.32076E-02  0.76841E-03 -0.67081E-02
  0.28044E-02  0.12511E-02 -0.67081E-02
  0.23050E-02  0.18668E-02 -0.67081E-02
 -0.40503E-03  0.28952E-02 -0.67081E-02
 -0.12092E-02  0.27170E-02 -0.67081E-02
 -0.19445E-02  0.24624E-02 -0.67081E-02
 -0.25026E-02  0.22358E-02 -0.67081E-02
 -0.26364E-02  0.16503E-02 -0.67081E-02
 -0.27646E-02  0.87702E-03 -0.67081E-02
 -0.21134E-02 -0.21374E-02 -0.67081E-02
 -0.16091E-02 -0.26933E-02 -0.67081E-02
 -0.11948E-02 -0.31291E-02 -0.67081E-02
 -0.58921E-03 -0.30382E-02 -0.67081E-02
  0.20587E-03 -0.28749E-02 -0.67081E-02
  0.10561E-02 -0.26444E-02 -0.67081E-02
  0.18416E-02 -0.23723E-02 -0.67081E-02
  0.24554E-02 -0.21489E-02 -0.67081E-02
  0.26027E-02 -0.15096E-02 -0.67081E-02
  0.37964E-02  0.93572E-03 -0.67081E-02
  0.39100E-02  0.00000E+00 -0.67081E-02
  0.34621E-02  0.18171E-02 -0.67081E-02
  0.29267E-02  0.25928E-02 -0.67081E-02
  0.22211E-02  0.32179E-02 -0.67081E-02
  0.13865E-02  0.36559E-02 -0.67081E-02
  0.47130E-03  0.38815E-02 -0.67081E-02
 -0.47130E-03  0.38815E-02 -0.67081E-02
 -0.13865E-02  0.36559E-02 -0.67081E-02
 -0.22211E-02  0.32179E-02 -0.67081E-02
 -0.29267E-02  0.25928E-02 -0.67081E-02
 -0.34621E-02  0.18171E-02 -0.67081E-02
 -0.37964E-02  0.93572E-03 -0.67081E-02
 -0.39100E-02 -0.47884E-18 -0.67081E-02
 -0.37964E-02 -0.93572E-03 -0.67081E-02
 -0.34621E-02 -0.18171E-02 -0.67081E-02
 -0.29267E-02 -0.25928E-02 -0.67081E-02
 -0.22211E-02 -0.32179E-02 -0.67081E-02
 -0.13865E-02 -0.36559E-02 -0.67081E-02
 -0.47130E-03 -0.38815E-02 -0.67081E-02
  0.47130E-03 -0.38815E-02 -0.67081E-02
  0.13865E-02 -0.36559E-02 -0.67081E-02
  0.22211E-02 -0.32179E-02 -0.67081E-02
  0.29267E-02 -0.25928E-02 -0.67081E-02
  0.34621E-02 -0.18171E-02 -0.67081E-02
  0.37964E-02 -0.93572E-03 -0.67081E-02
  0.10367E-02  0.67791E-03 -0.57289E-02
  0.17436E-02  0.12368E-02 -0.57289E-02
  0.23166E-02  0.59622E-03 -0.57289E-02
  0.16679E-02 -0.33096E-03 -0.57289E-02
  0.30375E-02  0.15209E-03 -0.57289E-02
  0.27822E-02 -0.67199E-03 -0.57289E-02
  0.12841E-02  0.18429E-02 -0.57289E-02
  0.64918E-03  0.14666E-02 -0.57289E-02
  0.12521E-03  0.30967E-03 -0.57289E-02
 -0.12989E-03  0.11830E-02 -0.57289E-02
  0.94202E-03  0.22759E-02 -0.57289E-02
  0.11296E-02  0.28247E-02 -0.57289E-02
  0.17455E-02  0.24251E-02 -0.57289E-02
  0.40539E-03  0.21688E-02 -0.57289E-02
  0.39764E-03  0.29343E-02 -0.57289E-02
 -0.76621E-03 -0.10046E-02 -0.57289E-02
 -0.86702E-03  0.86253E-04 -0.57289E-02
  0.45716E-03 -0.69665E-03 -0.57289E-02
 -0.18326E-02 -0.71070E-03 -0.57289E-02
 -0.18431E-02  0.83861E-04 -0.57289E-02
 -0.27235E-02 -0.77712E-03 -0.57289E-02
 -0.28003E-02  0.43173E-04 -0.57289E-02
 -0.25379E-02 -0.15190E-02 -0.57289E-02
 -0.19326E-02 -0.13220E-02 -0.57289E-02
 -0.99233E-03  0.10007E-02 -0.57289E-02
 -0.14412E-02 -0.17321E-02 -0.57289E-02
 -0.31394E-03  0.20245E-02 -0.57289E-02
 -0.11037E-02  0.18603E-02 -0.57289E-02
 -0.18841E-02  0.17175E-02 -0.57289E-02
 -0.18701E-02  0.91156E-03 -0.57289E-02
 -0.16119E-03 -0.19802E-02 -0.57289E-02
 -0.94628E-03 -0.23491E-02 -0.57289E-02
  0.78262E-03 -0.17074E-02 -0.57289E-02
  0.17207E-02 -0.14916E-02 -0.57289E-02
  0.32079E-02  0.76941E-03 -0.57289E-02
  0.28044E-02  0.12515E-02 -0.57289E-02
  0.23049E-02  0.18668E-02 -0.57289E-02
 -0.40490E-03  0.28942E-02 -0.57289E-02
 -0.12093E-02  0.27165E-02 -0.57289E-02
 -0.19444E-02  0.24622E-02 -0.57289E-02
 -0.25026E-02  0.22358E-02 -0.57289E-02
 -0.26363E-02  0.16503E-02 -0.57289E-02
 -0.27643E-02  0.87728E-03 -0.57289E-02
 -0.21136E-02 -0.21374E-02 -0.57289E-02
 -0.16091E-02 -0.26933E-02 -0.57289E-02
 -0.11949E-02 -0.31291E-02 -0.57289E-02
 -0.58956E-03 -0.30382E-02 -0.57289E-02
  0.20546E-03 -0.28749E-02 -0.57289E-02
  0.10558E-02 -0.26447E-02 -0.57289E-02
  0.18417E-02 -0.23725E-02 -0.57289E-02
  0.24555E-02 -0.21494E-02 -0.57289E-02
  0.26028E-02 -0.15095E-02 -0.57289E-02
  0.37964E-02  0.93572E-03 -0.57289E-02
  0.39100E-02  0.00000E+00 -0.57289E-02
  0.34621E-02  0.18171E-02 -0.57289E-02
  0.29267E-02  0.25928E-02 -0.57289E-02
  0.22211E-02  0.32179E-02 -0.57289E-02
  0.13865E-02  0.36559E-02 -0.57289E-02
  0.47130E-03  0.38815E-02 -0.57289E-02
 -0.47130E-03  0.38815E-02 -0.57289E-02
 -0.13865E-02  0.36559E-02 -0.57289E-02
 -0.22211E-02  0.32179E-02 -0.57289E-02
 -0.29267E-02  0.25928E-02 -0.57289E-02
 -0.34621E-02  0.18171E-02 -0.57289E-02
 -0.37964E-02  0.93572E-03 -0.57289E-02
 -0.39100E-02 -0.47884E-18 -0.57289E-02
 -0.37964E-02 -0.93572E-03 -0.57289E-02
 -0.34621E-02 -0.18171E-02 -0.57289E-02
 -0.29267E-02 -0.25928E-02 -0.57289E-02
 -0.22211E-02 -0.32179E-02 -0.57289E-02
 -0.13865E-02 -0.36559E-02 -0.57289E-02
 -0.47130E-03 -0.38815E-02 -0.57289E-02
  0.47130E-03 -0.38815E-02 -0.57289E-02
  0.13865E-02 -0.36559E-02 -0.57289E-02
  0.22211E-02 -0.32179E-02 -0.57289E-02
  0.29267E-02 -0.25928E-02 -0.57289E-02
  0.34621E-02 -0.18171E-02 -0.57289E-02
  0.37964E-02 -0.93572E-03 -0.57289E-02
  0.10366E-02  0.67847E-03 -0.47498E-02
  0.17434E-02  0.12374E-02 -0.47498E-02
  0.23164E-02  0.59674E-03 -0.47498E-02
  0.16677E-02 -0.33021E-03 -0.47498E-02
  0.30375E-02  0.15245E-03 -0.47498E-02
  0.27825E-02 -0.67150E-03 -0.47498E-02
  0.12840E-02  0.18430E-02 -0.47498E-02
  0.64894E-03  0.14676E-02 -0.47498E-02
  0.12495E-03  0.31081E-03 -0.47498E-02
 -0.13007E-03  0.11847E-02 -0.47498E-02
  0.94169E-03  0.22761E-02 -0.47498E-02
  0.11293E-02  0.28242E-02 -0.47498E-02
  0.17451E-02  0.24252E-02 -0.47498E-02
  0.40534E-03  0.21688E-02 -0.47498E-02
  0.39762E-03  0.29340E-02 -0.47498E-02
 -0.76657E-03 -0.10047E-02 -0.47498E-02
 -0.86713E-03  0.87062E-04 -0.47498E-02
  0.45671E-03 -0.69592E-03 -0.47498E-02
 -0.18329E-02 -0.71056E-03 -0.47498E-02
 -0.18430E-02  0.83985E-04 -0.47498E-02
 -0.27235E-02 -0.77695E-03 -0.47498E-02
 -0.28001E-02  0.43446E-04 -0.47498E-02
 -0.25380E-02 -0.15190E-02 -0.47498E-02
 -0.19330E-02 -0.13219E-02 -0.47498E-02
 -0.99219E-03  0.10020E-02 -0.47498E-02
 -0.14415E-02 -0.17321E-02 -0.47498E-02
 -0.31374E-03  0.20248E-02 -0.47498E-02
 -0.11033E-02  0.18602E-02 -0.47498E-02
 -0.18840E-02  0.17175E-02 -0.47498E-02
 -0.18700E-02  0.91180E-03 -0.47498E-02
 -0.16146E-03 -0.19803E-02 -0.47498E-02
 -0.94687E-03 -0.23491E-02 -0.47498E-02
  0.78195E-03 -0.17073E-02 -0.47498E-02
  0.17207E-02 -0.14919E-02 -0.47498E-02
  0.32083E-02  0.77042E-03 -0.47498E-02
  0.28044E-02  0.12520E-02 -0.47498E-02
  0.23048E-02  0.18669E-02 -0.47498E-02
 -0.40476E-03  0.28931E-02 -0.47498E-02
 -0.12093E-02  0.27160E-02 -0.47498E-02
 -0.19444E-02  0.24620E-02 -0.47498E-02
 -0.25026E-02  0.22358E-02 -0.47498E-02
 -0.26362E-02  0.16503E-02 -0.47498E-02
 -0.27640E-02  0.87754E-03 -0.47498E-02
 -0.21137E-02 -0.21374E-02 -0.47498E-02
 -0.16091E-02 -0.26933E-02 -0.47498E-02
 -0.11950E-02 -0.31291E-02 -0.47498E-02
 -0.58991E-03 -0.30382E-02 -0.47498E-02
  0.20505E-03 -0.28749E-02 -0.47498E-02
  0.10555E-02 -0.26450E-02 -0.47498E-02
  0.18417E-02 -0.23727E-02 -0.47498E-02
  0.24556E-02 -0.21500E-02 -0.47498E-02
  0.26029E-02 -0.15094E-02 -0.47498E-02
  0.37964E-02  0.93572E-03 -0.47498E-02
  0.39100E-02  0.00000E+00 -0.47498E-02
  0.34621E-02  0.18171E-02 -0.47498E-02
  0.29267E-02  0.25928E-02 -0.47498E-02
  0.22211E-02  0.32179E-02 -0.47498E-02
  0.13865E-02  0.36559E-02 -0.47498E-02
  0.47130E-03  0.38815E-02 -0.47498E-02
 -0.47130E-03  0.38815E-02 -0.47498E-02
 -0.13865E-02  0.36559E-02 -0.47498E-02
 -0.22211E-02  0.32179E-02 -0.47498E-02
 -0.29267E-02  0.25928E-02 -0.47498E-02
 -0.34621E-02  0.18171E-02 -0.47498E-02
 -0.37964E-02  0.93572E-03 -0.47498E-02
 -0.39100E-02  0.39516E-17 -0.47498E-02
 -0.37964E-02 -0.93572E-03 -0.47498E-02
 -0.34621E-02 -0.18171E-02 -0.47498E-02
 -0.29267E-02 -0.25928E-02 -0.47498E-02
 -0.22211E-02 -0.32179E-02 -0.47498E-02
 -0.13865E-02 -0.36559E-02 -0.47498E-02
 -0.47130E-03 -0.38815E-02 -0.47498E-02
  0.47130E-03 -0.38815E-02 -0.47498E-02
  0.13865E-02 -0.36559E-02 -0.47498E-02
  0.22211E-02 -0.32179E-02 -0.47498E-02
  0.29267E-02 -0.25928E-02 -0.47498E-02
  0.34621E-02 -0.18171E-02 -0.47498E-02
  0.37964E-02 -0.93572E-03 -0.47498E-02
  0.10365E-02  0.67902E-03 -0.37706E-02
  0.17432E-02  0.12381E-02 -0.37706E-02
  0.23163E-02  0.59727E-03 -0.37706E-02
  0.16675E-02 -0.32945E-03 -0.37706E-02
  0.30374E-02  0.15282E-03 -0.37706E-02
  0.27829E-02 -0.67100E-03 -0.37706E-02
  0.12839E-02  0.18432E-02 -0.37706E-02
  0.64869E-03  0.14686E-02 -0.37706E-02
  0.12468E-03  0.31196E-03 -0.37706E-02
 -0.13026E-03  0.11865E-02 -0.37706E-02
  0.94135E-03  0.22762E-02 -0.37706E-02
  0.11289E-02  0.28238E-02 -0.37706E-02
  0.17447E-02  0.24254E-02 -0.37706E-02
  0.40528E-03  0.21688E-02 -0.37706E-02
  0.39760E-03  0.29337E-02 -0.37706E-02
 -0.76692E-03 -0.10049E-02 -0.37706E-02
 -0.86724E-03  0.87871E-04 -0.37706E-02
  0.45626E-03 -0.69519E-03 -0.37706E-02
 -0.18332E-02 -0.71042E-03 -0.37706E-02
 -0.18430E-02  0.84108E-04 -0.37706E-02
 -0.27235E-02 -0.77678E-03 -0.37706E-02
 -0.27998E-02  0.43720E-04 -0.37706E-02
 -0.25382E-02 -0.15189E-02 -0.37706E-02
 -0.19334E-02 -0.13219E-02 -0.37706E-02
 -0.99205E-03  0.10034E-02 -0.37706E-02
 -0.14419E-02 -0.17320E-02 -0.37706E-02
 -0.31354E-03  0.20251E-02 -0.37706E-02
 -0.11030E-02  0.18601E-02 -0.37706E-02
 -0.18840E-02  0.17175E-02 -0.37706E-02
 -0.18699E-02  0.91204E-03 -0.37706E-02
 -0.16174E-03 -0.19803E-02 -0.37706E-02
 -0.94747E-03 -0.23492E-02 -0.37706E-02
  0.78129E-03 -0.17073E-02 -0.37706E-02
  0.17206E-02 -0.14921E-02 -0.37706E-02
  0.32086E-02  0.77142E-03 -0.37706E-02
  0.28044E-02  0.12524E-02 -0.37706E-02
  0.23047E-02  0.18669E-02 -0.37706E-02
 -0.40462E-03  0.28920E-02 -0.37706E-02
 -0.12093E-02  0.27155E-02 -0.37706E-02
 -0.19444E-02  0.24618E-02 -0.37706E-02
 -0.25025E-02  0.22358E-02 -0.37706E-02
 -0.26361E-02  0.16503E-02 -0.37706E-02
 -0.27637E-02  0.87781E-03 -0.37706E-02
 -0.21139E-02 -0.21374E-02 -0.37706E-02
 -0.16092E-02 -0.26934E-02 -0.37706E-02
 -0.11951E-02 -0.31291E-02 -0.37706E-02
 -0.59025E-03 -0.30382E-02 -0.37706E-02
  0.20465E-03 -0.28749E-02 -0.37706E-02
  0.10552E-02 -0.26452E-02 -0.37706E-02
  0.18418E-02 -0.23729E-02 -0.37706E-02
  0.24558E-02 -0.21505E-02 -0.37706E-02
  0.26030E-02 -0.15093E-02 -0.37706E-02
  0.37964E-02  0.93572E-03 -0.37706E-02
  0.39100E-02  0.00000E+00 -0.37706E-02
  0.34621E-02  0.18171E-02 -0.37706E-02
  0.29267E-02  0.25928E-02 -0.37706E-02
  0.22211E-02  0.32179E-02 -0.37706E-02
  0.13865E-02  0.36559E-02 -0.37706E-02
  0.47130E-03  0.38815E-02 -0.37706E-02
 -0.47130E-03  0.38815E-02 -0.37706E-02
 -0.13865E-02  0.36559E-02 -0.37706E-02
 -0.22211E-02  0.32179E-02 -0.37706E-02
 -0.29267E-02  0.25928E-02 -0.37706E-02
 -0.34621E-02  0.18171E-02 -0.37706E-02
 -0.37964E-02  0.93572E-03 -0.37706E-02
 -0.39100E-02 -0.47884E-18 -0.37706E-02
 -0.37964E-02 -0.93572E-03 -0.37706E-02
 -0.34621E-02 -0.18171E-02 -0.37706E-02
 -0.29267E-02 -0.25928E-02 -0.37706E-02
 -0.22211E-02 -0.32179E-02 -0.37706E-02
 -0.13865E-02 -0.36559E-02 -0.37706E-02
 -0.47130E-03 -0.38815E-02 -0.37706E-02
  0.47130E-03 -0.38815E-02 -0.37706E-02
  0.13865E-02 -0.36559E-02 -0.37706E-02
  0.22211E-02 -0.32179E-02 -0.37706E-02
  0.29267E-02 -0.25928E-02 -0.37706E-02
  0.34621E-02 -0.18171E-02 -0.37706E-02
  0.37964E-02 -0.93572E-03 -0.37706E-02
  0.10364E-02  0.67958E-03 -0.27914E-02
  0.17430E-02  0.12387E-02 -0.27914E-02
  0.23162E-02  0.59779E-03 -0.27914E-02
  0.16672E-02 -0.32870E-03 -0.27914E-02
  0.30374E-02  0.15318E-03 -0.27914E-02
  0.27832E-02 -0.67051E-03 -0.27914E-02
  0.12838E-02  0.18434E-02 -0.27914E-02
  0.64845E-03  0.14696E-02 -0.27914E-02
  0.12442E-03  0.31311E-03 -0.27914E-02
 -0.13044E-03  0.11882E-02 -0.27914E-02
  0.94102E-03  0.22763E-02 -0.27914E-02
  0.11286E-02  0.28233E-02 -0.27914E-02
  0.17443E-02  0.24255E-02 -0.27914E-02
  0.40523E-03  0.21689E-02 -0.27914E-02
  0.39759E-03  0.29335E-02 -0.27914E-02
 -0.76727E-03 -0.10050E-02 -0.27914E-02
 -0.86735E-03  0.88681E-04 -0.27914E-02
  0.45582E-03 -0.69447E-03 -0.27914E-02
 -0.18335E-02 -0.71028E-03 -0.27914E-02
 -0.18429E-02  0.84232E-04 -0.27914E-02
 -0.27235E-02 -0.77661E-03 -0.27914E-02
 -0.27995E-02  0.43993E-04 -0.27914E-02
 -0.25383E-02 -0.15189E-02 -0.27914E-02
 -0.19339E-02 -0.13218E-02 -0.27914E-02
 -0.99190E-03  0.10048E-02 -0.27914E-02
 -0.14422E-02 -0.17320E-02 -0.27914E-02
 -0.31334E-03  0.20254E-02 -0.27914E-02
 -0.11026E-02  0.18599E-02 -0.27914E-02
 -0.18839E-02  0.17175E-02 -0.27914E-02
 -0.18697E-02  0.91228E-03 -0.27914E-02
 -0.16201E-03 -0.19803E-02 -0.27914E-02
 -0.94807E-03 -0.23492E-02 -0.27914E-02
  0.78063E-03 -0.17073E-02 -0.27914E-02
  0.17206E-02 -0.14923E-02 -0.27914E-02
  0.32089E-02  0.77243E-03 -0.27914E-02
  0.28043E-02  0.12528E-02 -0.27914E-02
  0.23046E-02  0.18670E-02 -0.27914E-02
 -0.40448E-03  0.28910E-02 -0.27914E-02
 -0.12093E-02  0.27151E-02 -0.27914E-02
 -0.19443E-02  0.24615E-02 -0.27914E-02
 -0.25025E-02  0.22358E-02 -0.27914E-02
 -0.26360E-02  0.16503E-02 -0.27914E-02
 -0.27633E-02  0.87807E-03 -0.27914E-02
 -0.21140E-02 -0.21374E-02 -0.27914E-02
 -0.16092E-02 -0.26934E-02 -0.27914E-02
 -0.11953E-02 -0.31291E-02 -0.27914E-02
 -0.59060E-03 -0.30382E-02 -0.27914E-02
  0.20424E-03 -0.28749E-02 -0.27914E-02
  0.10549E-02 -0.26455E-02 -0.27914E-02
  0.18418E-02 -0.23732E-02 -0.27914E-02
  0.24559E-02 -0.21511E-02 -0.27914E-02
  0.26030E-02 -0.15092E-02 -0.27914E-02
  0.37964E-02  0.93572E-03 -0.27914E-02
  0.39100E-02  0.00000E+00 -0.27914E-02
  0.34621E-02  0.18171E-02 -0.27914E-02
  0.29267E-02  0.25928E-02 -0.27914E-02
  0.22211E-02  0.32179E-02 -0.27914E-02
  0.13865E-02  0.36559E-02 -0.27914E-02
  0.47130E-03  0.38815E-02 -0.27914E-02
 -0.47130E-03  0.38815E-02 -0.27914E-02
 -0.13865E-02  0.36559E-02 -0.27914E-02
 -0.22211E-02  0.32179E-02 -0.27914E-02
 -0.29267E-02  0.25928E-02 -0.27914E-02
 -0.34621E-02  0.18171E-02 -0.27914E-02
 -0.37964E-02  0.93572E-03 -0.27914E-02
 -0.39100E-02  0.22152E-17 -0.27914E-02
 -0.37964E-02 -0.93572E-03 -0.27914E-02
 -0.34621E-02 -0.18171E-02 -0.27914E-02
 -0.29267E-02 -0.25928E-02 -0.27914E-02
 -0.22211E-02 -0.32179E-02 -0.27914E-02
 -0.13865E-02 -0.36559E-02 -0.27914E-02
 -0.47130E-03 -0.38815E-02 -0.27914E-02
  0.47130E-03 -0.38815E-02 -0.27914E-02
  0.13865E-02 -0.36559E-02 -0.27914E-02
  0.22211E-02 -0.32179E-02 -0.27914E-02
  0.29267E-02 -0.25928E-02 -0.27914E-02
  0.34621E-02 -0.18171E-02 -0.27914E-02
  0.37964E-02 -0.93572E-03 -0.27914E-02
  0.10363E-02  0.68013E-03 -0.18123E-02
  0.17429E-02  0.12394E-02 -0.18123E-02
  0.23161E-02  0.59831E-03 -0.18123E-02
  0.16670E-02 -0.32794E-03 -0.18123E-02
  0.30374E-02  0.15354E-03 -0.18123E-02
  0.27836E-02 -0.67002E-03 -0.18123E-02
  0.12837E-02  0.18436E-02 -0.18123E-02
  0.64820E-03  0.14706E-02 -0.18123E-02
  0.12416E-03  0.31426E-03 -0.18123E-02
 -0.13063E-03  0.11900E-02 -0.18123E-02
  0.94069E-03  0.22765E-02 -0.18123E-02
  0.11282E-02  0.28229E-02 -0.18123E-02
  0.17439E-02  0.24257E-02 -0.18123E-02
  0.40518E-03  0.21689E-02 -0.18123E-02
  0.39757E-03  0.29332E-02 -0.18123E-02
 -0.76763E-03 -0.10051E-02 -0.18123E-02
 -0.86746E-03  0.89490E-04 -0.18123E-02
  0.45537E-03 -0.69374E-03 -0.18123E-02
 -0.18338E-02 -0.71013E-03 -0.18123E-02
 -0.18428E-02  0.84355E-04 -0.18123E-02
 -0.27234E-02 -0.77644E-03 -0.18123E-02
 -0.27992E-02  0.44266E-04 -0.18123E-02
 -0.25385E-02 -0.15188E-02 -0.18123E-02
 -0.19343E-02 -0.13216E-02 -0.18123E-02
 -0.99176E-03  0.10061E-02 -0.18123E-02
 -0.14425E-02 -0.17320E-02 -0.18123E-02
 -0.31314E-03  0.20257E-02 -0.18123E-02
 -0.11023E-02  0.18598E-02 -0.18123E-02
 -0.18839E-02  0.17175E-02 -0.18123E-02
 -0.18696E-02  0.91252E-03 -0.18123E-02
 -0.16229E-03 -0.19803E-02 -0.18123E-02
 -0.94867E-03 -0.23492E-02 -0.18123E-02
  0.77997E-03 -0.17073E-02 -0.18123E-02
  0.17205E-02 -0.14926E-02 -0.18123E-02
  0.32092E-02  0.77343E-03 -0.18123E-02
  0.28043E-02  0.12533E-02 -0.18123E-02
  0.23044E-02  0.18670E-02 -0.18123E-02
 -0.40434E-03  0.28899E-02 -0.18123E-02
 -0.12093E-02  0.27146E-02 -0.18123E-02
 -0.19443E-02  0.24613E-02 -0.18123E-02
 -0.25025E-02  0.22358E-02 -0.18123E-02
 -0.26359E-02  0.16503E-02 -0.18123E-02
 -0.27630E-02  0.87833E-03 -0.18123E-02
 -0.21141E-02 -0.21374E-02 -0.18123E-02
 -0.16093E-02 -0.26934E-02 -0.18123E-02
 -0.11954E-02 -0.31291E-02 -0.18123E-02
 -0.59095E-03 -0.30382E-02 -0.18123E-02
  0.20384E-03 -0.28750E-02 -0.18123E-02
  0.10546E-02 -0.26458E-02 -0.18123E-02
  0.18419E-02 -0.23734E-02 -0.18123E-02
  0.24560E-02 -0.21516E-02 -0.18123E-02
  0.26031E-02 -0.15091E-02 -0.18123E-02
  0.37964E-02  0.93572E-03 -0.18123E-02
  0.39100E-02  0.00000E+00 -0.18123E-02
  0.34621E-02  0.18171E-02 -0.18123E-02
  0.29267E-02  0.25928E-02 -0.18123E-02
  0.22211E-02  0.32179E-02 -0.18123E-02
  0.13865E-02  0.36559E-02 -0.18123E-02
  0.47130E-03  0.38815E-02 -0.18123E-02
 -0.47130E-03  0.38815E-02 -0.18123E-02
 -0.13865E-02  0.36559E-02 -0.18123E-02
 -0.22211E-02  0.32179E-02 -0.18123E-02
 -0.29267E-02  0.25928E-02 -0.18123E-02
 -0.34621E-02  0.18171E-02 -0.18123E-02
 -0.37964E-02  0.93572E-03 -0.18123E-02
 -0.39100E-02 -0.47884E-18 -0.18123E-02
 -0.37964E-02 -0.93572E-03 -0.18123E-02
 -0.34621E-02 -0.18171E-02 -0.18123E-02
 -0.29267E-02 -0.25928E-02 -0.18123E-02
 -0.22211E-02 -0.32179E-02 -0.18123E-02
 -0.13865E-02 -0.36559E-02 -0.18123E-02
 -0.47130E-03 -0.38815E-02 -0.18123E-02
  0.47130E-03 -0.38815E-02 -0.18123E-02
  0.13865E-02 -0.36559E-02 -0.18123E-02
  0.22211E-02 -0.32179E-02 -0.18123E-02
  0.29267E-02 -0.25928E-02 -0.18123E-02
  0.34621E-02 -0.18171E-02 -0.18123E-02
  0.37964E-02 -0.93572E-03 -0.18123E-02
  0.10362E-02  0.68068E-03 -0.83309E-03
  0.17427E-02  0.12401E-02 -0.83309E-03
  0.23160E-02  0.59884E-03 -0.83309E-03
  0.16668E-02 -0.32719E-03 -0.83309E-03
  0.30373E-02  0.15391E-03 -0.83309E-03
  0.27839E-02 -0.66953E-03 -0.83309E-03
  0.12836E-02  0.18438E-02 -0.83309E-03
  0.64796E-03  0.14716E-02 -0.83309E-03
  0.12390E-03  0.31541E-03 -0.83309E-03
 -0.13082E-03  0.11917E-02 -0.83309E-03
  0.94036E-03  0.22766E-02 -0.83309E-03
  0.11279E-02  0.28225E-02 -0.83309E-03
  0.17435E-02  0.24258E-02 -0.83309E-03
  0.40512E-03  0.21690E-02 -0.83309E-03
  0.39755E-03  0.29330E-02 -0.83309E-03
 -0.76798E-03 -0.10053E-02 -0.83309E-03
 -0.86756E-03  0.90299E-04 -0.83309E-03
  0.45492E-03 -0.69302E-03 -0.83309E-03
 -0.18341E-02 -0.70999E-03 -0.83309E-03
 -0.18427E-02  0.84479E-04 -0.83309E-03
 -0.27234E-02 -0.77627E-03 -0.83309E-03
 -0.27990E-02  0.44540E-04 -0.83309E-03
 -0.25386E-02 -0.15188E-02 -0.83309E-03
 -0.19347E-02 -0.13215E-02 -0.83309E-03
 -0.99161E-03  0.10075E-02 -0.83309E-03
 -0.14429E-02 -0.17319E-02 -0.83309E-03
 -0.31294E-03  0.20260E-02 -0.83309E-03
 -0.11019E-02  0.18597E-02 -0.83309E-03
 -0.18838E-02  0.17175E-02 -0.83309E-03
 -0.18695E-02  0.91276E-03 -0.83309E-03
 -0.16256E-03 -0.19804E-02 -0.83309E-03
 -0.94927E-03 -0.23493E-02 -0.83309E-03
  0.77931E-03 -0.17073E-02 -0.83309E-03
  0.17205E-02 -0.14928E-02 -0.83309E-03
  0.32096E-02  0.77444E-03 -0.83309E-03
  0.28043E-02  0.12537E-02 -0.83309E-03
  0.23043E-02  0.18670E-02 -0.83309E-03
 -0.40420E-03  0.28888E-02 -0.83309E-03
 -0.12093E-02  0.27141E-02 -0.83309E-03
 -0.19443E-02  0.24611E-02 -0.83309E-03
 -0.25024E-02  0.22358E-02 -0.83309E-03
 -0.26358E-02  0.16503E-02 -0.83309E-03
 -0.27627E-02  0.87859E-03 -0.83309E-03
 -0.21143E-02 -0.21374E-02 -0.83309E-03
 -0.16093E-02 -0.26934E-02 -0.83309E-03
 -0.11955E-02 -0.31291E-02 -0.83309E-03
 -0.59130E-03 -0.30382E-02 -0.83309E-03
  0.20343E-03 -0.28750E-02 -0.83309E-03
  0.10543E-02 -0.26460E-02 -0.83309E-03
  0.18419E-02 -0.23736E-02 -0.83309E-03
  0.24561E-02 -0.21521E-02 -0.83309E-03
  0.26032E-02 -0.15090E-02 -0.83309E-03
  0.37964E-02  0.93572E-03 -0.83309E-03
  0.39100E-02  0.00000E+00 -0.83309E-03
  0.34621E-02  0.18171E-02 -0.83309E-03
  0.29267E-02  0.25928E-02 -0.83309E-03
  0.22211E-02  0.32179E-02 -0.83309E-03
  0.13865E-02  0.36559E-02 -0.83309E-03
  0.47130E-03  0.38815E-02 -0.83309E-03
 -0.47130E-03  0.38815E-02 -0.83309E-03
 -0.13865E-02  0.36559E-02 -0.83309E-03
 -0.22211E-02  0.32179E-02 -0.83309E-03
 -0.29267E-02  0.25928E-02 -0.83309E-03
 -0.34621E-02  0.18171E-02 -0.83309E-03
 -0.37964E-02  0.93572E-03 -0.83309E-03
 -0.39100E-02  0.22152E-17 -0.83309E-03
 -0.37964E-02 -0.93572E-03 -0.83309E-03
 -0.34621E-02 -0.18171E-02 -0.83309E-03
 -0.29267E-02 -0.25928E-02 -0.83309E-03
 -0.22211E-02 -0.32179E-02 -0.83309E-03
 -0.13865E-02 -0.36559E-02 -0.83309E-03
 -0.47130E-03 -0.38815E-02 -0.83309E-03
  0.47130E-03 -0.38815E-02 -0.83309E-03
  0.13865E-02 -0.36559E-02 -0.83309E-03
  0.22211E-02 -0.32179E-02 -0.83309E-03
  0.29267E-02 -0.25928E-02 -0.83309E-03
  0.34621E-02 -0.18171E-02 -0.83309E-03
  0.37964E-02 -0.93572E-03 -0.83309E-03
  0.10360E-02  0.68124E-03  0.14608E-03
  0.17425E-02  0.12407E-02  0.14608E-03
  0.23158E-02  0.59936E-03  0.14608E-03
  0.16666E-02 -0.32643E-03  0.14608E-03
  0.30373E-02  0.15427E-03  0.14608E-03
  0.27842E-02 -0.66903E-03  0.14608E-03
  0.12835E-02  0.18440E-02  0.14608E-03
  0.64771E-03  0.14727E-02  0.14608E-03
  0.12363E-03  0.31656E-03  0.14608E-03
 -0.13100E-03  0.11935E-02  0.14608E-03
  0.94003E-03  0.22767E-02  0.14608E-03
  0.11276E-02  0.28220E-02  0.14608E-03
  0.17432E-02  0.24260E-02  0.14608E-03
  0.40507E-03  0.21690E-02  0.14608E-03
  0.39754E-03  0.29327E-02  0.14608E-03
 -0.76834E-03 -0.10054E-02  0.14608E-03
 -0.86767E-03  0.91108E-04  0.14608E-03
  0.45447E-03 -0.69229E-03  0.14608E-03
 -0.18344E-02 -0.70985E-03  0.14608E-03
 -0.18426E-02  0.84602E-04  0.14608E-03
 -0.27234E-02 -0.77610E-03  0.14608E-03
 -0.27987E-02  0.44813E-04  0.14608E-03
 -0.25388E-02 -0.15187E-02  0.14608E-03
 -0.19352E-02 -0.13215E-02  0.14608E-03
 -0.99147E-03  0.10088E-02  0.14608E-03
 -0.14433E-02 -0.17319E-02  0.14608E-03
 -0.31274E-03  0.20262E-02  0.14608E-03
 -0.11016E-02  0.18595E-02  0.14608E-03
 -0.18838E-02  0.17175E-02  0.14608E-03
 -0.18694E-02  0.91300E-03  0.14608E-03
 -0.16284E-03 -0.19804E-02  0.14608E-03
 -0.94986E-03 -0.23493E-02  0.14608E-03
  0.77865E-03 -0.17073E-02  0.14608E-03
  0.17205E-02 -0.14931E-02  0.14608E-03
  0.32099E-02  0.77544E-03  0.14608E-03
  0.28042E-02  0.12541E-02  0.14608E-03
  0.23042E-02  0.18671E-02  0.14608E-03
 -0.40407E-03  0.28877E-02  0.14608E-03
 -0.12093E-02  0.27137E-02  0.14608E-03
 -0.19442E-02  0.24609E-02  0.14608E-03
 -0.25024E-02  0.22358E-02  0.14608E-03
 -0.26358E-02  0.16503E-02  0.14608E-03
 -0.27624E-02  0.87885E-03  0.14608E-03
 -0.21144E-02 -0.21374E-02  0.14608E-03
 -0.16094E-02 -0.26934E-02  0.14608E-03
 -0.11956E-02 -0.31291E-02  0.14608E-03
 -0.59165E-03 -0.30382E-02  0.14608E-03
  0.20302E-03 -0.28750E-02  0.14608E-03
  0.10540E-02 -0.26463E-02  0.14608E-03
  0.18419E-02 -0.23738E-02  0.14608E-03
  0.24563E-02 -0.21527E-02  0.14608E-03
  0.26033E-02 -0.15088E-02  0.14608E-03
  0.37964E-02  0.93572E-03  0.14608E-03
  0.39100E-02  0.00000E+00  0.14608E-03
  0.34621E-02  0.18171E-02  0.14608E-03
  0.29267E-02  0.25928E-02  0.14608E-03
  0.22211E-02  0.32179E-02  0.14608E-03
  0.13865E-02  0.36559E-02  0.14608E-03
  0.47130E-03  0.38815E-02  0.14608E-03
 -0.47130E-03  0.38815E-02  0.14608E-03
 -0.13865E-02  0.36559E-02  0.14608E-03
 -0.22211E-02  0.32179E-02  0.14608E-03
 -0.29267E-02  0.25928E-02  0.14608E-03
 -0.34621E-02  0.18171E-02  0.14608E-03
 -0.37964E-02  0.93572E-03  0.14608E-03
 -0.39100E-02 -0.47884E-18  0.14608E-03
 -0.37964E-02 -0.93572E-03  0.14608E-03
 -0.34621E-02 -0.18171E-02  0.14608E-03
 -0.29267E-02 -0.25928E-02  0.14608E-03
 -0.22211E-02 -0.32179E-02  0.14608E-03
 -0.13865E-02 -0.36559E-02  0.14608E-03
 -0.47130E-03 -0.38815E-02  0.14608E-03
  0.47130E-03 -0.38815E-02  0.14608E-03
  0.13865E-02 -0.36559E-02  0.14608E-03
  0.22211E-02 -0.32179E-02  0.14608E-03
  0.29267E-02 -0.25928E-02  0.14608E-03
  0.34621E-02 -0.18171E-02  0.14608E-03
  0.37964E-02 -0.93572E-03  0.14608E-03
  0.10359E-02  0.68179E-03  0.11252E-02
  0.17423E-02  0.12414E-02  0.11252E-02
  0.23157E-02  0.59988E-03  0.11252E-02
  0.16664E-02 -0.32568E-03  0.11252E-02
  0.30373E-02  0.15463E-03  0.11252E-02
  0.27846E-02 -0.66854E-03  0.11252E-02
  0.12834E-02  0.18442E-02  0.11252E-02
  0.64747E-03  0.14736E-02  0.11252E-02
  0.12337E-03  0.31770E-03  0.11252E-02
 -0.13118E-03  0.11952E-02  0.11252E-02
  0.93970E-03  0.22768E-02  0.11252E-02
  0.11272E-02  0.28216E-02  0.11252E-02
  0.17428E-02  0.24261E-02  0.11252E-02
  0.40501E-03  0.21690E-02  0.11252E-02
  0.39752E-03  0.29324E-02  0.11252E-02
 -0.76869E-03 -0.10056E-02  0.11252E-02
 -0.86778E-03  0.91918E-04  0.11252E-02
  0.45402E-03 -0.69156E-03  0.11252E-02
 -0.18347E-02 -0.70971E-03  0.11252E-02
 -0.18425E-02  0.84726E-04  0.11252E-02
 -0.27234E-02 -0.77593E-03  0.11252E-02
 -0.27984E-02  0.45086E-04  0.11252E-02
 -0.25389E-02 -0.15187E-02  0.11252E-02
 -0.19356E-02 -0.13213E-02  0.11252E-02
 -0.99133E-03  0.10102E-02  0.11252E-02
 -0.14436E-02 -0.17318E-02  0.11252E-02
 -0.31254E-03  0.20265E-02  0.11252E-02
 -0.11013E-02  0.18594E-02  0.11252E-02
 -0.18837E-02  0.17175E-02  0.11252E-02
 -0.18692E-02  0.91324E-03  0.11252E-02
 -0.16311E-03 -0.19804E-02  0.11252E-02
 -0.95046E-03 -0.23493E-02  0.11252E-02
  0.77799E-03 -0.17073E-02  0.11252E-02
  0.17204E-02 -0.14933E-02  0.11252E-02
  0.32102E-02  0.77645E-03  0.11252E-02
  0.28042E-02  0.12545E-02  0.11252E-02
  0.23041E-02  0.18671E-02  0.11252E-02
 -0.40393E-03  0.28867E-02  0.11252E-02
 -0.12093E-02  0.27132E-02  0.11252E-02
 -0.19442E-02  0.24606E-02  0.11252E-02
 -0.25024E-02  0.22358E-02  0.11252E-02
 -0.26357E-02  0.16503E-02  0.11252E-02
 -0.27621E-02  0.87912E-03  0.11252E-02
 -0.21146E-02 -0.21374E-02  0.11252E-02
 -0.16094E-02 -0.26935E-02  0.11252E-02
 -0.11957E-02 -0.31291E-02  0.11252E-02
 -0.59200E-03 -0.30381E-02  0.11252E-02
  0.20262E-03 -0.28750E-02  0.11252E-02
  0.10536E-02 -0.26466E-02  0.11252E-02
  0.18420E-02 -0.23740E-02  0.11252E-02
  0.24564E-02 -0.21533E-02  0.11252E-02
  0.26033E-02 -0.15087E-02  0.11252E-02
  0.37964E-02  0.93572E-03  0.11252E-02
  0.39100E-02  0.00000E+00  0.11252E-02
  0.34621E-02  0.18171E-02  0.11252E-02
  0.29267E-02  0.25928E-02  0.11252E-02
  0.22211E-02  0.32179E-02  0.11252E-02
  0.13865E-02  0.36559E-02  0.11252E-02
  0.47130E-03  0.38815E-02  0.11252E-02
 -0.47130E-03  0.38815E-02  0.11252E-02
 -0.13865E-02  0.36559E-02  0.11252E-02
 -0.22211E-02  0.32179E-02  0.11252E-02
 -0.29267E-02  0.25928E-02  0.11252E-02
 -0.34621E-02  0.18171E-02  0.11252E-02
 -0.37964E-02  0.93572E-03  0.11252E-02
 -0.39100E-02 -0.47884E-18  0.11252E-02
 -0.37964E-02 -0.93572E-03  0.11252E-02
 -0.34621E-02 -0.18171E-02  0.11252E-02
 -0.29267E-02 -0.25928E-02  0.11252E-02
 -0.22211E-02 -0.32179E-02  0.11252E-02
 -0.13865E-02 -0.36559E-02  0.11252E-02
 -0.47130E-03 -0.38815E-02  0.11252E-02
  0.47130E-03 -0.38815E-02  0.11252E-02
  0.13865E-02 -0.36559E-02  0.11252E-02
  0.22211E-02 -0.32179E-02  0.11252E-02
  0.29267E-02 -0.25928E-02  0.11252E-02
  0.34621E-02 -0.18171E-02  0.11252E-02
  0.37964E-02 -0.93572E-03  0.11252E-02
  0.10358E-02  0.68235E-03  0.21044E-02
  0.17422E-02  0.12421E-02  0.21044E-02
  0.23156E-02  0.60041E-03  0.21044E-02
  0.16662E-02 -0.32493E-03  0.21044E-02
  0.30373E-02  0.15500E-03  0.21044E-02
  0.27849E-02 -0.66805E-03  0.21044E-02
  0.12833E-02  0.18444E-02  0.21044E-02
  0.64722E-03  0.14747E-02  0.21044E-02
  0.12311E-03  0.31885E-03  0.21044E-02
 -0.13137E-03  0.11970E-02  0.21044E-02
  0.93937E-03  0.22770E-02  0.21044E-02
  0.11269E-02  0.28211E-02  0.21044E-02
  0.17424E-02  0.24262E-02  0.21044E-02
  0.40496E-03  0.21691E-02  0.21044E-02
  0.39750E-03  0.29322E-02  0.21044E-02
 -0.76904E-03 -0.10057E-02  0.21044E-02
 -0.86789E-03  0.92727E-04  0.21044E-02
  0.45358E-03 -0.69084E-03  0.21044E-02
 -0.18350E-02 -0.70957E-03  0.21044E-02
 -0.18424E-02  0.84849E-04  0.21044E-02
 -0.27233E-02 -0.77576E-03  0.21044E-02
 -0.27981E-02  0.45359E-04  0.21044E-02
 -0.25391E-02 -0.15186E-02  0.21044E-02
 -0.19360E-02 -0.13212E-02  0.21044E-02
 -0.99118E-03  0.10115E-02  0.21044E-02
 -0.14440E-02 -0.17318E-02  0.21044E-02
 -0.31234E-03  0.20268E-02  0.21044E-02
 -0.11009E-02  0.18593E-02  0.21044E-02
 -0.18836E-02  0.17175E-02  0.21044E-02
 -0.18691E-02  0.91347E-03  0.21044E-02
 -0.16339E-03 -0.19804E-02  0.21044E-02
 -0.95106E-03 -0.23493E-02  0.21044E-02
  0.77733E-03 -0.17073E-02  0.21044E-02
  0.17204E-02 -0.14936E-02  0.21044E-02
  0.32105E-02  0.77745E-03  0.21044E-02
  0.28042E-02  0.12550E-02  0.21044E-02
  0.23040E-02  0.18671E-02  0.21044E-02
 -0.40379E-03  0.28856E-02  0.21044E-02
 -0.12093E-02  0.27127E-02  0.21044E-02
 -0.19441E-02  0.24604E-02  0.21044E-02
 -0.25023E-02  0.22358E-02  0.21044E-02
 -0.26356E-02  0.16503E-02  0.21044E-02
 -0.27618E-02  0.87938E-03  0.21044E-02
 -0.21147E-02 -0.21374E-02  0.21044E-02
 -0.16094E-02 -0.26935E-02  0.21044E-02
 -0.11958E-02 -0.31291E-02  0.21044E-02
 -0.59235E-03 -0.30381E-02  0.21044E-02
  0.20221E-03 -0.28750E-02  0.21044E-02
  0.10533E-02 -0.26468E-02  0.21044E-02
  0.18420E-02 -0.23742E-02  0.21044E-02
  0.24565E-02 -0.21538E-02  0.21044E-02
  0.26034E-02 -0.15086E-02  0.21044E-02
  0.37964E-02  0.93572E-03  0.21044E-02
  0.39100E-02  0.00000E+00  0.21044E-02
  0.34621E-02  0.18171E-02  0.21044E-02
  0.29267E-02  0.25928E-02  0.21044E-02
  0.22211E-02  0.32179E-02  0.21044E-02
  0.13865E-02  0.36559E-02  0.21044E-02
  0.47130E-03  0.38815E-02  0.21044E-02
 -0.47130E-03  0.38815E-02  0.21044E-02
 -0.13865E-02  0.36559E-02  0.21044E-02
 -0.22211E-02  0.32179E-02  0.21044E-02
 -0.29267E-02  0.25928E-02  0.21044E-02
 -0.34621E-02  0.18171E-02  0.21044E-02
 -0.37964E-02  0.93572E-03  0.21044E-02
 -0.39100E-02 -0.47884E-18  0.21044E-02
 -0.37964E-02 -0.93572E-03  0.21044E-02
 -0.34621E-02 -0.18171E-02  0.21044E-02
 -0.29267E-02 -0.25928E-02  0.21044E-02
 -0.22211E-02 -0.32179E-02  0.21044E-02
 -0.13865E-02 -0.36559E-02  0.21044E-02
 -0.47130E-03 -0.38815E-02  0.21044E-02
  0.47130E-03 -0.38815E-02  0.21044E-02
  0.13865E-02 -0.36559E-02  0.21044E-02
  0.22211E-02 -0.32179E-02  0.21044E-02
  0.29267E-02 -0.25928E-02  0.21044E-02
  0.34621E-02 -0.18171E-02  0.21044E-02
  0.37964E-02 -0.93572E-03  0.21044E-02
  0.10357E-02  0.68290E-03  0.30836E-02
  0.17420E-02  0.12427E-02  0.30836E-02
  0.23155E-02  0.60093E-03  0.30836E-02
  0.16660E-02 -0.32417E-03  0.30836E-02
  0.30372E-02  0.15536E-03  0.30836E-02
  0.27853E-02 -0.66755E-03  0.30836E-02
  0.12832E-02  0.18445E-02  0.30836E-02
  0.64698E-03  0.14757E-02  0.30836E-02
  0.12285E-03  0.32000E-03  0.30836E-02
 -0.13155E-03  0.11987E-02  0.30836E-02
  0.93903E-03  0.22771E-02  0.30836E-02
  0.11266E-02  0.28207E-02  0.30836E-02
  0.17420E-02  0.24264E-02  0.30836E-02
  0.40490E-03  0.21691E-02  0.30836E-02
  0.39749E-03  0.29319E-02  0.30836E-02
 -0.76940E-03 -0.10058E-02  0.30836E-02
 -0.86800E-03  0.93536E-04  0.30836E-02
  0.45313E-03 -0.69011E-03  0.30836E-02
 -0.18353E-02 -0.70943E-03  0.30836E-02
 -0.18423E-02  0.84973E-04  0.30836E-02
 -0.27233E-02 -0.77559E-03  0.30836E-02
 -0.27979E-02  0.45633E-04  0.30836E-02
 -0.25393E-02 -0.15186E-02  0.30836E-02
 -0.19365E-02 -0.13212E-02  0.30836E-02
 -0.99104E-03  0.10129E-02  0.30836E-02
 -0.14443E-02 -0.17318E-02  0.30836E-02
 -0.31214E-03  0.20271E-02  0.30836E-02
 -0.11006E-02  0.18592E-02  0.30836E-02
 -0.18836E-02  0.17175E-02  0.30836E-02
 -0.18690E-02  0.91371E-03  0.30836E-02
 -0.16366E-03 -0.19805E-02  0.30836E-02
 -0.95166E-03 -0.23493E-02  0.30836E-02
  0.77667E-03 -0.17073E-02  0.30836E-02
  0.17203E-02 -0.14938E-02  0.30836E-02
  0.32109E-02  0.77846E-03  0.30836E-02
  0.28042E-02  0.12554E-02  0.30836E-02
  0.23039E-02  0.18672E-02  0.30836E-02
 -0.40365E-03  0.28845E-02  0.30836E-02
 -0.12093E-02  0.27122E-02  0.30836E-02
 -0.19441E-02  0.24602E-02  0.30836E-02
 -0.25023E-02  0.22358E-02  0.30836E-02
 -0.26355E-02  0.16502E-02  0.30836E-02
 -0.27615E-02  0.87964E-03  0.30836E-02
 -0.21148E-02 -0.21374E-02  0.30836E-02
 -0.16095E-02 -0.26935E-02  0.30836E-02
 -0.11960E-02 -0.31291E-02  0.30836E-02
 -0.59270E-03 -0.30381E-02  0.30836E-02
  0.20180E-03 -0.28750E-02  0.30836E-02
  0.10530E-02 -0.26471E-02  0.30836E-02
  0.18421E-02 -0.23744E-02  0.30836E-02
  0.24566E-02 -0.21543E-02  0.30836E-02
  0.26035E-02 -0.15085E-02  0.30836E-02
  0.37964E-02  0.93572E-03  0.30836E-02
  0.39100E-02  0.00000E+00  0.30836E-02
  0.34621E-02  0.18171E-02  0.30836E-02
  0.29267E-02  0.25928E-02  0.30836E-02
  0.22211E-02  0.32179E-02  0.30836E-02
  0.13865E-02  0.36559E-02  0.30836E-02
  0.47130E-03  0.38815E-02  0.30836E-02
 -0.47130E-03  0.38815E-02  0.30836E-02
 -0.13865E-02  0.36559E-02  0.30836E-02
 -0.22211E-02  0.32179E-02  0.30836E-02
 -0.29267E-02  0.25928E-02  0.30836E-02
 -0.34621E-02  0.18171E-02  0.30836E-02
 -0.37964E-02  0.93572E-03  0.30836E-02
 -0.39100E-02 -0.47884E-18  0.30836E-02
 -0.37964E-02 -0.93572E-03  0.30836E-02
 -0.34621E-02 -0.18171E-02  0.30836E-02
 -0.29267E-02 -0.25928E-02  0.30836E-02
 -0.22211E-02 -0.32179E-02  0.30836E-02
 -0.13865E-02 -0.36559E-02  0.30836E-02
 -0.47130E-03 -0.38815E-02  0.30836E-02
  0.47130E-03 -0.38815E-02  0.30836E-02
  0.13865E-02 -0.36559E-02  0.30836E-02
  0.22211E-02 -0.32179E-02  0.30836E-02
  0.29267E-02 -0.25928E-02  0.30836E-02
  0.34621E-02 -0.18171E-02  0.30836E-02
  0.37964E-02 -0.93572E-03  0.30836E-02
  0.10356E-02  0.68346E-03  0.40627E-02
  0.17418E-02  0.12434E-02  0.40627E-02
  0.23153E-02  0.60145E-03  0.40627E-02
  0.16657E-02 -0.32342E-03  0.40627E-02
  0.30372E-02  0.15572E-03  0.40627E-02
  0.27856E-02 -0.66706E-03  0.40627E-02
  0.12830E-02  0.18447E-02  0.40627E-02
  0.64673E-03  0.14767E-02  0.40627E-02
  0.12259E-03  0.32115E-03  0.40627E-02
 -0.13174E-03  0.12005E-02  0.40627E-02
  0.93870E-03  0.22772E-02  0.40627E-02
  0.11262E-02  0.28203E-02  0.40627E-02
  0.17416E-02  0.24265E-02  0.40627E-02
  0.40485E-03  0.21691E-02  0.40627E-02
  0.39747E-03  0.29316E-02  0.40627E-02
 -0.76975E-03 -0.10060E-02  0.40627E-02
 -0.86811E-03  0.94345E-04  0.40627E-02
  0.45268E-03 -0.68939E-03  0.40627E-02
 -0.18356E-02 -0.70929E-03  0.40627E-02
 -0.18422E-02  0.85096E-04  0.40627E-02
 -0.27233E-02 -0.77542E-03  0.40627E-02
 -0.27976E-02  0.45906E-04  0.40627E-02
 -0.25394E-02 -0.15185E-02  0.40627E-02
 -0.19369E-02 -0.13211E-02  0.40627E-02
 -0.99090E-03  0.10142E-02  0.40627E-02
 -0.14446E-02 -0.17317E-02  0.40627E-02
 -0.31194E-03  0.20274E-02  0.40627E-02
 -0.11002E-02  0.18590E-02  0.40627E-02
 -0.18835E-02  0.17175E-02  0.40627E-02
 -0.18689E-02  0.91395E-03  0.40627E-02
 -0.16394E-03 -0.19805E-02  0.40627E-02
 -0.95226E-03 -0.23494E-02  0.40627E-02
  0.77601E-03 -0.17073E-02  0.40627E-02
  0.17203E-02 -0.14941E-02  0.40627E-02
  0.32112E-02  0.77946E-03  0.40627E-02
  0.28042E-02  0.12558E-02  0.40627E-02
  0.23038E-02  0.18672E-02  0.40627E-02
 -0.40352E-03  0.28835E-02  0.40627E-02
 -0.12093E-02  0.27118E-02  0.40627E-02
 -0.19441E-02  0.24600E-02  0.40627E-02
 -0.25023E-02  0.22358E-02  0.40627E-02
 -0.26354E-02  0.16502E-02  0.40627E-02
 -0.27612E-02  0.87990E-03  0.40627E-02
 -0.21150E-02 -0.21374E-02  0.40627E-02
 -0.16095E-02 -0.26935E-02  0.40627E-02
 -0.11961E-02 -0.31291E-02  0.40627E-02
 -0.59305E-03 -0.30381E-02  0.40627E-02
  0.20140E-03 -0.28750E-02  0.40627E-02
  0.10527E-02 -0.26474E-02  0.40627E-02
  0.18421E-02 -0.23746E-02  0.40627E-02
  0.24568E-02 -0.21549E-02  0.40627E-02
  0.26036E-02 -0.15084E-02  0.40627E-02
  0.37964E-02  0.93572E-03  0.40627E-02
  0.39100E-02  0.00000E+00  0.40627E-02
  0.34621E-02  0.18171E-02  0.40627E-02
  0.29267E-02  0.25928E-02  0.40627E-02
  0.22211E-02  0.32179E-02  0.40627E-02
  0.13865E-02  0.36559E-02  0.40627E-02
  0.47130E-03  0.38815E-02  0.40627E-02
 -0.47130E-03  0.38815E-02  0.40627E-02
 -0.13865E-02  0.36559E-02  0.40627E-02
 -0.22211E-02  0.32179E-02  0.40627E-02
 -0.29267E-02  0.25928E-02  0.40627E-02
 -0.34621E-02  0.18171E-02  0.40627E-02
 -0.37964E-02  0.93572E-03  0.40627E-02
 -0.39100E-02  0.22152E-17  0.40627E-02
 -0.37964E-02 -0.93572E-03  0.40627E-02
 -0.34621E-02 -0.18171E-02  0.40627E-02
 -0.29267E-02 -0.25928E-02  0.40627E-02
 -0.22211E-02 -0.32179E-02  0.40627E-02
 -0.13865E-02 -0.36559E-02  0.40627E-02
 -0.47130E-03 -0.38815E-02  0.40627E-02
  0.47130E-03 -0.38815E-02  0.40627E-02
  0.13865E-02 -0.36559E-02  0.40627E-02
  0.22211E-02 -0.32179E-02  0.40627E-02
  0.29267E-02 -0.25928E-02  0.40627E-02
  0.34621E-02 -0.18171E-02  0.40627E-02
  0.37964E-02 -0.93572E-03  0.40627E-02
  0.10355E-02  0.68401E-03  0.50419E-02
  0.17416E-02  0.12440E-02  0.50419E-02
  0.23152E-02  0.60198E-03  0.50419E-02
  0.16655E-02 -0.32266E-03  0.50419E-02
  0.30372E-02  0.15609E-03  0.50419E-02
  0.27860E-02 -0.66657E-03  0.50419E-02
  0.12829E-02  0.18449E-02  0.50419E-02
  0.64649E-03  0.14777E-02  0.50419E-02
  0.12232E-03  0.32230E-03  0.50419E-02
 -0.13193E-03  0.12022E-02  0.50419E-02
  0.93837E-03  0.22774E-02  0.50419E-02
  0.11259E-02  0.28198E-02  0.50419E-02
  0.17412E-02  0.24267E-02  0.50419E-02
  0.40480E-03  0.21692E-02  0.50419E-02
  0.39745E-03  0.29314E-02  0.50419E-02
 -0.77011E-03 -0.10061E-02  0.50419E-02
 -0.86822E-03  0.95155E-04  0.50419E-02
  0.45223E-03 -0.68866E-03  0.50419E-02
 -0.18359E-02 -0.70915E-03  0.50419E-02
 -0.18421E-02  0.85220E-04  0.50419E-02
 -0.27232E-02 -0.77525E-03  0.50419E-02
 -0.27973E-02  0.46180E-04  0.50419E-02
 -0.25396E-02 -0.15185E-02  0.50419E-02
 -0.19373E-02 -0.13210E-02  0.50419E-02
 -0.99075E-03  0.10156E-02  0.50419E-02
 -0.14450E-02 -0.17317E-02  0.50419E-02
 -0.31173E-03  0.20277E-02  0.50419E-02
 -0.10999E-02  0.18589E-02  0.50419E-02
 -0.18835E-02  0.17175E-02  0.50419E-02
 -0.18687E-02  0.91419E-03  0.50419E-02
 -0.16421E-03 -0.19805E-02  0.50419E-02
 -0.95285E-03 -0.23494E-02  0.50419E-02
  0.77535E-03 -0.17073E-02  0.50419E-02
  0.17202E-02 -0.14943E-02  0.50419E-02
  0.32115E-02  0.78047E-03  0.50419E-02
  0.28041E-02  0.12563E-02  0.50419E-02
  0.23037E-02  0.18672E-02  0.50419E-02
 -0.40338E-03  0.28824E-02  0.50419E-02
 -0.12093E-02  0.27113E-02  0.50419E-02
 -0.19440E-02  0.24597E-02  0.50419E-02
 -0.25023E-02  0.22358E-02  0.50419E-02
 -0.26353E-02  0.16502E-02  0.50419E-02
 -0.27609E-02  0.88016E-03  0.50419E-02
 -0.21151E-02 -0.21374E-02  0.50419E-02
 -0.16096E-02 -0.26935E-02  0.50419E-02
 -0.11962E-02 -0.31291E-02  0.50419E-02
 -0.59340E-03 -0.30381E-02  0.50419E-02
  0.20099E-03 -0.28751E-02  0.50419E-02
  0.10524E-02 -0.26476E-02  0.50419E-02
  0.18422E-02 -0.23748E-02  0.50419E-02
  0.24569E-02 -0.21554E-02  0.50419E-02
  0.26036E-02 -0.15083E-02  0.50419E-02
  0.37964E-02  0.93572E-03  0.50419E-02
  0.39100E-02  0.00000E+00  0.50419E-02
  0.34621E-02  0.18171E-02  0.50419E-02
  0.29267E-02  0.25928E-02  0.50419E-02
  0.22211E-02  0.32179E-02  0.50419E-02
  0.13865E-02  0.36559E-02  0.50419E-02
  0.47130E-03  0.38815E-02  0.50419E-02
 -0.47130E-03  0.38815E-02  0.50419E-02
 -0.13865E-02  0.36559E-02  0.50419E-02
 -0.22211E-02  0.32179E-02  0.50419E-02
 -0.29267E-02  0.25928E-02  0.50419E-02
 -0.34621E-02  0.18171E-02  0.50419E-02
 -0.37964E-02  0.93572E-03  0.50419E-02
 -0.39100E-02 -0.47884E-18  0.50419E-02
 -0.37964E-02 -0.93572E-03  0.50419E-02
 -0.34621E-02 -0.18171E-02  0.50419E-02
 -0.29267E-02 -0.25928E-02  0.50419E-02
 -0.22211E-02 -0.32179E-02  0.50419E-02
 -0.13865E-02 -0.36559E-02  0.50419E-02
 -0.47130E-03 -0.38815E-02  0.50419E-02
  0.47130E-03 -0.38815E-02  0.50419E-02
  0.13865E-02 -0.36559E-02  0.50419E-02
  0.22211E-02 -0.32179E-02  0.50419E-02
  0.29267E-02 -0.25928E-02  0.50419E-02
  0.34621E-02 -0.18171E-02  0.50419E-02
  0.37964E-02 -0.93572E-03  0.50419E-02
  0.10354E-02  0.68457E-03  0.60211E-02
  0.17414E-02  0.12447E-02  0.60211E-02
  0.23151E-02  0.60250E-03  0.60211E-02
  0.16653E-02 -0.32191E-03  0.60211E-02
  0.30372E-02  0.15645E-03  0.60211E-02
  0.27863E-02 -0.66607E-03  0.60211E-02
  0.12829E-02  0.18451E-02  0.60211E-02
  0.64624E-03  0.14787E-02  0.60211E-02
  0.12206E-03  0.32345E-03  0.60211E-02
 -0.13211E-03  0.12040E-02  0.60211E-02
  0.93804E-03  0.22775E-02  0.60211E-02
  0.11255E-02  0.28194E-02  0.60211E-02
  0.17408E-02  0.24268E-02  0.60211E-02
  0.40474E-03  0.21692E-02  0.60211E-02
  0.39744E-03  0.29311E-02  0.60211E-02
 -0.77046E-03 -0.10062E-02  0.60211E-02
 -0.86832E-03  0.95964E-04  0.60211E-02
  0.45179E-03 -0.68793E-03  0.60211E-02
 -0.18362E-02 -0.70901E-03  0.60211E-02
 -0.18420E-02  0.85343E-04  0.60211E-02
 -0.27232E-02 -0.77507E-03  0.60211E-02
 -0.27970E-02  0.46453E-04  0.60211E-02
 -0.25397E-02 -0.15184E-02  0.60211E-02
 -0.19377E-02 -0.13209E-02  0.60211E-02
 -0.99061E-03  0.10169E-02  0.60211E-02
 -0.14453E-02 -0.17316E-02  0.60211E-02
 -0.31153E-03  0.20280E-02  0.60211E-02
 -0.10995E-02  0.18588E-02  0.60211E-02
 -0.18834E-02  0.17175E-02  0.60211E-02
 -0.18686E-02  0.91443E-03  0.60211E-02
 -0.16449E-03 -0.19806E-02  0.60211E-02
 -0.95345E-03 -0.23494E-02  0.60211E-02
  0.77469E-03 -0.17073E-02  0.60211E-02
  0.17202E-02 -0.14945E-02  0.60211E-02
  0.32119E-02  0.78148E-03  0.60211E-02
  0.28041E-02  0.12567E-02  0.60211E-02
  0.23036E-02  0.18673E-02  0.60211E-02
 -0.40324E-03  0.28813E-02  0.60211E-02
 -0.12093E-02  0.27108E-02  0.60211E-02
 -0.19440E-02  0.24595E-02  0.60211E-02
 -0.25022E-02  0.22358E-02  0.60211E-02
 -0.26352E-02  0.16502E-02  0.60211E-02
 -0.27606E-02  0.88043E-03  0.60211E-02
 -0.21152E-02 -0.21374E-02  0.60211E-02
 -0.16096E-02 -0.26936E-02  0.60211E-02
 -0.11963E-02 -0.31291E-02  0.60211E-02
 -0.59375E-03 -0.30381E-02  0.60211E-02
  0.20059E-03 -0.28751E-02  0.60211E-02
  0.10521E-02 -0.26479E-02  0.60211E-02
  0.18422E-02 -0.23750E-02  0.60211E-02
  0.24570E-02 -0.21560E-02  0.60211E-02
  0.26037E-02 -0.15082E-02  0.60211E-02
  0.37964E-02  0.93572E-03  0.60211E-02
  0.39100E-02  0.00000E+00  0.60211E-02
  0.34621E-02  0.18171E-02  0.60211E-02
  0.29267E-02  0.25928E-02  0.60211E-02
  0.22211E-02  0.32179E-02  0.60211E-02
  0.13865E-02  0.36559E-02  0.60211E-02
  0.47130E-03  0.38815E-02  0.60211E-02
 -0.47130E-03  0.38815E-02  0.60211E-02
 -0.13865E-02  0.36559E-02  0.60211E-02
 -0.22211E-02  0.32179E-02  0.60211E-02
 -0.29267E-02  0.25928E-02  0.60211E-02
 -0.34621E-02  0.18171E-02  0.60211E-02
 -0.37964E-02  0.93572E-03  0.60211E-02
 -0.39100E-02 -0.47884E-18  0.60211E-02
 -0.37964E-02 -0.93572E-03  0.60211E-02
 -0.34621E-02 -0.18171E-02  0.60211E-02
 -0.29267E-02 -0.25928E-02  0.60211E-02
 -0.22211E-02 -0.32179E-02  0.60211E-02
 -0.13865E-02 -0.36559E-02  0.60211E-02
 -0.47130E-03 -0.38815E-02  0.60211E-02
  0.47130E-03 -0.38815E-02  0.60211E-02
  0.13865E-02 -0.36559E-02  0.60211E-02
  0.22211E-02 -0.32179E-02  0.60211E-02
  0.29267E-02 -0.25928E-02  0.60211E-02
  0.34621E-02 -0.18171E-02  0.60211E-02
  0.37964E-02 -0.93572E-03  0.60211E-02
  0.10352E-02  0.68512E-03  0.70002E-02
  0.17413E-02  0.12454E-02  0.70002E-02
  0.23150E-02  0.60302E-03  0.70002E-02
  0.16651E-02 -0.32115E-03  0.70002E-02
  0.30371E-02  0.15681E-03  0.70002E-02
  0.27866E-02 -0.66558E-03  0.70002E-02
  0.12827E-02  0.18453E-02  0.70002E-02
  0.64600E-03  0.14797E-02  0.70002E-02
  0.12180E-03  0.32459E-03  0.70002E-02
 -0.13230E-03  0.12058E-02  0.70002E-02
  0.93771E-03  0.22776E-02  0.70002E-02
  0.11252E-02  0.28189E-02  0.70002E-02
  0.17404E-02  0.24270E-02  0.70002E-02
  0.40469E-03  0.21693E-02  0.70002E-02
  0.39742E-03  0.29308E-02  0.70002E-02
 -0.77081E-03 -0.10064E-02  0.70002E-02
 -0.86843E-03  0.96773E-04  0.70002E-02
  0.45134E-03 -0.68721E-03  0.70002E-02
 -0.18365E-02 -0.70887E-03  0.70002E-02
 -0.18419E-02  0.85467E-04  0.70002E-02
 -0.27232E-02 -0.77490E-03  0.70002E-02
 -0.27968E-02  0.46726E-04  0.70002E-02
 -0.25399E-02 -0.15184E-02  0.70002E-02
 -0.19382E-02 -0.13208E-02  0.70002E-02
 -0.99046E-03  0.10183E-02  0.70002E-02
 -0.14457E-02 -0.17316E-02  0.70002E-02
 -0.31133E-03  0.20283E-02  0.70002E-02
 -0.10992E-02  0.18586E-02  0.70002E-02
 -0.18834E-02  0.17175E-02  0.70002E-02
 -0.18685E-02  0.91467E-03  0.70002E-02
 -0.16476E-03 -0.19806E-02  0.70002E-02
 -0.95405E-03 -0.23494E-02  0.70002E-02
  0.77402E-03 -0.17073E-02  0.70002E-02
  0.17202E-02 -0.14948E-02  0.70002E-02
  0.32122E-02  0.78248E-03  0.70002E-02
  0.28041E-02  0.12571E-02  0.70002E-02
  0.23034E-02  0.18673E-02  0.70002E-02
 -0.40310E-03  0.28802E-02  0.70002E-02
 -0.12093E-02  0.27103E-02  0.70002E-02
 -0.19440E-02  0.24593E-02  0.70002E-02
 -0.25022E-02  0.22358E-02  0.70002E-02
 -0.26351E-02  0.16502E-02  0.70002E-02
 -0.27602E-02  0.88069E-03  0.70002E-02
 -0.21154E-02 -0.21374E-02  0.70002E-02
 -0.16097E-02 -0.26936E-02  0.70002E-02
 -0.11964E-02 -0.31291E-02  0.70002E-02
 -0.59409E-03 -0.30381E-02  0.70002E-02
  0.20018E-03 -0.28751E-02  0.70002E-02
  0.10518E-02 -0.26482E-02  0.70002E-02
  0.18422E-02 -0.23752E-02  0.70002E-02
  0.24571E-02 -0.21565E-02  0.70002E-02
  0.26038E-02 -0.15081E-02  0.70002E-02
  0.37964E-02  0.93572E-03  0.70002E-02
  0.39100E-02  0.00000E+00  0.70002E-02
  0.34621E-02  0.18171E-02  0.70002E-02
  0.29267E-02  0.25928E-02  0.70002E-02
  0.22211E-02  0.32179E-02  0.70002E-02
  0.13865E-02  0.36559E-02  0.70002E-02
  0.47130E-03  0.38815E-02  0.70002E-02
 -0.47130E-03  0.38815E-02  0.70002E-02
 -0.13865E-02  0.36559E-02  0.70002E-02
 -0.22211E-02  0.32179E-02  0.70002E-02
 -0.29267E-02  0.25928E-02  0.70002E-02
 -0.34621E-02  0.18171E-02  0.70002E-02
 -0.37964E-02  0.93572E-03  0.70002E-02
 -0.39100E-02 -0.47884E-18  0.70002E-02
 -0.37964E-02 -0.93572E-03  0.70002E-02
 -0.34621E-02 -0.18171E-02  0.70002E-02
 -0.29267E-02 -0.25928E-02  0.70002E-02
 -0.22211E-02 -0.32179E-02  0.70002E-02
 -0.13865E-02 -0.36559E-02  0.70002E-02
 -0.47130E-03 -0.38815E-02  0.70002E-02
  0.47130E-03 -0.38815E-02  0.70002E-02
  0.13865E-02 -0.36559E-02  0.70002E-02
  0.22211E-02 -0.32179E-02  0.70002E-02
  0.29267E-02 -0.25928E-02  0.70002E-02
  0.34621E-02 -0.18171E-02  0.70002E-02
  0.37964E-02 -0.93572E-03  0.70002E-02
  0.10351E-02  0.68567E-03  0.79794E-02
  0.17411E-02  0.12460E-02  0.79794E-02
  0.23149E-02  0.60355E-03  0.79794E-02
  0.16649E-02 -0.32040E-03  0.79794E-02
  0.30371E-02  0.15718E-03  0.79794E-02
  0.27870E-02 -0.66509E-03  0.79794E-02
  0.12826E-02  0.18455E-02  0.79794E-02
  0.64575E-03  0.14807E-02  0.79794E-02
  0.12154E-03  0.32574E-03  0.79794E-02
 -0.13248E-03  0.12075E-02  0.79794E-02
  0.93738E-03  0.22777E-02  0.79794E-02
  0.11249E-02  0.28185E-02  0.79794E-02
  0.17400E-02  0.24271E-02  0.79794E-02
  0.40463E-03  0.21693E-02  0.79794E-02
  0.39740E-03  0.29306E-02  0.79794E-02
 -0.77117E-03 -0.10065E-02  0.79794E-02
 -0.86854E-03  0.97583E-04  0.79794E-02
  0.45089E-03 -0.68648E-03  0.79794E-02
 -0.18368E-02 -0.70873E-03  0.79794E-02
 -0.18418E-02  0.85591E-04  0.79794E-02
 -0.27232E-02 -0.77474E-03  0.79794E-02
 -0.27965E-02  0.47000E-04  0.79794E-02
 -0.25400E-02 -0.15183E-02  0.79794E-02
 -0.19386E-02 -0.13207E-02  0.79794E-02
 -0.99032E-03  0.10197E-02  0.79794E-02
 -0.14460E-02 -0.17316E-02  0.79794E-02
 -0.31113E-03  0.20285E-02  0.79794E-02
 -0.10988E-02  0.18585E-02  0.79794E-02
 -0.18833E-02  0.17175E-02  0.79794E-02
 -0.18683E-02  0.91491E-03  0.79794E-02
 -0.16504E-03 -0.19806E-02  0.79794E-02
 -0.95465E-03 -0.23495E-02  0.79794E-02
  0.77336E-03 -0.17073E-02  0.79794E-02
  0.17201E-02 -0.14950E-02  0.79794E-02
  0.32125E-02  0.78348E-03  0.79794E-02
  0.28041E-02  0.12576E-02  0.79794E-02
  0.23033E-02  0.18674E-02  0.79794E-02
 -0.40296E-03  0.28792E-02  0.79794E-02
 -0.12093E-02  0.27099E-02  0.79794E-02
 -0.19439E-02  0.24591E-02  0.79794E-02
 -0.25022E-02  0.22358E-02  0.79794E-02
 -0.26350E-02  0.16502E-02  0.79794E-02
 -0.27599E-02  0.88095E-03  0.79794E-02
 -0.21155E-02 -0.21374E-02  0.79794E-02
 -0.16097E-02 -0.26936E-02  0.79794E-02
 -0.11965E-02 -0.31290E-02  0.79794E-02
 -0.59444E-03 -0.30381E-02  0.79794E-02
  0.19977E-03 -0.28751E-02  0.79794E-02
  0.10515E-02 -0.26484E-02  0.79794E-02
  0.18423E-02 -0.23754E-02  0.79794E-02
  0.24573E-02 -0.21571E-02  0.79794E-02
  0.26039E-02 -0.15080E-02  0.79794E-02
  0.37964E-02  0.93572E-03  0.79794E-02
  0.39100E-02  0.00000E+00  0.79794E-02
  0.34621E-02  0.18171E-02  0.79794E-02
  0.29267E-02  0.25928E-02  0.79794E-02
  0.22211E-02  0.32179E-02  0.79794E-02
  0.13865E-02  0.36559E-02  0.79794E-02
  0.47130E-03  0.38815E-02  0.79794E-02
 -0.47130E-03  0.38815E-02  0.79794E-02
 -0.13865E-02  0.36559E-02  0.79794E-02
 -0.22211E-02  0.32179E-02  0.79794E-02
 -0.29267E-02  0.25928E-02  0.79794E-02
 -0.34621E-02  0.18171E-02  0.79794E-02
 -0.37964E-02  0.93572E-03  0.79794E-02
 -0.39100E-02  0.47884E-18  0.79794E-02
 -0.37964E-02 -0.93572E-03  0.79794E-02
 -0.34621E-02 -0.18171E-02  0.79794E-02
 -0.29267E-02 -0.25928E-02  0.79794E-02
 -0.22211E-02 -0.32179E-02  0.79794E-02
 -0.13865E-02 -0.36559E-02  0.79794E-02
 -0.47130E-03 -0.38815E-02  0.79794E-02
  0.47130E-03 -0.38815E-02  0.79794E-02
  0.13865E-02 -0.36559E-02  0.79794E-02
  0.22211E-02 -0.32179E-02  0.79794E-02
  0.29267E-02 -0.25928E-02  0.79794E-02
  0.34621E-02 -0.18171E-02  0.79794E-02
  0.37964E-02 -0.93572E-03  0.79794E-02
  
CELLS       3486               17724
       1       0
       1       1
       1       2
       1       3
       1       4
       1       5
       1       6
       1       7
       1       8
       1       9
       1      10
       1      11
       1      12
       1      13
       1      14
       1      15
       1      16
       1      17
       1      18
       1      19
       1      20
       1      21
       1      22
       1      23
       1      24
       1      25
       1      26
       1      27
       1      28
       1      29
       1      30
       1      31
       1      32
       1      33
       1      34
       1      35
       1      36
       1      37
       1      38
       1      39
       1      40
       1      41
       1      42
       1      43
       1      44
       1      45
       1      46
       1      47
       1      48
       1      49
       1      50
       1      51
       1      52
       1      53
       1      54
       1      55
       1      56
       1      57
       1      58
       1      59
       1      60
       1      61
       1      62
       1      63
       1      64
       1      65
       1      66
       1      67
       1      68
       1      69
       1      70
       1      71
       1      72
       1      73
       1      74
       1      75
       1      76
       1      77
       1      78
       1      79
       1      80
       1      81
       1      82
       1      83
       1      84
       1      85
       1      86
       1      87
       1      88
       1      89
       1      90
       1      91
       1      92
       1      93
       1      94
       1      95
       1      96
       1      97
       1      98
       1      99
       1     100
       1     101
       1     102
       1     103
       1     104
       1     105
       1     106
       1     107
       1     108
       1     109
       1     110
       1     111
       1     112
       1     113
       1     114
       1     115
       1     116
       1     117
       1     118
       1     119
       1     120
       1     121
       1     122
       1     123
       1     124
       1     125
       1     126
       1     127
       1     128
       1     129
       1     130
       1     131
       1     132
       1     133
       1     134
       1     135
       1     136
       1     137
       1     138
       1     139
       1     140
       1     141
       1     142
       1     143
       1     144
       1     145
       1     146
       1     147
       1     148
       1     149
       1     150
       1     151
       1     152
       1     153
       1     154
       1     155
       1     156
       1     157
       1     158
       1     159
       1     160
       1     161
       1     162
       1     163
       1     164
       1     165
       1     166
       1     167
       1     168
       1     169
       1     170
       1     171
       1     172
       1     173
       1     174
       1     175
       1     176
       1     177
       1     178
       1     179
       1     180
       1     181
       1     182
       1     183
       1     184
       1     185
       1     186
       1     187
       1     188
       1     189
       1     190
       1     191
       1     192
       1     193
       1     194
       1     195
       1     196
       1     197
       1     198
       1     199
       1     200
       1     201
       1     202
       1     203
       1     204
       1     205
       1     206
       1     207
       1     208
       1     209
       1     210
       1     211
       1     212
       1     213
       1     214
       1     215
       1     216
       1     217
       1     218
       1     219
       1     220
       1     221
       1     222
       1     223
       1     224
       1     225
       1     226
       1     227
       1     228
       1     229
       1     230
       1     231
       1     232
       1     233
       1     234
       1     235
       1     236
       1     237
       1     238
       1     239
       1     240
       1     241
       1     242
       1     243
       1     244
       1     245
       1     246
       1     247
       1     248
       1     249
       1     250
       1     251
       1     252
       1     253
       1     254
       1     255
       1     256
       1     257
       1     258
       1     259
       1     260
       1     261
       1     262
       1     263
       1     264
       1     265
       1     266
       1     267
       1     268
       1     269
       1     270
       1     271
       1     272
       1     273
       1     274
       1     275
       1     276
       1     277
       1     278
       1     279
       1     280
       1     281
       1     282
       1     283
       1     284
       1     285
       1     286
       1     287
       1     288
       1     289
       1     290
       1     291
       1     292
       1     293
       1     294
       1     295
       1     296
       1     297
       1     298
       1     299
       1     300
       1     301
       1     302
       1     303
       1     304
       1     305
       1     306
       1     307
       1     308
       1     309
       1     310
       1     311
       1     312
       1     313
       1     314
       1     315
       1     316
       1     317
       1     318
       1     319
       1     320
       1     321
       1     322
       1     323
       1     324
       1     325
       1     326
       1     327
       1     328
       1     329
       1     330
       1     331
       1     332
       1     333
       1     334
       1     335
       1     336
       1     337
       1     338
       1     339
       1     340
       1     341
       1     342
       1     343
       1     344
       1     345
       1     346
       1     347
       1     348
       1     349
       1     350
       1     351
       1     352
       1     353
       1     354
       1     355
       1     356
       1     357
       1     358
       1     359
       1     360
       1     361
       1     362
       1     363
       1     364
       1     365
       1     366
       1     367
       1     368
       1     369
       1     370
       1     371
       1     372
       1     373
       1     374
       1     375
       1     376
       1     377
       1     378
       1     379
       1     380
       1     381
       1     382
       1     383
       1     384
       1     385
       1     386
       1     387
       1     388
       1     389
       1     390
       1     391
       1     392
       1     393
       1     394
       1     395
       1     396
       1     397
       1     398
       1     399
       1     400
       1     401
       1     402
       1     403
       1     404
       1     405
       1     406
       1     407
       1     408
       1     409
       1     410
       1     411
       1     412
       1     413
       1     414
       1     415
       1     416
       1     417
       1     418
       1     419
       1     420
       1     421
       1     422
       1     423
       1     424
       1     425
       1     426
       1     427
       1     428
       1     429
       1     430
       1     431
       1     432
       1     433
       1     434
       1     435
       1     436
       1     437
       1     438
       1     439
       1     440
       1     441
       1     442
       1     443
       1     444
       1     445
       1     446
       1     447
       1     448
       1     449
       1     450
       1     451
       1     452
       1     453
       1     454
       1     455
       1     456
       1     457
       1     458
       1     459
       1     460
       1     461
       1     462
       1     463
       1     464
       1     465
       1     466
       1     467
       1     468
       1     469
       1     470
       1     471
       1     472
       1     473
       1     474
       1     475
       1     476
       1     477
       1     478
       1     479
       1     480
       1     481
       1     482
       1     483
       1     484
       1     485
       1     486
       1     487
       1     488
       1     489
       1     490
       1     491
       1     492
       1     493
       1     494
       1     495
       1     496
       1     497
       1     498
       1     499
       1     500
       1     501
       1     502
       1     503
       1     504
       1     505
       1     506
       1     507
       1     508
       1     509
       1     510
       1     511
       1     512
       1     513
       1     514
       1     515
       1     516
       1     517
       1     518
       1     519
       1     520
       1     521
       1     522
       1     523
       1     524
       1     525
       1     526
       1     527
       1     528
       1     529
       1     530
       1     531
       1     532
       1     533
       1     534
       1     535
       1     536
       1     537
       1     538
       1     539
       1     540
       1     541
       1     542
       1     543
       1     544
       1     545
       1     546
       1     547
       1     548
       1     549
       1     550
       1     551
       1     552
       1     553
       1     554
       1     555
       1     556
       1     557
       1     558
       1     559
       1     560
       1     561
       1     562
       1     563
       1     564
       1     565
       1     566
       1     567
       1     568
       1     569
       1     570
       1     571
       1     572
       1     573
       1     574
       1     575
       1     576
       1     577
       1     578
       1     579
       1     580
       1     581
       1     582
       1     583
       1     584
       1     585
       1     586
       1     587
       1     588
       1     589
       1     590
       1     591
       1     592
       1     593
       1     594
       1     595
       1     596
       1     597
       1     598
       1     599
       1     600
       1     601
       1     602
       1     603
       1     604
       1     605
       1     606
       1     607
       1     608
       1     609
       1     610
       1     611
       1     612
       1     613
       1     614
       1     615
       1     616
       1     617
       1     618
       1     619
       1     620
       1     621
       1     622
       1     623
       1     624
       1     625
       1     626
       1     627
       1     628
       1     629
       1     630
       1     631
       1     632
       1     633
       1     634
       1     635
       1     636
       1     637
       1     638
       1     639
       1     640
       1     641
       1     642
       1     643
       1     644
       1     645
       1     646
       1     647
       1     648
       1     649
       1     650
       1     651
       1     652
       1     653
       1     654
       1     655
       1     656
       1     657
       1     658
       1     659
       1     660
       1     661
       1     662
       1     663
       1     664
       1     665
       1     666
       1     667
       1     668
       1     669
       1     670
       1     671
       1     672
       1     673
       1     674
       1     675
       1     676
       1     677
       1     678
       1     679
       1     680
       1     681
       1     682
       1     683
       1     684
       1     685
       1     686
       1     687
       1     688
       1     689
       1     690
       1     691
       1     692
       1     693
       1     694
       1     695
       1     696
       1     697
       1     698
       1     699
       1     700
       1     701
       1     702
       1     703
       1     704
       1     705
       1     706
       1     707
       1     708
       1     709
       1     710
       1     711
       1     712
       1     713
       1     714
       1     715
       1     716
       1     717
       1     718
       1     719
       1     720
       1     721
       1     722
       1     723
       1     724
       1     725
       1     726
       1     727
       1     728
       1     729
       1     730
       1     731
       1     732
       1     733
       1     734
       1     735
       1     736
       1     737
       1     738
       1     739
       1     740
       1     741
       1     742
       1     743
       1     744
       1     745
       1     746
       1     747
       1     748
       1     749
       1     750
       1     751
       1     752
       1     753
       1     754
       1     755
       1     756
       1     757
       1     758
       1     759
       1     760
       1     761
       1     762
       1     763
       1     764
       1     765
       1     766
       1     767
       1     768
       1     769
       1     770
       1     771
       1     772
       1     773
       1     774
       1     775
       1     776
       1     777
       1     778
       1     779
       1     780
       1     781
       1     782
       1     783
       1     784
       1     785
       1     786
       1     787
       1     788
       1     789
       1     790
       1     791
       1     792
       1     793
       1     794
       1     795
       1     796
       1     797
       1     798
       1     799
       1     800
       1     801
       1     802
       1     803
       1     804
       1     805
       1     806
       1     807
       1     808
       1     809
       1     810
       1     811
       1     812
       1     813
       1     814
       1     815
       1     816
       1     817
       1     818
       1     819
       1     820
       1     821
       1     822
       1     823
       1     824
       1     825
       1     826
       1     827
       1     828
       1     829
       1     830
       1     831
       1     832
       1     833
       1     834
       1     835
       1     836
       1     837
       1     838
       1     839
       1     840
       1     841
       1     842
       1     843
       1     844
       1     845
       1     846
       1     847
       1     848
       1     849
       1     850
       1     851
       1     852
       1     853
       1     854
       1     855
       1     856
       1     857
       1     858
       1     859
       1     860
       1     861
       1     862
       1     863
       1     864
       1     865
       1     866
       1     867
       1     868
       1     869
       1     870
       1     871
       1     872
       1     873
       1     874
       1     875
       1     876
       1     877
       1     878
       1     879
       1     880
       1     881
       1     882
       1     883
       1     884
       1     885
       1     886
       1     887
       1     888
       1     889
       1     890
       1     891
       1     892
       1     893
       1     894
       1     895
       1     896
       1     897
       1     898
       1     899
       1     900
       1     901
       1     902
       1     903
       1     904
       1     905
       1     906
       1     907
       1     908
       1     909
       1     910
       1     911
       1     912
       1     913
       1     914
       1     915
       1     916
       1     917
       1     918
       1     919
       1     920
       1     921
       1     922
       1     923
       1     924
       1     925
       1     926
       1     927
       1     928
       1     929
       1     930
       1     931
       1     932
       1     933
       1     934
       1     935
       1     936
       1     937
       1     938
       1     939
       1     940
       1     941
       1     942
       1     943
       1     944
       1     945
       1     946
       1     947
       1     948
       1     949
       1     950
       1     951
       1     952
       1     953
       1     954
       1     955
       1     956
       1     957
       1     958
       1     959
       1     960
       1     961
       1     962
       1     963
       1     964
       1     965
       1     966
       1     967
       1     968
       1     969
       1     970
       1     971
       1     972
       1     973
       1     974
       1     975
       1     976
       1     977
       1     978
       1     979
       1     980
       1     981
       1     982
       1     983
       1     984
       1     985
       1     986
       1     987
       1     988
       1     989
       1     990
       1     991
       1     992
       1     993
       1     994
       1     995
       1     996
       1     997
       1     998
       1     999
       1    1000
       1    1001
       1    1002
       1    1003
       1    1004
       1    1005
       1    1006
       1    1007
       1    1008
       1    1009
       1    1010
       1    1011
       1    1012
       1    1013
       1    1014
       1    1015
       1    1016
       1    1017
       1    1018
       1    1019
       1    1020
       1    1021
       1    1022
       1    1023
       1    1024
       1    1025
       1    1026
       1    1027
       1    1028
       1    1029
       1    1030
       1    1031
       1    1032
       1    1033
       1    1034
       1    1035
       1    1036
       1    1037
       1    1038
       1    1039
       1    1040
       1    1041
       1    1042
       1    1043
       1    1044
       1    1045
       1    1046
       1    1047
       1    1048
       1    1049
       1    1050
       1    1051
       1    1052
       1    1053
       1    1054
       1    1055
       1    1056
       1    1057
       1    1058
       1    1059
       1    1060
       1    1061
       1    1062
       1    1063
       1    1064
       1    1065
       1    1066
       1    1067
       1    1068
       1    1069
       1    1070
       1    1071
       1    1072
       1    1073
       1    1074
       1    1075
       1    1076
       1    1077
       1    1078
       1    1079
       1    1080
       1    1081
       1    1082
       1    1083
       1    1084
       1    1085
       1    1086
       1    1087
       1    1088
       1    1089
       1    1090
       1    1091
       1    1092
       1    1093
       1    1094
       1    1095
       1    1096
       1    1097
       1    1098
       1    1099
       1    1100
       1    1101
       1    1102
       1    1103
       1    1104
       1    1105
       1    1106
       1    1107
       1    1108
       1    1109
       1    1110
       1    1111
       1    1112
       1    1113
       1    1114
       1    1115
       1    1116
       1    1117
       1    1118
       1    1119
       1    1120
       1    1121
       1    1122
       1    1123
       1    1124
       1    1125
       1    1126
       1    1127
       1    1128
       1    1129
       1    1130
       1    1131
       1    1132
       1    1133
       1    1134
       1    1135
       1    1136
       1    1137
       1    1138
       1    1139
       1    1140
       1    1141
       1    1142
       1    1143
       1    1144
       1    1145
       1    1146
       1    1147
       1    1148
       1    1149
       1    1150
       1    1151
       1    1152
       1    1153
       1    1154
       1    1155
       1    1156
       1    1157
       1    1158
       1    1159
       1    1160
       1    1161
       1    1162
       1    1163
       1    1164
       1    1165
       1    1166
       1    1167
       1    1168
       1    1169
       1    1170
       1    1171
       1    1172
       1    1173
       1    1174
       1    1175
       1    1176
       1    1177
       1    1178
       1    1179
       1    1180
       1    1181
       1    1182
       1    1183
       1    1184
       1    1185
       1    1186
       1    1187
       1    1188
       1    1189
       1    1190
       1    1191
       1    1192
       1    1193
       1    1194
       1    1195
       1    1196
       1    1197
       1    1198
       1    1199
       1    1200
       1    1201
       1    1202
       1    1203
       1    1204
       1    1205
       1    1206
       1    1207
       1    1208
       1    1209
       1    1210
       1    1211
       1    1212
       1    1213
       1    1214
       1    1215
       1    1216
       1    1217
       1    1218
       1    1219
       1    1220
       1    1221
       1    1222
       1    1223
       1    1224
       1    1225
       1    1226
       1    1227
       1    1228
       1    1229
       1    1230
       1    1231
       1    1232
       1    1233
       1    1234
       1    1235
       1    1236
       1    1237
       1    1238
       1    1239
       1    1240
       1    1241
       1    1242
       1    1243
       1    1244
       1    1245
       1    1246
       1    1247
       1    1248
       1    1249
       1    1250
       1    1251
       1    1252
       1    1253
       1    1254
       1    1255
       1    1256
       1    1257
       1    1258
       1    1259
       1    1260
       1    1261
       1    1262
       1    1263
       1    1264
       1    1265
       1    1266
       1    1267
       1    1268
       1    1269
       1    1270
       1    1271
       1    1272
       1    1273
       1    1274
       1    1275
       1    1276
       1    1277
       1    1278
       1    1279
       1    1280
       1    1281
       1    1282
       1    1283
       1    1284
       1    1285
       1    1286
       1    1287
       1    1288
       1    1289
       1    1290
       1    1291
       1    1292
       1    1293
       1    1294
       1    1295
       1    1296
       1    1297
       1    1298
       1    1299
       1    1300
       1    1301
       1    1302
       1    1303
       1    1304
       1    1305
       1    1306
       1    1307
       1    1308
       1    1309
       1    1310
       1    1311
       1    1312
       1    1313
       1    1314
       1    1315
       1    1316
       1    1317
       1    1318
       1    1319
       1    1320
       1    1321
       1    1322
       1    1323
       1    1324
       1    1325
       1    1326
       1    1327
       1    1328
       1    1329
       1    1330
       1    1331
       1    1332
       1    1333
       1    1334
       1    1335
       1    1336
       1    1337
       1    1338
       1    1339
       1    1340
       1    1341
       1    1342
       1    1343
       1    1344
       1    1345
       1    1346
       1    1347
       1    1348
       1    1349
       1    1350
       1    1351
       1    1352
       1    1353
       1    1354
       1    1355
       1    1356
       1    1357
       1    1358
       1    1359
       1    1360
       1    1361
       1    1362
       1    1363
       1    1364
       1    1365
       1    1366
       1    1367
       1    1368
       1    1369
       1    1370
       1    1371
       1    1372
       1    1373
       1    1374
       1    1375
       1    1376
       1    1377
       1    1378
       1    1379
       1    1380
       1    1381
       1    1382
       1    1383
       1    1384
       1    1385
       1    1386
       1    1387
       1    1388
       1    1389
       1    1390
       1    1391
       1    1392
       1    1393
       1    1394
       1    1395
       1    1396
       1    1397
       1    1398
       1    1399
       1    1400
       1    1401
       1    1402
       1    1403
       1    1404
       1    1405
       1    1406
       1    1407
       1    1408
       1    1409
       1    1410
       1    1411
       1    1412
       1    1413
       1    1414
       1    1415
       1    1416
       1    1417
       1    1418
       1    1419
       1    1420
       1    1421
       1    1422
       1    1423
       1    1424
       1    1425
       1    1426
       1    1427
       1    1428
       1    1429
       1    1430
       1    1431
       1    1432
       1    1433
       1    1434
       1    1435
       1    1436
       1    1437
       1    1438
       1    1439
       1    1440
       1    1441
       1    1442
       1    1443
       1    1444
       1    1445
       1    1446
       1    1447
       1    1448
       1    1449
       1    1450
       1    1451
       1    1452
       1    1453
       1    1454
       1    1455
       1    1456
       1    1457
       1    1458
       1    1459
       1    1460
       1    1461
       1    1462
       1    1463
       1    1464
       1    1465
       1    1466
       1    1467
       1    1468
       1    1469
       1    1470
       1    1471
       1    1472
       1    1473
       1    1474
       1    1475
       1    1476
       1    1477
       1    1478
       1    1479
       1    1480
       1    1481
       1    1482
       1    1483
       1    1484
       1    1485
       1    1486
       1    1487
       1    1488
       1    1489
       1    1490
       1    1491
       1    1492
       1    1493
       1    1494
       1    1495
       1    1496
       1    1497
       1    1498
       1    1499
       1    1500
       1    1501
       1    1502
       1    1503
       1    1504
       1    1505
       1    1506
       1    1507
       1    1508
       1    1509
       1    1510
       1    1511
       1    1512
       1    1513
       1    1514
       1    1515
       1    1516
       1    1517
       1    1518
       1    1519
       1    1520
       1    1521
       1    1522
       1    1523
       1    1524
       1    1525
       1    1526
       1    1527
       1    1528
       1    1529
       1    1530
       1    1531
       1    1532
       1    1533
       1    1534
       1    1535
       1    1536
       1    1537
       1    1538
       1    1539
       1    1540
       1    1541
       1    1542
       1    1543
       1    1544
       1    1545
       1    1546
       1    1547
       1    1548
       1    1549
       1    1550
       1    1551
       1    1552
       1    1553
       1    1554
       1    1555
       1    1556
       1    1557
       1    1558
       1    1559
       1    1560
       1    1561
       1    1562
       1    1563
       1    1564
       1    1565
       1    1566
       1    1567
       1    1568
       1    1569
       1    1570
       1    1571
       1    1572
       1    1573
       1    1574
       1    1575
       1    1576
       1    1577
       1    1578
       1    1579
       1    1580
       1    1581
       1    1582
       1    1583
       1    1584
       1    1585
       1    1586
       1    1587
       1    1588
       1    1589
       1    1590
       1    1591
       1    1592
       1    1593
       1    1594
       1    1595
       1    1596
       1    1597
       1    1598
       1    1599
       1    1600
       1    1601
       1    1602
       1    1603
       1    1604
       1    1605
       1    1606
       1    1607
       1    1608
       1    1609
       1    1610
       1    1611
       1    1612
       1    1613
       1    1614
       1    1615
       1    1616
       1    1617
       1    1618
       1    1619
       1    1620
       1    1621
       1    1622
       1    1623
       1    1624
       1    1625
       1    1626
       1    1627
       1    1628
       1    1629
       1    1630
       1    1631
       1    1632
       1    1633
       1    1634
       1    1635
       1    1636
       1    1637
       1    1638
       1    1639
       1    1640
       1    1641
       1    1642
       1    1643
       1    1644
       1    1645
       1    1646
       1    1647
       1    1648
       1    1649
       1    1650
       1    1651
       1    1652
       1    1653
       1    1654
       1    1655
       1    1656
       1    1657
       1    1658
       1    1659
       1    1660
       1    1661
       1    1662
       1    1663
       1    1664
       1    1665
       1    1666
       1    1667
       1    1668
       1    1669
       1    1670
       1    1671
       1    1672
       1    1673
       1    1674
       1    1675
       1    1676
       1    1677
       1    1678
       1    1679
       1    1680
       1    1681
       1    1682
       1    1683
       1    1684
       1    1685
       1    1686
       1    1687
       1    1688
       1    1689
       1    1690
       1    1691
       1    1692
       1    1693
       1    1694
       1    1695
       1    1696
       1    1697
       1    1698
       1    1699
       1    1700
       1    1701
       1    1702
       1    1703
       1    1704
       1    1705
       1    1706
       1    1707
       1    1708
       1    1709
       1    1710
       1    1711
       1    1712
       1    1713
       1    1714
       1    1715
       1    1716
       1    1717
       1    1718
       1    1719
       1    1720
       1    1721
       1    1722
       1    1723
       1    1724
       1    1725
       1    1726
       1    1727
       1    1728
       1    1729
       1    1730
       1    1731
       1    1732
       1    1733
       1    1734
       1    1735
       1    1736
       1    1737
       1    1738
       1    1739
       1    1740
       1    1741
       1    1742
       1    1743
       1    1744
       1    1745
       1    1746
       1    1747
       1    1748
       1    1749
       1    1750
       1    1751
       1    1752
       1    1753
       1    1754
       1    1755
       1    1756
       1    1757
       1    1758
       1    1759
       1    1760
       1    1761
       1    1762
       1    1763
       1    1764
       1    1765
       1    1766
       1    1767
       1    1768
       1    1769
       1    1770
       1    1771
       1    1772
       1    1773
       1    1774
       1    1775
       1    1776
       1    1777
       1    1778
       1    1779
       1    1780
       1    1781
       1    1782
       1    1783
       1    1784
       1    1785
       1    1786
       1    1787
       1    1788
       1    1789
       1    1790
       1    1791
       1    1792
       1    1793
       1    1794
       1    1795
       1    1796
       1    1797
       1    1798
       1    1799
       1    1800
       1    1801
       1    1802
       1    1803
       1    1804
       1    1805
       1    1806
       1    1807
       1    1808
       1    1809
       1    1810
       1    1811
       1    1812
       1    1813
       1    1814
       1    1815
       1    1816
       1    1817
       1    1818
       1    1819
       1    1820
       1    1821
       1    1822
       1    1823
       1    1824
       1    1825
       1    1826
       1    1827
       1    1828
       1    1829
       1    1830
       1    1831
       1    1832
       1    1833
       1    1834
       1    1835
       1    1836
       1    1837
       1    1838
       1    1839
       1    1840
       1    1841
       1    1842
       1    1843
       1    1844
       1    1845
       1    1846
       1    1847
       1    1848
       1    1849
       1    1850
       1    1851
       1    1852
       1    1853
       1    1854
       1    1855
       1    1856
       1    1857
       1    1858
       1    1859
       1    1860
       1    1861
       1    1862
       1    1863
       1    1864
       1    1865
       1    1866
       1    1867
       1    1868
       1    1869
       1    1870
       1    1871
       1    1872
       1    1873
       1    1874
       1    1875
       1    1876
       1    1877
       1    1878
       1    1879
       1    1880
       1    1881
       1    1882
       1    1883
       1    1884
       1    1885
       1    1886
       1    1887
       1    1888
       1    1889
       1    1890
       1    1891
       1    1892
       1    1893
       1    1894
       1    1895
       1    1896
       1    1897
       1    1898
       1    1899
       1    1900
       1    1901
       1    1902
       1    1903
       1    1904
       1    1905
       1    1906
       1    1907
       1    1908
       1    1909
       1    1910
       1    1911
       1    1912
       1    1913
       1    1914
       1    1915
       1    1916
       1    1917
       1    1918
       1    1919
       1    1920
       1    1921
       1    1922
       1    1923
       1    1924
       1    1925
       1    1926
       1    1927
       1    1928
       1    1929
       1    1930
       1    1931
       1    1932
       1    1933
       1    1934
       1    1935
       1    1936
       1    1937
       1    1938
       1    1939
       1    1940
       1    1941
       1    1942
       1    1943
       1    1944
       1    1945
       1    1946
       1    1947
       1    1948
       1    1949
       8       0       1       2       3       4       5       6       7
       8       2       8       9       3       6      10      11       7
       8      12       1       0      13      14       5       4      15
       8       0      16      17      13       4      18      19      15
       8      20      21      22      12      23      24      25      14
       8      26      27      21      20      28      29      24      23
       8      13      26      20      12      15      28      23      14
       8      30      31      16      32      33      34      18      35
       8      36      37      31      30      38      39      34      33
       8      40      41      37      36      42      43      39      38
       8      44      40      36      45      46      42      38      47
       8      48      17      16      31      49      19      18      34
       8      30      50      45      36      33      51      47      38
       8       0       3      32      16       4       7      35      18
       8      52      26      13      17      53      28      15      19
       8      54      52      17      48      55      53      19      49
       8      56      54      48      57      58      55      49      59
       8      37      57      48      31      39      59      49      34
       8      60      61      50      30      62      63      51      33
       8      64      60      30      32      65      62      33      35
       8      66      64      32       3      67      65      35       7
       8      68       8       2      69      70      10       6      71
       8      72      69       2       1      73      71       6       5
       8      22      72       1      12      25      73       5      14
       8      74      27      26      52      75      29      28      53
       8      76      74      52      54      77      75      53      55
       8      78      76      54      56      79      77      55      58
       8      80      78      56      81      82      79      58      83
       8      84      81      56      57      85      83      58      59
       8      41      84      57      37      43      85      59      39
       8      86      44      45      50      87      46      47      51
       8      88      86      50      61      89      87      51      63
       8      90      88      61      91      92      89      63      93
       8      94      91      61      60      95      93      63      62
       8      96      94      60      64      97      95      62      65
       8      98      96      64      66      99      97      65      67
       8     100      98      66     101     102      99      67     103
       8       9     101      66       3      11     103      67       7
       8     104     105       8      68     106     107      10      70
       8     108     104      68      69     109     106      70      71
       8     110     108      69      72     111     109      71      73
       8     112     110      72      22     113     111      73      25
       8     114     112      22      21     115     113      25      24
       8     116     114      21      27     117     115      24      29
       8     118     116      27      74     119     117      29      75
       8     120     118      74      76     121     119      75      77
       8     122     120      76      78     123     121      77      79
       8     124     122      78      80     125     123      79      82
       8     126     124      80      81     127     125      82      83
       8     128     126      81      84     129     127      83      85
       8     130     128      84      41     131     129      85      43
       8     132     130      41      40     133     131      43      42
       8     134     132      40      44     135     133      42      46
       8     136     134      44      86     137     135      46      87
       8     138     136      86      88     139     137      87      89
       8     140     138      88      90     141     139      89      92
       8     142     140      90      91     143     141      92      93
       8     144     142      91      94     145     143      93      95
       8     146     144      94      96     147     145      95      97
       8     148     146      96      98     149     147      97      99
       8     150     148      98     100     151     149      99     102
       8     152     150     100     101     153     151     102     103
       8     154     152     101       9     155     153     103      11
       8     105     154       9       8     107     155      11      10
       8     156     157     158     159       0       1       2       3
       8     158     160     161     159       2       8       9       3
       8     162     157     156     163      12       1       0      13
       8     156     164     165     163       0      16      17      13
       8     166     167     168     162      20      21      22      12
       8     169     170     167     166      26      27      21      20
       8     163     169     166     162      13      26      20      12
       8     171     172     164     173      30      31      16      32
       8     174     175     172     171      36      37      31      30
       8     176     177     175     174      40      41      37      36
       8     178     176     174     179      44      40      36      45
       8     180     165     164     172      48      17      16      31
       8     171     181     179     174      30      50      45      36
       8     156     159     173     164       0       3      32      16
       8     182     169     163     165      52      26      13      17
       8     183     182     165     180      54      52      17      48
       8     184     183     180     185      56      54      48      57
       8     175     185     180     172      37      57      48      31
       8     186     187     181     171      60      61      50      30
       8     188     186     171     173      64      60      30      32
       8     189     188     173     159      66      64      32       3
       8     190     160     158     191      68       8       2      69
       8     192     191     158     157      72      69       2       1
       8     168     192     157     162      22      72       1      12
       8     193     170     169     182      74      27      26      52
       8     194     193     182     183      76      74      52      54
       8     195     194     183     184      78      76      54      56
       8     196     195     184     197      80      78      56      81
       8     198     197     184     185      84      81      56      57
       8     177     198     185     175      41      84      57      37
       8     199     178     179     181      86      44      45      50
       8     200     199     181     187      88      86      50      61
       8     201     200     187     202      90      88      61      91
       8     203     202     187     186      94      91      61      60
       8     204     203     186     188      96      94      60      64
       8     205     204     188     189      98      96      64      66
       8     206     205     189     207     100      98      66     101
       8     161     207     189     159       9     101      66       3
       8     208     209     160     190     104     105       8      68
       8     210     208     190     191     108     104      68      69
       8     211     210     191     192     110     108      69      72
       8     212     211     192     168     112     110      72      22
       8     213     212     168     167     114     112      22      21
       8     214     213     167     170     116     114      21      27
       8     215     214     170     193     118     116      27      74
       8     216     215     193     194     120     118      74      76
       8     217     216     194     195     122     120      76      78
       8     218     217     195     196     124     122      78      80
       8     219     218     196     197     126     124      80      81
       8     220     219     197     198     128     126      81      84
       8     221     220     198     177     130     128      84      41
       8     222     221     177     176     132     130      41      40
       8     223     222     176     178     134     132      40      44
       8     224     223     178     199     136     134      44      86
       8     225     224     199     200     138     136      86      88
       8     226     225     200     201     140     138      88      90
       8     227     226     201     202     142     140      90      91
       8     228     227     202     203     144     142      91      94
       8     229     228     203     204     146     144      94      96
       8     230     229     204     205     148     146      96      98
       8     231     230     205     206     150     148      98     100
       8     232     231     206     207     152     150     100     101
       8     233     232     207     161     154     152     101       9
       8     209     233     161     160     105     154       9       8
       8     234     235     236     237     156     157     158     159
       8     236     238     239     237     158     160     161     159
       8     240     235     234     241     162     157     156     163
       8     234     242     243     241     156     164     165     163
       8     244     245     246     240     166     167     168     162
       8     247     248     245     244     169     170     167     166
       8     241     247     244     240     163     169     166     162
       8     249     250     242     251     171     172     164     173
       8     252     253     250     249     174     175     172     171
       8     254     255     253     252     176     177     175     174
       8     256     254     252     257     178     176     174     179
       8     258     243     242     250     180     165     164     172
       8     249     259     257     252     171     181     179     174
       8     234     237     251     242     156     159     173     164
       8     260     247     241     243     182     169     163     165
       8     261     260     243     258     183     182     165     180
       8     262     261     258     263     184     183     180     185
       8     253     263     258     250     175     185     180     172
       8     264     265     259     249     186     187     181     171
       8     266     264     249     251     188     186     171     173
       8     267     266     251     237     189     188     173     159
       8     268     238     236     269     190     160     158     191
       8     270     269     236     235     192     191     158     157
       8     246     270     235     240     168     192     157     162
       8     271     248     247     260     193     170     169     182
       8     272     271     260     261     194     193     182     183
       8     273     272     261     262     195     194     183     184
       8     274     273     262     275     196     195     184     197
       8     276     275     262     263     198     197     184     185
       8     255     276     263     253     177     198     185     175
       8     277     256     257     259     199     178     179     181
       8     278     277     259     265     200     199     181     187
       8     279     278     265     280     201     200     187     202
       8     281     280     265     264     203     202     187     186
       8     282     281     264     266     204     203     186     188
       8     283     282     266     267     205     204     188     189
       8     284     283     267     285     206     205     189     207
       8     239     285     267     237     161     207     189     159
       8     286     287     238     268     208     209     160     190
       8     288     286     268     269     210     208     190     191
       8     289     288     269     270     211     210     191     192
       8     290     289     270     246     212     211     192     168
       8     291     290     246     245     213     212     168     167
       8     292     291     245     248     214     213     167     170
       8     293     292     248     271     215     214     170     193
       8     294     293     271     272     216     215     193     194
       8     295     294     272     273     217     216     194     195
       8     296     295     273     274     218     217     195     196
       8     297     296     274     275     219     218     196     197
       8     298     297     275     276     220     219     197     198
       8     299     298     276     255     221     220     198     177
       8     300     299     255     254     222     221     177     176
       8     301     300     254     256     223     222     176     178
       8     302     301     256     277     224     223     178     199
       8     303     302     277     278     225     224     199     200
       8     304     303     278     279     226     225     200     201
       8     305     304     279     280     227     226     201     202
       8     306     305     280     281     228     227     202     203
       8     307     306     281     282     229     228     203     204
       8     308     307     282     283     230     229     204     205
       8     309     308     283     284     231     230     205     206
       8     310     309     284     285     232     231     206     207
       8     311     310     285     239     233     232     207     161
       8     287     311     239     238     209     233     161     160
       8     312     313     314     315     234     235     236     237
       8     314     316     317     315     236     238     239     237
       8     318     313     312     319     240     235     234     241
       8     312     320     321     319     234     242     243     241
       8     322     323     324     318     244     245     246     240
       8     325     326     323     322     247     248     245     244
       8     319     325     322     318     241     247     244     240
       8     327     328     320     329     249     250     242     251
       8     330     331     328     327     252     253     250     249
       8     332     333     331     330     254     255     253     252
       8     334     332     330     335     256     254     252     257
       8     336     321     320     328     258     243     242     250
       8     327     337     335     330     249     259     257     252
       8     312     315     329     320     234     237     251     242
       8     338     325     319     321     260     247     241     243
       8     339     338     321     336     261     260     243     258
       8     340     339     336     341     262     261     258     263
       8     331     341     336     328     253     263     258     250
       8     342     343     337     327     264     265     259     249
       8     344     342     327     329     266     264     249     251
       8     345     344     329     315     267     266     251     237
       8     346     316     314     347     268     238     236     269
       8     348     347     314     313     270     269     236     235
       8     324     348     313     318     246     270     235     240
       8     349     326     325     338     271     248     247     260
       8     350     349     338     339     272     271     260     261
       8     351     350     339     340     273     272     261     262
       8     352     351     340     353     274     273     262     275
       8     354     353     340     341     276     275     262     263
       8     333     354     341     331     255     276     263     253
       8     355     334     335     337     277     256     257     259
       8     356     355     337     343     278     277     259     265
       8     357     356     343     358     279     278     265     280
       8     359     358     343     342     281     280     265     264
       8     360     359     342     344     282     281     264     266
       8     361     360     344     345     283     282     266     267
       8     362     361     345     363     284     283     267     285
       8     317     363     345     315     239     285     267     237
       8     364     365     316     346     286     287     238     268
       8     366     364     346     347     288     286     268     269
       8     367     366     347     348     289     288     269     270
       8     368     367     348     324     290     289     270     246
       8     369     368     324     323     291     290     246     245
       8     370     369     323     326     292     291     245     248
       8     371     370     326     349     293     292     248     271
       8     372     371     349     350     294     293     271     272
       8     373     372     350     351     295     294     272     273
       8     374     373     351     352     296     295     273     274
       8     375     374     352     353     297     296     274     275
       8     376     375     353     354     298     297     275     276
       8     377     376     354     333     299     298     276     255
       8     378     377     333     332     300     299     255     254
       8     379     378     332     334     301     300     254     256
       8     380     379     334     355     302     301     256     277
       8     381     380     355     356     303     302     277     278
       8     382     381     356     357     304     303     278     279
       8     383     382     357     358     305     304     279     280
       8     384     383     358     359     306     305     280     281
       8     385     384     359     360     307     306     281     282
       8     386     385     360     361     308     307     282     283
       8     387     386     361     362     309     308     283     284
       8     388     387     362     363     310     309     284     285
       8     389     388     363     317     311     310     285     239
       8     365     389     317     316     287     311     239     238
       8     390     391     392     393     312     313     314     315
       8     392     394     395     393     314     316     317     315
       8     396     391     390     397     318     313     312     319
       8     390     398     399     397     312     320     321     319
       8     400     401     402     396     322     323     324     318
       8     403     404     401     400     325     326     323     322
       8     397     403     400     396     319     325     322     318
       8     405     406     398     407     327     328     320     329
       8     408     409     406     405     330     331     328     327
       8     410     411     409     408     332     333     331     330
       8     412     410     408     413     334     332     330     335
       8     414     399     398     406     336     321     320     328
       8     405     415     413     408     327     337     335     330
       8     390     393     407     398     312     315     329     320
       8     416     403     397     399     338     325     319     321
       8     417     416     399     414     339     338     321     336
       8     418     417     414     419     340     339     336     341
       8     409     419     414     406     331     341     336     328
       8     420     421     415     405     342     343     337     327
       8     422     420     405     407     344     342     327     329
       8     423     422     407     393     345     344     329     315
       8     424     394     392     425     346     316     314     347
       8     426     425     392     391     348     347     314     313
       8     402     426     391     396     324     348     313     318
       8     427     404     403     416     349     326     325     338
       8     428     427     416     417     350     349     338     339
       8     429     428     417     418     351     350     339     340
       8     430     429     418     431     352     351     340     353
       8     432     431     418     419     354     353     340     341
       8     411     432     419     409     333     354     341     331
       8     433     412     413     415     355     334     335     337
       8     434     433     415     421     356     355     337     343
       8     435     434     421     436     357     356     343     358
       8     437     436     421     420     359     358     343     342
       8     438     437     420     422     360     359     342     344
       8     439     438     422     423     361     360     344     345
       8     440     439     423     441     362     361     345     363
       8     395     441     423     393     317     363     345     315
       8     442     443     394     424     364     365     316     346
       8     444     442     424     425     366     364     346     347
       8     445     444     425     426     367     366     347     348
       8     446     445     426     402     368     367     348     324
       8     447     446     402     401     369     368     324     323
       8     448     447     401     404     370     369     323     326
       8     449     448     404     427     371     370     326     349
       8     450     449     427     428     372     371     349     350
       8     451     450     428     429     373     372     350     351
       8     452     451     429     430     374     373     351     352
       8     453     452     430     431     375     374     352     353
       8     454     453     431     432     376     375     353     354
       8     455     454     432     411     377     376     354     333
       8     456     455     411     410     378     377     333     332
       8     457     456     410     412     379     378     332     334
       8     458     457     412     433     380     379     334     355
       8     459     458     433     434     381     380     355     356
       8     460     459     434     435     382     381     356     357
       8     461     460     435     436     383     382     357     358
       8     462     461     436     437     384     383     358     359
       8     463     462     437     438     385     384     359     360
       8     464     463     438     439     386     385     360     361
       8     465     464     439     440     387     386     361     362
       8     466     465     440     441     388     387     362     363
       8     467     466     441     395     389     388     363     317
       8     443     467     395     394     365     389     317     316
       8     468     469     470     471     390     391     392     393
       8     470     472     473     471     392     394     395     393
       8     474     469     468     475     396     391     390     397
       8     468     476     477     475     390     398     399     397
       8     478     479     480     474     400     401     402     396
       8     481     482     479     478     403     404     401     400
       8     475     481     478     474     397     403     400     396
       8     483     484     476     485     405     406     398     407
       8     486     487     484     483     408     409     406     405
       8     488     489     487     486     410     411     409     408
       8     490     488     486     491     412     410     408     413
       8     492     477     476     484     414     399     398     406
       8     483     493     491     486     405     415     413     408
       8     468     471     485     476     390     393     407     398
       8     494     481     475     477     416     403     397     399
       8     495     494     477     492     417     416     399     414
       8     496     495     492     497     418     417     414     419
       8     487     497     492     484     409     419     414     406
       8     498     499     493     483     420     421     415     405
       8     500     498     483     485     422     420     405     407
       8     501     500     485     471     423     422     407     393
       8     502     472     470     503     424     394     392     425
       8     504     503     470     469     426     425     392     391
       8     480     504     469     474     402     426     391     396
       8     505     482     481     494     427     404     403     416
       8     506     505     494     495     428     427     416     417
       8     507     506     495     496     429     428     417     418
       8     508     507     496     509     430     429     418     431
       8     510     509     496     497     432     431     418     419
       8     489     510     497     487     411     432     419     409
       8     511     490     491     493     433     412     413     415
       8     512     511     493     499     434     433     415     421
       8     513     512     499     514     435     434     421     436
       8     515     514     499     498     437     436     421     420
       8     516     515     498     500     438     437     420     422
       8     517     516     500     501     439     438     422     423
       8     518     517     501     519     440     439     423     441
       8     473     519     501     471     395     441     423     393
       8     520     521     472     502     442     443     394     424
       8     522     520     502     503     444     442     424     425
       8     523     522     503     504     445     444     425     426
       8     524     523     504     480     446     445     426     402
       8     525     524     480     479     447     446     402     401
       8     526     525     479     482     448     447     401     404
       8     527     526     482     505     449     448     404     427
       8     528     527     505     506     450     449     427     428
       8     529     528     506     507     451     450     428     429
       8     530     529     507     508     452     451     429     430
       8     531     530     508     509     453     452     430     431
       8     532     531     509     510     454     453     431     432
       8     533     532     510     489     455     454     432     411
       8     534     533     489     488     456     455     411     410
       8     535     534     488     490     457     456     410     412
       8     536     535     490     511     458     457     412     433
       8     537     536     511     512     459     458     433     434
       8     538     537     512     513     460     459     434     435
       8     539     538     513     514     461     460     435     436
       8     540     539     514     515     462     461     436     437
       8     541     540     515     516     463     462     437     438
       8     542     541     516     517     464     463     438     439
       8     543     542     517     518     465     464     439     440
       8     544     543     518     519     466     465     440     441
       8     545     544     519     473     467     466     441     395
       8     521     545     473     472     443     467     395     394
       8     546     547     548     549     468     469     470     471
       8     548     550     551     549     470     472     473     471
       8     552     547     546     553     474     469     468     475
       8     546     554     555     553     468     476     477     475
       8     556     557     558     552     478     479     480     474
       8     559     560     557     556     481     482     479     478
       8     553     559     556     552     475     481     478     474
       8     561     562     554     563     483     484     476     485
       8     564     565     562     561     486     487     484     483
       8     566     567     565     564     488     489     487     486
       8     568     566     564     569     490     488     486     491
       8     570     555     554     562     492     477     476     484
       8     561     571     569     564     483     493     491     486
       8     546     549     563     554     468     471     485     476
       8     572     559     553     555     494     481     475     477
       8     573     572     555     570     495     494     477     492
       8     574     573     570     575     496     495     492     497
       8     565     575     570     562     487     497     492     484
       8     576     577     571     561     498     499     493     483
       8     578     576     561     563     500     498     483     485
       8     579     578     563     549     501     500     485     471
       8     580     550     548     581     502     472     470     503
       8     582     581     548     547     504     503     470     469
       8     558     582     547     552     480     504     469     474
       8     583     560     559     572     505     482     481     494
       8     584     583     572     573     506     505     494     495
       8     585     584     573     574     507     506     495     496
       8     586     585     574     587     508     507     496     509
       8     588     587     574     575     510     509     496     497
       8     567     588     575     565     489     510     497     487
       8     589     568     569     571     511     490     491     493
       8     590     589     571     577     512     511     493     499
       8     591     590     577     592     513     512     499     514
       8     593     592     577     576     515     514     499     498
       8     594     593     576     578     516     515     498     500
       8     595     594     578     579     517     516     500     501
       8     596     595     579     597     518     517     501     519
       8     551     597     579     549     473     519     501     471
       8     598     599     550     580     520     521     472     502
       8     600     598     580     581     522     520     502     503
       8     601     600     581     582     523     522     503     504
       8     602     601     582     558     524     523     504     480
       8     603     602     558     557     525     524     480     479
       8     604     603     557     560     526     525     479     482
       8     605     604     560     583     527     526     482     505
       8     606     605     583     584     528     527     505     506
       8     607     606     584     585     529     528     506     507
       8     608     607     585     586     530     529     507     508
       8     609     608     586     587     531     530     508     509
       8     610     609     587     588     532     531     509     510
       8     611     610     588     567     533     532     510     489
       8     612     611     567     566     534     533     489     488
       8     613     612     566     568     535     534     488     490
       8     614     613     568     589     536     535     490     511
       8     615     614     589     590     537     536     511     512
       8     616     615     590     591     538     537     512     513
       8     617     616     591     592     539     538     513     514
       8     618     617     592     593     540     539     514     515
       8     619     618     593     594     541     540     515     516
       8     620     619     594     595     542     541     516     517
       8     621     620     595     596     543     542     517     518
       8     622     621     596     597     544     543     518     519
       8     623     622     597     551     545     544     519     473
       8     599     623     551     550     521     545     473     472
       8     624     625     626     627     546     547     548     549
       8     626     628     629     627     548     550     551     549
       8     630     625     624     631     552     547     546     553
       8     624     632     633     631     546     554     555     553
       8     634     635     636     630     556     557     558     552
       8     637     638     635     634     559     560     557     556
       8     631     637     634     630     553     559     556     552
       8     639     640     632     641     561     562     554     563
       8     642     643     640     639     564     565     562     561
       8     644     645     643     642     566     567     565     564
       8     646     644     642     647     568     566     564     569
       8     648     633     632     640     570     555     554     562
       8     639     649     647     642     561     571     569     564
       8     624     627     641     632     546     549     563     554
       8     650     637     631     633     572     559     553     555
       8     651     650     633     648     573     572     555     570
       8     652     651     648     653     574     573     570     575
       8     643     653     648     640     565     575     570     562
       8     654     655     649     639     576     577     571     561
       8     656     654     639     641     578     576     561     563
       8     657     656     641     627     579     578     563     549
       8     658     628     626     659     580     550     548     581
       8     660     659     626     625     582     581     548     547
       8     636     660     625     630     558     582     547     552
       8     661     638     637     650     583     560     559     572
       8     662     661     650     651     584     583     572     573
       8     663     662     651     652     585     584     573     574
       8     664     663     652     665     586     585     574     587
       8     666     665     652     653     588     587     574     575
       8     645     666     653     643     567     588     575     565
       8     667     646     647     649     589     568     569     571
       8     668     667     649     655     590     589     571     577
       8     669     668     655     670     591     590     577     592
       8     671     670     655     654     593     592     577     576
       8     672     671     654     656     594     593     576     578
       8     673     672     656     657     595     594     578     579
       8     674     673     657     675     596     595     579     597
       8     629     675     657     627     551     597     579     549
       8     676     677     628     658     598     599     550     580
       8     678     676     658     659     600     598     580     581
       8     679     678     659     660     601     600     581     582
       8     680     679     660     636     602     601     582     558
       8     681     680     636     635     603     602     558     557
       8     682     681     635     638     604     603     557     560
       8     683     682     638     661     605     604     560     583
       8     684     683     661     662     606     605     583     584
       8     685     684     662     663     607     606     584     585
       8     686     685     663     664     608     607     585     586
       8     687     686     664     665     609     608     586     587
       8     688     687     665     666     610     609     587     588
       8     689     688     666     645     611     610     588     567
       8     690     689     645     644     612     611     567     566
       8     691     690     644     646     613     612     566     568
       8     692     691     646     667     614     613     568     589
       8     693     692     667     668     615     614     589     590
       8     694     693     668     669     616     615     590     591
       8     695     694     669     670     617     616     591     592
       8     696     695     670     671     618     617     592     593
       8     697     696     671     672     619     618     593     594
       8     698     697     672     673     620     619     594     595
       8     699     698     673     674     621     620     595     596
       8     700     699     674     675     622     621     596     597
       8     701     700     675     629     623     622     597     551
       8     677     701     629     628     599     623     551     550
       8     702     703     704     705     624     625     626     627
       8     704     706     707     705     626     628     629     627
       8     708     703     702     709     630     625     624     631
       8     702     710     711     709     624     632     633     631
       8     712     713     714     708     634     635     636     630
       8     715     716     713     712     637     638     635     634
       8     709     715     712     708     631     637     634     630
       8     717     718     710     719     639     640     632     641
       8     720     721     718     717     642     643     640     639
       8     722     723     721     720     644     645     643     642
       8     724     722     720     725     646     644     642     647
       8     726     711     710     718     648     633     632     640
       8     717     727     725     720     639     649     647     642
       8     702     705     719     710     624     627     641     632
       8     728     715     709     711     650     637     631     633
       8     729     728     711     726     651     650     633     648
       8     730     729     726     731     652     651     648     653
       8     721     731     726     718     643     653     648     640
       8     732     733     727     717     654     655     649     639
       8     734     732     717     719     656     654     639     641
       8     735     734     719     705     657     656     641     627
       8     736     706     704     737     658     628     626     659
       8     738     737     704     703     660     659     626     625
       8     714     738     703     708     636     660     625     630
       8     739     716     715     728     661     638     637     650
       8     740     739     728     729     662     661     650     651
       8     741     740     729     730     663     662     651     652
       8     742     741     730     743     664     663     652     665
       8     744     743     730     731     666     665     652     653
       8     723     744     731     721     645     666     653     643
       8     745     724     725     727     667     646     647     649
       8     746     745     727     733     668     667     649     655
       8     747     746     733     748     669     668     655     670
       8     749     748     733     732     671     670     655     654
       8     750     749     732     734     672     671     654     656
       8     751     750     734     735     673     672     656     657
       8     752     751     735     753     674     673     657     675
       8     707     753     735     705     629     675     657     627
       8     754     755     706     736     676     677     628     658
       8     756     754     736     737     678     676     658     659
       8     757     756     737     738     679     678     659     660
       8     758     757     738     714     680     679     660     636
       8     759     758     714     713     681     680     636     635
       8     760     759     713     716     682     681     635     638
       8     761     760     716     739     683     682     638     661
       8     762     761     739     740     684     683     661     662
       8     763     762     740     741     685     684     662     663
       8     764     763     741     742     686     685     663     664
       8     765     764     742     743     687     686     664     665
       8     766     765     743     744     688     687     665     666
       8     767     766     744     723     689     688     666     645
       8     768     767     723     722     690     689     645     644
       8     769     768     722     724     691     690     644     646
       8     770     769     724     745     692     691     646     667
       8     771     770     745     746     693     692     667     668
       8     772     771     746     747     694     693     668     669
       8     773     772     747     748     695     694     669     670
       8     774     773     748     749     696     695     670     671
       8     775     774     749     750     697     696     671     672
       8     776     775     750     751     698     697     672     673
       8     777     776     751     752     699     698     673     674
       8     778     777     752     753     700     699     674     675
       8     779     778     753     707     701     700     675     629
       8     755     779     707     706     677     701     629     628
       8     780     781     782     783     702     703     704     705
       8     782     784     785     783     704     706     707     705
       8     786     781     780     787     708     703     702     709
       8     780     788     789     787     702     710     711     709
       8     790     791     792     786     712     713     714     708
       8     793     794     791     790     715     716     713     712
       8     787     793     790     786     709     715     712     708
       8     795     796     788     797     717     718     710     719
       8     798     799     796     795     720     721     718     717
       8     800     801     799     798     722     723     721     720
       8     802     800     798     803     724     722     720     725
       8     804     789     788     796     726     711     710     718
       8     795     805     803     798     717     727     725     720
       8     780     783     797     788     702     705     719     710
       8     806     793     787     789     728     715     709     711
       8     807     806     789     804     729     728     711     726
       8     808     807     804     809     730     729     726     731
       8     799     809     804     796     721     731     726     718
       8     810     811     805     795     732     733     727     717
       8     812     810     795     797     734     732     717     719
       8     813     812     797     783     735     734     719     705
       8     814     784     782     815     736     706     704     737
       8     816     815     782     781     738     737     704     703
       8     792     816     781     786     714     738     703     708
       8     817     794     793     806     739     716     715     728
       8     818     817     806     807     740     739     728     729
       8     819     818     807     808     741     740     729     730
       8     820     819     808     821     742     741     730     743
       8     822     821     808     809     744     743     730     731
       8     801     822     809     799     723     744     731     721
       8     823     802     803     805     745     724     725     727
       8     824     823     805     811     746     745     727     733
       8     825     824     811     826     747     746     733     748
       8     827     826     811     810     749     748     733     732
       8     828     827     810     812     750     749     732     734
       8     829     828     812     813     751     750     734     735
       8     830     829     813     831     752     751     735     753
       8     785     831     813     783     707     753     735     705
       8     832     833     784     814     754     755     706     736
       8     834     832     814     815     756     754     736     737
       8     835     834     815     816     757     756     737     738
       8     836     835     816     792     758     757     738     714
       8     837     836     792     791     759     758     714     713
       8     838     837     791     794     760     759     713     716
       8     839     838     794     817     761     760     716     739
       8     840     839     817     818     762     761     739     740
       8     841     840     818     819     763     762     740     741
       8     842     841     819     820     764     763     741     742
       8     843     842     820     821     765     764     742     743
       8     844     843     821     822     766     765     743     744
       8     845     844     822     801     767     766     744     723
       8     846     845     801     800     768     767     723     722
       8     847     846     800     802     769     768     722     724
       8     848     847     802     823     770     769     724     745
       8     849     848     823     824     771     770     745     746
       8     850     849     824     825     772     771     746     747
       8     851     850     825     826     773     772     747     748
       8     852     851     826     827     774     773     748     749
       8     853     852     827     828     775     774     749     750
       8     854     853     828     829     776     775     750     751
       8     855     854     829     830     777     776     751     752
       8     856     855     830     831     778     777     752     753
       8     857     856     831     785     779     778     753     707
       8     833     857     785     784     755     779     707     706
       8     858     859     860     861     780     781     782     783
       8     860     862     863     861     782     784     785     783
       8     864     859     858     865     786     781     780     787
       8     858     866     867     865     780     788     789     787
       8     868     869     870     864     790     791     792     786
       8     871     872     869     868     793     794     791     790
       8     865     871     868     864     787     793     790     786
       8     873     874     866     875     795     796     788     797
       8     876     877     874     873     798     799     796     795
       8     878     879     877     876     800     801     799     798
       8     880     878     876     881     802     800     798     803
       8     882     867     866     874     804     789     788     796
       8     873     883     881     876     795     805     803     798
       8     858     861     875     866     780     783     797     788
       8     884     871     865     867     806     793     787     789
       8     885     884     867     882     807     806     789     804
       8     886     885     882     887     808     807     804     809
       8     877     887     882     874     799     809     804     796
       8     888     889     883     873     810     811     805     795
       8     890     888     873     875     812     810     795     797
       8     891     890     875     861     813     812     797     783
       8     892     862     860     893     814     784     782     815
       8     894     893     860     859     816     815     782     781
       8     870     894     859     864     792     816     781     786
       8     895     872     871     884     817     794     793     806
       8     896     895     884     885     818     817     806     807
       8     897     896     885     886     819     818     807     808
       8     898     897     886     899     820     819     808     821
       8     900     899     886     887     822     821     808     809
       8     879     900     887     877     801     822     809     799
       8     901     880     881     883     823     802     803     805
       8     902     901     883     889     824     823     805     811
       8     903     902     889     904     825     824     811     826
       8     905     904     889     888     827     826     811     810
       8     906     905     888     890     828     827     810     812
       8     907     906     890     891     829     828     812     813
       8     908     907     891     909     830     829     813     831
       8     863     909     891     861     785     831     813     783
       8     910     911     862     892     832     833     784     814
       8     912     910     892     893     834     832     814     815
       8     913     912     893     894     835     834     815     816
       8     914     913     894     870     836     835     816     792
       8     915     914     870     869     837     836     792     791
       8     916     915     869     872     838     837     791     794
       8     917     916     872     895     839     838     794     817
       8     918     917     895     896     840     839     817     818
       8     919     918     896     897     841     840     818     819
       8     920     919     897     898     842     841     819     820
       8     921     920     898     899     843     842     820     821
       8     922     921     899     900     844     843     821     822
       8     923     922     900     879     845     844     822     801
       8     924     923     879     878     846     845     801     800
       8     925     924     878     880     847     846     800     802
       8     926     925     880     901     848     847     802     823
       8     927     926     901     902     849     848     823     824
       8     928     927     902     903     850     849     824     825
       8     929     928     903     904     851     850     825     826
       8     930     929     904     905     852     851     826     827
       8     931     930     905     906     853     852     827     828
       8     932     931     906     907     854     853     828     829
       8     933     932     907     908     855     854     829     830
       8     934     933     908     909     856     855     830     831
       8     935     934     909     863     857     856     831     785
       8     911     935     863     862     833     857     785     784
       8     936     937     938     939     858     859     860     861
       8     938     940     941     939     860     862     863     861
       8     942     937     936     943     864     859     858     865
       8     936     944     945     943     858     866     867     865
       8     946     947     948     942     868     869     870     864
       8     949     950     947     946     871     872     869     868
       8     943     949     946     942     865     871     868     864
       8     951     952     944     953     873     874     866     875
       8     954     955     952     951     876     877     874     873
       8     956     957     955     954     878     879     877     876
       8     958     956     954     959     880     878     876     881
       8     960     945     944     952     882     867     866     874
       8     951     961     959     954     873     883     881     876
       8     936     939     953     944     858     861     875     866
       8     962     949     943     945     884     871     865     867
       8     963     962     945     960     885     884     867     882
       8     964     963     960     965     886     885     882     887
       8     955     965     960     952     877     887     882     874
       8     966     967     961     951     888     889     883     873
       8     968     966     951     953     890     888     873     875
       8     969     968     953     939     891     890     875     861
       8     970     940     938     971     892     862     860     893
       8     972     971     938     937     894     893     860     859
       8     948     972     937     942     870     894     859     864
       8     973     950     949     962     895     872     871     884
       8     974     973     962     963     896     895     884     885
       8     975     974     963     964     897     896     885     886
       8     976     975     964     977     898     897     886     899
       8     978     977     964     965     900     899     886     887
       8     957     978     965     955     879     900     887     877
       8     979     958     959     961     901     880     881     883
       8     980     979     961     967     902     901     883     889
       8     981     980     967     982     903     902     889     904
       8     983     982     967     966     905     904     889     888
       8     984     983     966     968     906     905     888     890
       8     985     984     968     969     907     906     890     891
       8     986     985     969     987     908     907     891     909
       8     941     987     969     939     863     909     891     861
       8     988     989     940     970     910     911     862     892
       8     990     988     970     971     912     910     892     893
       8     991     990     971     972     913     912     893     894
       8     992     991     972     948     914     913     894     870
       8     993     992     948     947     915     914     870     869
       8     994     993     947     950     916     915     869     872
       8     995     994     950     973     917     916     872     895
       8     996     995     973     974     918     917     895     896
       8     997     996     974     975     919     918     896     897
       8     998     997     975     976     920     919     897     898
       8     999     998     976     977     921     920     898     899
       8    1000     999     977     978     922     921     899     900
       8    1001    1000     978     957     923     922     900     879
       8    1002    1001     957     956     924     923     879     878
       8    1003    1002     956     958     925     924     878     880
       8    1004    1003     958     979     926     925     880     901
       8    1005    1004     979     980     927     926     901     902
       8    1006    1005     980     981     928     927     902     903
       8    1007    1006     981     982     929     928     903     904
       8    1008    1007     982     983     930     929     904     905
       8    1009    1008     983     984     931     930     905     906
       8    1010    1009     984     985     932     931     906     907
       8    1011    1010     985     986     933     932     907     908
       8    1012    1011     986     987     934     933     908     909
       8    1013    1012     987     941     935     934     909     863
       8     989    1013     941     940     911     935     863     862
       8    1014    1015    1016    1017     936     937     938     939
       8    1016    1018    1019    1017     938     940     941     939
       8    1020    1015    1014    1021     942     937     936     943
       8    1014    1022    1023    1021     936     944     945     943
       8    1024    1025    1026    1020     946     947     948     942
       8    1027    1028    1025    1024     949     950     947     946
       8    1021    1027    1024    1020     943     949     946     942
       8    1029    1030    1022    1031     951     952     944     953
       8    1032    1033    1030    1029     954     955     952     951
       8    1034    1035    1033    1032     956     957     955     954
       8    1036    1034    1032    1037     958     956     954     959
       8    1038    1023    1022    1030     960     945     944     952
       8    1029    1039    1037    1032     951     961     959     954
       8    1014    1017    1031    1022     936     939     953     944
       8    1040    1027    1021    1023     962     949     943     945
       8    1041    1040    1023    1038     963     962     945     960
       8    1042    1041    1038    1043     964     963     960     965
       8    1033    1043    1038    1030     955     965     960     952
       8    1044    1045    1039    1029     966     967     961     951
       8    1046    1044    1029    1031     968     966     951     953
       8    1047    1046    1031    1017     969     968     953     939
       8    1048    1018    1016    1049     970     940     938     971
       8    1050    1049    1016    1015     972     971     938     937
       8    1026    1050    1015    1020     948     972     937     942
       8    1051    1028    1027    1040     973     950     949     962
       8    1052    1051    1040    1041     974     973     962     963
       8    1053    1052    1041    1042     975     974     963     964
       8    1054    1053    1042    1055     976     975     964     977
       8    1056    1055    1042    1043     978     977     964     965
       8    1035    1056    1043    1033     957     978     965     955
       8    1057    1036    1037    1039     979     958     959     961
       8    1058    1057    1039    1045     980     979     961     967
       8    1059    1058    1045    1060     981     980     967     982
       8    1061    1060    1045    1044     983     982     967     966
       8    1062    1061    1044    1046     984     983     966     968
       8    1063    1062    1046    1047     985     984     968     969
       8    1064    1063    1047    1065     986     985     969     987
       8    1019    1065    1047    1017     941     987     969     939
       8    1066    1067    1018    1048     988     989     940     970
       8    1068    1066    1048    1049     990     988     970     971
       8    1069    1068    1049    1050     991     990     971     972
       8    1070    1069    1050    1026     992     991     972     948
       8    1071    1070    1026    1025     993     992     948     947
       8    1072    1071    1025    1028     994     993     947     950
       8    1073    1072    1028    1051     995     994     950     973
       8    1074    1073    1051    1052     996     995     973     974
       8    1075    1074    1052    1053     997     996     974     975
       8    1076    1075    1053    1054     998     997     975     976
       8    1077    1076    1054    1055     999     998     976     977
       8    1078    1077    1055    1056    1000     999     977     978
       8    1079    1078    1056    1035    1001    1000     978     957
       8    1080    1079    1035    1034    1002    1001     957     956
       8    1081    1080    1034    1036    1003    1002     956     958
       8    1082    1081    1036    1057    1004    1003     958     979
       8    1083    1082    1057    1058    1005    1004     979     980
       8    1084    1083    1058    1059    1006    1005     980     981
       8    1085    1084    1059    1060    1007    1006     981     982
       8    1086    1085    1060    1061    1008    1007     982     983
       8    1087    1086    1061    1062    1009    1008     983     984
       8    1088    1087    1062    1063    1010    1009     984     985
       8    1089    1088    1063    1064    1011    1010     985     986
       8    1090    1089    1064    1065    1012    1011     986     987
       8    1091    1090    1065    1019    1013    1012     987     941
       8    1067    1091    1019    1018     989    1013     941     940
       8    1092    1093    1094    1095    1014    1015    1016    1017
       8    1094    1096    1097    1095    1016    1018    1019    1017
       8    1098    1093    1092    1099    1020    1015    1014    1021
       8    1092    1100    1101    1099    1014    1022    1023    1021
       8    1102    1103    1104    1098    1024    1025    1026    1020
       8    1105    1106    1103    1102    1027    1028    1025    1024
       8    1099    1105    1102    1098    1021    1027    1024    1020
       8    1107    1108    1100    1109    1029    1030    1022    1031
       8    1110    1111    1108    1107    1032    1033    1030    1029
       8    1112    1113    1111    1110    1034    1035    1033    1032
       8    1114    1112    1110    1115    1036    1034    1032    1037
       8    1116    1101    1100    1108    1038    1023    1022    1030
       8    1107    1117    1115    1110    1029    1039    1037    1032
       8    1092    1095    1109    1100    1014    1017    1031    1022
       8    1118    1105    1099    1101    1040    1027    1021    1023
       8    1119    1118    1101    1116    1041    1040    1023    1038
       8    1120    1119    1116    1121    1042    1041    1038    1043
       8    1111    1121    1116    1108    1033    1043    1038    1030
       8    1122    1123    1117    1107    1044    1045    1039    1029
       8    1124    1122    1107    1109    1046    1044    1029    1031
       8    1125    1124    1109    1095    1047    1046    1031    1017
       8    1126    1096    1094    1127    1048    1018    1016    1049
       8    1128    1127    1094    1093    1050    1049    1016    1015
       8    1104    1128    1093    1098    1026    1050    1015    1020
       8    1129    1106    1105    1118    1051    1028    1027    1040
       8    1130    1129    1118    1119    1052    1051    1040    1041
       8    1131    1130    1119    1120    1053    1052    1041    1042
       8    1132    1131    1120    1133    1054    1053    1042    1055
       8    1134    1133    1120    1121    1056    1055    1042    1043
       8    1113    1134    1121    1111    1035    1056    1043    1033
       8    1135    1114    1115    1117    1057    1036    1037    1039
       8    1136    1135    1117    1123    1058    1057    1039    1045
       8    1137    1136    1123    1138    1059    1058    1045    1060
       8    1139    1138    1123    1122    1061    1060    1045    1044
       8    1140    1139    1122    1124    1062    1061    1044    1046
       8    1141    1140    1124    1125    1063    1062    1046    1047
       8    1142    1141    1125    1143    1064    1063    1047    1065
       8    1097    1143    1125    1095    1019    1065    1047    1017
       8    1144    1145    1096    1126    1066    1067    1018    1048
       8    1146    1144    1126    1127    1068    1066    1048    1049
       8    1147    1146    1127    1128    1069    1068    1049    1050
       8    1148    1147    1128    1104    1070    1069    1050    1026
       8    1149    1148    1104    1103    1071    1070    1026    1025
       8    1150    1149    1103    1106    1072    1071    1025    1028
       8    1151    1150    1106    1129    1073    1072    1028    1051
       8    1152    1151    1129    1130    1074    1073    1051    1052
       8    1153    1152    1130    1131    1075    1074    1052    1053
       8    1154    1153    1131    1132    1076    1075    1053    1054
       8    1155    1154    1132    1133    1077    1076    1054    1055
       8    1156    1155    1133    1134    1078    1077    1055    1056
       8    1157    1156    1134    1113    1079    1078    1056    1035
       8    1158    1157    1113    1112    1080    1079    1035    1034
       8    1159    1158    1112    1114    1081    1080    1034    1036
       8    1160    1159    1114    1135    1082    1081    1036    1057
       8    1161    1160    1135    1136    1083    1082    1057    1058
       8    1162    1161    1136    1137    1084    1083    1058    1059
       8    1163    1162    1137    1138    1085    1084    1059    1060
       8    1164    1163    1138    1139    1086    1085    1060    1061
       8    1165    1164    1139    1140    1087    1086    1061    1062
       8    1166    1165    1140    1141    1088    1087    1062    1063
       8    1167    1166    1141    1142    1089    1088    1063    1064
       8    1168    1167    1142    1143    1090    1089    1064    1065
       8    1169    1168    1143    1097    1091    1090    1065    1019
       8    1145    1169    1097    1096    1067    1091    1019    1018
       8    1170    1171    1172    1173    1092    1093    1094    1095
       8    1172    1174    1175    1173    1094    1096    1097    1095
       8    1176    1171    1170    1177    1098    1093    1092    1099
       8    1170    1178    1179    1177    1092    1100    1101    1099
       8    1180    1181    1182    1176    1102    1103    1104    1098
       8    1183    1184    1181    1180    1105    1106    1103    1102
       8    1177    1183    1180    1176    1099    1105    1102    1098
       8    1185    1186    1178    1187    1107    1108    1100    1109
       8    1188    1189    1186    1185    1110    1111    1108    1107
       8    1190    1191    1189    1188    1112    1113    1111    1110
       8    1192    1190    1188    1193    1114    1112    1110    1115
       8    1194    1179    1178    1186    1116    1101    1100    1108
       8    1185    1195    1193    1188    1107    1117    1115    1110
       8    1170    1173    1187    1178    1092    1095    1109    1100
       8    1196    1183    1177    1179    1118    1105    1099    1101
       8    1197    1196    1179    1194    1119    1118    1101    1116
       8    1198    1197    1194    1199    1120    1119    1116    1121
       8    1189    1199    1194    1186    1111    1121    1116    1108
       8    1200    1201    1195    1185    1122    1123    1117    1107
       8    1202    1200    1185    1187    1124    1122    1107    1109
       8    1203    1202    1187    1173    1125    1124    1109    1095
       8    1204    1174    1172    1205    1126    1096    1094    1127
       8    1206    1205    1172    1171    1128    1127    1094    1093
       8    1182    1206    1171    1176    1104    1128    1093    1098
       8    1207    1184    1183    1196    1129    1106    1105    1118
       8    1208    1207    1196    1197    1130    1129    1118    1119
       8    1209    1208    1197    1198    1131    1130    1119    1120
       8    1210    1209    1198    1211    1132    1131    1120    1133
       8    1212    1211    1198    1199    1134    1133    1120    1121
       8    1191    1212    1199    1189    1113    1134    1121    1111
       8    1213    1192    1193    1195    1135    1114    1115    1117
       8    1214    1213    1195    1201    1136    1135    1117    1123
       8    1215    1214    1201    1216    1137    1136    1123    1138
       8    1217    1216    1201    1200    1139    1138    1123    1122
       8    1218    1217    1200    1202    1140    1139    1122    1124
       8    1219    1218    1202    1203    1141    1140    1124    1125
       8    1220    1219    1203    1221    1142    1141    1125    1143
       8    1175    1221    1203    1173    1097    1143    1125    1095
       8    1222    1223    1174    1204    1144    1145    1096    1126
       8    1224    1222    1204    1205    1146    1144    1126    1127
       8    1225    1224    1205    1206    1147    1146    1127    1128
       8    1226    1225    1206    1182    1148    1147    1128    1104
       8    1227    1226    1182    1181    1149    1148    1104    1103
       8    1228    1227    1181    1184    1150    1149    1103    1106
       8    1229    1228    1184    1207    1151    1150    1106    1129
       8    1230    1229    1207    1208    1152    1151    1129    1130
       8    1231    1230    1208    1209    1153    1152    1130    1131
       8    1232    1231    1209    1210    1154    1153    1131    1132
       8    1233    1232    1210    1211    1155    1154    1132    1133
       8    1234    1233    1211    1212    1156    1155    1133    1134
       8    1235    1234    1212    1191    1157    1156    1134    1113
       8    1236    1235    1191    1190    1158    1157    1113    1112
       8    1237    1236    1190    1192    1159    1158    1112    1114
       8    1238    1237    1192    1213    1160    1159    1114    1135
       8    1239    1238    1213    1214    1161    1160    1135    1136
       8    1240    1239    1214    1215    1162    1161    1136    1137
       8    1241    1240    1215    1216    1163    1162    1137    1138
       8    1242    1241    1216    1217    1164    1163    1138    1139
       8    1243    1242    1217    1218    1165    1164    1139    1140
       8    1244    1243    1218    1219    1166    1165    1140    1141
       8    1245    1244    1219    1220    1167    1166    1141    1142
       8    1246    1245    1220    1221    1168    1167    1142    1143
       8    1247    1246    1221    1175    1169    1168    1143    1097
       8    1223    1247    1175    1174    1145    1169    1097    1096
       8    1248    1249    1250    1251    1170    1171    1172    1173
       8    1250    1252    1253    1251    1172    1174    1175    1173
       8    1254    1249    1248    1255    1176    1171    1170    1177
       8    1248    1256    1257    1255    1170    1178    1179    1177
       8    1258    1259    1260    1254    1180    1181    1182    1176
       8    1261    1262    1259    1258    1183    1184    1181    1180
       8    1255    1261    1258    1254    1177    1183    1180    1176
       8    1263    1264    1256    1265    1185    1186    1178    1187
       8    1266    1267    1264    1263    1188    1189    1186    1185
       8    1268    1269    1267    1266    1190    1191    1189    1188
       8    1270    1268    1266    1271    1192    1190    1188    1193
       8    1272    1257    1256    1264    1194    1179    1178    1186
       8    1263    1273    1271    1266    1185    1195    1193    1188
       8    1248    1251    1265    1256    1170    1173    1187    1178
       8    1274    1261    1255    1257    1196    1183    1177    1179
       8    1275    1274    1257    1272    1197    1196    1179    1194
       8    1276    1275    1272    1277    1198    1197    1194    1199
       8    1267    1277    1272    1264    1189    1199    1194    1186
       8    1278    1279    1273    1263    1200    1201    1195    1185
       8    1280    1278    1263    1265    1202    1200    1185    1187
       8    1281    1280    1265    1251    1203    1202    1187    1173
       8    1282    1252    1250    1283    1204    1174    1172    1205
       8    1284    1283    1250    1249    1206    1205    1172    1171
       8    1260    1284    1249    1254    1182    1206    1171    1176
       8    1285    1262    1261    1274    1207    1184    1183    1196
       8    1286    1285    1274    1275    1208    1207    1196    1197
       8    1287    1286    1275    1276    1209    1208    1197    1198
       8    1288    1287    1276    1289    1210    1209    1198    1211
       8    1290    1289    1276    1277    1212    1211    1198    1199
       8    1269    1290    1277    1267    1191    1212    1199    1189
       8    1291    1270    1271    1273    1213    1192    1193    1195
       8    1292    1291    1273    1279    1214    1213    1195    1201
       8    1293    1292    1279    1294    1215    1214    1201    1216
       8    1295    1294    1279    1278    1217    1216    1201    1200
       8    1296    1295    1278    1280    1218    1217    1200    1202
       8    1297    1296    1280    1281    1219    1218    1202    1203
       8    1298    1297    1281    1299    1220    1219    1203    1221
       8    1253    1299    1281    1251    1175    1221    1203    1173
       8    1300    1301    1252    1282    1222    1223    1174    1204
       8    1302    1300    1282    1283    1224    1222    1204    1205
       8    1303    1302    1283    1284    1225    1224    1205    1206
       8    1304    1303    1284    1260    1226    1225    1206    1182
       8    1305    1304    1260    1259    1227    1226    1182    1181
       8    1306    1305    1259    1262    1228    1227    1181    1184
       8    1307    1306    1262    1285    1229    1228    1184    1207
       8    1308    1307    1285    1286    1230    1229    1207    1208
       8    1309    1308    1286    1287    1231    1230    1208    1209
       8    1310    1309    1287    1288    1232    1231    1209    1210
       8    1311    1310    1288    1289    1233    1232    1210    1211
       8    1312    1311    1289    1290    1234    1233    1211    1212
       8    1313    1312    1290    1269    1235    1234    1212    1191
       8    1314    1313    1269    1268    1236    1235    1191    1190
       8    1315    1314    1268    1270    1237    1236    1190    1192
       8    1316    1315    1270    1291    1238    1237    1192    1213
       8    1317    1316    1291    1292    1239    1238    1213    1214
       8    1318    1317    1292    1293    1240    1239    1214    1215
       8    1319    1318    1293    1294    1241    1240    1215    1216
       8    1320    1319    1294    1295    1242    1241    1216    1217
       8    1321    1320    1295    1296    1243    1242    1217    1218
       8    1322    1321    1296    1297    1244    1243    1218    1219
       8    1323    1322    1297    1298    1245    1244    1219    1220
       8    1324    1323    1298    1299    1246    1245    1220    1221
       8    1325    1324    1299    1253    1247    1246    1221    1175
       8    1301    1325    1253    1252    1223    1247    1175    1174
       8    1326    1327    1328    1329    1248    1249    1250    1251
       8    1328    1330    1331    1329    1250    1252    1253    1251
       8    1332    1327    1326    1333    1254    1249    1248    1255
       8    1326    1334    1335    1333    1248    1256    1257    1255
       8    1336    1337    1338    1332    1258    1259    1260    1254
       8    1339    1340    1337    1336    1261    1262    1259    1258
       8    1333    1339    1336    1332    1255    1261    1258    1254
       8    1341    1342    1334    1343    1263    1264    1256    1265
       8    1344    1345    1342    1341    1266    1267    1264    1263
       8    1346    1347    1345    1344    1268    1269    1267    1266
       8    1348    1346    1344    1349    1270    1268    1266    1271
       8    1350    1335    1334    1342    1272    1257    1256    1264
       8    1341    1351    1349    1344    1263    1273    1271    1266
       8    1326    1329    1343    1334    1248    1251    1265    1256
       8    1352    1339    1333    1335    1274    1261    1255    1257
       8    1353    1352    1335    1350    1275    1274    1257    1272
       8    1354    1353    1350    1355    1276    1275    1272    1277
       8    1345    1355    1350    1342    1267    1277    1272    1264
       8    1356    1357    1351    1341    1278    1279    1273    1263
       8    1358    1356    1341    1343    1280    1278    1263    1265
       8    1359    1358    1343    1329    1281    1280    1265    1251
       8    1360    1330    1328    1361    1282    1252    1250    1283
       8    1362    1361    1328    1327    1284    1283    1250    1249
       8    1338    1362    1327    1332    1260    1284    1249    1254
       8    1363    1340    1339    1352    1285    1262    1261    1274
       8    1364    1363    1352    1353    1286    1285    1274    1275
       8    1365    1364    1353    1354    1287    1286    1275    1276
       8    1366    1365    1354    1367    1288    1287    1276    1289
       8    1368    1367    1354    1355    1290    1289    1276    1277
       8    1347    1368    1355    1345    1269    1290    1277    1267
       8    1369    1348    1349    1351    1291    1270    1271    1273
       8    1370    1369    1351    1357    1292    1291    1273    1279
       8    1371    1370    1357    1372    1293    1292    1279    1294
       8    1373    1372    1357    1356    1295    1294    1279    1278
       8    1374    1373    1356    1358    1296    1295    1278    1280
       8    1375    1374    1358    1359    1297    1296    1280    1281
       8    1376    1375    1359    1377    1298    1297    1281    1299
       8    1331    1377    1359    1329    1253    1299    1281    1251
       8    1378    1379    1330    1360    1300    1301    1252    1282
       8    1380    1378    1360    1361    1302    1300    1282    1283
       8    1381    1380    1361    1362    1303    1302    1283    1284
       8    1382    1381    1362    1338    1304    1303    1284    1260
       8    1383    1382    1338    1337    1305    1304    1260    1259
       8    1384    1383    1337    1340    1306    1305    1259    1262
       8    1385    1384    1340    1363    1307    1306    1262    1285
       8    1386    1385    1363    1364    1308    1307    1285    1286
       8    1387    1386    1364    1365    1309    1308    1286    1287
       8    1388    1387    1365    1366    1310    1309    1287    1288
       8    1389    1388    1366    1367    1311    1310    1288    1289
       8    1390    1389    1367    1368    1312    1311    1289    1290
       8    1391    1390    1368    1347    1313    1312    1290    1269
       8    1392    1391    1347    1346    1314    1313    1269    1268
       8    1393    1392    1346    1348    1315    1314    1268    1270
       8    1394    1393    1348    1369    1316    1315    1270    1291
       8    1395    1394    1369    1370    1317    1316    1291    1292
       8    1396    1395    1370    1371    1318    1317    1292    1293
       8    1397    1396    1371    1372    1319    1318    1293    1294
       8    1398    1397    1372    1373    1320    1319    1294    1295
       8    1399    1398    1373    1374    1321    1320    1295    1296
       8    1400    1399    1374    1375    1322    1321    1296    1297
       8    1401    1400    1375    1376    1323    1322    1297    1298
       8    1402    1401    1376    1377    1324    1323    1298    1299
       8    1403    1402    1377    1331    1325    1324    1299    1253
       8    1379    1403    1331    1330    1301    1325    1253    1252
       8    1404    1405    1406    1407    1326    1327    1328    1329
       8    1406    1408    1409    1407    1328    1330    1331    1329
       8    1410    1405    1404    1411    1332    1327    1326    1333
       8    1404    1412    1413    1411    1326    1334    1335    1333
       8    1414    1415    1416    1410    1336    1337    1338    1332
       8    1417    1418    1415    1414    1339    1340    1337    1336
       8    1411    1417    1414    1410    1333    1339    1336    1332
       8    1419    1420    1412    1421    1341    1342    1334    1343
       8    1422    1423    1420    1419    1344    1345    1342    1341
       8    1424    1425    1423    1422    1346    1347    1345    1344
       8    1426    1424    1422    1427    1348    1346    1344    1349
       8    1428    1413    1412    1420    1350    1335    1334    1342
       8    1419    1429    1427    1422    1341    1351    1349    1344
       8    1404    1407    1421    1412    1326    1329    1343    1334
       8    1430    1417    1411    1413    1352    1339    1333    1335
       8    1431    1430    1413    1428    1353    1352    1335    1350
       8    1432    1431    1428    1433    1354    1353    1350    1355
       8    1423    1433    1428    1420    1345    1355    1350    1342
       8    1434    1435    1429    1419    1356    1357    1351    1341
       8    1436    1434    1419    1421    1358    1356    1341    1343
       8    1437    1436    1421    1407    1359    1358    1343    1329
       8    1438    1408    1406    1439    1360    1330    1328    1361
       8    1440    1439    1406    1405    1362    1361    1328    1327
       8    1416    1440    1405    1410    1338    1362    1327    1332
       8    1441    1418    1417    1430    1363    1340    1339    1352
       8    1442    1441    1430    1431    1364    1363    1352    1353
       8    1443    1442    1431    1432    1365    1364    1353    1354
       8    1444    1443    1432    1445    1366    1365    1354    1367
       8    1446    1445    1432    1433    1368    1367    1354    1355
       8    1425    1446    1433    1423    1347    1368    1355    1345
       8    1447    1426    1427    1429    1369    1348    1349    1351
       8    1448    1447    1429    1435    1370    1369    1351    1357
       8    1449    1448    1435    1450    1371    1370    1357    1372
       8    1451    1450    1435    1434    1373    1372    1357    1356
       8    1452    1451    1434    1436    1374    1373    1356    1358
       8    1453    1452    1436    1437    1375    1374    1358    1359
       8    1454    1453    1437    1455    1376    1375    1359    1377
       8    1409    1455    1437    1407    1331    1377    1359    1329
       8    1456    1457    1408    1438    1378    1379    1330    1360
       8    1458    1456    1438    1439    1380    1378    1360    1361
       8    1459    1458    1439    1440    1381    1380    1361    1362
       8    1460    1459    1440    1416    1382    1381    1362    1338
       8    1461    1460    1416    1415    1383    1382    1338    1337
       8    1462    1461    1415    1418    1384    1383    1337    1340
       8    1463    1462    1418    1441    1385    1384    1340    1363
       8    1464    1463    1441    1442    1386    1385    1363    1364
       8    1465    1464    1442    1443    1387    1386    1364    1365
       8    1466    1465    1443    1444    1388    1387    1365    1366
       8    1467    1466    1444    1445    1389    1388    1366    1367
       8    1468    1467    1445    1446    1390    1389    1367    1368
       8    1469    1468    1446    1425    1391    1390    1368    1347
       8    1470    1469    1425    1424    1392    1391    1347    1346
       8    1471    1470    1424    1426    1393    1392    1346    1348
       8    1472    1471    1426    1447    1394    1393    1348    1369
       8    1473    1472    1447    1448    1395    1394    1369    1370
       8    1474    1473    1448    1449    1396    1395    1370    1371
       8    1475    1474    1449    1450    1397    1396    1371    1372
       8    1476    1475    1450    1451    1398    1397    1372    1373
       8    1477    1476    1451    1452    1399    1398    1373    1374
       8    1478    1477    1452    1453    1400    1399    1374    1375
       8    1479    1478    1453    1454    1401    1400    1375    1376
       8    1480    1479    1454    1455    1402    1401    1376    1377
       8    1481    1480    1455    1409    1403    1402    1377    1331
       8    1457    1481    1409    1408    1379    1403    1331    1330
       8    1482    1483    1484    1485    1404    1405    1406    1407
       8    1484    1486    1487    1485    1406    1408    1409    1407
       8    1488    1483    1482    1489    1410    1405    1404    1411
       8    1482    1490    1491    1489    1404    1412    1413    1411
       8    1492    1493    1494    1488    1414    1415    1416    1410
       8    1495    1496    1493    1492    1417    1418    1415    1414
       8    1489    1495    1492    1488    1411    1417    1414    1410
       8    1497    1498    1490    1499    1419    1420    1412    1421
       8    1500    1501    1498    1497    1422    1423    1420    1419
       8    1502    1503    1501    1500    1424    1425    1423    1422
       8    1504    1502    1500    1505    1426    1424    1422    1427
       8    1506    1491    1490    1498    1428    1413    1412    1420
       8    1497    1507    1505    1500    1419    1429    1427    1422
       8    1482    1485    1499    1490    1404    1407    1421    1412
       8    1508    1495    1489    1491    1430    1417    1411    1413
       8    1509    1508    1491    1506    1431    1430    1413    1428
       8    1510    1509    1506    1511    1432    1431    1428    1433
       8    1501    1511    1506    1498    1423    1433    1428    1420
       8    1512    1513    1507    1497    1434    1435    1429    1419
       8    1514    1512    1497    1499    1436    1434    1419    1421
       8    1515    1514    1499    1485    1437    1436    1421    1407
       8    1516    1486    1484    1517    1438    1408    1406    1439
       8    1518    1517    1484    1483    1440    1439    1406    1405
       8    1494    1518    1483    1488    1416    1440    1405    1410
       8    1519    1496    1495    1508    1441    1418    1417    1430
       8    1520    1519    1508    1509    1442    1441    1430    1431
       8    1521    1520    1509    1510    1443    1442    1431    1432
       8    1522    1521    1510    1523    1444    1443    1432    1445
       8    1524    1523    1510    1511    1446    1445    1432    1433
       8    1503    1524    1511    1501    1425    1446    1433    1423
       8    1525    1504    1505    1507    1447    1426    1427    1429
       8    1526    1525    1507    1513    1448    1447    1429    1435
       8    1527    1526    1513    1528    1449    1448    1435    1450
       8    1529    1528    1513    1512    1451    1450    1435    1434
       8    1530    1529    1512    1514    1452    1451    1434    1436
       8    1531    1530    1514    1515    1453    1452    1436    1437
       8    1532    1531    1515    1533    1454    1453    1437    1455
       8    1487    1533    1515    1485    1409    1455    1437    1407
       8    1534    1535    1486    1516    1456    1457    1408    1438
       8    1536    1534    1516    1517    1458    1456    1438    1439
       8    1537    1536    1517    1518    1459    1458    1439    1440
       8    1538    1537    1518    1494    1460    1459    1440    1416
       8    1539    1538    1494    1493    1461    1460    1416    1415
       8    1540    1539    1493    1496    1462    1461    1415    1418
       8    1541    1540    1496    1519    1463    1462    1418    1441
       8    1542    1541    1519    1520    1464    1463    1441    1442
       8    1543    1542    1520    1521    1465    1464    1442    1443
       8    1544    1543    1521    1522    1466    1465    1443    1444
       8    1545    1544    1522    1523    1467    1466    1444    1445
       8    1546    1545    1523    1524    1468    1467    1445    1446
       8    1547    1546    1524    1503    1469    1468    1446    1425
       8    1548    1547    1503    1502    1470    1469    1425    1424
       8    1549    1548    1502    1504    1471    1470    1424    1426
       8    1550    1549    1504    1525    1472    1471    1426    1447
       8    1551    1550    1525    1526    1473    1472    1447    1448
       8    1552    1551    1526    1527    1474    1473    1448    1449
       8    1553    1552    1527    1528    1475    1474    1449    1450
       8    1554    1553    1528    1529    1476    1475    1450    1451
       8    1555    1554    1529    1530    1477    1476    1451    1452
       8    1556    1555    1530    1531    1478    1477    1452    1453
       8    1557    1556    1531    1532    1479    1478    1453    1454
       8    1558    1557    1532    1533    1480    1479    1454    1455
       8    1559    1558    1533    1487    1481    1480    1455    1409
       8    1535    1559    1487    1486    1457    1481    1409    1408
       8    1560    1561    1562    1563    1482    1483    1484    1485
       8    1562    1564    1565    1563    1484    1486    1487    1485
       8    1566    1561    1560    1567    1488    1483    1482    1489
       8    1560    1568    1569    1567    1482    1490    1491    1489
       8    1570    1571    1572    1566    1492    1493    1494    1488
       8    1573    1574    1571    1570    1495    1496    1493    1492
       8    1567    1573    1570    1566    1489    1495    1492    1488
       8    1575    1576    1568    1577    1497    1498    1490    1499
       8    1578    1579    1576    1575    1500    1501    1498    1497
       8    1580    1581    1579    1578    1502    1503    1501    1500
       8    1582    1580    1578    1583    1504    1502    1500    1505
       8    1584    1569    1568    1576    1506    1491    1490    1498
       8    1575    1585    1583    1578    1497    1507    1505    1500
       8    1560    1563    1577    1568    1482    1485    1499    1490
       8    1586    1573    1567    1569    1508    1495    1489    1491
       8    1587    1586    1569    1584    1509    1508    1491    1506
       8    1588    1587    1584    1589    1510    1509    1506    1511
       8    1579    1589    1584    1576    1501    1511    1506    1498
       8    1590    1591    1585    1575    1512    1513    1507    1497
       8    1592    1590    1575    1577    1514    1512    1497    1499
       8    1593    1592    1577    1563    1515    1514    1499    1485
       8    1594    1564    1562    1595    1516    1486    1484    1517
       8    1596    1595    1562    1561    1518    1517    1484    1483
       8    1572    1596    1561    1566    1494    1518    1483    1488
       8    1597    1574    1573    1586    1519    1496    1495    1508
       8    1598    1597    1586    1587    1520    1519    1508    1509
       8    1599    1598    1587    1588    1521    1520    1509    1510
       8    1600    1599    1588    1601    1522    1521    1510    1523
       8    1602    1601    1588    1589    1524    1523    1510    1511
       8    1581    1602    1589    1579    1503    1524    1511    1501
       8    1603    1582    1583    1585    1525    1504    1505    1507
       8    1604    1603    1585    1591    1526    1525    1507    1513
       8    1605    1604    1591    1606    1527    1526    1513    1528
       8    1607    1606    1591    1590    1529    1528    1513    1512
       8    1608    1607    1590    1592    1530    1529    1512    1514
       8    1609    1608    1592    1593    1531    1530    1514    1515
       8    1610    1609    1593    1611    1532    1531    1515    1533
       8    1565    1611    1593    1563    1487    1533    1515    1485
       8    1612    1613    1564    1594    1534    1535    1486    1516
       8    1614    1612    1594    1595    1536    1534    1516    1517
       8    1615    1614    1595    1596    1537    1536    1517    1518
       8    1616    1615    1596    1572    1538    1537    1518    1494
       8    1617    1616    1572    1571    1539    1538    1494    1493
       8    1618    1617    1571    1574    1540    1539    1493    1496
       8    1619    1618    1574    1597    1541    1540    1496    1519
       8    1620    1619    1597    1598    1542    1541    1519    1520
       8    1621    1620    1598    1599    1543    1542    1520    1521
       8    1622    1621    1599    1600    1544    1543    1521    1522
       8    1623    1622    1600    1601    1545    1544    1522    1523
       8    1624    1623    1601    1602    1546    1545    1523    1524
       8    1625    1624    1602    1581    1547    1546    1524    1503
       8    1626    1625    1581    1580    1548    1547    1503    1502
       8    1627    1626    1580    1582    1549    1548    1502    1504
       8    1628    1627    1582    1603    1550    1549    1504    1525
       8    1629    1628    1603    1604    1551    1550    1525    1526
       8    1630    1629    1604    1605    1552    1551    1526    1527
       8    1631    1630    1605    1606    1553    1552    1527    1528
       8    1632    1631    1606    1607    1554    1553    1528    1529
       8    1633    1632    1607    1608    1555    1554    1529    1530
       8    1634    1633    1608    1609    1556    1555    1530    1531
       8    1635    1634    1609    1610    1557    1556    1531    1532
       8    1636    1635    1610    1611    1558    1557    1532    1533
       8    1637    1636    1611    1565    1559    1558    1533    1487
       8    1613    1637    1565    1564    1535    1559    1487    1486
       8    1638    1639    1640    1641    1560    1561    1562    1563
       8    1640    1642    1643    1641    1562    1564    1565    1563
       8    1644    1639    1638    1645    1566    1561    1560    1567
       8    1638    1646    1647    1645    1560    1568    1569    1567
       8    1648    1649    1650    1644    1570    1571    1572    1566
       8    1651    1652    1649    1648    1573    1574    1571    1570
       8    1645    1651    1648    1644    1567    1573    1570    1566
       8    1653    1654    1646    1655    1575    1576    1568    1577
       8    1656    1657    1654    1653    1578    1579    1576    1575
       8    1658    1659    1657    1656    1580    1581    1579    1578
       8    1660    1658    1656    1661    1582    1580    1578    1583
       8    1662    1647    1646    1654    1584    1569    1568    1576
       8    1653    1663    1661    1656    1575    1585    1583    1578
       8    1638    1641    1655    1646    1560    1563    1577    1568
       8    1664    1651    1645    1647    1586    1573    1567    1569
       8    1665    1664    1647    1662    1587    1586    1569    1584
       8    1666    1665    1662    1667    1588    1587    1584    1589
       8    1657    1667    1662    1654    1579    1589    1584    1576
       8    1668    1669    1663    1653    1590    1591    1585    1575
       8    1670    1668    1653    1655    1592    1590    1575    1577
       8    1671    1670    1655    1641    1593    1592    1577    1563
       8    1672    1642    1640    1673    1594    1564    1562    1595
       8    1674    1673    1640    1639    1596    1595    1562    1561
       8    1650    1674    1639    1644    1572    1596    1561    1566
       8    1675    1652    1651    1664    1597    1574    1573    1586
       8    1676    1675    1664    1665    1598    1597    1586    1587
       8    1677    1676    1665    1666    1599    1598    1587    1588
       8    1678    1677    1666    1679    1600    1599    1588    1601
       8    1680    1679    1666    1667    1602    1601    1588    1589
       8    1659    1680    1667    1657    1581    1602    1589    1579
       8    1681    1660    1661    1663    1603    1582    1583    1585
       8    1682    1681    1663    1669    1604    1603    1585    1591
       8    1683    1682    1669    1684    1605    1604    1591    1606
       8    1685    1684    1669    1668    1607    1606    1591    1590
       8    1686    1685    1668    1670    1608    1607    1590    1592
       8    1687    1686    1670    1671    1609    1608    1592    1593
       8    1688    1687    1671    1689    1610    1609    1593    1611
       8    1643    1689    1671    1641    1565    1611    1593    1563
       8    1690    1691    1642    1672    1612    1613    1564    1594
       8    1692    1690    1672    1673    1614    1612    1594    1595
       8    1693    1692    1673    1674    1615    1614    1595    1596
       8    1694    1693    1674    1650    1616    1615    1596    1572
       8    1695    1694    1650    1649    1617    1616    1572    1571
       8    1696    1695    1649    1652    1618    1617    1571    1574
       8    1697    1696    1652    1675    1619    1618    1574    1597
       8    1698    1697    1675    1676    1620    1619    1597    1598
       8    1699    1698    1676    1677    1621    1620    1598    1599
       8    1700    1699    1677    1678    1622    1621    1599    1600
       8    1701    1700    1678    1679    1623    1622    1600    1601
       8    1702    1701    1679    1680    1624    1623    1601    1602
       8    1703    1702    1680    1659    1625    1624    1602    1581
       8    1704    1703    1659    1658    1626    1625    1581    1580
       8    1705    1704    1658    1660    1627    1626    1580    1582
       8    1706    1705    1660    1681    1628    1627    1582    1603
       8    1707    1706    1681    1682    1629    1628    1603    1604
       8    1708    1707    1682    1683    1630    1629    1604    1605
       8    1709    1708    1683    1684    1631    1630    1605    1606
       8    1710    1709    1684    1685    1632    1631    1606    1607
       8    1711    1710    1685    1686    1633    1632    1607    1608
       8    1712    1711    1686    1687    1634    1633    1608    1609
       8    1713    1712    1687    1688    1635    1634    1609    1610
       8    1714    1713    1688    1689    1636    1635    1610    1611
       8    1715    1714    1689    1643    1637    1636    1611    1565
       8    1691    1715    1643    1642    1613    1637    1565    1564
       8    1716    1717    1718    1719    1638    1639    1640    1641
       8    1718    1720    1721    1719    1640    1642    1643    1641
       8    1722    1717    1716    1723    1644    1639    1638    1645
       8    1716    1724    1725    1723    1638    1646    1647    1645
       8    1726    1727    1728    1722    1648    1649    1650    1644
       8    1729    1730    1727    1726    1651    1652    1649    1648
       8    1723    1729    1726    1722    1645    1651    1648    1644
       8    1731    1732    1724    1733    1653    1654    1646    1655
       8    1734    1735    1732    1731    1656    1657    1654    1653
       8    1736    1737    1735    1734    1658    1659    1657    1656
       8    1738    1736    1734    1739    1660    1658    1656    1661
       8    1740    1725    1724    1732    1662    1647    1646    1654
       8    1731    1741    1739    1734    1653    1663    1661    1656
       8    1716    1719    1733    1724    1638    1641    1655    1646
       8    1742    1729    1723    1725    1664    1651    1645    1647
       8    1743    1742    1725    1740    1665    1664    1647    1662
       8    1744    1743    1740    1745    1666    1665    1662    1667
       8    1735    1745    1740    1732    1657    1667    1662    1654
       8    1746    1747    1741    1731    1668    1669    1663    1653
       8    1748    1746    1731    1733    1670    1668    1653    1655
       8    1749    1748    1733    1719    1671    1670    1655    1641
       8    1750    1720    1718    1751    1672    1642    1640    1673
       8    1752    1751    1718    1717    1674    1673    1640    1639
       8    1728    1752    1717    1722    1650    1674    1639    1644
       8    1753    1730    1729    1742    1675    1652    1651    1664
       8    1754    1753    1742    1743    1676    1675    1664    1665
       8    1755    1754    1743    1744    1677    1676    1665    1666
       8    1756    1755    1744    1757    1678    1677    1666    1679
       8    1758    1757    1744    1745    1680    1679    1666    1667
       8    1737    1758    1745    1735    1659    1680    1667    1657
       8    1759    1738    1739    1741    1681    1660    1661    1663
       8    1760    1759    1741    1747    1682    1681    1663    1669
       8    1761    1760    1747    1762    1683    1682    1669    1684
       8    1763    1762    1747    1746    1685    1684    1669    1668
       8    1764    1763    1746    1748    1686    1685    1668    1670
       8    1765    1764    1748    1749    1687    1686    1670    1671
       8    1766    1765    1749    1767    1688    1687    1671    1689
       8    1721    1767    1749    1719    1643    1689    1671    1641
       8    1768    1769    1720    1750    1690    1691    1642    1672
       8    1770    1768    1750    1751    1692    1690    1672    1673
       8    1771    1770    1751    1752    1693    1692    1673    1674
       8    1772    1771    1752    1728    1694    1693    1674    1650
       8    1773    1772    1728    1727    1695    1694    1650    1649
       8    1774    1773    1727    1730    1696    1695    1649    1652
       8    1775    1774    1730    1753    1697    1696    1652    1675
       8    1776    1775    1753    1754    1698    1697    1675    1676
       8    1777    1776    1754    1755    1699    1698    1676    1677
       8    1778    1777    1755    1756    1700    1699    1677    1678
       8    1779    1778    1756    1757    1701    1700    1678    1679
       8    1780    1779    1757    1758    1702    1701    1679    1680
       8    1781    1780    1758    1737    1703    1702    1680    1659
       8    1782    1781    1737    1736    1704    1703    1659    1658
       8    1783    1782    1736    1738    1705    1704    1658    1660
       8    1784    1783    1738    1759    1706    1705    1660    1681
       8    1785    1784    1759    1760    1707    1706    1681    1682
       8    1786    1785    1760    1761    1708    1707    1682    1683
       8    1787    1786    1761    1762    1709    1708    1683    1684
       8    1788    1787    1762    1763    1710    1709    1684    1685
       8    1789    1788    1763    1764    1711    1710    1685    1686
       8    1790    1789    1764    1765    1712    1711    1686    1687
       8    1791    1790    1765    1766    1713    1712    1687    1688
       8    1792    1791    1766    1767    1714    1713    1688    1689
       8    1793    1792    1767    1721    1715    1714    1689    1643
       8    1769    1793    1721    1720    1691    1715    1643    1642
       8    1794    1795    1796    1797    1716    1717    1718    1719
       8    1796    1798    1799    1797    1718    1720    1721    1719
       8    1800    1795    1794    1801    1722    1717    1716    1723
       8    1794    1802    1803    1801    1716    1724    1725    1723
       8    1804    1805    1806    1800    1726    1727    1728    1722
       8    1807    1808    1805    1804    1729    1730    1727    1726
       8    1801    1807    1804    1800    1723    1729    1726    1722
       8    1809    1810    1802    1811    1731    1732    1724    1733
       8    1812    1813    1810    1809    1734    1735    1732    1731
       8    1814    1815    1813    1812    1736    1737    1735    1734
       8    1816    1814    1812    1817    1738    1736    1734    1739
       8    1818    1803    1802    1810    1740    1725    1724    1732
       8    1809    1819    1817    1812    1731    1741    1739    1734
       8    1794    1797    1811    1802    1716    1719    1733    1724
       8    1820    1807    1801    1803    1742    1729    1723    1725
       8    1821    1820    1803    1818    1743    1742    1725    1740
       8    1822    1821    1818    1823    1744    1743    1740    1745
       8    1813    1823    1818    1810    1735    1745    1740    1732
       8    1824    1825    1819    1809    1746    1747    1741    1731
       8    1826    1824    1809    1811    1748    1746    1731    1733
       8    1827    1826    1811    1797    1749    1748    1733    1719
       8    1828    1798    1796    1829    1750    1720    1718    1751
       8    1830    1829    1796    1795    1752    1751    1718    1717
       8    1806    1830    1795    1800    1728    1752    1717    1722
       8    1831    1808    1807    1820    1753    1730    1729    1742
       8    1832    1831    1820    1821    1754    1753    1742    1743
       8    1833    1832    1821    1822    1755    1754    1743    1744
       8    1834    1833    1822    1835    1756    1755    1744    1757
       8    1836    1835    1822    1823    1758    1757    1744    1745
       8    1815    1836    1823    1813    1737    1758    1745    1735
       8    1837    1816    1817    1819    1759    1738    1739    1741
       8    1838    1837    1819    1825    1760    1759    1741    1747
       8    1839    1838    1825    1840    1761    1760    1747    1762
       8    1841    1840    1825    1824    1763    1762    1747    1746
       8    1842    1841    1824    1826    1764    1763    1746    1748
       8    1843    1842    1826    1827    1765    1764    1748    1749
       8    1844    1843    1827    1845    1766    1765    1749    1767
       8    1799    1845    1827    1797    1721    1767    1749    1719
       8    1846    1847    1798    1828    1768    1769    1720    1750
       8    1848    1846    1828    1829    1770    1768    1750    1751
       8    1849    1848    1829    1830    1771    1770    1751    1752
       8    1850    1849    1830    1806    1772    1771    1752    1728
       8    1851    1850    1806    1805    1773    1772    1728    1727
       8    1852    1851    1805    1808    1774    1773    1727    1730
       8    1853    1852    1808    1831    1775    1774    1730    1753
       8    1854    1853    1831    1832    1776    1775    1753    1754
       8    1855    1854    1832    1833    1777    1776    1754    1755
       8    1856    1855    1833    1834    1778    1777    1755    1756
       8    1857    1856    1834    1835    1779    1778    1756    1757
       8    1858    1857    1835    1836    1780    1779    1757    1758
       8    1859    1858    1836    1815    1781    1780    1758    1737
       8    1860    1859    1815    1814    1782    1781    1737    1736
       8    1861    1860    1814    1816    1783    1782    1736    1738
       8    1862    1861    1816    1837    1784    1783    1738    1759
       8    1863    1862    1837    1838    1785    1784    1759    1760
       8    1864    1863    1838    1839    1786    1785    1760    1761
       8    1865    1864    1839    1840    1787    1786    1761    1762
       8    1866    1865    1840    1841    1788    1787    1762    1763
       8    1867    1866    1841    1842    1789    1788    1763    1764
       8    1868    1867    1842    1843    1790    1789    1764    1765
       8    1869    1868    1843    1844    1791    1790    1765    1766
       8    1870    1869    1844    1845    1792    1791    1766    1767
       8    1871    1870    1845    1799    1793    1792    1767    1721
       8    1847    1871    1799    1798    1769    1793    1721    1720
       8    1872    1873    1874    1875    1794    1795    1796    1797
       8    1874    1876    1877    1875    1796    1798    1799    1797
       8    1878    1873    1872    1879    1800    1795    1794    1801
       8    1872    1880    1881    1879    1794    1802    1803    1801
       8    1882    1883    1884    1878    1804    1805    1806    1800
       8    1885    1886    1883    1882    1807    1808    1805    1804
       8    1879    1885    1882    1878    1801    1807    1804    1800
       8    1887    1888    1880    1889    1809    1810    1802    1811
       8    1890    1891    1888    1887    1812    1813    1810    1809
       8    1892    1893    1891    1890    1814    1815    1813    1812
       8    1894    1892    1890    1895    1816    1814    1812    1817
       8    1896    1881    1880    1888    1818    1803    1802    1810
       8    1887    1897    1895    1890    1809    1819    1817    1812
       8    1872    1875    1889    1880    1794    1797    1811    1802
       8    1898    1885    1879    1881    1820    1807    1801    1803
       8    1899    1898    1881    1896    1821    1820    1803    1818
       8    1900    1899    1896    1901    1822    1821    1818    1823
       8    1891    1901    1896    1888    1813    1823    1818    1810
       8    1902    1903    1897    1887    1824    1825    1819    1809
       8    1904    1902    1887    1889    1826    1824    1809    1811
       8    1905    1904    1889    1875    1827    1826    1811    1797
       8    1906    1876    1874    1907    1828    1798    1796    1829
       8    1908    1907    1874    1873    1830    1829    1796    1795
       8    1884    1908    1873    1878    1806    1830    1795    1800
       8    1909    1886    1885    1898    1831    1808    1807    1820
       8    1910    1909    1898    1899    1832    1831    1820    1821
       8    1911    1910    1899    1900    1833    1832    1821    1822
       8    1912    1911    1900    1913    1834    1833    1822    1835
       8    1914    1913    1900    1901    1836    1835    1822    1823
       8    1893    1914    1901    1891    1815    1836    1823    1813
       8    1915    1894    1895    1897    1837    1816    1817    1819
       8    1916    1915    1897    1903    1838    1837    1819    1825
       8    1917    1916    1903    1918    1839    1838    1825    1840
       8    1919    1918    1903    1902    1841    1840    1825    1824
       8    1920    1919    1902    1904    1842    1841    1824    1826
       8    1921    1920    1904    1905    1843    1842    1826    1827
       8    1922    1921    1905    1923    1844    1843    1827    1845
       8    1877    1923    1905    1875    1799    1845    1827    1797
       8    1924    1925    1876    1906    1846    1847    1798    1828
       8    1926    1924    1906    1907    1848    1846    1828    1829
       8    1927    1926    1907    1908    1849    1848    1829    1830
       8    1928    1927    1908    1884    1850    1849    1830    1806
       8    1929    1928    1884    1883    1851    1850    1806    1805
       8    1930    1929    1883    1886    1852    1851    1805    1808
       8    1931    1930    1886    1909    1853    1852    1808    1831
       8    1932    1931    1909    1910    1854    1853    1831    1832
       8    1933    1932    1910    1911    1855    1854    1832    1833
       8    1934    1933    1911    1912    1856    1855    1833    1834
       8    1935    1934    1912    1913    1857    1856    1834    1835
       8    1936    1935    1913    1914    1858    1857    1835    1836
       8    1937    1936    1914    1893    1859    1858    1836    1815
       8    1938    1937    1893    1892    1860    1859    1815    1814
       8    1939    1938    1892    1894    1861    1860    1814    1816
       8    1940    1939    1894    1915    1862    1861    1816    1837
       8    1941    1940    1915    1916    1863    1862    1837    1838
       8    1942    1941    1916    1917    1864    1863    1838    1839
       8    1943    1942    1917    1918    1865    1864    1839    1840
       8    1944    1943    1918    1919    1866    1865    1840    1841
       8    1945    1944    1919    1920    1867    1866    1841    1842
       8    1946    1945    1920    1921    1868    1867    1842    1843
       8    1947    1946    1921    1922    1869    1868    1843    1844
       8    1948    1947    1922    1923    1870    1869    1844    1845
       8    1949    1948    1923    1877    1871    1870    1845    1799
       8    1925    1949    1877    1876    1847    1871    1799    1798
  
CELL_TYPES    3486
       1
       1
       1
       1
       1
       1
       1
       1
       1
       1
       1
       1
       1
       1
       1
       1
       1
       1
       1
       1
       1
       1
       1
       1
       1
       1
       1
       1
       1
       1
       1
       1
       1
       1
       1
       1
       1
       1
       1
       1
       1
       1
       1
       1
       1
       1
       1
       1
       1
       1
       1
       1
       1
       1
       1
       1
       1
       1
       1
       1
       1
       1
       1
       1
       1
       1
       1
       1
       1
       1
       1
       1
       1
       1
       1
       1
       1
       1
       1
       1
       1
       1
       1
       1
       1
       1
       1
       1
       1
       1
       1
       1
       1
       1
       1
       1
       1
       1
       1
       1
       1
       1
       1
       1
       1
       1
       1
       1
       1
       1
       1
       1
       1
       1
       1
       1
       1
       1
       1
       1
       1
       1
       1
       1
       1
       1
       1
       1
       1
       1
       1
       1
       1
       1
       1
       1
       1
       1
       1
       1
       1
       1
       1
       1
       1
       1
       1
       1
       1
       1
       1
       1
       1
       1
       1
       1
       1
       1
       1
       1
       1
       1
       1
       1
       1
       1
       1
       1
       1
       1
       1
       1
       1
       1
       1
       1
       1
       1
       1
       1
       1
       1
       1
       1
       1
       1
       1
       1
       1
       1
       1
       1
       1
       1
       1
       1
       1
       1
       1
       1
       1
       1
       1
       1
       1
       1
       1
       1
       1
       1
       1
       1
       1
       1
       1
       1
       1
       1
       1
       1
       1
       1
       1
       1
       1
       1
       1
       1
       1
       1
       1
       1
       1
       1
       1
       1
       1
       1
       1
       1
       1
       1
       1
       1
       1
       1
       1
       1
       1
       1
       1
       1
       1
       1
       1
       1
       1
       1
       1
       1
       1
       1
       1
       1
       1
       1
       1
       1
       1
       1
       1
       1
       1
       1
       1
       1
       1
       1
       1
       1
       1
       1
       1
       1
       1
       1
       1
       1
       1
       1
       1
       1
       1
       1
       1
       1
       1
       1
       1
       1
       1
       1
       1
       1
       1
       1
       1
       1
       1
       1
       1
       1
       1
       1
       1
       1
       1
       1
       1
       1
       1
       1
       1
       1
       1
       1
       1
       1
       1
       1
       1
       1
       1
       1
       1
       1
       1
       1
       1
       1
       1
       1
       1
       1
       1
       1
       1
       1
       1
       1
       1
       1
       1
       1
       1
       1
       1
       1
       1
       1
       1
       1
       1
       1
       1
       1
       1
       1
       1
       1
       1
       1
       1
       1
       1
       1
       1
       1
       1
       1
       1
       1
       1
       1
       1
       1
       1
       1
       1
       1
       1
       1
       1
       1
       1
       1
       1
       1
       1
       1
       1
       1
       1
       1
       1
       1
       1
       1
       1
       1
       1
       1
       1
       1
       1
       1
       1
       1
       1
       1
       1
       1
       1
       1
       1
       1
       1
       1
       1
       1
       1
       1
       1
       1
       1
       1
       1
       1
       1
       1
       1
       1
       1
       1
       1
       1
       1
       1
       1
       1
       1
       1
       1
       1
       1
       1
       1
       1
       1
       1
       1
       1
       1
       1
       1
       1
       1
       1
       1
       1
       1
       1
       1
       1
       1
       1
       1
       1
       1
       1
       1
       1
       1
       1
       1
       1
       1
       1
       1
       1
       1
       1
       1
       1
       1
       1
       1
       1
       1
       1
       1
       1
       1
       1
       1
       1
       1
       1
       1
       1
       1
       1
       1
       1
       1
       1
       1
       1
       1
       1
       1
       1
       1
       1
       1
       1
       1
       1
       1
       1
       1
       1
       1
       1
       1
       1
       1
       1
       1
       1
       1
       1
       1
       1
       1
       1
       1
       1
       1
       1
       1
       1
       1
       1
       1
       1
       1
       1
       1
       1
       1
       1
       1
       1
       1
       1
       1
       1
       1
       1
       1
       1
       1
       1
       1
       1
       1
       1
       1
       1
       1
       1
       1
       1
       1
       1
       1
       1
       1
       1
       1
       1
       1
       1
       1
       1
       1
       1
       1
       1
       1
       1
       1
       1
       1
       1
       1
       1
       1
       1
       1
       1
       1
       1
       1
       1
       1
       1
       1
       1
       1
       1
       1
       1
       1
       1
       1
       1
       1
       1
       1
       1
       1
       1
       1
       1
       1
       1
       1
       1
       1
       1
       1
       1
       1
       1
       1
       1
       1
       1
       1
       1
       1
       1
       1
       1
       1
       1
       1
       1
       1
       1
       1
       1
       1
       1
       1
       1
       1
       1
       1
       1
       1
       1
       1
       1
       1
       1
       1
       1
       1
       1
       1
       1
       1
       1
       1
       1
       1
       1
       1
       1
       1
       1
       1
       1
       1
       1
       1
       1
       1
       1
       1
       1
       1
       1
       1
       1
       1
       1
       1
       1
       1
       1
       1
       1
       1
       1
       1
       1
       1
       1
       1
       1
       1
       1
       1
       1
       1
       1
       1
       1
       1
       1
       1
       1
       1
       1
       1
       1
       1
       1
       1
       1
       1
       1
       1
       1
       1
       1
       1
       1
       1
       1
       1
       1
       1
       1
       1
       1
       1
       1
       1
       1
       1
       1
       1
       1
       1
       1
       1
       1
       1
       1
       1
       1
       1
       1
       1
       1
       1
       1
       1
       1
       1
       1
       1
       1
       1
       1
       1
       1
       1
       1
       1
       1
       1
       1
       1
       1
       1
       1
       1
       1
       1
       1
       1
       1
       1
       1
       1
       1
       1
       1
       1
       1
       1
       1
       1
       1
       1
       1
       1
       1
       1
       1
       1
       1
       1
       1
       1
       1
       1
       1
       1
       1
       1
       1
       1
       1
       1
       1
       1
       1
       1
       1
       1
       1
       1
       1
       1
       1
       1
       1
       1
       1
       1
       1
       1
       1
       1
       1
       1
       1
       1
       1
       1
       1
       1
       1
       1
       1
       1
       1
       1
       1
       1
       1
       1
       1
       1
       1
       1
       1
       1
       1
       1
       1
       1
       1
       1
       1
       1
       1
       1
       1
       1
       1
       1
       1
       1
       1
       1
       1
       1
       1
       1
       1
       1
       1
       1
       1
       1
       1
       1
       1
       1
       1
       1
       1
       1
       1
       1
       1
       1
       1
       1
       1
       1
       1
       1
       1
       1
       1
       1
       1
       1
       1
       1
       1
       1
       1
       1
       1
       1
       1
       1
       1
       1
       1
       1
       1
       1
       1
       1
       1
       1
       1
       1
       1
       1
       1
       1
       1
       1
       1
       1
       1
       1
       1
       1
       1
       1
       1
       1
       1
       1
       1
       1
       1
       1
       1
       1
       1
       1
       1
       1
       1
       1
       1
       1
       1
       1
       1
       1
       1
       1
       1
       1
       1
       1
       1
       1
       1
       1
       1
       1
       1
       1
       1
       1
       1
       1
       1
       1
       1
       1
       1
       1
       1
       1
       1
       1
       1
       1
       1
       1
       1
       1
       1
       1
       1
       1
       1
       1
       1
       1
       1
       1
       1
       1
       1
       1
       1
       1
       1
       1
       1
       1
       1
       1
       1
       1
       1
       1
       1
       1
       1
       1
       1
       1
       1
       1
       1
       1
       1
       1
       1
       1
       1
       1
       1
       1
       1
       1
       1
       1
       1
       1
       1
       1
       1
       1
       1
       1
       1
       1
       1
       1
       1
       1
       1
       1
       1
       1
       1
       1
       1
       1
       1
       1
       1
       1
       1
       1
       1
       1
       1
       1
       1
       1
       1
       1
       1
       1
       1
       1
       1
       1
       1
       1
       1
       1
       1
       1
       1
       1
       1
       1
       1
       1
       1
       1
       1
       1
       1
       1
       1
       1
       1
       1
       1
       1
       1
       1
       1
       1
       1
       1
       1
       1
       1
       1
       1
       1
       1
       1
       1
       1
       1
       1
       1
       1
       1
       1
       1
       1
       1
       1
       1
       1
       1
       1
       1
       1
       1
       1
       1
       1
       1
       1
       1
       1
       1
       1
       1
       1
       1
       1
       1
       1
       1
       1
       1
       1
       1
       1
       1
       1
       1
       1
       1
       1
       1
       1
       1
       1
       1
       1
       1
       1
       1
       1
       1
       1
       1
       1
       1
       1
       1
       1
       1
       1
       1
       1
       1
       1
       1
       1
       1
       1
       1
       1
       1
       1
       1
       1
       1
       1
       1
       1
       1
       1
       1
       1
       1
       1
       1
       1
       1
       1
       1
       1
       1
       1
       1
       1
       1
       1
       1
       1
       1
       1
       1
       1
       1
       1
       1
       1
       1
       1
       1
       1
       1
       1
       1
       1
       1
       1
       1
       1
       1
       1
       1
       1
       1
       1
       1
       1
       1
       1
       1
       1
       1
       1
       1
       1
       1
       1
       1
       1
       1
       1
       1
       1
       1
       1
       1
       1
       1
       1
       1
       1
       1
       1
       1
       1
       1
       1
       1
       1
       1
       1
       1
       1
       1
       1
       1
       1
       1
       1
       1
       1
       1
       1
       1
       1
       1
       1
       1
       1
       1
       1
       1
       1
       1
       1
       1
       1
       1
       1
       1
       1
       1
       1
       1
       1
       1
       1
       1
       1
       1
       1
       1
       1
       1
       1
       1
       1
       1
       1
       1
       1
       1
       1
       1
       1
       1
       1
       1
       1
       1
       1
       1
       1
       1
       1
       1
       1
       1
       1
       1
       1
       1
       1
       1
       1
       1
       1
       1
       1
       1
       1
       1
       1
       1
       1
       1
       1
       1
       1
       1
       1
       1
       1
       1
       1
       1
       1
       1
       1
       1
       1
       1
       1
       1
       1
       1
       1
       1
       1
       1
       1
       1
       1
       1
       1
       1
       1
       1
       1
       1
       1
       1
       1
       1
       1
       1
       1
       1
       1
       1
       1
       1
       1
       1
       1
       1
       1
       1
       1
       1
       1
       1
       1
       1
       1
       1
       1
       1
       1
       1
       1
       1
       1
       1
       1
       1
       1
       1
       1
       1
       1
       1
       1
       1
       1
       1
       1
       1
       1
       1
       1
       1
       1
       1
       1
       1
       1
       1
       1
       1
       1
       1
       1
       1
       1
       1
       1
       1
       1
       1
       1
       1
       1
       1
       1
       1
       1
       1
       1
       1
       1
       1
       1
       1
       1
       1
       1
       1
       1
       1
       1
       1
       1
       1
       1
       1
       1
       1
       1
       1
       1
       1
       1
       1
       1
       1
       1
       1
       1
       1
       1
       1
       1
       1
       1
       1
       1
       1
       1
       1
       1
       1
       1
       1
       1
       1
       1
       1
       1
       1
       1
       1
       1
       1
       1
       1
       1
       1
       1
       1
       1
       1
       1
       1
       1
       1
       1
       1
       1
       1
       1
       1
       1
       1
       1
       1
       1
       1
       1
       1
       1
       1
       1
       1
       1
       1
       1
       1
       1
       1
       1
       1
       1
       1
       1
       1
       1
       1
       1
       1
       1
       1
       1
       1
       1
       1
       1
       1
       1
       1
       1
       1
       1
       1
       1
       1
       1
       1
       1
       1
       1
       1
       1
       1
       1
       1
       1
       1
       1
       1
       1
       1
       1
       1
       1
       1
       1
       1
       1
       1
       1
       1
       1
       1
       1
       1
       1
       1
       1
       1
       1
       1
       1
       1
       1
       1
       1
       1
       1
       1
       1
       1
       1
       1
       1
       1
       1
       1
       1
       1
       1
       1
       1
       1
       1
       1
       1
       1
       1
       1
       1
       1
       1
       1
       1
       1
       1
       1
       1
       1
       1
       1
       1
       1
       1
       1
       1
       1
       1
       1
       1
       1
       1
       1
       1
       1
       1
       1
       1
       1
       1
       1
       1
       1
       1
       1
       1
       1
       1
       1
       1
       1
       1
       1
       1
       1
       1
       1
       1
       1
       1
       1
       1
       1
       1
       1
       1
       1
       1
       1
       1
       1
       1
       1
       1
       1
       1
       1
       1
       1
       1
       1
       1
       1
       1
       1
       1
       1
       1
       1
       1
       1
       1
       1
       1
       1
       1
       1
       1
       1
       1
       1
       1
       1
       1
       1
       1
       1
       1
       1
       1
       1
       1
       1
       1
       1
       1
       1
       1
       1
       1
       1
       1
       1
       1
       1
       1
       1
       1
       1
       1
       1
       1
       1
       1
       1
       1
       1
       1
       1
       1
       1
       1
       1
       1
       1
       1
       1
       1
       1
       1
       1
       1
       1
       1
       1
       1
       1
       1
       1
       1
       1
       1
       1
       1
       1
       1
       1
       1
       1
       1
       1
       1
       1
       1
       1
       1
       1
       1
       1
       1
       1
       1
       1
       1
       1
       1
       1
       1
       1
       1
       1
       1
       1
       1
       1
       1
       1
       1
       1
       1
       1
       1
       1
       1
       1
       1
       1
       1
       1
       1
       1
       1
       1
       1
       1
       1
       1
       1
       1
       1
       1
       1
       1
       1
       1
       1
       1
       1
       1
       1
       1
       1
       1
       1
       1
       1
       1
       1
       1
       1
       1
       1
       1
       1
       1
       1
       1
       1
       1
       1
       1
       1
       1
       1
       1
       1
       1
      12
      12
      12
      12
      12
      12
      12
      12
      12
      12
      12
      12
      12
      12
      12
      12
      12
      12
      12
      12
      12
      12
      12
      12
      12
      12
      12
      12
      12
      12
      12
      12
      12
      12
      12
      12
      12
      12
      12
      12
      12
      12
      12
      12
      12
      12
      12
      12
      12
      12
      12
      12
      12
      12
      12
      12
      12
      12
      12
      12
      12
      12
      12
      12
      12
      12
      12
      12
      12
      12
      12
      12
      12
      12
      12
      12
      12
      12
      12
      12
      12
      12
      12
      12
      12
      12
      12
      12
      12
      12
      12
      12
      12
      12
      12
      12
      12
      12
      12
      12
      12
      12
      12
      12
      12
      12
      12
      12
      12
      12
      12
      12
      12
      12
      12
      12
      12
      12
      12
      12
      12
      12
      12
      12
      12
      12
      12
      12
      12
      12
      12
      12
      12
      12
      12
      12
      12
      12
      12
      12
      12
      12
      12
      12
      12
      12
      12
      12
      12
      12
      12
      12
      12
      12
      12
      12
      12
      12
      12
      12
      12
      12
      12
      12
      12
      12
      12
      12
      12
      12
      12
      12
      12
      12
      12
      12
      12
      12
      12
      12
      12
      12
      12
      12
      12
      12
      12
      12
      12
      12
      12
      12
      12
      12
      12
      12
      12
      12
      12
      12
      12
      12
      12
      12
      12
      12
      12
      12
      12
      12
      12
      12
      12
      12
      12
      12
      12
      12
      12
      12
      12
      12
      12
      12
      12
      12
      12
      12
      12
      12
      12
      12
      12
      12
      12
      12
      12
      12
      12
      12
      12
      12
      12
      12
      12
      12
      12
      12
      12
      12
      12
      12
      12
      12
      12
      12
      12
      12
      12
      12
      12
      12
      12
      12
      12
      12
      12
      12
      12
      12
      12
      12
      12
      12
      12
      12
      12
      12
      12
      12
      12
      12
      12
      12
      12
      12
      12
      12
      12
      12
      12
      12
      12
      12
      12
      12
      12
      12
      12
      12
      12
      12
      12
      12
      12
      12
      12
      12
      12
      12
      12
      12
      12
      12
      12
      12
      12
      12
      12
      12
      12
      12
      12
      12
      12
      12
      12
      12
      12
      12
      12
      12
      12
      12
      12
      12
      12
      12
      12
      12
      12
      12
      12
      12
      12
      12
      12
      12
      12
      12
      12
      12
      12
      12
      12
      12
      12
      12
      12
      12
      12
      12
      12
      12
      12
      12
      12
      12
      12
      12
      12
      12
      12
      12
      12
      12
      12
      12
      12
      12
      12
      12
      12
      12
      12
      12
      12
      12
      12
      12
      12
      12
      12
      12
      12
      12
      12
      12
      12
      12
      12
      12
      12
      12
      12
      12
      12
      12
      12
      12
      12
      12
      12
      12
      12
      12
      12
      12
      12
      12
      12
      12
      12
      12
      12
      12
      12
      12
      12
      12
      12
      12
      12
      12
      12
      12
      12
      12
      12
      12
      12
      12
      12
      12
      12
      12
      12
      12
      12
      12
      12
      12
      12
      12
      12
      12
      12
      12
      12
      12
      12
      12
      12
      12
      12
      12
      12
      12
      12
      12
      12
      12
      12
      12
      12
      12
      12
      12
      12
      12
      12
      12
      12
      12
      12
      12
      12
      12
      12
      12
      12
      12
      12
      12
      12
      12
      12
      12
      12
      12
      12
      12
      12
      12
      12
      12
      12
      12
      12
      12
      12
      12
      12
      12
      12
      12
      12
      12
      12
      12
      12
      12
      12
      12
      12
      12
      12
      12
      12
      12
      12
      12
      12
      12
      12
      12
      12
      12
      12
      12
      12
      12
      12
      12
      12
      12
      12
      12
      12
      12
      12
      12
      12
      12
      12
      12
      12
      12
      12
      12
      12
      12
      12
      12
      12
      12
      12
      12
      12
      12
      12
      12
      12
      12
      12
      12
      12
      12
      12
      12
      12
      12
      12
      12
      12
      12
      12
      12
      12
      12
      12
      12
      12
      12
      12
      12
      12
      12
      12
      12
      12
      12
      12
      12
      12
      12
      12
      12
      12
      12
      12
      12
      12
      12
      12
      12
      12
      12
      12
      12
      12
      12
      12
      12
      12
      12
      12
      12
      12
      12
      12
      12
      12
      12
      12
      12
      12
      12
      12
      12
      12
      12
      12
      12
      12
      12
      12
      12
      12
      12
      12
      12
      12
      12
      12
      12
      12
      12
      12
      12
      12
      12
      12
      12
      12
      12
      12
      12
      12
      12
      12
      12
      12
      12
      12
      12
      12
      12
      12
      12
      12
      12
      12
      12
      12
      12
      12
      12
      12
      12
      12
      12
      12
      12
      12
      12
      12
      12
      12
      12
      12
      12
      12
      12
      12
      12
      12
      12
      12
      12
      12
      12
      12
      12
      12
      12
      12
      12
      12
      12
      12
      12
      12
      12
      12
      12
      12
      12
      12
      12
      12
      12
      12
      12
      12
      12
      12
      12
      12
      12
      12
      12
      12
      12
      12
      12
      12
      12
      12
      12
      12
      12
      12
      12
      12
      12
      12
      12
      12
      12
      12
      12
      12
      12
      12
      12
      12
      12
      12
      12
      12
      12
      12
      12
      12
      12
      12
      12
      12
      12
      12
      12
      12
      12
      12
      12
      12
      12
      12
      12
      12
      12
      12
      12
      12
      12
      12
      12
      12
      12
      12
      12
      12
      12
      12
      12
      12
      12
      12
      12
      12
      12
      12
      12
      12
      12
      12
      12
      12
      12
      12
      12
      12
      12
      12
      12
      12
      12
      12
      12
      12
      12
      12
      12
      12
      12
      12
      12
      12
      12
      12
      12
      12
      12
      12
      12
      12
      12
      12
      12
      12
      12
      12
      12
      12
      12
      12
      12
      12
      12
      12
      12
      12
      12
      12
      12
      12
      12
      12
      12
      12
      12
      12
      12
      12
      12
      12
      12
      12
      12
      12
      12
      12
      12
      12
      12
      12
      12
      12
      12
      12
      12
      12
      12
      12
      12
      12
      12
      12
      12
      12
      12
      12
      12
      12
      12
      12
      12
      12
      12
      12
      12
      12
      12
      12
      12
      12
      12
      12
      12
      12
      12
      12
      12
      12
      12
      12
      12
      12
      12
      12
      12
      12
      12
      12
      12
      12
      12
      12
      12
      12
      12
      12
      12
      12
      12
      12
      12
      12
      12
      12
      12
      12
      12
      12
      12
      12
      12
      12
      12
      12
      12
      12
      12
      12
      12
      12
      12
      12
      12
      12
      12
      12
      12
      12
      12
      12
      12
      12
      12
      12
      12
      12
      12
      12
      12
      12
      12
      12
      12
      12
      12
      12
      12
      12
      12
      12
      12
      12
      12
      12
      12
      12
      12
      12
      12
      12
      12
      12
      12
      12
      12
      12
      12
      12
      12
      12
      12
      12
      12
      12
      12
      12
      12
      12
      12
      12
      12
      12
      12
      12
      12
      12
      12
      12
      12
      12
      12
      12
      12
      12
      12
      12
      12
      12
      12
      12
      12
      12
      12
      12
      12
      12
      12
      12
      12
      12
      12
      12
      12
      12
      12
      12
      12
      12
      12
      12
      12
      12
      12
      12
      12
      12
      12
      12
      12
      12
      12
      12
      12
      12
      12
      12
      12
      12
      12
      12
      12
      12
      12
      12
      12
      12
      12
      12
      12
      12
      12
      12
      12
      12
      12
      12
      12
      12
      12
      12
      12
      12
      12
      12
      12
      12
      12
      12
      12
      12
      12
      12
      12
      12
      12
      12
      12
      12
      12
      12
      12
      12
      12
      12
      12
      12
      12
      12
      12
      12
      12
      12
      12
      12
      12
      12
      12
      12
      12
      12
      12
      12
      12
      12
      12
      12
      12
      12
      12
      12
      12
      12
      12
      12
      12
      12
      12
      12
      12
      12
      12
      12
      12
      12
      12
      12
      12
      12
      12
      12
      12
      12
      12
      12
      12
      12
      12
      12
      12
      12
      12
      12
      12
      12
      12
      12
      12
      12
      12
      12
      12
      12
      12
      12
      12
      12
      12
      12
      12
      12
      12
      12
      12
      12
      12
      12
      12
      12
      12
      12
      12
      12
      12
      12
      12
      12
      12
      12
      12
      12
      12
      12
      12
      12
      12
      12
      12
      12
      12
      12
      12
      12
      12
      12
      12
      12
      12
      12
      12
      12
      12
      12
      12
      12
      12
      12
      12
      12
      12
      12
      12
      12
      12
      12
      12
      12
      12
      12
      12
      12
      12
      12
      12
      12
      12
      12
      12
      12
      12
      12
      12
      12
      12
      12
      12
      12
      12
      12
      12
      12
      12
      12
      12
      12
      12
      12
      12
      12
      12
      12
      12
      12
      12
      12
      12
      12
      12
      12
      12
      12
      12
      12
      12
      12
      12
      12
      12
      12
      12
      12
      12
      12
      12
      12
      12
      12
      12
      12
      12
      12
      12
      12
      12
      12
      12
      12
      12
      12
      12
      12
      12
      12
      12
      12
      12
      12
      12
      12
      12
      12
      12
      12
      12
      12
      12
      12
      12
      12
      12
      12
      12
      12
      12
      12
      12
      12
      12
      12
      12
      12
      12
      12
      12
      12
      12
      12
      12
      12
      12
      12
      12
      12
      12
      12
      12
      12
      12
      12
      12
      12
      12
      12
      12
      12
      12
      12
      12
      12
      12
      12
      12
      12
      12
      12
      12
      12
      12
      12
      12
      12
      12
      12
      12
      12
      12
      12
      12
      12
      12
      12
      12
      12
      12
      12
      12
      12
      12
      12
      12
      12
      12
      12
      12
      12
      12
      12
      12
      12
      12
      12
      12
      12
      12
      12
      12
      12
      12
      12
      12
      12
      12
      12
      12
      12
      12
      12
      12
      12
      12
      12
      12
      12
      12
      12
      12
      12
      12
      12
      12
      12
      12
      12
      12
      12
      12
      12
      12
      12
      12
      12
      12
      12
      12
      12
      12
      12
      12
      12
      12
      12
      12
      12
      12
      12
      12
      12
      12
      12
      12
      12
      12
      12
      12
      12
      12
      12
      12
      12
      12
      12
      12
      12
      12
      12
      12
      12
      12
      12
      12
      12
      12
      12
      12
      12
      12
      12
      12
      12
      12
      12
      12
      12
      12
      12
      12
      12
      12
      12
      12
  
  
POINT_DATA       1950
  
SCALARS                  material_type  double 1
LOOKUP_TABLE default
                   2
                   2
                   2
                   2
                   2
                   2
                   2
                   2
                   2
                   2
                   2
                   2
                   2
                   2
                   2
                   2
                   2
                   2
                   2
                   2
                   2
                   2
                   2
                   2
                   2
                   2
                   2
                   2
                   2
                   2
                   2
                   2
                   2
                   2
                   2
                   2
                   2
                   2
                   2
                   2
                   2
                   2
                   2
                   2
                   2
                   2
                   2
                   2
                   2
                   2
                   2
                   2
                   2
                   2
                   2
                   2
                   2
                   2
                   2
                   2
                   2
                   2
                   2
                   2
                   2
                   2
                   2
                   2
                   2
                   2
                   2
                   2
                   2
                   2
                   2
                   2
                   2
                   2
                   2
                   2
                   2
                   2
                   2
                   2
                   2
                   2
                   2
                   2
                   2
                   2
                   2
                   2
                   2
                   2
                   2
                   2
                   2
                   2
                   2
                   2
                   2
                   2
                   2
                   2
                   2
                   2
                   2
                   2
                   2
                   2
                   2
                   2
                   2
                   2
                   2
                   2
                   2
                   2
                   2
                   2
                   2
                   2
                   2
                   2
                   2
                   2
                   2
                   2
                   2
                   2
                   2
                   2
                   2
                   2
                   2
                   2
                   2
                   2
                   2
                   2
                   2
                   2
                   2
                   2
                   2
                   2
                   2
                   2
                   2
                   2
                   2
                   2
                   2
                   2
                   2
                   2
                   2
                   2
                   2
                   2
                   2
                   2
                   2
                   2
                   2
                   2
                   2
                   2
                   2
                   2
                   2
                   2
                   2
                   2
                   2
                   2
                   2
                   2
                   2
                   2
                   2
                   2
                   2
                   2
                   2
                   2
                   2
                   2
                   2
                   2
                   2
                   2
                   2
                   2
                   2
                   2
                   2
                   2
                   2
                   2
                   2
                   2
                   2
                   2
                   2
                   2
                   2
                   2
                   2
                   2
                   2
                   2
                   2
                   2
                   2
                   2
                   2
                   2
                   2
                   2
                   2
                   2
                   2
                   2
                   2
                   2
                   2
                   2
                   2
                   2
                   2
                   2
                   2
                   2
                   2
                   2
                   2
                   2
                   2
                   2
                   2
                   2
                   2
                   2
                   2
                   2
                   2
                   2
                   2
                   2
                   2
                   2
                   2
                   2
                   2
                   2
                   2
                   2
                   2
                   2
                   2
                   2
                   2
                   2
                   2
                   2
                   2
                   2
                   2
                   2
                   2
                   2
                   2
                   2
                   2
                   2
                   2
                   2
                   2
                   2
                   2
                   2
                   2
                   2
                   2
                   2
                   2
                   2
                   2
                   2
                   2
                   2
                   2
                   2
                   2
                   2
                   2
                   2
                   2
                   2
                   2
                   2
                   2
                   2
                   2
                   2
                   2
                   2
                   2
                   2
                   2
                   2
                   2
                   2
                   2
                   2
                   2
                   2
                   2
                   2
                   2
                   2
                   2
                   2
                   2
                   2
                   2
                   2
                   2
                   2
                   2
                   2
                   2
                   2
                   2
                   2
                   2
                   2
                   2
                   2
                   2
                   2
                   2
                   2
                   2
                   2
                   2
                   2
                   2
                   2
                   2
                   2
                   2
                   2
                   2
                   2
                   2
                   2
                   2
                   2
                   2
                   2
                   2
                   2
                   2
                   2
                   2
                   2
                   2
                   2
                   2
                   2
                   2
                   2
                   2
                   2
                   2
                   2
                   2
                   2
                   2
                   2
                   2
                   2
                   2
                   2
                   2
                   2
                   2
                   2
                   2
                   2
                   2
                   2
                   2
                   2
                   2
                   2
                   2
                   2
                   2
                   2
                   2
                   2
                   2
                   2
                   2
                   2
                   2
                   2
                   2
                   2
                   2
                   2
                   2
                   2
                   2
                   2
                   2
                   2
                   2
                   2
                   2
                   2
                   2
                   2
                   2
                   2
                   2
                   2
                   2
                   2
                   2
                   2
                   2
                   2
                   2
                   2
                   2
                   2
                   2
                   2
                   2
                   2
                   2
                   2
                   2
                   2
                   2
                   2
                   2
                   2
                   2
                   2
                   2
                   2
                   2
                   2
                   2
                   2
                   2
                   2
                   2
                   2
                   2
                   2
                   2
                   2
                   2
                   2
                   2
                   2
                   2
                   2
                   2
                   2
                   2
                   2
                   2
                   2
                   2
                   2
                   2
                   2
                   2
                   2
                   2
                   2
                   2
                   2
                   2
                   2
                   2
                   2
                   2
                   2
                   2
                   2
                   2
                   2
                   2
                   2
                   2
                   2
                   2
                   2
                   2
                   2
                   2
                   2
                   2
                   2
                   2
                   2
                   2
                   2
                   2
                   2
                   2
                   2
                   2
                   2
                   2
                   2
                   2
                   2
                   2
                   2
                   2
                   2
                   2
                   2
                   2
                   2
                   2
                   2
                   2
                   2
                   2
                   2
                   2
                   2
                   2
                   2
                   2
                   2
                   2
                   2
                   2
                   2
                   2
                   2
                   2
                   2
                   2
                   2
                   2
                   2
                   2
                   2
                   2
                   2
                   2
                   2
                   2
                   2
                   2
                   2
                   2
                   2
                   2
                   2
                   2
                   2
                   2
                   2
                   2
                   2
                   2
                   2
                   2
                   2
                   2
                   2
                   2
                   2
                   2
                   2
                   2
                   2
                   2
                   2
                   2
                   2
                   2
                   2
                   2
                   2
                   2
                   2
                   2
                   2
                   2
                   2
                   2
                   2
                   2
                   2
                   2
                   2
                   2
                   2
                   2
                   2
                   2
                   2
                   2
                   2
                   2
                   2
                   2
                   2
                   2
                   2
                   2
                   2
                   2
                   2
                   2
                   2
                   2
                   2
                   2
                   2
                   2
                   2
                   2
                   2
                   2
                   2
                   2
                   2
                   2
                   2
                   2
                   2
                   2
                   2
                   2
                   2
                   2
                   2
                   2
                   2
                   2
                   2
                   2
                   2
                   2
                   2
                   2
                   2
                   2
                   2
                   2
                   2
                   2
                   2
                   2
                   2
                   2
                   2
                   2
                   2
                   2
                   2
                   2
                   2
                   2
                   2
                   2
                   2
                   2
                   2
                   2
                   2
                   2
                   2
                   2
                   2
                   2
                   2
                   2
                   2
                   2
                   2
                   2
                   2
                   2
                   2
                   2
                   2
                   2
                   2
                   2
                   2
                   2
                   2
                   2
                   2
                   2
                   2
                   2
                   2
                   2
                   2
                   2
                   2
                   2
                   2
                   2
                   2
                   2
                   2
                   2
                   2
                   2
                   2
                   2
                   2
                   2
                   2
                   2
                   2
                   2
                   2
                   2
                   2
                   2
                   2
                   2
                   2
                   2
                   2
                   2
                   2
                   2
                   2
                   2
                   2
                   2
                   2
                   2
                   2
                   2
                   2
                   2
                   2
                   2
                   2
                   2
                   2
                   2
                   2
                   2
                   2
                   2
                   2
                   2
                   2
                   2
                   2
                   2
                   2
                   2
                   2
                   2
                   2
                   2
                   2
                   2
                   2
                   2
                   2
                   2
                   2
                   2
                   2
                   2
                   2
                   2
                   2
                   2
                   2
                   2
                   2
                   2
                   2
                   2
                   2
                   2
                   2
                   2
                   2
                   2
                   2
                   2
                   2
                   2
                   2
                   2
                   2
                   2
                   2
                   2
                   2
                   2
                   2
                   2
                   2
                   2
                   2
                   2
                   2
                   2
                   2
                   2
                   2
                   2
                   2
                   2
                   2
                   2
                   2
                   2
                   2
                   2
                   2
                   2
                   2
                   2
                   2
                   2
                   2
                   2
                   2
                   2
                   2
                   2
                   2
                   2
                   2
                   2
                   2
                   2
                   2
                   2
                   2
                   2
                   2
                   2
                   2
                   2
                   2
                   2
                   2
                   2
                   2
                   2
                   2
                   2
                   2
                   2
                   2
                   2
                   2
                   2
                   2
                   2
                   2
                   2
                   2
                   2
                   2
                   2
                   2
                   2
                   2
                   2
                   2
                   2
                   2
                   2
                   2
                   2
                   2
                   2
                   2
                   2
                   2
                   2
                   2
                   2
                   2
                   2
                   2
                   2
                   2
                   2
                   2
                   2
                   2
                   2
                   2
                   2
                   2
                   2
                   2
                   2
                   2
                   2
                   2
                   2
                   2
                   2
                   2
                   2
                   2
                   2
                   2
                   2
                   2
                   2
                   2
                   2
                   2
                   2
                   2
                   2
                   2
                   2
                   2
                   2
                   2
                   2
                   2
                   2
                   2
                   2
                   2
                   2
                   2
                   2
                   2
                   2
                   2
                   2
                   2
                   2
                   2
                   2
                   2
                   2
                   2
                   2
                   2
                   2
                   2
                   2
                   2
                   2
                   2
                   2
                   2
                   2
                   2
                   2
                   2
                   2
                   2
                   2
                   2
                   2
                   2
                   2
                   2
                   2
                   2
                   2
                   2
                   2
                   2
                   2
                   2
                   2
                   2
                   2
                   2
                   2
                   2
                   2
                   2
                   2
                   2
                   2
                   2
                   2
                   2
                   2
                   2
                   2
                   2
                   2
                   2
                   2
                   2
                   2
                   2
                   2
                   2
                   2
                   2
                   2
                   2
                   2
                   2
                   2
                   2
                   2
                   2
                   2
                   2
                   2
                   2
                   2
                   2
                   2
                   2
                   2
                   2
                   2
                   2
                   2
                   2
                   2
                   2
                   2
                   2
                   2
                   2
                   2
                   2
                   2
                   2
                   2
                   2
                   2
                   2
                   2
                   2
                   2
                   2
                   2
                   2
                   2
                   2
                   2
                   2
                   2
                   2
                   2
                   2
                   2
                   2
                   2
                   2
                   2
                   2
                   2
                   2
                   2
                   2
                   2
                   2
                   2
                   2
                   2
                   2
                   2
                   2
                   2
                   2
                   2
                   2
                   2
                   2
                   2
                   2
                   2
                   2
                   2
                   2
                   2
                   2
                   2
                   2
                   2
                   2
                   2
                   2
                   2
                   2
                   2
                   2
                   2
                   2
                   2
                   2
                   2
                   2
                   2
                   2
                   2
                   2
                   2
                   2
                   2
                   2
                   2
                   2
                   2
                   2
                   2
                   2
                   2
                   2
                   2
                   2
                   2
                   2
                   2
                   2
                   2
                   2
                   2
                   2
                   2
                   2
                   2
                   2
                   2
                   2
                   2
                   2
                   2
                   2
                   2
                   2
                   2
                   2
                   2
                   2
                   2
                   2
                   2
                   2
                   2
                   2
                   2
                   2
                   2
                   2
                   2
                   2
                   2
                   2
                   2
                   2
                   2
                   2
                   2
                   2
                   2
                   2
                   2
                   2
                   2
                   2
                   2
                   2
                   2
                   2
                   2
                   2
                   2
                   2
                   2
                   2
                   2
                   2
                   2
                   2
                   2
                   2
                   2
                   2
                   2
                   2
                   2
                   2
                   2
                   2
                   2
                   2
                   2
                   2
                   2
                   2
                   2
                   2
                   2
                   2
                   2
                   2
                   2
                   2
                   2
                   2
                   2
                   2
                   2
                   2
                   2
                   2
                   2
                   2
                   2
                   2
                   2
                   2
                   2
                   2
                   2
                   2
                   2
                   2
                   2
                   2
                   2
                   2
                   2
                   2
                   2
                   2
                   2
                   2
                   2
                   2
                   2
                   2
                   2
                   2
                   2
                   2
                   2
                   2
                   2
                   2
                   2
                   2
                   2
                   2
                   2
                   2
                   2
                   2
                   2
                   2
                   2
                   2
                   2
                   2
                   2
                   2
                   2
                   2
                   2
                   2
                   2
                   2
                   2
                   2
                   2
                   2
                   2
                   2
                   2
                   2
                   2
                   2
                   2
                   2
                   2
                   2
                   2
                   2
                   2
                   2
                   2
                   2
                   2
                   2
                   2
                   2
                   2
                   2
                   2
                   2
                   2
                   2
                   2
                   2
                   2
                   2
                   2
                   2
                   2
                   2
                   2
                   2
                   2
                   2
                   2
                   2
                   2
                   2
                   2
                   2
                   2
                   2
                   2
                   2
                   2
                   2
                   2
                   2
                   2
                   2
                   2
                   2
                   2
                   2
                   2
                   2
                   2
                   2
                   2
                   2
                   2
                   2
                   2
                   2
                   2
                   2
                   2
                   2
                   2
                   2
                   2
                   2
                   2
                   2
                   2
                   2
                   2
                   2
                   2
                   2
                   2
                   2
                   2
                   2
                   2
                   2
                   2
                   2
                   2
                   2
                   2
                   2
                   2
                   2
                   2
                   2
                   2
                   2
                   2
                   2
                   2
                   2
                   2
                   2
                   2
                   2
                   2
                   2
                   2
                   2
                   2
                   2
                   2
                   2
                   2
                   2
                   2
                   2
                   2
                   2
                   2
                   2
                   2
                   2
                   2
                   2
                   2
                   2
                   2
                   2
                   2
                   2
                   2
                   2
                   2
                   2
                   2
                   2
                   2
                   2
                   2
                   2
                   2
                   2
                   2
                   2
                   2
                   2
                   2
                   2
                   2
                   2
                   2
                   2
                   2
                   2
                   2
                   2
                   2
                   2
                   2
                   2
                   2
                   2
                   2
                   2
                   2
                   2
                   2
                   2
                   2
                   2
                   2
                   2
                   2
                   2
                   2
                   2
                   2
                   2
                   2
                   2
                   2
                   2
                   2
                   2
                   2
                   2
                   2
                   2
                   2
                   2
                   2
                   2
                   2
                   2
                   2
                   2
                   2
                   2
                   2
                   2
                   2
                   2
                   2
                   2
                   2
                   2
                   2
                   2
                   2
                   2
                   2
                   2
                   2
                   2
                   2
                   2
                   2
                   2
                   2
                   2
                   2
                   2
                   2
                   2
                   2
                   2
                   2
                   2
                   2
                   2
                   2
                   2
                   2
                   2
                   2
                   2
                   2
                   2
                   2
                   2
                   2
                   2
                   2
                   2
                   2
                   2
                   2
                   2
                   2
                   2
                   2
                   2
                   2
                   2
                   2
                   2
                   2
                   2
                   2
                   2
                   2
                   2
                   2
                   2
                   2
                   2
                   2
                   2
                   2
                   2
                   2
                   2
                   2
                   2
                   2
                   2
                   2
                   2
                   2
                   2
                   2
                   2
                   2
                   2
                   2
                   2
                   2
                   2
                   2
                   2
                   2
                   2
                   2
                   2
                   2
                   2
                   2
                   2
                   2
                   2
                   2
                   2
                   2
                   2
                   2
                   2
                   2
                   2
                   2
                   2
                   2
                   2
                   2
                   2
                   2
                   2
                   2
                   2
                   2
                   2
                   2
                   2
                   2
                   2
                   2
                   2
                   2
                   2
                   2
                   2
                   2
                   2
                   2
                   2
                   2
                   2
                   2
                   2
                   2
                   2
                   2
                   2
                   2
                   2
                   2
                   2
                   2
                   2
                   2
                   2
                   2
                   2
                   2
                   2
                   2
                   2
                   2
                   2
                   2
                   2
                   2
                   2
                   2
                   2
                   2
                   2
                   2
                   2
                   2
                   2
                   2
                   2
                   2
                   2
                   2
                   2
                   2
                   2
                   2
                   2
                   2
                   2
                   2
                   2
                   2
                   2
                   2
                   2
                   2
                   2
                   2
                   2
                   2
                   2
                   2
                   2
                   2
                   2
                   2
                   2
                   2
                   2
                   2
                   2
                   2
                   2
                   2
                   2
                   2
                   2
                   2
                   2
                   2
                   2
                   2
                   2
                   2
                   2
                   2
                   2
                   2
                   2
                   2
                   2
                   2
                   2
                   2
                   2
                   2
                   2
                   2
                   2
                   2
                   2
                   2
                   2
                   2
                   2
                   2
                   2
                   2
                   2
                   2
                   2
                   2
                   2
                   2
                   2
                   2
                   2
                   2
                   2
                   2
                   2
                   2
                   2
                   2
                   2
                   2
                   2
                   2
                   2
                   2
                   2
                   2
                   2
                   2
                   2
                   2
                   2
                   2
                   2
                   2
                   2
                   2
                   2
                   2
                   2
                   2
                   2
                   2
                   2
                   2
                   2
                   2
                   2
                   2
                   2
                   2
                   2
                   2
                   2
                   2
                   2
                   2
                   2
                   2
                   2
                   2
                   2
                   2
                   2
                   2
                   2
                   2
                   2
                   2
                   2
                   2
                   2
                   2
                   2
                   2
                   2
                   2
                   2
                   2
                   2
                   2
                   2
                   2
                   2
                   2
                   2
                   2
                   2
                   2
                   2
                   2
                   2
                   2
                   2
                   2
                   2
                   2
                   2
                   2
                   2
                   2
                   2
                   2
                   2
                   2
                   2
                   2
                   2
                   2
                   2
                   2
                   2
                   2
                   2
                   2
                   2
                   2
                   2
                   2
                   2
                   2
                   2
                   2
                   2
                   2
                   2
                   2
                   2
                   2
                   2
                   2
                   2
                   2
                   2
                   2
                   2
                   2
                   2
                   2
                   2
                   2
                   2
                   2
                   2
                   2
                   2
                   2
                   2
                   2
                   2
                   2
                   2
                   2
                   2
                   2
                   2
                   2
                   2
                   2
                   2
                   2
                   2
                   2
                   2
                   2
                   2
                   2
                   2
                   2
                   2
                   2
                   2
                   2
                   2
                   2
                   2
                   2
                   2
                   2
                   2
                   2
                   2
                   2
                   2
                   2
                   2
                   2
                   2
                   2
                   2
                   2
                   2
                   2
                   2
                   2
                   2
                   2
                   2
                   2
                   2
                   2
                   2
                   2
                   2
                   2
                   2
                   2
                   2
                   2
                   2
                   2
                   2
  
SCALARS                        node_id  double 1
LOOKUP_TABLE default
                   1
                   2
                   3
                   4
                   5
                   6
                   7
                   8
                   9
                  10
                  11
                  12
                  13
                  14
                  15
                  16
                  17
                  18
                  19
                  20
                  21
                  22
                  23
                  24
                  25
                  26
                  27
                  28
                  29
                  30
                  31
                  32
                  33
                  34
                  35
                  36
                  37
                  38
                  39
                  40
                  41
                  42
                  43
                  44
                  45
                  46
                  47
                  48
                  49
                  50
                  51
                  52
                  53
                  54
                  55
                  56
                  57
                  58
                  59
                  60
                  61
                  62
                  63
                  64
                  65
                  66
                  67
                  68
                  69
                  70
                  71
                  72
                  73
                  74
                  75
                  76
                  77
                  78
                  79
                  80
                  81
                  82
                  83
                  84
                  85
                  86
                  87
                  88
                  89
                  90
                  91
                  92
                  93
                  94
                  95
                  96
                  97
                  98
                  99
                 100
                 101
                 102
                 103
                 104
                 105
                 106
                 107
                 108
                 109
                 110
                 111
                 112
                 113
                 114
                 115
                 116
                 117
                 118
                 119
                 120
                 121
                 122
                 123
                 124
                 125
                 126
                 127
                 128
                 129
                 130
                 131
                 132
                 133
                 134
                 135
                 136
                 137
                 138
                 139
                 140
                 141
                 142
                 143
                 144
                 145
                 146
                 147
                 148
                 149
                 150
                 151
                 152
                 153
                 154
                 155
                 156
                 157
                 158
                 159
                 160
                 161
                 162
                 163
                 164
                 165
                 166
                 167
                 168
                 169
                 170
                 171
                 172
                 173
                 174
                 175
                 176
                 177
                 178
                 179
                 180
                 181
                 182
                 183
                 184
                 185
                 186
                 187
                 188
                 189
                 190
                 191
                 192
                 193
                 194
                 195
                 196
                 197
                 198
                 199
                 200
                 201
                 202
                 203
                 204
                 205
                 206
                 207
                 208
                 209
                 210
                 211
                 212
                 213
                 214
                 215
                 216
                 217
                 218
                 219
                 220
                 221
                 222
                 223
                 224
                 225
                 226
                 227
                 228
                 229
                 230
                 231
                 232
                 233
                 234
                 235
                 236
                 237
                 238
                 239
                 240
                 241
                 242
                 243
                 244
                 245
                 246
                 247
                 248
                 249
                 250
                 251
                 252
                 253
                 254
                 255
                 256
                 257
                 258
                 259
                 260
                 261
                 262
                 263
                 264
                 265
                 266
                 267
                 268
                 269
                 270
                 271
                 272
                 273
                 274
                 275
                 276
                 277
                 278
                 279
                 280
                 281
                 282
                 283
                 284
                 285
                 286
                 287
                 288
                 289
                 290
                 291
                 292
                 293
                 294
                 295
                 296
                 297
                 298
                 299
                 300
                 301
                 302
                 303
                 304
                 305
                 306
                 307
                 308
                 309
                 310
                 311
                 312
                 313
                 314
                 315
                 316
                 317
                 318
                 319
                 320
                 321
                 322
                 323
                 324
                 325
                 326
                 327
                 328
                 329
                 330
                 331
                 332
                 333
                 334
                 335
                 336
                 337
                 338
                 339
                 340
                 341
                 342
                 343
                 344
                 345
                 346
                 347
                 348
                 349
                 350
                 351
                 352
                 353
                 354
                 355
                 356
                 357
                 358
                 359
                 360
                 361
                 362
                 363
                 364
                 365
                 366
                 367
                 368
                 369
                 370
                 371
                 372
                 373
                 374
                 375
                 376
                 377
                 378
                 379
                 380
                 381
                 382
                 383
                 384
                 385
                 386
                 387
                 388
                 389
                 390
                 391
                 392
                 393
                 394
                 395
                 396
                 397
                 398
                 399
                 400
                 401
                 402
                 403
                 404
                 405
                 406
                 407
                 408
                 409
                 410
                 411
                 412
                 413
                 414
                 415
                 416
                 417
                 418
                 419
                 420
                 421
                 422
                 423
                 424
                 425
                 426
                 427
                 428
                 429
                 430
                 431
                 432
                 433
                 434
                 435
                 436
                 437
                 438
                 439
                 440
                 441
                 442
                 443
                 444
                 445
                 446
                 447
                 448
                 449
                 450
                 451
                 452
                 453
                 454
                 455
                 456
                 457
                 458
                 459
                 460
                 461
                 462
                 463
                 464
                 465
                 466
                 467
                 468
                 469
                 470
                 471
                 472
                 473
                 474
                 475
                 476
                 477
                 478
                 479
                 480
                 481
                 482
                 483
                 484
                 485
                 486
                 487
                 488
                 489
                 490
                 491
                 492
                 493
                 494
                 495
                 496
                 497
                 498
                 499
                 500
                 501
                 502
                 503
                 504
                 505
                 506
                 507
                 508
                 509
                 510
                 511
                 512
                 513
                 514
                 515
                 516
                 517
                 518
                 519
                 520
                 521
                 522
                 523
                 524
                 525
                 526
                 527
                 528
                 529
                 530
                 531
                 532
                 533
                 534
                 535
                 536
                 537
                 538
                 539
                 540
                 541
                 542
                 543
                 544
                 545
                 546
                 547
                 548
                 549
                 550
                 551
                 552
                 553
                 554
                 555
                 556
                 557
                 558
                 559
                 560
                 561
                 562
                 563
                 564
                 565
                 566
                 567
                 568
                 569
                 570
                 571
                 572
                 573
                 574
                 575
                 576
                 577
                 578
                 579
                 580
                 581
                 582
                 583
                 584
                 585
                 586
                 587
                 588
                 589
                 590
                 591
                 592
                 593
                 594
                 595
                 596
                 597
                 598
                 599
                 600
                 601
                 602
                 603
                 604
                 605
                 606
                 607
                 608
                 609
                 610
                 611
                 612
                 613
                 614
                 615
                 616
                 617
                 618
                 619
                 620
                 621
                 622
                 623
                 624
                 625
                 626
                 627
                 628
                 629
                 630
                 631
                 632
                 633
                 634
                 635
                 636
                 637
                 638
                 639
                 640
                 641
                 642
                 643
                 644
                 645
                 646
                 647
                 648
                 649
                 650
                 651
                 652
                 653
                 654
                 655
                 656
                 657
                 658
                 659
                 660
                 661
                 662
                 663
                 664
                 665
                 666
                 667
                 668
                 669
                 670
                 671
                 672
                 673
                 674
                 675
                 676
                 677
                 678
                 679
                 680
                 681
                 682
                 683
                 684
                 685
                 686
                 687
                 688
                 689
                 690
                 691
                 692
                 693
                 694
                 695
                 696
                 697
                 698
                 699
                 700
                 701
                 702
                 703
                 704
                 705
                 706
                 707
                 708
                 709
                 710
                 711
                 712
                 713
                 714
                 715
                 716
                 717
                 718
                 719
                 720
                 721
                 722
                 723
                 724
                 725
                 726
                 727
                 728
                 729
                 730
                 731
                 732
                 733
                 734
                 735
                 736
                 737
                 738
                 739
                 740
                 741
                 742
                 743
                 744
                 745
                 746
                 747
                 748
                 749
                 750
                 751
                 752
                 753
                 754
                 755
                 756
                 757
                 758
                 759
                 760
                 761
                 762
                 763
                 764
                 765
                 766
                 767
                 768
                 769
                 770
                 771
                 772
                 773
                 774
                 775
                 776
                 777
                 778
                 779
                 780
                 781
                 782
                 783
                 784
                 785
                 786
                 787
                 788
                 789
                 790
                 791
                 792
                 793
                 794
                 795
                 796
                 797
                 798
                 799
                 800
                 801
                 802
                 803
                 804
                 805
                 806
                 807
                 808
                 809
                 810
                 811
                 812
                 813
                 814
                 815
                 816
                 817
                 818
                 819
                 820
                 821
                 822
                 823
                 824
                 825
                 826
                 827
                 828
                 829
                 830
                 831
                 832
                 833
                 834
                 835
                 836
                 837
                 838
                 839
                 840
                 841
                 842
                 843
                 844
                 845
                 846
                 847
                 848
                 849
                 850
                 851
                 852
                 853
                 854
                 855
                 856
                 857
                 858
                 859
                 860
                 861
                 862
                 863
                 864
                 865
                 866
                 867
                 868
                 869
                 870
                 871
                 872
                 873
                 874
                 875
                 876
                 877
                 878
                 879
                 880
                 881
                 882
                 883
                 884
                 885
                 886
                 887
                 888
                 889
                 890
                 891
                 892
                 893
                 894
                 895
                 896
                 897
                 898
                 899
                 900
                 901
                 902
                 903
                 904
                 905
                 906
                 907
                 908
                 909
                 910
                 911
                 912
                 913
                 914
                 915
                 916
                 917
                 918
                 919
                 920
                 921
                 922
                 923
                 924
                 925
                 926
                 927
                 928
                 929
                 930
                 931
                 932
                 933
                 934
                 935
                 936
                 937
                 938
                 939
                 940
                 941
                 942
                 943
                 944
                 945
                 946
                 947
                 948
                 949
                 950
                 951
                 952
                 953
                 954
                 955
                 956
                 957
                 958
                 959
                 960
                 961
                 962
                 963
                 964
                 965
                 966
                 967
                 968
                 969
                 970
                 971
                 972
                 973
                 974
                 975
                 976
                 977
                 978
                 979
                 980
                 981
                 982
                 983
                 984
                 985
                 986
                 987
                 988
                 989
                 990
                 991
                 992
                 993
                 994
                 995
                 996
                 997
                 998
                 999
                1000
                1001
                1002
                1003
                1004
                1005
                1006
                1007
                1008
                1009
                1010
                1011
                1012
                1013
                1014
                1015
                1016
                1017
                1018
                1019
                1020
                1021
                1022
                1023
                1024
                1025
                1026
                1027
                1028
                1029
                1030
                1031
                1032
                1033
                1034
                1035
                1036
                1037
                1038
                1039
                1040
                1041
                1042
                1043
                1044
                1045
                1046
                1047
                1048
                1049
                1050
                1051
                1052
                1053
                1054
                1055
                1056
                1057
                1058
                1059
                1060
                1061
                1062
                1063
                1064
                1065
                1066
                1067
                1068
                1069
                1070
                1071
                1072
                1073
                1074
                1075
                1076
                1077
                1078
                1079
                1080
                1081
                1082
                1083
                1084
                1085
                1086
                1087
                1088
                1089
                1090
                1091
                1092
                1093
                1094
                1095
                1096
                1097
                1098
                1099
                1100
                1101
                1102
                1103
                1104
                1105
                1106
                1107
                1108
                1109
                1110
                1111
                1112
                1113
                1114
                1115
                1116
                1117
                1118
                1119
                1120
                1121
                1122
                1123
                1124
                1125
                1126
                1127
                1128
                1129
                1130
                1131
                1132
                1133
                1134
                1135
                1136
                1137
                1138
                1139
                1140
                1141
                1142
                1143
                1144
                1145
                1146
                1147
                1148
                1149
                1150
                1151
                1152
                1153
                1154
                1155
                1156
                1157
                1158
                1159
                1160
                1161
                1162
                1163
                1164
                1165
                1166
                1167
                1168
                1169
                1170
                1171
                1172
                1173
                1174
                1175
                1176
                1177
                1178
                1179
                1180
                1181
                1182
                1183
                1184
                1185
                1186
                1187
                1188
                1189
                1190
                1191
                1192
                1193
                1194
                1195
                1196
                1197
                1198
                1199
                1200
                1201
                1202
                1203
                1204
                1205
                1206
                1207
                1208
                1209
                1210
                1211
                1212
                1213
                1214
                1215
                1216
                1217
                1218
                1219
                1220
                1221
                1222
                1223
                1224
                1225
                1226
                1227
                1228
                1229
                1230
                1231
                1232
                1233
                1234
                1235
                1236
                1237
                1238
                1239
                1240
                1241
                1242
                1243
                1244
                1245
                1246
                1247
                1248
                1249
                1250
                1251
                1252
                1253
                1254
                1255
                1256
                1257
                1258
                1259
                1260
                1261
                1262
                1263
                1264
                1265
                1266
                1267
                1268
                1269
                1270
                1271
                1272
                1273
                1274
                1275
                1276
                1277
                1278
                1279
                1280
                1281
                1282
                1283
                1284
                1285
                1286
                1287
                1288
                1289
                1290
                1291
                1292
                1293
                1294
                1295
                1296
                1297
                1298
                1299
                1300
                1301
                1302
                1303
                1304
                1305
                1306
                1307
                1308
                1309
                1310
                1311
                1312
                1313
                1314
                1315
                1316
                1317
                1318
                1319
                1320
                1321
                1322
                1323
                1324
                1325
                1326
                1327
                1328
                1329
                1330
                1331
                1332
                1333
                1334
                1335
                1336
                1337
                1338
                1339
                1340
                1341
                1342
                1343
                1344
                1345
                1346
                1347
                1348
                1349
                1350
                1351
                1352
                1353
                1354
                1355
                1356
                1357
                1358
                1359
                1360
                1361
                1362
                1363
                1364
                1365
                1366
                1367
                1368
                1369
                1370
                1371
                1372
                1373
                1374
                1375
                1376
                1377
                1378
                1379
                1380
                1381
                1382
                1383
                1384
                1385
                1386
                1387
                1388
                1389
                1390
                1391
                1392
                1393
                1394
                1395
                1396
                1397
                1398
                1399
                1400
                1401
                1402
                1403
                1404
                1405
                1406
                1407
                1408
                1409
                1410
                1411
                1412
                1413
                1414
                1415
                1416
                1417
                1418
                1419
                1420
                1421
                1422
                1423
                1424
                1425
                1426
                1427
                1428
                1429
                1430
                1431
                1432
                1433
                1434
                1435
                1436
                1437
                1438
                1439
                1440
                1441
                1442
                1443
                1444
                1445
                1446
                1447
                1448
                1449
                1450
                1451
                1452
                1453
                1454
                1455
                1456
                1457
                1458
                1459
                1460
                1461
                1462
                1463
                1464
                1465
                1466
                1467
                1468
                1469
                1470
                1471
                1472
                1473
                1474
                1475
                1476
                1477
                1478
                1479
                1480
                1481
                1482
                1483
                1484
                1485
                1486
                1487
                1488
                1489
                1490
                1491
                1492
                1493
                1494
                1495
                1496
                1497
                1498
                1499
                1500
                1501
                1502
                1503
                1504
                1505
                1506
                1507
                1508
                1509
                1510
                1511
                1512
                1513
                1514
                1515
                1516
                1517
                1518
                1519
                1520
                1521
                1522
                1523
                1524
                1525
                1526
                1527
                1528
                1529
                1530
                1531
                1532
                1533
                1534
                1535
                1536
                1537
                1538
                1539
                1540
                1541
                1542
                1543
                1544
                1545
                1546
                1547
                1548
                1549
                1550
                1551
                1552
                1553
                1554
                1555
                1556
                1557
                1558
                1559
                1560
                1561
                1562
                1563
                1564
                1565
                1566
                1567
                1568
                1569
                1570
                1571
                1572
                1573
                1574
                1575
                1576
                1577
                1578
                1579
                1580
                1581
                1582
                1583
                1584
                1585
                1586
                1587
                1588
                1589
                1590
                1591
                1592
                1593
                1594
                1595
                1596
                1597
                1598
                1599
                1600
                1601
                1602
                1603
                1604
                1605
                1606
                1607
                1608
                1609
                1610
                1611
                1612
                1613
                1614
                1615
                1616
                1617
                1618
                1619
                1620
                1621
                1622
                1623
                1624
                1625
                1626
                1627
                1628
                1629
                1630
                1631
                1632
                1633
                1634
                1635
                1636
                1637
                1638
                1639
                1640
                1641
                1642
                1643
                1644
                1645
                1646
                1647
                1648
                1649
                1650
                1651
                1652
                1653
                1654
                1655
                1656
                1657
                1658
                1659
                1660
                1661
                1662
                1663
                1664
                1665
                1666
                1667
                1668
                1669
                1670
                1671
                1672
                1673
                1674
                1675
                1676
                1677
                1678
                1679
                1680
                1681
                1682
                1683
                1684
                1685
                1686
                1687
                1688
                1689
                1690
                1691
                1692
                1693
                1694
                1695
                1696
                1697
                1698
                1699
                1700
                1701
                1702
                1703
                1704
                1705
                1706
                1707
                1708
                1709
                1710
                1711
                1712
                1713
                1714
                1715
                1716
                1717
                1718
                1719
                1720
                1721
                1722
                1723
                1724
                1725
                1726
                1727
                1728
                1729
                1730
                1731
                1732
                1733
                1734
                1735
                1736
                1737
                1738
                1739
                1740
                1741
                1742
                1743
                1744
                1745
                1746
                1747
                1748
                1749
                1750
                1751
                1752
                1753
                1754
                1755
                1756
                1757
                1758
                1759
                1760
                1761
                1762
                1763
                1764
                1765
                1766
                1767
                1768
                1769
                1770
                1771
                1772
                1773
                1774
                1775
                1776
                1777
                1778
                1779
                1780
                1781
                1782
                1783
                1784
                1785
                1786
                1787
                1788
                1789
                1790
                1791
                1792
                1793
                1794
                1795
                1796
                1797
                1798
                1799
                1800
                1801
                1802
                1803
                1804
                1805
                1806
                1807
                1808
                1809
                1810
                1811
                1812
                1813
                1814
                1815
                1816
                1817
                1818
                1819
                1820
                1821
                1822
                1823
                1824
                1825
                1826
                1827
                1828
                1829
                1830
                1831
                1832
                1833
                1834
                1835
                1836
                1837
                1838
                1839
                1840
                1841
                1842
                1843
                1844
                1845
                1846
                1847
                1848
                1849
                1850
                1851
                1852
                1853
                1854
                1855
                1856
                1857
                1858
                1859
                1860
                1861
                1862
                1863
                1864
                1865
                1866
                1867
                1868
                1869
                1870
                1871
                1872
                1873
                1874
                1875
                1876
                1877
                1878
                1879
                1880
                1881
                1882
                1883
                1884
                1885
                1886
                1887
                1888
                1889
                1890
                1891
                1892
                1893
                1894
                1895
                1896
                1897
                1898
                1899
                1900
                1901
                1902
                1903
                1904
                1905
                1906
                1907
                1908
                1909
                1910
                1911
                1912
                1913
                1914
                1915
                1916
                1917
                1918
                1919
                1920
                1921
                1922
                1923
                1924
                1925
                1926
                1927
                1928
                1929
                1930
                1931
                1932
                1933
                1934
                1935
                1936
                1937
                1938
                1939
                1940
                1941
                1942
                1943
                1944
                1945
                1946
                1947
                1948
                1949
                1950
  
SCALARS                         bodyid  double 1
LOOKUP_TABLE default
                   1
                   1
                   1
                   1
                   1
                   1
                   1
                   1
                   1
                   1
                   1
                   1
                   1
                   1
                   1
                   1
                   1
                   1
                   1
                   1
                   1
                   1
                   1
                   1
                   1
                   1
                   1
                   1
                   1
                   1
                   1
                   1
                   1
                   1
                   1
                   1
                   1
                   1
                   1
                   1
                   1
                   1
                   1
                   1
                   1
                   1
                   1
                   1
                   1
                   1
                   1
                   1
                   1
                   1
                   1
                   1
                   1
                   1
                   1
                   1
                   1
                   1
                   1
                   1
                   1
                   1
                   1
                   1
                   1
                   1
                   1
                   1
                   1
                   1
                   1
                   1
                   1
                   1
                   1
                   1
                   1
                   1
                   1
                   1
                   1
                   1
                   1
                   1
                   1
                   1
                   1
                   1
                   1
                   1
                   1
                   1
                   1
                   1
                   1
                   1
                   1
                   1
                   1
                   1
                   1
                   1
                   1
                   1
                   1
                   1
                   1
                   1
                   1
                   1
                   1
                   1
                   1
                   1
                   1
                   1
                   1
                   1
                   1
                   1
                   1
                   1
                   1
                   1
                   1
                   1
                   1
                   1
                   1
                   1
                   1
                   1
                   1
                   1
                   1
                   1
                   1
                   1
                   1
                   1
                   1
                   1
                   1
                   1
                   1
                   1
                   1
                   1
                   1
                   1
                   1
                   1
                   1
                   1
                   1
                   1
                   1
                   1
                   1
                   1
                   1
                   1
                   1
                   1
                   1
                   1
                   1
                   1
                   1
                   1
                   1
                   1
                   1
                   1
                   1
                   1
                   1
                   1
                   1
                   1
                   1
                   1
                   1
                   1
                   1
                   1
                   1
                   1
                   1
                   1
                   1
                   1
                   1
                   1
                   1
                   1
                   1
                   1
                   1
                   1
                   1
                   1
                   1
                   1
                   1
                   1
                   1
                   1
                   1
                   1
                   1
                   1
                   1
                   1
                   1
                   1
                   1
                   1
                   1
                   1
                   1
                   1
                   1
                   1
                   1
                   1
                   1
                   1
                   1
                   1
                   1
                   1
                   1
                   1
                   1
                   1
                   1
                   1
                   1
                   1
                   1
                   1
                   1
                   1
                   1
                   1
                   1
                   1
                   1
                   1
                   1
                   1
                   1
                   1
                   1
                   1
                   1
                   1
                   1
                   1
                   1
                   1
                   1
                   1
                   1
                   1
                   1
                   1
                   1
                   1
                   1
                   1
                   1
                   1
                   1
                   1
                   1
                   1
                   1
                   1
                   1
                   1
                   1
                   1
                   1
                   1
                   1
                   1
                   1
                   1
                   1
                   1
                   1
                   1
                   1
                   1
                   1
                   1
                   1
                   1
                   1
                   1
                   1
                   1
                   1
                   1
                   1
                   1
                   1
                   1
                   1
                   1
                   1
                   1
                   1
                   1
                   1
                   1
                   1
                   1
                   1
                   1
                   1
                   1
                   1
                   1
                   1
                   1
                   1
                   1
                   1
                   1
                   1
                   1
                   1
                   1
                   1
                   1
                   1
                   1
                   1
                   1
                   1
                   1
                   1
                   1
                   1
                   1
                   1
                   1
                   1
                   1
                   1
                   1
                   1
                   1
                   1
                   1
                   1
                   1
                   1
                   1
                   1
                   1
                   1
                   1
                   1
                   1
                   1
                   1
                   1
                   1
                   1
                   1
                   1
                   1
                   1
                   1
                   1
                   1
                   1
                   1
                   1
                   1
                   1
                   1
                   1
                   1
                   1
                   1
                   1
                   1
                   1
                   1
                   1
                   1
                   1
                   1
                   1
                   1
                   1
                   1
                   1
                   1
                   1
                   1
                   1
                   1
                   1
                   1
                   1
                   1
                   1
                   1
                   1
                   1
                   1
                   1
                   1
                   1
                   1
                   1
                   1
                   1
                   1
                   1
                   1
                   1
                   1
                   1
                   1
                   1
                   1
                   1
                   1
                   1
                   1
                   1
                   1
                   1
                   1
                   1
                   1
                   1
                   1
                   1
                   1
                   1
                   1
                   1
                   1
                   1
                   1
                   1
                   1
                   1
                   1
                   1
                   1
                   1
                   1
                   1
                   1
                   1
                   1
                   1
                   1
                   1
                   1
                   1
                   1
                   1
                   1
                   1
                   1
                   1
                   1
                   1
                   1
                   1
                   1
                   1
                   1
                   1
                   1
                   1
                   1
                   1
                   1
                   1
                   1
                   1
                   1
                   1
                   1
                   1
                   1
                   1
                   1
                   1
                   1
                   1
                   1
                   1
                   1
                   1
                   1
                   1
                   1
                   1
                   1
                   1
                   1
                   1
                   1
                   1
                   1
                   1
                   1
                   1
                   1
                   1
                   1
                   1
                   1
                   1
                   1
                   1
                   1
                   1
                   1
                   1
                   1
                   1
                   1
                   1
                   1
                   1
                   1
                   1
                   1
                   1
                   1
                   1
                   1
                   1
                   1
                   1
                   1
                   1
                   1
                   1
                   1
                   1
                   1
                   1
                   1
                   1
                   1
                   1
                   1
                   1
                   1
                   1
                   1
                   1
                   1
                   1
                   1
                   1
                   1
                   1
                   1
                   1
                   1
                   1
                   1
                   1
                   1
                   1
                   1
                   1
                   1
                   1
                   1
                   1
                   1
                   1
                   1
                   1
                   1
                   1
                   1
                   1
                   1
                   1
                   1
                   1
                   1
                   1
                   1
                   1
                   1
                   1
                   1
                   1
                   1
                   1
                   1
                   1
                   1
                   1
                   1
                   1
                   1
                   1
                   1
                   1
                   1
                   1
                   1
                   1
                   1
                   1
                   1
                   1
                   1
                   1
                   1
                   1
                   1
                   1
                   1
                   1
                   1
                   1
                   1
                   1
                   1
                   1
                   1
                   1
                   1
                   1
                   1
                   1
                   1
                   1
                   1
                   1
                   1
                   1
                   1
                   1
                   1
                   1
                   1
                   1
                   1
                   1
                   1
                   1
                   1
                   1
                   1
                   1
                   1
                   1
                   1
                   1
                   1
                   1
                   1
                   1
                   1
                   1
                   1
                   1
                   1
                   1
                   1
                   1
                   1
                   1
                   1
                   1
                   1
                   1
                   1
                   1
                   1
                   1
                   1
                   1
                   1
                   1
                   1
                   1
                   1
                   1
                   1
                   1
                   1
                   1
                   1
                   1
                   1
                   1
                   1
                   1
                   1
                   1
                   1
                   1
                   1
                   1
                   1
                   1
                   1
                   1
                   1
                   1
                   1
                   1
                   1
                   1
                   1
                   1
                   1
                   1
                   1
                   1
                   1
                   1
                   1
                   1
                   1
                   1
                   1
                   1
                   1
                   1
                   1
                   1
                   1
                   1
                   1
                   1
                   1
                   1
                   1
                   1
                   1
                   1
                   1
                   1
                   1
                   1
                   1
                   1
                   1
                   1
                   1
                   1
                   1
                   1
                   1
                   1
                   1
                   1
                   1
                   1
                   1
                   1
                   1
                   1
                   1
                   1
                   1
                   1
                   1
                   1
                   1
                   1
                   1
                   1
                   1
                   1
                   1
                   1
                   1
                   1
                   1
                   1
                   1
                   1
                   1
                   1
                   1
                   1
                   1
                   1
                   1
                   1
                   1
                   1
                   1
                   1
                   1
                   1
                   1
                   1
                   1
                   1
                   1
                   1
                   1
                   1
                   1
                   1
                   1
                   1
                   1
                   1
                   1
                   1
                   1
                   1
                   1
                   1
                   1
                   1
                   1
                   1
                   1
                   1
                   1
                   1
                   1
                   1
                   1
                   1
                   1
                   1
                   1
                   1
                   1
                   1
                   1
                   1
                   1
                   1
                   1
                   1
                   1
                   1
                   1
                   1
                   1
                   1
                   1
                   1
                   1
                   1
                   1
                   1
                   1
                   1
                   1
                   1
                   1
                   1
                   1
                   1
                   1
                   1
                   1
                   1
                   1
                   1
                   1
                   1
                   1
                   1
                   1
                   1
                   1
                   1
                   1
                   1
                   1
                   1
                   1
                   1
                   1
                   1
                   1
                   1
                   1
                   1
                   1
                   1
                   1
                   1
                   1
                   1
                   1
                   1
                   1
                   1
                   1
                   1
                   1
                   1
                   1
                   1
                   1
                   1
                   1
                   1
                   1
                   1
                   1
                   1
                   1
                   1
                   1
                   1
                   1
                   1
                   1
                   1
                   1
                   1
                   1
                   1
                   1
                   1
                   1
                   1
                   1
                   1
                   1
                   1
                   1
                   1
                   1
                   1
                   1
                   1
                   1
                   1
                   1
                   1
                   1
                   1
                   1
                   1
                   1
                   1
                   1
                   1
                   1
                   1
                   1
                   1
                   1
                   1
                   1
                   1
                   1
                   1
                   1
                   1
                   1
                   1
                   1
                   1
                   1
                   1
                   1
                   1
                   1
                   1
                   1
                   1
                   1
                   1
                   1
                   1
                   1
                   1
                   1
                   1
                   1
                   1
                   1
                   1
                   1
                   1
                   1
                   1
                   1
                   1
                   1
                   1
                   1
                   1
                   1
                   1
                   1
                   1
                   1
                   1
                   1
                   1
                   1
                   1
                   1
                   1
                   1
                   1
                   1
                   1
                   1
                   1
                   1
                   1
                   1
                   1
                   1
                   1
                   1
                   1
                   1
                   1
                   1
                   1
                   1
                   1
                   1
                   1
                   1
                   1
                   1
                   1
                   1
                   1
                   1
                   1
                   1
                   1
                   1
                   1
                   1
                   1
                   1
                   1
                   1
                   1
                   1
                   1
                   1
                   1
                   1
                   1
                   1
                   1
                   1
                   1
                   1
                   1
                   1
                   1
                   1
                   1
                   1
                   1
                   1
                   1
                   1
                   1
                   1
                   1
                   1
                   1
                   1
                   1
                   1
                   1
                   1
                   1
                   1
                   1
                   1
                   1
                   1
                   1
                   1
                   1
                   1
                   1
                   1
                   1
                   1
                   1
                   1
                   1
                   1
                   1
                   1
                   1
                   1
                   1
                   1
                   1
                   1
                   1
                   1
                   1
                   1
                   1
                   1
                   1
                   1
                   1
                   1
                   1
                   1
                   1
                   1
                   1
                   1
                   1
                   1
                   1
                   1
                   1
                   1
                   1
                   1
                   1
                   1
                   1
                   1
                   1
                   1
                   1
                   1
                   1
                   1
                   1
                   1
                   1
                   1
                   1
                   1
                   1
                   1
                   1
                   1
                   1
                   1
                   1
                   1
                   1
                   1
                   1
                   1
                   1
                   1
                   1
                   1
                   1
                   1
                   1
                   1
                   1
                   1
                   1
                   1
                   1
                   1
                   1
                   1
                   1
                   1
                   1
                   1
                   1
                   1
                   1
                   1
                   1
                   1
                   1
                   1
                   1
                   1
                   1
                   1
                   1
                   1
                   1
                   1
                   1
                   1
                   1
                   1
                   1
                   1
                   1
                   1
                   1
                   1
                   1
                   1
                   1
                   1
                   1
                   1
                   1
                   1
                   1
                   1
                   1
                   1
                   1
                   1
                   1
                   1
                   1
                   1
                   1
                   1
                   1
                   1
                   1
                   1
                   1
                   1
                   1
                   1
                   1
                   1
                   1
                   1
                   1
                   1
                   1
                   1
                   1
                   1
                   1
                   1
                   1
                   1
                   1
                   1
                   1
                   1
                   1
                   1
                   1
                   1
                   1
                   1
                   1
                   1
                   1
                   1
                   1
                   1
                   1
                   1
                   1
                   1
                   1
                   1
                   1
                   1
                   1
                   1
                   1
                   1
                   1
                   1
                   1
                   1
                   1
                   1
                   1
                   1
                   1
                   1
                   1
                   1
                   1
                   1
                   1
                   1
                   1
                   1
                   1
                   1
                   1
                   1
                   1
                   1
                   1
                   1
                   1
                   1
                   1
                   1
                   1
                   1
                   1
                   1
                   1
                   1
                   1
                   1
                   1
                   1
                   1
                   1
                   1
                   1
                   1
                   1
                   1
                   1
                   1
                   1
                   1
                   1
                   1
                   1
                   1
                   1
                   1
                   1
                   1
                   1
                   1
                   1
                   1
                   1
                   1
                   1
                   1
                   1
                   1
                   1
                   1
                   1
                   1
                   1
                   1
                   1
                   1
                   1
                   1
                   1
                   1
                   1
                   1
                   1
                   1
                   1
                   1
                   1
                   1
                   1
                   1
                   1
                   1
                   1
                   1
                   1
                   1
                   1
                   1
                   1
                   1
                   1
                   1
                   1
                   1
                   1
                   1
                   1
                   1
                   1
                   1
                   1
                   1
                   1
                   1
                   1
                   1
                   1
                   1
                   1
                   1
                   1
                   1
                   1
                   1
                   1
                   1
                   1
                   1
                   1
                   1
                   1
                   1
                   1
                   1
                   1
                   1
                   1
                   1
                   1
                   1
                   1
                   1
                   1
                   1
                   1
                   1
                   1
                   1
                   1
                   1
                   1
                   1
                   1
                   1
                   1
                   1
                   1
                   1
                   1
                   1
                   1
                   1
                   1
                   1
                   1
                   1
                   1
                   1
                   1
                   1
                   1
                   1
                   1
                   1
                   1
                   1
                   1
                   1
                   1
                   1
                   1
                   1
                   1
                   1
                   1
                   1
                   1
                   1
                   1
                   1
                   1
                   1
                   1
                   1
                   1
                   1
                   1
                   1
                   1
                   1
                   1
                   1
                   1
                   1
                   1
                   1
                   1
                   1
                   1
                   1
                   1
                   1
                   1
                   1
                   1
                   1
                   1
                   1
                   1
                   1
                   1
                   1
                   1
                   1
                   1
                   1
                   1
                   1
                   1
                   1
                   1
                   1
                   1
                   1
                   1
                   1
                   1
                   1
                   1
                   1
                   1
                   1
                   1
                   1
                   1
                   1
                   1
                   1
                   1
                   1
                   1
                   1
                   1
                   1
                   1
                   1
                   1
                   1
                   1
                   1
                   1
                   1
                   1
                   1
                   1
                   1
                   1
                   1
                   1
                   1
                   1
                   1
                   1
                   1
                   1
                   1
                   1
                   1
                   1
                   1
                   1
                   1
                   1
                   1
                   1
                   1
                   1
                   1
                   1
                   1
                   1
                   1
                   1
                   1
                   1
                   1
                   1
                   1
                   1
                   1
                   1
                   1
                   1
                   1
                   1
                   1
                   1
                   1
                   1
                   1
                   1
                   1
                   1
                   1
                   1
                   1
                   1
                   1
                   1
                   1
                   1
                   1
                   1
                   1
                   1
                   1
                   1
                   1
                   1
                   1
                   1
                   1
                   1
                   1
                   1
                   1
                   1
                   1
                   1
                   1
                   1
                   1
                   1
                   1
                   1
                   1
                   1
                   1
                   1
                   1
                   1
                   1
                   1
                   1
                   1
                   1
                   1
                   1
                   1
                   1
                   1
                   1
                   1
                   1
                   1
                   1
                   1
                   1
                   1
                   1
                   1
                   1
                   1
                   1
                   1
                   1
                   1
                   1
                   1
                   1
                   1
                   1
                   1
                   1
                   1
                   1
                   1
                   1
                   1
                   1
                   1
                   1
                   1
                   1
                   1
                   1
                   1
                   1
                   1
                   1
                   1
                   1
                   1
                   1
                   1
                   1
                   1
                   1
                   1
                   1
                   1
                   1
                   1
                   1
                   1
                   1
                   1
                   1
                   1
                   1
                   1
                   1
                   1
                   1
                   1
                   1
                   1
                   1
                   1
                   1
                   1
                   1
                   1
                   1
                   1
                   1
                   1
                   1
                   1
                   1
                   1
                   1
                   1
                   1
                   1
                   1
                   1
                   1
                   1
                   1
                   1
                   1
                   1
                   1
                   1
                   1
                   1
                   1
                   1
                   1
                   1
                   1
                   1
                   1
                   1
                   1
                   1
                   1
                   1
                   1
                   1
                   1
                   1
                   1
                   1
                   1
                   1
                   1
                   1
                   1
                   1
                   1
                   1
                   1
                   1
                   1
                   1
                   1
                   1
                   1
                   1
                   1
                   1
                   1
                   1
                   1
                   1
                   1
                   1
                   1
                   1
                   1
                   1
                   1
                   1
                   1
                   1
                   1
                   1
                   1
                   1
                   1
                   1
                   1
                   1
                   1
                   1
                   1
                   1
                   1
                   1
                   1
                   1
                   1
                   1
                   1
                   1
                   1
                   1
                   1
                   1
                   1
                   1
                   1
                   1
                   1
                   1
                   1
                   1
                   1
                   1
                   1
                   1
                   1
                   1
                   1
                   1
                   1
                   1
                   1
                   1
                   1
                   1
                   1
                   1
                   1
                   1
                   1
                   1
                   1
                   1
                   1
                   1
                   1
                   1
                   1
                   1
                   1
                   1
                   1
                   1
                   1
                   1
                   1
                   1
                   1
                   1
                   1
                   1
                   1
                   1
                   1
                   1
                   1
                   1
                   1
                   1
                   1
                   1
                   1
                   1
                   1
                   1
                   1
                   1
                   1
                   1
                   1
                   1
                   1
                   1
                   1
                   1
                   1
                   1
                   1
                   1
                   1
                   1
                   1
                   1
                   1
                   1
                   1
                   1
                   1
                   1
                   1
                   1
                   1
                   1
                   1
                   1
                   1
                   1
                   1
                   1
                   1
                   1
                   1
                   1
                   1
                   1
                   1
                   1
                   1
                   1
                   1
                   1
                   1
                   1
                   1
                   1
                   1
                   1
                   1
                   1
                   1
                   1
                   1
                   1
                   1
                   1
                   1
                   1
                   1
                   1
                   1
                   1
                   1
  
SCALARS                  material_type  double 1
LOOKUP_TABLE default
                   2
                   2
                   2
                   2
                   2
                   2
                   2
                   2
                   2
                   2
                   2
                   2
                   2
                   2
                   2
                   2
                   2
                   2
                   2
                   2
                   2
                   2
                   2
                   2
                   2
                   2
                   2
                   2
                   2
                   2
                   2
                   2
                   2
                   2
                   2
                   2
                   2
                   2
                   2
                   2
                   2
                   2
                   2
                   2
                   2
                   2
                   2
                   2
                   2
                   2
                   2
                   2
                   2
                   2
                   2
                   2
                   2
                   2
                   2
                   2
                   2
                   2
                   2
                   2
                   2
                   2
                   2
                   2
                   2
                   2
                   2
                   2
                   2
                   2
                   2
                   2
                   2
                   2
                   2
                   2
                   2
                   2
                   2
                   2
                   2
                   2
                   2
                   2
                   2
                   2
                   2
                   2
                   2
                   2
                   2
                   2
                   2
                   2
                   2
                   2
                   2
                   2
                   2
                   2
                   2
                   2
                   2
                   2
                   2
                   2
                   2
                   2
                   2
                   2
                   2
                   2
                   2
                   2
                   2
                   2
                   2
                   2
                   2
                   2
                   2
                   2
                   2
                   2
                   2
                   2
                   2
                   2
                   2
                   2
                   2
                   2
                   2
                   2
                   2
                   2
                   2
                   2
                   2
                   2
                   2
                   2
                   2
                   2
                   2
                   2
                   2
                   2
                   2
                   2
                   2
                   2
                   2
                   2
                   2
                   2
                   2
                   2
                   2
                   2
                   2
                   2
                   2
                   2
                   2
                   2
                   2
                   2
                   2
                   2
                   2
                   2
                   2
                   2
                   2
                   2
                   2
                   2
                   2
                   2
                   2
                   2
                   2
                   2
                   2
                   2
                   2
                   2
                   2
                   2
                   2
                   2
                   2
                   2
                   2
                   2
                   2
                   2
                   2
                   2
                   2
                   2
                   2
                   2
                   2
                   2
                   2
                   2
                   2
                   2
                   2
                   2
                   2
                   2
                   2
                   2
                   2
                   2
                   2
                   2
                   2
                   2
                   2
                   2
                   2
                   2
                   2
                   2
                   2
                   2
                   2
                   2
                   2
                   2
                   2
                   2
                   2
                   2
                   2
                   2
                   2
                   2
                   2
                   2
                   2
                   2
                   2
                   2
                   2
                   2
                   2
                   2
                   2
                   2
                   2
                   2
                   2
                   2
                   2
                   2
                   2
                   2
                   2
                   2
                   2
                   2
                   2
                   2
                   2
                   2
                   2
                   2
                   2
                   2
                   2
                   2
                   2
                   2
                   2
                   2
                   2
                   2
                   2
                   2
                   2
                   2
                   2
                   2
                   2
                   2
                   2
                   2
                   2
                   2
                   2
                   2
                   2
                   2
                   2
                   2
                   2
                   2
                   2
                   2
                   2
                   2
                   2
                   2
                   2
                   2
                   2
                   2
                   2
                   2
                   2
                   2
                   2
                   2
                   2
                   2
                   2
                   2
                   2
                   2
                   2
                   2
                   2
                   2
                   2
                   2
                   2
                   2
                   2
                   2
                   2
                   2
                   2
                   2
                   2
                   2
                   2
                   2
                   2
                   2
                   2
                   2
                   2
                   2
                   2
                   2
                   2
                   2
                   2
                   2
                   2
                   2
                   2
                   2
                   2
                   2
                   2
                   2
                   2
                   2
                   2
                   2
                   2
                   2
                   2
                   2
                   2
                   2
                   2
                   2
                   2
                   2
                   2
                   2
                   2
                   2
                   2
                   2
                   2
                   2
                   2
                   2
                   2
                   2
                   2
                   2
                   2
                   2
                   2
                   2
                   2
                   2
                   2
                   2
                   2
                   2
                   2
                   2
                   2
                   2
                   2
                   2
                   2
                   2
                   2
                   2
                   2
                   2
                   2
                   2
                   2
                   2
                   2
                   2
                   2
                   2
                   2
                   2
                   2
                   2
                   2
                   2
                   2
                   2
                   2
                   2
                   2
                   2
                   2
                   2
                   2
                   2
                   2
                   2
                   2
                   2
                   2
                   2
                   2
                   2
                   2
                   2
                   2
                   2
                   2
                   2
                   2
                   2
                   2
                   2
                   2
                   2
                   2
                   2
                   2
                   2
                   2
                   2
                   2
                   2
                   2
                   2
                   2
                   2
                   2
                   2
                   2
                   2
                   2
                   2
                   2
                   2
                   2
                   2
                   2
                   2
                   2
                   2
                   2
                   2
                   2
                   2
                   2
                   2
                   2
                   2
                   2
                   2
                   2
                   2
                   2
                   2
                   2
                   2
                   2
                   2
                   2
                   2
                   2
                   2
                   2
                   2
                   2
                   2
                   2
                   2
                   2
                   2
                   2
                   2
                   2
                   2
                   2
                   2
                   2
                   2
                   2
                   2
                   2
                   2
                   2
                   2
                   2
                   2
                   2
                   2
                   2
                   2
                   2
                   2
                   2
                   2
                   2
                   2
                   2
                   2
                   2
                   2
                   2
                   2
                   2
                   2
                   2
                   2
                   2
                   2
                   2
                   2
                   2
                   2
                   2
                   2
                   2
                   2
                   2
                   2
                   2
                   2
                   2
                   2
                   2
                   2
                   2
                   2
                   2
                   2
                   2
                   2
                   2
                   2
                   2
                   2
                   2
                   2
                   2
                   2
                   2
                   2
                   2
                   2
                   2
                   2
                   2
                   2
                   2
                   2
                   2
                   2
                   2
                   2
                   2
                   2
                   2
                   2
                   2
                   2
                   2
                   2
                   2
                   2
                   2
                   2
                   2
                   2
                   2
                   2
                   2
                   2
                   2
                   2
                   2
                   2
                   2
                   2
                   2
                   2
                   2
                   2
                   2
                   2
                   2
                   2
                   2
                   2
                   2
                   2
                   2
                   2
                   2
                   2
                   2
                   2
                   2
                   2
                   2
                   2
                   2
                   2
                   2
                   2
                   2
                   2
                   2
                   2
                   2
                   2
                   2
                   2
                   2
                   2
                   2
                   2
                   2
                   2
                   2
                   2
                   2
                   2
                   2
                   2
                   2
                   2
                   2
                   2
                   2
                   2
                   2
                   2
                   2
                   2
                   2
                   2
                   2
                   2
                   2
                   2
                   2
                   2
                   2
                   2
                   2
                   2
                   2
                   2
                   2
                   2
                   2
                   2
                   2
                   2
                   2
                   2
                   2
                   2
                   2
                   2
                   2
                   2
                   2
                   2
                   2
                   2
                   2
                   2
                   2
                   2
                   2
                   2
                   2
                   2
                   2
                   2
                   2
                   2
                   2
                   2
                   2
                   2
                   2
                   2
                   2
                   2
                   2
                   2
                   2
                   2
                   2
                   2
                   2
                   2
                   2
                   2
                   2
                   2
                   2
                   2
                   2
                   2
                   2
                   2
                   2
                   2
                   2
                   2
                   2
                   2
                   2
                   2
                   2
                   2
                   2
                   2
                   2
                   2
                   2
                   2
                   2
                   2
                   2
                   2
                   2
                   2
                   2
                   2
                   2
                   2
                   2
                   2
                   2
                   2
                   2
                   2
                   2
                   2
                   2
                   2
                   2
                   2
                   2
                   2
                   2
                   2
                   2
                   2
                   2
                   2
                   2
                   2
                   2
                   2
                   2
                   2
                   2
                   2
                   2
                   2
                   2
                   2
                   2
                   2
                   2
                   2
                   2
                   2
                   2
                   2
                   2
                   2
                   2
                   2
                   2
                   2
                   2
                   2
                   2
                   2
                   2
                   2
                   2
                   2
                   2
                   2
                   2
                   2
                   2
                   2
                   2
                   2
                   2
                   2
                   2
                   2
                   2
                   2
                   2
                   2
                   2
                   2
                   2
                   2
                   2
                   2
                   2
                   2
                   2
                   2
                   2
                   2
                   2
                   2
                   2
                   2
                   2
                   2
                   2
                   2
                   2
                   2
                   2
                   2
                   2
                   2
                   2
                   2
                   2
                   2
                   2
                   2
                   2
                   2
                   2
                   2
                   2
                   2
                   2
                   2
                   2
                   2
                   2
                   2
                   2
                   2
                   2
                   2
                   2
                   2
                   2
                   2
                   2
                   2
                   2
                   2
                   2
                   2
                   2
                   2
                   2
                   2
                   2
                   2
                   2
                   2
                   2
                   2
                   2
                   2
                   2
                   2
                   2
                   2
                   2
                   2
                   2
                   2
                   2
                   2
                   2
                   2
                   2
                   2
                   2
                   2
                   2
                   2
                   2
                   2
                   2
                   2
                   2
                   2
                   2
                   2
                   2
                   2
                   2
                   2
                   2
                   2
                   2
                   2
                   2
                   2
                   2
                   2
                   2
                   2
                   2
                   2
                   2
                   2
                   2
                   2
                   2
                   2
                   2
                   2
                   2
                   2
                   2
                   2
                   2
                   2
                   2
                   2
                   2
                   2
                   2
                   2
                   2
                   2
                   2
                   2
                   2
                   2
                   2
                   2
                   2
                   2
                   2
                   2
                   2
                   2
                   2
                   2
                   2
                   2
                   2
                   2
                   2
                   2
                   2
                   2
                   2
                   2
                   2
                   2
                   2
                   2
                   2
                   2
                   2
                   2
                   2
                   2
                   2
                   2
                   2
                   2
                   2
                   2
                   2
                   2
                   2
                   2
                   2
                   2
                   2
                   2
                   2
                   2
                   2
                   2
                   2
                   2
                   2
                   2
                   2
                   2
                   2
                   2
                   2
                   2
                   2
                   2
                   2
                   2
                   2
                   2
                   2
                   2
                   2
                   2
                   2
                   2
                   2
                   2
                   2
                   2
                   2
                   2
                   2
                   2
                   2
                   2
                   2
                   2
                   2
                   2
                   2
                   2
                   2
                   2
                   2
                   2
                   2
                   2
                   2
                   2
                   2
                   2
                   2
                   2
                   2
                   2
                   2
                   2
                   2
                   2
                   2
                   2
                   2
                   2
                   2
                   2
                   2
                   2
                   2
                   2
                   2
                   2
                   2
                   2
                   2
                   2
                   2
                   2
                   2
                   2
                   2
                   2
                   2
                   2
                   2
                   2
                   2
                   2
                   2
                   2
                   2
                   2
                   2
                   2
                   2
                   2
                   2
                   2
                   2
                   2
                   2
                   2
                   2
                   2
                   2
                   2
                   2
                   2
                   2
                   2
                   2
                   2
                   2
                   2
                   2
                   2
                   2
                   2
                   2
                   2
                   2
                   2
                   2
                   2
                   2
                   2
                   2
                   2
                   2
                   2
                   2
                   2
                   2
                   2
                   2
                   2
                   2
                   2
                   2
                   2
                   2
                   2
                   2
                   2
                   2
                   2
                   2
                   2
                   2
                   2
                   2
                   2
                   2
                   2
                   2
                   2
                   2
                   2
                   2
                   2
                   2
                   2
                   2
                   2
                   2
                   2
                   2
                   2
                   2
                   2
                   2
                   2
                   2
                   2
                   2
                   2
                   2
                   2
                   2
                   2
                   2
                   2
                   2
                   2
                   2
                   2
                   2
                   2
                   2
                   2
                   2
                   2
                   2
                   2
                   2
                   2
                   2
                   2
                   2
                   2
                   2
                   2
                   2
                   2
                   2
                   2
                   2
                   2
                   2
                   2
                   2
                   2
                   2
                   2
                   2
                   2
                   2
                   2
                   2
                   2
                   2
                   2
                   2
                   2
                   2
                   2
                   2
                   2
                   2
                   2
                   2
                   2
                   2
                   2
                   2
                   2
                   2
                   2
                   2
                   2
                   2
                   2
                   2
                   2
                   2
                   2
                   2
                   2
                   2
                   2
                   2
                   2
                   2
                   2
                   2
                   2
                   2
                   2
                   2
                   2
                   2
                   2
                   2
                   2
                   2
                   2
                   2
                   2
                   2
                   2
                   2
                   2
                   2
                   2
                   2
                   2
                   2
                   2
                   2
                   2
                   2
                   2
                   2
                   2
                   2
                   2
                   2
                   2
                   2
                   2
                   2
                   2
                   2
                   2
                   2
                   2
                   2
                   2
                   2
                   2
                   2
                   2
                   2
                   2
                   2
                   2
                   2
                   2
                   2
                   2
                   2
                   2
                   2
                   2
                   2
                   2
                   2
                   2
                   2
                   2
                   2
                   2
                   2
                   2
                   2
                   2
                   2
                   2
                   2
                   2
                   2
                   2
                   2
                   2
                   2
                   2
                   2
                   2
                   2
                   2
                   2
                   2
                   2
                   2
                   2
                   2
                   2
                   2
                   2
                   2
                   2
                   2
                   2
                   2
                   2
                   2
                   2
                   2
                   2
                   2
                   2
                   2
                   2
                   2
                   2
                   2
                   2
                   2
                   2
                   2
                   2
                   2
                   2
                   2
                   2
                   2
                   2
                   2
                   2
                   2
                   2
                   2
                   2
                   2
                   2
                   2
                   2
                   2
                   2
                   2
                   2
                   2
                   2
                   2
                   2
                   2
                   2
                   2
                   2
                   2
                   2
                   2
                   2
                   2
                   2
                   2
                   2
                   2
                   2
                   2
                   2
                   2
                   2
                   2
                   2
                   2
                   2
                   2
                   2
                   2
                   2
                   2
                   2
                   2
                   2
                   2
                   2
                   2
                   2
                   2
                   2
                   2
                   2
                   2
                   2
                   2
                   2
                   2
                   2
                   2
                   2
                   2
                   2
                   2
                   2
                   2
                   2
                   2
                   2
                   2
                   2
                   2
                   2
                   2
                   2
                   2
                   2
                   2
                   2
                   2
                   2
                   2
                   2
                   2
                   2
                   2
                   2
                   2
                   2
                   2
                   2
                   2
                   2
                   2
                   2
                   2
                   2
                   2
                   2
                   2
                   2
                   2
                   2
                   2
                   2
                   2
                   2
                   2
                   2
                   2
                   2
                   2
                   2
                   2
                   2
                   2
                   2
                   2
                   2
                   2
                   2
                   2
                   2
                   2
                   2
                   2
                   2
                   2
                   2
                   2
                   2
                   2
                   2
                   2
                   2
                   2
                   2
                   2
                   2
                   2
                   2
                   2
                   2
                   2
                   2
                   2
                   2
                   2
                   2
                   2
                   2
                   2
                   2
                   2
                   2
                   2
                   2
                   2
                   2
                   2
                   2
                   2
                   2
                   2
                   2
                   2
                   2
                   2
                   2
                   2
                   2
                   2
                   2
                   2
                   2
                   2
                   2
                   2
                   2
                   2
                   2
                   2
                   2
                   2
                   2
                   2
                   2
                   2
                   2
                   2
                   2
                   2
                   2
                   2
                   2
                   2
                   2
                   2
                   2
                   2
                   2
                   2
                   2
                   2
                   2
                   2
                   2
                   2
                   2
                   2
                   2
                   2
                   2
                   2
                   2
                   2
                   2
                   2
                   2
                   2
                   2
                   2
                   2
                   2
                   2
                   2
                   2
                   2
                   2
                   2
                   2
                   2
                   2
                   2
                   2
                   2
                   2
                   2
                   2
                   2
                   2
                   2
                   2
                   2
                   2
                   2
                   2
                   2
                   2
                   2
                   2
                   2
                   2
                   2
                   2
                   2
                   2
                   2
                   2
                   2
                   2
                   2
                   2
                   2
                   2
                   2
                   2
                   2
                   2
                   2
                   2
                   2
                   2
                   2
                   2
                   2
                   2
                   2
                   2
                   2
                   2
                   2
                   2
                   2
                   2
                   2
                   2
                   2
                   2
                   2
                   2
                   2
                   2
                   2
                   2
                   2
                   2
                   2
                   2
                   2
                   2
                   2
                   2
                   2
                   2
                   2
                   2
                   2
                   2
                   2
                   2
                   2
                   2
                   2
                   2
                   2
                   2
                   2
                   2
                   2
                   2
                   2
                   2
                   2
                   2
                   2
                   2
                   2
                   2
                   2
                   2
                   2
                   2
                   2
                   2
                   2
                   2
                   2
                   2
                   2
                   2
                   2
                   2
                   2
                   2
                   2
                   2
                   2
                   2
                   2
                   2
                   2
                   2
                   2
                   2
                   2
                   2
                   2
                   2
                   2
                   2
                   2
                   2
                   2
                   2
                   2
                   2
                   2
                   2
                   2
                   2
                   2
                   2
                   2
                   2
                   2
                   2
                   2
                   2
                   2
                   2
                   2
                   2
                   2
                   2
                   2
                   2
                   2
                   2
                   2
                   2
                   2
                   2
                   2
                   2
                   2
                   2
                   2
                   2
                   2
                   2
                   2
                   2
                   2
                   2
                   2
                   2
                   2
                   2
                   2
                   2
                   2
                   2
                   2
                   2
                   2
                   2
                   2
                   2
                   2
                   2
                   2
                   2
                   2
                   2
                   2
                   2
                   2
                   2
                   2
                   2
                   2
                   2
                   2
                   2
                   2
                   2
                   2
                   2
                   2
                   2
                   2
                   2
                   2
                   2
                   2
                   2
                   2
                   2
                   2
                   2
                   2
                   2
                   2
                   2
                   2
                   2
                   2
                   2
                   2
                   2
                   2
                   2
                   2
                   2
                   2
                   2
                   2
                   2
                   2
                   2
                   2
                   2
                   2
                   2
                   2
                   2
                   2
                   2
                   2
                   2
                   2
                   2
                   2
                   2
                   2
                   2
                   2
                   2
                   2
                   2
                   2
                   2
                   2
                   2
                   2
                   2
                   2
                   2
                   2
                   2
                   2
                   2
                   2
                   2
                   2
                   2
                   2
                   2
                   2
                   2
                   2
                   2
                   2
                   2
                   2
                   2
                   2
                   2
                   2
                   2
                   2
                   2
                   2
                   2
                   2
                   2
                   2
                   2
                   2
                   2
                   2
                   2
                   2
                   2
                   2
                   2
                   2
                   2
                   2
                   2
                   2
                   2
                   2
  
SCALARS                       fixity_x  double 1
LOOKUP_TABLE default
                   0
                   0
                   0
                   0
                   0
                   0
                   0
                   0
                   0
                   0
                   0
                   0
                   0
                   0
                   0
                   0
                   0
                   0
                   0
                   0
                   0
                   0
                   0
                   0
                   0
                   0
                   0
                   0
                   0
                   0
                   0
                   0
                   0
                   0
                   0
                   0
                   0
                   0
                   0
                   0
                   0
                   0
                   0
                   0
                   0
                   0
                   0
                   0
                   0
                   0
                   0
                   0
                   0
                   0
                   0
                   0
                   0
                   0
                   0
                   0
                   0
                   0
                   0
                   0
                   0
                   0
                   0
                   0
                   0
                   0
                   0
                   0
                   0
                   0
                   0
                   0
                   0
                   0
                   0
                   0
                   0
                   0
                   0
                   0
                   0
                   0
                   0
                   0
                   0
                   0
                   0
                   0
                   0
                   0
                   0
                   0
                   0
                   0
                   0
                   0
                   0
                   0
                   0
                   0
                   0
                   0
                   0
                   0
                   0
                   0
                   0
                   0
                   0
                   0
                   0
                   0
                   0
                   0
                   0
                   0
                   0
                   0
                   0
                   0
                   0
                   0
                   0
                   0
                   0
                   0
                   0
                   0
                   0
                   0
                   0
                   0
                   0
                   0
                   0
                   0
                   0
                   0
                   0
                   0
                   0
                   0
                   0
                   0
                   0
                   0
                   0
                   0
                   0
                   0
                   0
                   0
                   0
                   0
                   0
                   0
                   0
                   0
                   0
                   0
                   0
                   0
                   0
                   0
                   0
                   0
                   0
                   0
                   0
                   0
                   0
                   0
                   0
                   0
                   0
                   0
                   0
                   0
                   0
                   0
                   0
                   0
                   0
                   0
                   0
                   0
                   0
                   0
                   0
                   0
                   0
                   0
                   0
                   0
                   0
                   0
                   0
                   0
                   0
                   0
                   0
                   0
                   0
                   0
                   0
                   0
                   0
                   0
                   0
                   0
                   0
                   0
                   0
                   0
                   0
                   0
                   0
                   0
                   0
                   0
                   0
                   0
                   0
                   0
                   0
                   0
                   0
                   0
                   0
                   0
                   0
                   0
                   0
                   0
                   0
                   0
                   0
                   0
                   0
                   0
                   0
                   0
                   0
                   0
                   0
                   0
                   0
                   0
                   0
                   0
                   0
                   0
                   0
                   0
                   0
                   0
                   0
                   0
                   0
                   0
                   0
                   0
                   0
                   0
                   0
                   0
                   0
                   0
                   0
                   0
                   0
                   0
                   0
                   0
                   0
                   0
                   0
                   0
                   0
                   0
                   0
                   0
                   0
                   0
                   0
                   0
                   0
                   0
                   0
                   0
                   0
                   0
                   0
                   0
                   0
                   0
                   0
                   0
                   0
                   0
                   0
                   0
                   0
                   0
                   0
                   0
                   0
                   0
                   0
                   0
                   0
                   0
                   0
                   0
                   0
                   0
                   0
                   0
                   0
                   0
                   0
                   0
                   0
                   0
                   0
                   0
                   0
                   0
                   0
                   0
                   0
                   0
                   0
                   0
                   0
                   0
                   0
                   0
                   0
                   0
                   0
                   0
                   0
                   0
                   0
                   0
                   0
                   0
                   0
                   0
                   0
                   0
                   0
                   0
                   0
                   0
                   0
                   0
                   0
                   0
                   0
                   0
                   0
                   0
                   0
                   0
                   0
                   0
                   0
                   0
                   0
                   0
                   0
                   0
                   0
                   0
                   0
                   0
                   0
                   0
                   0
                   0
                   0
                   0
                   0
                   0
                   0
                   0
                   0
                   0
                   0
                   0
                   0
                   0
                   0
                   0
                   0
                   0
                   0
                   0
                   0
                   0
                   0
                   0
                   0
                   0
                   0
                   0
                   0
                   0
                   0
                   0
                   0
                   0
                   0
                   0
                   0
                   0
                   0
                   0
                   0
                   0
                   0
                   0
                   0
                   0
                   0
                   0
                   0
                   0
                   0
                   0
                   0
                   0
                   0
                   0
                   0
                   0
                   0
                   0
                   0
                   0
                   0
                   0
                   0
                   0
                   0
                   0
                   0
                   0
                   0
                   0
                   0
                   0
                   0
                   0
                   0
                   0
                   0
                   0
                   0
                   0
                   0
                   0
                   0
                   0
                   0
                   0
                   0
                   0
                   0
                   0
                   0
                   0
                   0
                   0
                   0
                   0
                   0
                   0
                   0
                   0
                   0
                   0
                   0
                   0
                   0
                   0
                   0
                   0
                   0
                   0
                   0
                   0
                   0
                   0
                   0
                   0
                   0
                   0
                   0
                   0
                   0
                   0
                   0
                   0
                   0
                   0
                   0
                   0
                   0
                   0
                   0
                   0
                   0
                   0
                   0
                   0
                   0
                   0
                   0
                   0
                   0
                   0
                   0
                   0
                   0
                   0
                   0
                   0
                   0
                   0
                   0
                   0
                   0
                   0
                   0
                   0
                   0
                   0
                   0
                   0
                   0
                   0
                   0
                   0
                   0
                   0
                   0
                   0
                   0
                   0
                   0
                   0
                   0
                   0
                   0
                   0
                   0
                   0
                   0
                   0
                   0
                   0
                   0
                   0
                   0
                   0
                   0
                   0
                   0
                   0
                   0
                   0
                   0
                   0
                   0
                   0
                   0
                   0
                   0
                   0
                   0
                   0
                   0
                   0
                   0
                   0
                   0
                   0
                   0
                   0
                   0
                   0
                   0
                   0
                   0
                   0
                   0
                   0
                   0
                   0
                   0
                   0
                   0
                   0
                   0
                   0
                   0
                   0
                   0
                   0
                   0
                   0
                   0
                   0
                   0
                   0
                   0
                   0
                   0
                   0
                   0
                   0
                   0
                   0
                   0
                   0
                   0
                   0
                   0
                   0
                   0
                   0
                   0
                   0
                   0
                   0
                   0
                   0
                   0
                   0
                   0
                   0
                   0
                   0
                   0
                   0
                   0
                   0
                   0
                   0
                   0
                   0
                   0
                   0
                   0
                   0
                   0
                   0
                   0
                   0
                   0
                   0
                   0
                   0
                   0
                   0
                   0
                   0
                   0
                   0
                   0
                   0
                   0
                   0
                   0
                   0
                   0
                   0
                   0
                   0
                   0
                   0
                   0
                   0
                   0
                   0
                   0
                   0
                   0
                   0
                   0
                   0
                   0
                   0
                   0
                   0
                   0
                   0
                   0
                   0
                   0
                   0
                   0
                   0
                   0
                   0
                   0
                   0
                   0
                   0
                   0
                   0
                   0
                   0
                   0
                   0
                   0
                   0
                   0
                   0
                   0
                   0
                   0
                   0
                   0
                   0
                   0
                   0
                   0
                   0
                   0
                   0
                   0
                   0
                   0
                   0
                   0
                   0
                   0
                   0
                   0
                   0
                   0
                   0
                   0
                   0
                   0
                   0
                   0
                   0
                   0
                   0
                   0
                   0
                   0
                   0
                   0
                   0
                   0
                   0
                   0
                   0
                   0
                   0
                   0
                   0
                   0
                   0
                   0
                   0
                   0
                   0
                   0
                   0
                   0
                   0
                   0
                   0
                   0
                   0
                   0
                   0
                   0
                   0
                   0
                   0
                   0
                   0
                   0
                   0
                   0
                   0
                   0
                   0
                   0
                   0
                   0
                   0
                   0
                   0
                   0
                   0
                   0
                   0
                   0
                   0
                   0
                   0
                   0
                   0
                   0
                   0
                   0
                   0
                   0
                   0
                   0
                   0
                   0
                   0
                   0
                   0
                   0
                   0
                   0
                   0
                   0
                   0
                   0
                   0
                   0
                   0
                   0
                   0
                   0
                   0
                   0
                   0
                   0
                   0
                   0
                   0
                   0
                   0
                   0
                   0
                   0
                   0
                   0
                   0
                   0
                   0
                   0
                   0
                   0
                   0
                   0
                   0
                   0
                   0
                   0
                   0
                   0
                   0
                   0
                   0
                   0
                   0
                   0
                   0
                   0
                   0
                   0
                   0
                   0
                   0
                   0
                   0
                   0
                   0
                   0
                   0
                   0
                   0
                   0
                   0
                   0
                   0
                   0
                   0
                   0
                   0
                   0
                   0
                   0
                   0
                   0
                   0
                   0
                   0
                   0
                   0
                   0
                   0
                   0
                   0
                   0
                   0
                   0
                   0
                   0
                   0
                   0
                   0
                   0
                   0
                   0
                   0
                   0
                   0
                   0
                   0
                   0
                   0
                   0
                   0
                   0
                   0
                   0
                   0
                   0
                   0
                   0
                   0
                   0
                   0
                   0
                   0
                   0
                   0
                   0
                   0
                   0
                   0
                   0
                   0
                   0
                   0
                   0
                   0
                   0
                   0
                   0
                   0
                   0
                   0
                   0
                   0
                   0
                   0
                   0
                   0
                   0
                   0
                   0
                   0
                   0
                   0
                   0
                   0
                   0
                   0
                   0
                   0
                   0
                   0
                   0
                   0
                   0
                   0
                   0
                   0
                   0
                   0
                   0
                   0
                   0
                   0
                   0
                   0
                   0
                   0
                   0
                   0
                   0
                   0
                   0
                   0
                   0
                   0
                   0
                   0
                   0
                   0
                   0
                   0
                   0
                   0
                   0
                   0
                   0
                   0
                   0
                   0
                   0
                   0
                   0
                   0
                   0
                   0
                   0
                   0
                   0
                   0
                   0
                   0
                   0
                   0
                   0
                   0
                   0
                   0
                   0
                   0
                   0
                   0
                   0
                   0
                   0
                   0
                   0
                   0
                   0
                   0
                   0
                   0
                   0
                   0
                   0
                   0
                   0
                   0
                   0
                   0
                   0
                   0
                   0
                   0
                   0
                   0
                   0
                   0
                   0
                   0
                   0
                   0
                   0
                   0
                   0
                   0
                   0
                   0
                   0
                   0
                   0
                   0
                   0
                   0
                   0
                   0
                   0
                   0
                   0
                   0
                   0
                   0
                   0
                   0
                   0
                   0
                   0
                   0
                   0
                   0
                   0
                   0
                   0
                   0
                   0
                   0
                   0
                   0
                   0
                   0
                   0
                   0
                   0
                   0
                   0
                   0
                   0
                   0
                   0
                   0
                   0
                   0
                   0
                   0
                   0
                   0
                   0
                   0
                   0
                   0
                   0
                   0
                   0
                   0
                   0
                   0
                   0
                   0
                   0
                   0
                   0
                   0
                   0
                   0
                   0
                   0
                   0
                   0
                   0
                   0
                   0
                   0
                   0
                   0
                   0
                   0
                   0
                   0
                   0
                   0
                   0
                   0
                   0
                   0
                   0
                   0
                   0
                   0
                   0
                   0
                   0
                   0
                   0
                   0
                   0
                   0
                   0
                   0
                   0
                   0
                   0
                   0
                   0
                   0
                   0
                   0
                   0
                   0
                   0
                   0
                   0
                   0
                   0
                   0
                   0
                   0
                   0
                   0
                   0
                   0
                   0
                   0
                   0
                   0
                   0
                   0
                   0
                   0
                   0
                   0
                   0
                   0
                   0
                   0
                   0
                   0
                   0
                   0
                   0
                   0
                   0
                   0
                   0
                   0
                   0
                   0
                   0
                   0
                   0
                   0
                   0
                   0
                   0
                   0
                   0
                   0
                   0
                   0
                   0
                   0
                   0
                   0
                   0
                   0
                   0
                   0
                   0
                   0
                   0
                   0
                   0
                   0
                   0
                   0
                   0
                   0
                   0
                   0
                   0
                   0
                   0
                   0
                   0
                   0
                   0
                   0
                   0
                   0
                   0
                   0
                   0
                   0
                   0
                   0
                   0
                   0
                   0
                   0
                   0
                   0
                   0
                   0
                   0
                   0
                   0
                   0
                   0
                   0
                   0
                   0
                   0
                   0
                   0
                   0
                   0
                   0
                   0
                   0
                   0
                   0
                   0
                   0
                   0
                   0
                   0
                   0
                   0
                   0
                   0
                   0
                   0
                   0
                   0
                   0
                   0
                   0
                   0
                   0
                   0
                   0
                   0
                   0
                   0
                   0
                   0
                   0
                   0
                   0
                   0
                   0
                   0
                   0
                   0
                   0
                   0
                   0
                   0
                   0
                   0
                   0
                   0
                   0
                   0
                   0
                   0
                   0
                   0
                   0
                   0
                   0
                   0
                   0
                   0
                   0
                   0
                   0
                   0
                   0
                   0
                   0
                   0
                   0
                   0
                   0
                   0
                   0
                   0
                   0
                   0
                   0
                   0
                   0
                   0
                   0
                   0
                   0
                   0
                   0
                   0
                   0
                   0
                   0
                   0
                   0
                   0
                   0
                   0
                   0
                   0
                   0
                   0
                   0
                   0
                   0
                   0
                   0
                   0
                   0
                   0
                   0
                   0
                   0
                   0
                   0
                   0
                   0
                   0
                   0
                   0
                   0
                   0
                   0
                   0
                   0
                   0
                   0
                   0
                   0
                   0
                   0
                   0
                   0
                   0
                   0
                   0
                   0
                   0
                   0
                   0
                   0
                   0
                   0
                   0
                   0
                   0
                   0
                   0
                   0
                   0
                   0
                   0
                   0
                   0
                   0
                   0
                   0
                   0
                   0
                   0
                   0
                   0
                   0
                   0
                   0
                   0
                   0
                   0
                   0
                   0
                   0
                   0
                   0
                   0
                   0
                   0
                   0
                   0
                   0
                   0
                   0
                   0
                   0
                   0
                   0
                   0
                   0
                   0
                   0
                   0
                   0
                   0
                   0
                   0
                   0
                   0
                   0
                   0
                   0
                   0
                   0
                   0
                   0
                   0
                   0
                   0
                   0
                   0
                   0
                   0
                   0
                   0
                   0
                   0
                   0
                   0
                   0
                   0
                   0
                   0
                   0
                   0
                   0
                   0
                   0
                   0
                   0
                   0
                   0
                   0
                   0
                   0
                   0
                   0
                   0
                   0
                   0
                   0
                   0
                   0
                   0
                   0
                   0
                   0
                   0
                   0
                   0
                   0
                   0
                   0
                   0
                   0
                   0
                   0
                   0
                   0
                   0
                   0
                   0
                   0
                   0
                   0
                   0
                   0
                   0
                   0
                   0
                   0
                   0
                   0
                   0
                   0
                   0
                   0
                   0
                   0
                   0
                   0
                   0
                   0
                   0
                   0
                   0
                   0
                   0
                   0
                   0
                   0
                   0
                   0
                   0
                   0
                   0
                   0
                   0
                   0
                   0
                   0
                   0
                   0
                   0
                   0
                   0
                   0
                   0
                   0
                   0
                   0
                   0
                   0
                   0
                   0
                   0
                   0
                   0
                   0
                   0
                   0
                   0
                   0
                   0
                   0
                   0
                   0
                   0
                   0
                   0
                   0
                   0
                   0
                   0
                   0
                   0
                   0
                   0
                   0
                   0
                   0
                   0
                   0
                   0
                   0
                   0
                   0
                   0
                   0
                   0
                   0
                   0
                   0
                   0
                   0
                   0
                   0
                   0
                   0
                   0
                   0
                   0
                   0
                   0
                   0
                   0
                   0
                   0
                   0
                   0
                   0
                   0
                   0
                   0
                   0
                   0
                   0
                   0
                   0
                   0
                   0
                   0
                   0
                   0
                   0
                   0
                   0
                   0
                   0
                   0
                   0
                   0
                   0
                   0
                   0
                   0
                   0
                   0
                   0
                   0
                   0
                   0
                   0
                   0
                   0
                   0
                   0
                   0
                   0
                   0
                   0
                   0
                   0
                   0
                   0
                   0
                   0
                   0
                   0
                   0
                   0
                   0
                   0
                   0
                   0
                   0
                   0
                   0
                   0
                   0
                   0
                   0
                   0
                   0
                   0
                   0
                   0
                   0
                   0
                   0
                   0
                   0
                   0
                   0
                   0
                   0
                   0
                   0
                   0
                   0
                   0
                   0
                   0
                   0
                   0
                   0
                   0
                   0
                   0
                   0
                   0
                   0
                   0
                   0
                   0
                   0
                   0
                   0
                   0
                   0
                   0
                   0
                   0
                   0
                   0
                   0
                   0
                   0
                   0
                   0
                   0
                   0
                   0
                   0
                   0
                   0
                   0
                   0
                   0
                   0
                   0
                   0
                   0
                   0
                   0
                   0
                   0
                   0
                   0
                   0
                   0
                   0
                   0
                   0
                   0
                   0
                   0
                   0
                   0
                   0
                   0
                   0
                   0
                   0
                   0
                   0
                   0
                   0
                   0
                   0
                   0
                   0
                   0
                   0
                   0
                   0
                   0
                   0
                   0
                   0
                   0
                   0
                   0
                   0
                   0
                   0
                   0
                   0
                   0
                   0
                   0
                   0
                   0
                   0
                   0
                   0
                   0
                   0
                   0
                   0
                   0
                   0
                   0
                   0
                   0
                   0
                   0
                   0
                   0
                   0
                   0
                   0
                   0
                   0
                   0
                   0
                   0
                   0
                   0
                   0
                   0
                   0
                   0
                   0
                   0
                   0
                   0
                   0
                   0
                   0
                   0
                   0
                   0
                   0
                   0
                   0
                   0
                   0
                   0
                   0
                   0
                   0
                   0
                   0
                   0
                   0
                   0
                   0
                   0
                   0
                   0
                   0
                   0
                   0
                   0
                   0
                   0
                   0
                   0
                   0
                   0
                   0
                   0
                   0
                   0
                   0
                   0
                   0
                   0
                   0
                   0
                   0
                   0
                   0
                   0
                   0
                   0
                   0
                   0
                   0
                   0
                   0
                   0
                   0
                   0
                   0
                   0
                   0
                   0
                   0
                   0
                   0
                   0
                   0
                   0
                   0
                   0
                   0
                   0
                   0
                   0
                   0
                   0
                   0
                   0
                   0
                   0
                   0
                   0
                   0
                   0
                   0
                   0
                   0
  
SCALARS                       fixity_y  double 1
LOOKUP_TABLE default
                   0
                   0
                   0
                   0
                   0
                   0
                   0
                   0
                   0
                   0
                   0
                   0
                   0
                   0
                   0
                   0
                   0
                   0
                   0
                   0
                   0
                   0
                   0
                   0
                   0
                   0
                   0
                   0
                   0
                   0
                   0
                   0
                   0
                   0
                   0
                   0
                   0
                   0
                   0
                   0
                   0
                   0
                   0
                   0
                   0
                   0
                   0
                   0
                   0
                   0
                   0
                   0
                   0
                   0
                   0
                   0
                   0
                   0
                   0
                   0
                   0
                   0
                   0
                   0
                   0
                   0
                   0
                   0
                   0
                   0
                   0
                   0
                   0
                   0
                   0
                   0
                   0
                   0
                   0
                   0
                   0
                   0
                   0
                   0
                   0
                   0
                   0
                   0
                   0
                   0
                   0
                   0
                   0
                   0
                   0
                   0
                   0
                   0
                   0
                   0
                   0
                   0
                   0
                   0
                   0
                   0
                   0
                   0
                   0
                   0
                   0
                   0
                   0
                   0
                   0
                   0
                   0
                   0
                   0
                   0
                   0
                   0
                   0
                   0
                   0
                   0
                   0
                   0
                   0
                   0
                   0
                   0
                   0
                   0
                   0
                   0
                   0
                   0
                   0
                   0
                   0
                   0
                   0
                   0
                   0
                   0
                   0
                   0
                   0
                   0
                   0
                   0
                   0
                   0
                   0
                   0
                   0
                   0
                   0
                   0
                   0
                   0
                   0
                   0
                   0
                   0
                   0
                   0
                   0
                   0
                   0
                   0
                   0
                   0
                   0
                   0
                   0
                   0
                   0
                   0
                   0
                   0
                   0
                   0
                   0
                   0
                   0
                   0
                   0
                   0
                   0
                   0
                   0
                   0
                   0
                   0
                   0
                   0
                   0
                   0
                   0
                   0
                   0
                   0
                   0
                   0
                   0
                   0
                   0
                   0
                   0
                   0
                   0
                   0
                   0
                   0
                   0
                   0
                   0
                   0
                   0
                   0
                   0
                   0
                   0
                   0
                   0
                   0
                   0
                   0
                   0
                   0
                   0
                   0
                   0
                   0
                   0
                   0
                   0
                   0
                   0
                   0
                   0
                   0
                   0
                   0
                   0
                   0
                   0
                   0
                   0
                   0
                   0
                   0
                   0
                   0
                   0
                   0
                   0
                   0
                   0
                   0
                   0
                   0
                   0
                   0
                   0
                   0
                   0
                   0
                   0
                   0
                   0
                   0
                   0
                   0
                   0
                   0
                   0
                   0
                   0
                   0
                   0
                   0
                   0
                   0
                   0
                   0
                   0
                   0
                   0
                   0
                   0
                   0
                   0
                   0
                   0
                   0
                   0
                   0
                   0
                   0
                   0
                   0
                   0
                   0
                   0
                   0
                   0
                   0
                   0
                   0
                   0
                   0
                   0
                   0
                   0
                   0
                   0
                   0
                   0
                   0
                   0
                   0
                   0
                   0
                   0
                   0
                   0
                   0
                   0
                   0
                   0
                   0
                   0
                   0
                   0
                   0
                   0
                   0
                   0
                   0
                   0
                   0
                   0
                   0
                   0
                   0
                   0
                   0
                   0
                   0
                   0
                   0
                   0
                   0
                   0
                   0
                   0
                   0
                   0
                   0
                   0
                   0
                   0
                   0
                   0
                   0
                   0
                   0
                   0
                   0
                   0
                   0
                   0
                   0
                   0
                   0
                   0
                   0
                   0
                   0
                   0
                   0
                   0
                   0
                   0
                   0
                   0
                   0
                   0
                   0
                   0
                   0
                   0
                   0
                   0
                   0
                   0
                   0
                   0
                   0
                   0
                   0
                   0
                   0
                   0
                   0
                   0
                   0
                   0
                   0
                   0
                   0
                   0
                   0
                   0
                   0
                   0
                   0
                   0
                   0
                   0
                   0
                   0
                   0
                   0
                   0
                   0
                   0
                   0
                   0
                   0
                   0
                   0
                   0
                   0
                   0
                   0
                   0
                   0
                   0
                   0
                   0
                   0
                   0
                   0
                   0
                   0
                   0
                   0
                   0
                   0
                   0
                   0
                   0
                   0
                   0
                   0
                   0
                   0
                   0
                   0
                   0
                   0
                   0
                   0
                   0
                   0
                   0
                   0
                   0
                   0
                   0
                   0
                   0
                   0
                   0
                   0
                   0
                   0
                   0
                   0
                   0
                   0
                   0
                   0
                   0
                   0
                   0
                   0
                   0
                   0
                   0
                   0
                   0
                   0
                   0
                   0
                   0
                   0
                   0
                   0
                   0
                   0
                   0
                   0
                   0
                   0
                   0
                   0
                   0
                   0
                   0
                   0
                   0
                   0
                   0
                   0
                   0
                   0
                   0
                   0
                   0
                   0
                   0
                   0
                   0
                   0
                   0
                   0
                   0
                   0
                   0
                   0
                   0
                   0
                   0
                   0
                   0
                   0
                   0
                   0
                   0
                   0
                   0
                   0
                   0
                   0
                   0
                   0
                   0
                   0
                   0
                   0
                   0
                   0
                   0
                   0
                   0
                   0
                   0
                   0
                   0
                   0
                   0
                   0
                   0
                   0
                   0
                   0
                   0
                   0
                   0
                   0
                   0
                   0
                   0
                   0
                   0
                   0
                   0
                   0
                   0
                   0
                   0
                   0
                   0
                   0
                   0
                   0
                   0
                   0
                   0
                   0
                   0
                   0
                   0
                   0
                   0
                   0
                   0
                   0
                   0
                   0
                   0
                   0
                   0
                   0
                   0
                   0
                   0
                   0
                   0
                   0
                   0
                   0
                   0
                   0
                   0
                   0
                   0
                   0
                   0
                   0
                   0
                   0
                   0
                   0
                   0
                   0
                   0
                   0
                   0
                   0
                   0
                   0
                   0
                   0
                   0
                   0
                   0
                   0
                   0
                   0
                   0
                   0
                   0
                   0
                   0
                   0
                   0
                   0
                   0
                   0
                   0
                   0
                   0
                   0
                   0
                   0
                   0
                   0
                   0
                   0
                   0
                   0
                   0
                   0
                   0
                   0
                   0
                   0
                   0
                   0
                   0
                   0
                   0
                   0
                   0
                   0
                   0
                   0
                   0
                   0
                   0
                   0
                   0
                   0
                   0
                   0
                   0
                   0
                   0
                   0
                   0
                   0
                   0
                   0
                   0
                   0
                   0
                   0
                   0
                   0
                   0
                   0
                   0
                   0
                   0
                   0
                   0
                   0
                   0
                   0
                   0
                   0
                   0
                   0
                   0
                   0
                   0
                   0
                   0
                   0
                   0
                   0
                   0
                   0
                   0
                   0
                   0
                   0
                   0
                   0
                   0
                   0
                   0
                   0
                   0
                   0
                   0
                   0
                   0
                   0
                   0
                   0
                   0
                   0
                   0
                   0
                   0
                   0
                   0
                   0
                   0
                   0
                   0
                   0
                   0
                   0
                   0
                   0
                   0
                   0
                   0
                   0
                   0
                   0
                   0
                   0
                   0
                   0
                   0
                   0
                   0
                   0
                   0
                   0
                   0
                   0
                   0
                   0
                   0
                   0
                   0
                   0
                   0
                   0
                   0
                   0
                   0
                   0
                   0
                   0
                   0
                   0
                   0
                   0
                   0
                   0
                   0
                   0
                   0
                   0
                   0
                   0
                   0
                   0
                   0
                   0
                   0
                   0
                   0
                   0
                   0
                   0
                   0
                   0
                   0
                   0
                   0
                   0
                   0
                   0
                   0
                   0
                   0
                   0
                   0
                   0
                   0
                   0
                   0
                   0
                   0
                   0
                   0
                   0
                   0
                   0
                   0
                   0
                   0
                   0
                   0
                   0
                   0
                   0
                   0
                   0
                   0
                   0
                   0
                   0
                   0
                   0
                   0
                   0
                   0
                   0
                   0
                   0
                   0
                   0
                   0
                   0
                   0
                   0
                   0
                   0
                   0
                   0
                   0
                   0
                   0
                   0
                   0
                   0
                   0
                   0
                   0
                   0
                   0
                   0
                   0
                   0
                   0
                   0
                   0
                   0
                   0
                   0
                   0
                   0
                   0
                   0
                   0
                   0
                   0
                   0
                   0
                   0
                   0
                   0
                   0
                   0
                   0
                   0
                   0
                   0
                   0
                   0
                   0
                   0
                   0
                   0
                   0
                   0
                   0
                   0
                   0
                   0
                   0
                   0
                   0
                   0
                   0
                   0
                   0
                   0
                   0
                   0
                   0
                   0
                   0
                   0
                   0
                   0
                   0
                   0
                   0
                   0
                   0
                   0
                   0
                   0
                   0
                   0
                   0
                   0
                   0
                   0
                   0
                   0
                   0
                   0
                   0
                   0
                   0
                   0
                   0
                   0
                   0
                   0
                   0
                   0
                   0
                   0
                   0
                   0
                   0
                   0
                   0
                   0
                   0
                   0
                   0
                   0
                   0
                   0
                   0
                   0
                   0
                   0
                   0
                   0
                   0
                   0
                   0
                   0
                   0
                   0
                   0
                   0
                   0
                   0
                   0
                   0
                   0
                   0
                   0
                   0
                   0
                   0
                   0
                   0
                   0
                   0
                   0
                   0
                   0
                   0
                   0
                   0
                   0
                   0
                   0
                   0
                   0
                   0
                   0
                   0
                   0
                   0
                   0
                   0
                   0
                   0
                   0
                   0
                   0
                   0
                   0
                   0
                   0
                   0
                   0
                   0
                   0
                   0
                   0
                   0
                   0
                   0
                   0
                   0
                   0
                   0
                   0
                   0
                   0
                   0
                   0
                   0
                   0
                   0
                   0
                   0
                   0
                   0
                   0
                   0
                   0
                   0
                   0
                   0
                   0
                   0
                   0
                   0
                   0
                   0
                   0
                   0
                   0
                   0
                   0
                   0
                   0
                   0
                   0
                   0
                   0
                   0
                   0
                   0
                   0
                   0
                   0
                   0
                   0
                   0
                   0
                   0
                   0
                   0
                   0
                   0
                   0
                   0
                   0
                   0
                   0
                   0
                   0
                   0
                   0
                   0
                   0
                   0
                   0
                   0
                   0
                   0
                   0
                   0
                   0
                   0
                   0
                   0
                   0
                   0
                   0
                   0
                   0
                   0
                   0
                   0
                   0
                   0
                   0
                   0
                   0
                   0
                   0
                   0
                   0
                   0
                   0
                   0
                   0
                   0
                   0
                   0
                   0
                   0
                   0
                   0
                   0
                   0
                   0
                   0
                   0
                   0
                   0
                   0
                   0
                   0
                   0
                   0
                   0
                   0
                   0
                   0
                   0
                   0
                   0
                   0
                   0
                   0
                   0
                   0
                   0
                   0
                   0
                   0
                   0
                   0
                   0
                   0
                   0
                   0
                   0
                   0
                   0
                   0
                   0
                   0
                   0
                   0
                   0
                   0
                   0
                   0
                   0
                   0
                   0
                   0
                   0
                   0
                   0
                   0
                   0
                   0
                   0
                   0
                   0
                   0
                   0
                   0
                   0
                   0
                   0
                   0
                   0
                   0
                   0
                   0
                   0
                   0
                   0
                   0
                   0
                   0
                   0
                   0
                   0
                   0
                   0
                   0
                   0
                   0
                   0
                   0
                   0
                   0
                   0
                   0
                   0
                   0
                   0
                   0
                   0
                   0
                   0
                   0
                   0
                   0
                   0
                   0
                   0
                   0
                   0
                   0
                   0
                   0
                   0
                   0
                   0
                   0
                   0
                   0
                   0
                   0
                   0
                   0
                   0
                   0
                   0
                   0
                   0
                   0
                   0
                   0
                   0
                   0
                   0
                   0
                   0
                   0
                   0
                   0
                   0
                   0
                   0
                   0
                   0
                   0
                   0
                   0
                   0
                   0
                   0
                   0
                   0
                   0
                   0
                   0
                   0
                   0
                   0
                   0
                   0
                   0
                   0
                   0
                   0
                   0
                   0
                   0
                   0
                   0
                   0
                   0
                   0
                   0
                   0
                   0
                   0
                   0
                   0
                   0
                   0
                   0
                   0
                   0
                   0
                   0
                   0
                   0
                   0
                   0
                   0
                   0
                   0
                   0
                   0
                   0
                   0
                   0
                   0
                   0
                   0
                   0
                   0
                   0
                   0
                   0
                   0
                   0
                   0
                   0
                   0
                   0
                   0
                   0
                   0
                   0
                   0
                   0
                   0
                   0
                   0
                   0
                   0
                   0
                   0
                   0
                   0
                   0
                   0
                   0
                   0
                   0
                   0
                   0
                   0
                   0
                   0
                   0
                   0
                   0
                   0
                   0
                   0
                   0
                   0
                   0
                   0
                   0
                   0
                   0
                   0
                   0
                   0
                   0
                   0
                   0
                   0
                   0
                   0
                   0
                   0
                   0
                   0
                   0
                   0
                   0
                   0
                   0
                   0
                   0
                   0
                   0
                   0
                   0
                   0
                   0
                   0
                   0
                   0
                   0
                   0
                   0
                   0
                   0
                   0
                   0
                   0
                   0
                   0
                   0
                   0
                   0
                   0
                   0
                   0
                   0
                   0
                   0
                   0
                   0
                   0
                   0
                   0
                   0
                   0
                   0
                   0
                   0
                   0
                   0
                   0
                   0
                   0
                   0
                   0
                   0
                   0
                   0
                   0
                   0
                   0
                   0
                   0
                   0
                   0
                   0
                   0
                   0
                   0
                   0
                   0
                   0
                   0
                   0
                   0
                   0
                   0
                   0
                   0
                   0
                   0
                   0
                   0
                   0
                   0
                   0
                   0
                   0
                   0
                   0
                   0
                   0
                   0
                   0
                   0
                   0
                   0
                   0
                   0
                   0
                   0
                   0
                   0
                   0
                   0
                   0
                   0
                   0
                   0
                   0
                   0
                   0
                   0
                   0
                   0
                   0
                   0
                   0
                   0
                   0
                   0
                   0
                   0
                   0
                   0
                   0
                   0
                   0
                   0
                   0
                   0
                   0
                   0
                   0
                   0
                   0
                   0
                   0
                   0
                   0
                   0
                   0
                   0
                   0
                   0
                   0
                   0
                   0
                   0
                   0
                   0
                   0
                   0
                   0
                   0
                   0
                   0
                   0
                   0
                   0
                   0
                   0
                   0
                   0
                   0
                   0
                   0
                   0
                   0
                   0
                   0
                   0
                   0
                   0
                   0
                   0
                   0
                   0
                   0
                   0
                   0
                   0
                   0
                   0
                   0
                   0
                   0
                   0
                   0
                   0
                   0
                   0
                   0
                   0
                   0
                   0
                   0
                   0
                   0
                   0
                   0
                   0
                   0
                   0
                   0
                   0
                   0
                   0
                   0
                   0
                   0
                   0
                   0
                   0
                   0
                   0
                   0
                   0
                   0
                   0
                   0
                   0
                   0
                   0
                   0
                   0
                   0
                   0
                   0
                   0
                   0
                   0
                   0
                   0
                   0
                   0
                   0
                   0
                   0
                   0
                   0
                   0
                   0
                   0
                   0
                   0
                   0
                   0
                   0
                   0
                   0
                   0
                   0
                   0
                   0
                   0
                   0
                   0
                   0
                   0
                   0
                   0
                   0
                   0
                   0
                   0
                   0
                   0
                   0
                   0
                   0
                   0
                   0
                   0
                   0
                   0
                   0
                   0
                   0
                   0
                   0
                   0
                   0
                   0
                   0
                   0
                   0
                   0
                   0
                   0
                   0
                   0
                   0
                   0
                   0
                   0
                   0
                   0
                   0
                   0
                   0
                   0
                   0
                   0
                   0
                   0
                   0
                   0
                   0
                   0
                   0
                   0
                   0
                   0
                   0
                   0
                   0
                   0
                   0
                   0
                   0
                   0
                   0
                   0
                   0
                   0
                   0
                   0
                   0
                   0
                   0
                   0
                   0
                   0
                   0
                   0
                   0
                   0
                   0
                   0
                   0
                   0
                   0
                   0
                   0
                   0
                   0
                   0
                   0
                   0
                   0
                   0
                   0
                   0
                   0
                   0
                   0
                   0
                   0
                   0
                   0
                   0
                   0
                   0
                   0
                   0
                   0
                   0
                   0
                   0
                   0
                   0
                   0
                   0
                   0
                   0
                   0
                   0
                   0
                   0
                   0
                   0
                   0
                   0
                   0
                   0
                   0
                   0
                   0
                   0
                   0
                   0
                   0
                   0
                   0
                   0
                   0
                   0
                   0
                   0
                   0
                   0
                   0
                   0
                   0
                   0
                   0
                   0
                   0
                   0
                   0
                   0
                   0
                   0
                   0
                   0
                   0
                   0
                   0
                   0
                   0
                   0
                   0
                   0
                   0
                   0
                   0
                   0
                   0
                   0
                   0
                   0
                   0
                   0
                   0
                   0
                   0
                   0
                   0
                   0
                   0
                   0
                   0
                   0
                   0
                   0
                   0
                   0
                   0
                   0
                   0
                   0
                   0
                   0
                   0
                   0
                   0
                   0
                   0
                   0
                   0
                   0
                   0
                   0
                   0
                   0
                   0
                   0
                   0
                   0
                   0
                   0
                   0
                   0
                   0
                   0
                   0
                   0
                   0
                   0
                   0
                   0
                   0
                   0
                   0
                   0
                   0
                   0
                   0
                   0
                   0
                   0
                   0
                   0
                   0
                   0
                   0
                   0
                   0
                   0
                   0
                   0
                   0
                   0
                   0
                   0
                   0
                   0
                   0
                   0
                   0
                   0
                   0
                   0
                   0
                   0
                   0
                   0
                   0
                   0
                   0
                   0
                   0
                   0
                   0
                   0
                   0
                   0
                   0
                   0
                   0
                   0
                   0
                   0
                   0
                   0
                   0
                   0
                   0
                   0
                   0
                   0
                   0
                   0
                   0
                   0
                   0
  
SCALARS                       fixity_z  double 1
LOOKUP_TABLE default
                   0
                   0
                   0
                   0
                   1
                   1
                   1
                   1
                   0
                   0
                   1
                   1
                   0
                   0
                   1
                   1
                   0
                   0
                   1
                   1
                   0
                   0
                   0
                   1
                   1
                   1
                   0
                   0
                   1
                   1
                   0
                   0
                   0
                   1
                   1
                   1
                   0
                   0
                   1
                   1
                   0
                   0
                   1
                   1
                   0
                   0
                   1
                   1
                   0
                   1
                   0
                   1
                   0
                   1
                   0
                   1
                   0
                   0
                   1
                   1
                   0
                   0
                   1
                   1
                   0
                   1
                   0
                   1
                   0
                   0
                   1
                   1
                   0
                   1
                   0
                   1
                   0
                   1
                   0
                   1
                   0
                   0
                   1
                   1
                   0
                   1
                   0
                   1
                   0
                   1
                   0
                   0
                   1
                   1
                   0
                   1
                   0
                   1
                   0
                   1
                   0
                   0
                   1
                   1
                   0
                   0
                   1
                   1
                   0
                   1
                   0
                   1
                   0
                   1
                   0
                   1
                   0
                   1
                   0
                   1
                   0
                   1
                   0
                   1
                   0
                   1
                   0
                   1
                   0
                   1
                   0
                   1
                   0
                   1
                   0
                   1
                   0
                   1
                   0
                   1
                   0
                   1
                   0
                   1
                   0
                   1
                   0
                   1
                   0
                   1
                   0
                   1
                   0
                   1
                   0
                   1
                   0
                   0
                   0
                   0
                   0
                   0
                   0
                   0
                   0
                   0
                   0
                   0
                   0
                   0
                   0
                   0
                   0
                   0
                   0
                   0
                   0
                   0
                   0
                   0
                   0
                   0
                   0
                   0
                   0
                   0
                   0
                   0
                   0
                   0
                   0
                   0
                   0
                   0
                   0
                   0
                   0
                   0
                   0
                   0
                   0
                   0
                   0
                   0
                   0
                   0
                   0
                   0
                   0
                   0
                   0
                   0
                   0
                   0
                   0
                   0
                   0
                   0
                   0
                   0
                   0
                   0
                   0
                   0
                   0
                   0
                   0
                   0
                   0
                   0
                   0
                   0
                   0
                   0
                   0
                   0
                   0
                   0
                   0
                   0
                   0
                   0
                   0
                   0
                   0
                   0
                   0
                   0
                   0
                   0
                   0
                   0
                   0
                   0
                   0
                   0
                   0
                   0
                   0
                   0
                   0
                   0
                   0
                   0
                   0
                   0
                   0
                   0
                   0
                   0
                   0
                   0
                   0
                   0
                   0
                   0
                   0
                   0
                   0
                   0
                   0
                   0
                   0
                   0
                   0
                   0
                   0
                   0
                   0
                   0
                   0
                   0
                   0
                   0
                   0
                   0
                   0
                   0
                   0
                   0
                   0
                   0
                   0
                   0
                   0
                   0
                   0
                   0
                   0
                   0
                   0
                   0
                   0
                   0
                   0
                   0
                   0
                   0
                   0
                   0
                   0
                   0
                   0
                   0
                   0
                   0
                   0
                   0
                   0
                   0
                   0
                   0
                   0
                   0
                   0
                   0
                   0
                   0
                   0
                   0
                   0
                   0
                   0
                   0
                   0
                   0
                   0
                   0
                   0
                   0
                   0
                   0
                   0
                   0
                   0
                   0
                   0
                   0
                   0
                   0
                   0
                   0
                   0
                   0
                   0
                   0
                   0
                   0
                   0
                   0
                   0
                   0
                   0
                   0
                   0
                   0
                   0
                   0
                   0
                   0
                   0
                   0
                   0
                   0
                   0
                   0
                   0
                   0
                   0
                   0
                   0
                   0
                   0
                   0
                   0
                   0
                   0
                   0
                   0
                   0
                   0
                   0
                   0
                   0
                   0
                   0
                   0
                   0
                   0
                   0
                   0
                   0
                   0
                   0
                   0
                   0
                   0
                   0
                   0
                   0
                   0
                   0
                   0
                   0
                   0
                   0
                   0
                   0
                   0
                   0
                   0
                   0
                   0
                   0
                   0
                   0
                   0
                   0
                   0
                   0
                   0
                   0
                   0
                   0
                   0
                   0
                   0
                   0
                   0
                   0
                   0
                   0
                   0
                   0
                   0
                   0
                   0
                   0
                   0
                   0
                   0
                   0
                   0
                   0
                   0
                   0
                   0
                   0
                   0
                   0
                   0
                   0
                   0
                   0
                   0
                   0
                   0
                   0
                   0
                   0
                   0
                   0
                   0
                   0
                   0
                   0
                   0
                   0
                   0
                   0
                   0
                   0
                   0
                   0
                   0
                   0
                   0
                   0
                   0
                   0
                   0
                   0
                   0
                   0
                   0
                   0
                   0
                   0
                   0
                   0
                   0
                   0
                   0
                   0
                   0
                   0
                   0
                   0
                   0
                   0
                   0
                   0
                   0
                   0
                   0
                   0
                   0
                   0
                   0
                   0
                   0
                   0
                   0
                   0
                   0
                   0
                   0
                   0
                   0
                   0
                   0
                   0
                   0
                   0
                   0
                   0
                   0
                   0
                   0
                   0
                   0
                   0
                   0
                   0
                   0
                   0
                   0
                   0
                   0
                   0
                   0
                   0
                   0
                   0
                   0
                   0
                   0
                   0
                   0
                   0
                   0
                   0
                   0
                   0
                   0
                   0
                   0
                   0
                   0
                   0
                   0
                   0
                   0
                   0
                   0
                   0
                   0
                   0
                   0
                   0
                   0
                   0
                   0
                   0
                   0
                   0
                   0
                   0
                   0
                   0
                   0
                   0
                   0
                   0
                   0
                   0
                   0
                   0
                   0
                   0
                   0
                   0
                   0
                   0
                   0
                   0
                   0
                   0
                   0
                   0
                   0
                   0
                   0
                   0
                   0
                   0
                   0
                   0
                   0
                   0
                   0
                   0
                   0
                   0
                   0
                   0
                   0
                   0
                   0
                   0
                   0
                   0
                   0
                   0
                   0
                   0
                   0
                   0
                   0
                   0
                   0
                   0
                   0
                   0
                   0
                   0
                   0
                   0
                   0
                   0
                   0
                   0
                   0
                   0
                   0
                   0
                   0
                   0
                   0
                   0
                   0
                   0
                   0
                   0
                   0
                   0
                   0
                   0
                   0
                   0
                   0
                   0
                   0
                   0
                   0
                   0
                   0
                   0
                   0
                   0
                   0
                   0
                   0
                   0
                   0
                   0
                   0
                   0
                   0
                   0
                   0
                   0
                   0
                   0
                   0
                   0
                   0
                   0
                   0
                   0
                   0
                   0
                   0
                   0
                   0
                   0
                   0
                   0
                   0
                   0
                   0
                   0
                   0
                   0
                   0
                   0
                   0
                   0
                   0
                   0
                   0
                   0
                   0
                   0
                   0
                   0
                   0
                   0
                   0
                   0
                   0
                   0
                   0
                   0
                   0
                   0
                   0
                   0
                   0
                   0
                   0
                   0
                   0
                   0
                   0
                   0
                   0
                   0
                   0
                   0
                   0
                   0
                   0
                   0
                   0
                   0
                   0
                   0
                   0
                   0
                   0
                   0
                   0
                   0
                   0
                   0
                   0
                   0
                   0
                   0
                   0
                   0
                   0
                   0
                   0
                   0
                   0
                   0
                   0
                   0
                   0
                   0
                   0
                   0
                   0
                   0
                   0
                   0
                   0
                   0
                   0
                   0
                   0
                   0
                   0
                   0
                   0
                   0
                   0
                   0
                   0
                   0
                   0
                   0
                   0
                   0
                   0
                   0
                   0
                   0
                   0
                   0
                   0
                   0
                   0
                   0
                   0
                   0
                   0
                   0
                   0
                   0
                   0
                   0
                   0
                   0
                   0
                   0
                   0
                   0
                   0
                   0
                   0
                   0
                   0
                   0
                   0
                   0
                   0
                   0
                   0
                   0
                   0
                   0
                   0
                   0
                   0
                   0
                   0
                   0
                   0
                   0
                   0
                   0
                   0
                   0
                   0
                   0
                   0
                   0
                   0
                   0
                   0
                   0
                   0
                   0
                   0
                   0
                   0
                   0
                   0
                   0
                   0
                   0
                   0
                   0
                   0
                   0
                   0
                   0
                   0
                   0
                   0
                   0
                   0
                   0
                   0
                   0
                   0
                   0
                   0
                   0
                   0
                   0
                   0
                   0
                   0
                   0
                   0
                   0
                   0
                   0
                   0
                   0
                   0
                   0
                   0
                   0
                   0
                   0
                   0
                   0
                   0
                   0
                   0
                   0
                   0
                   0
                   0
                   0
                   0
                   0
                   0
                   0
                   0
                   0
                   0
                   0
                   0
                   0
                   0
                   0
                   0
                   0
                   0
                   0
                   0
                   0
                   0
                   0
                   0
                   0
                   0
                   0
                   0
                   0
                   0
                   0
                   0
                   0
                   0
                   0
                   0
                   0
                   0
                   0
                   0
                   0
                   0
                   0
                   0
                   0
                   0
                   0
                   0
                   0
                   0
                   0
                   0
                   0
                   0
                   0
                   0
                   0
                   0
                   0
                   0
                   0
                   0
                   0
                   0
                   0
                   0
                   0
                   0
                   0
                   0
                   0
                   0
                   0
                   0
                   0
                   0
                   0
                   0
                   0
                   0
                   0
                   0
                   0
                   0
                   0
                   0
                   0
                   0
                   0
                   0
                   0
                   0
                   0
                   0
                   0
                   0
                   0
                   0
                   0
                   0
                   0
                   0
                   0
                   0
                   0
                   0
                   0
                   0
                   0
                   0
                   0
                   0
                   0
                   0
                   0
                   0
                   0
                   0
                   0
                   0
                   0
                   0
                   0
                   0
                   0
                   0
                   0
                   0
                   0
                   0
                   0
                   0
                   0
                   0
                   0
                   0
                   0
                   0
                   0
                   0
                   0
                   0
                   0
                   0
                   0
                   0
                   0
                   0
                   0
                   0
                   0
                   0
                   0
                   0
                   0
                   0
                   0
                   0
                   0
                   0
                   0
                   0
                   0
                   0
                   0
                   0
                   0
                   0
                   0
                   0
                   0
                   0
                   0
                   0
                   0
                   0
                   0
                   0
                   0
                   0
                   0
                   0
                   0
                   0
                   0
                   0
                   0
                   0
                   0
                   0
                   0
                   0
                   0
                   0
                   0
                   0
                   0
                   0
                   0
                   0
                   0
                   0
                   0
                   0
                   0
                   0
                   0
                   0
                   0
                   0
                   0
                   0
                   0
                   0
                   0
                   0
                   0
                   0
                   0
                   0
                   0
                   0
                   0
                   0
                   0
                   0
                   0
                   0
                   0
                   0
                   0
                   0
                   0
                   0
                   0
                   0
                   0
                   0
                   0
                   0
                   0
                   0
                   0
                   0
                   0
                   0
                   0
                   0
                   0
                   0
                   0
                   0
                   0
                   0
                   0
                   0
                   0
                   0
                   0
                   0
                   0
                   0
                   0
                   0
                   0
                   0
                   0
                   0
                   0
                   0
                   0
                   0
                   0
                   0
                   0
                   0
                   0
                   0
                   0
                   0
                   0
                   0
                   0
                   0
                   0
                   0
                   0
                   0
                   0
                   0
                   0
                   0
                   0
                   0
                   0
                   0
                   0
                   0
                   0
                   0
                   0
                   0
                   0
                   0
                   0
                   0
                   0
                   0
                   0
                   0
                   0
                   0
                   0
                   0
                   0
                   0
                   0
                   0
                   0
                   0
                   0
                   0
                   0
                   0
                   0
                   0
                   0
                   0
                   0
                   0
                   0
                   0
                   0
                   0
                   0
                   0
                   0
                   0
                   0
                   0
                   0
                   0
                   0
                   0
                   0
                   0
                   0
                   0
                   0
                   0
                   0
                   0
                   0
                   0
                   0
                   0
                   0
                   0
                   0
                   0
                   0
                   0
                   0
                   0
                   0
                   0
                   0
                   0
                   0
                   0
                   0
                   0
                   0
                   0
                   0
                   0
                   0
                   0
                   0
                   0
                   0
                   0
                   0
                   0
                   0
                   0
                   0
                   0
                   0
                   0
                   0
                   0
                   0
                   0
                   0
                   0
                   0
                   0
                   0
                   0
                   0
                   0
                   0
                   0
                   0
                   0
                   0
                   0
                   0
                   0
                   0
                   0
                   0
                   0
                   0
                   0
                   0
                   0
                   0
                   0
                   0
                   0
                   0
                   0
                   0
                   0
                   0
                   0
                   0
                   0
                   0
                   0
                   0
                   0
                   0
                   0
                   0
                   0
                   0
                   0
                   0
                   0
                   0
                   0
                   0
                   0
                   0
                   0
                   0
                   0
                   0
                   0
                   0
                   0
                   0
                   0
                   0
                   0
                   0
                   0
                   0
                   0
                   0
                   0
                   0
                   0
                   0
                   0
                   0
                   0
                   0
                   0
                   0
                   0
                   0
                   0
                   0
                   0
                   0
                   0
                   0
                   0
                   0
                   0
                   0
                   0
                   0
                   0
                   0
                   0
                   0
                   0
                   0
                   0
                   0
                   0
                   0
                   0
                   0
                   0
                   0
                   0
                   0
                   0
                   0
                   0
                   0
                   0
                   0
                   0
                   0
                   0
                   0
                   0
                   0
                   0
                   0
                   0
                   0
                   0
                   0
                   0
                   0
                   0
                   0
                   0
                   0
                   0
                   0
                   0
                   0
                   0
                   0
                   0
                   0
                   0
                   0
                   0
                   0
                   0
                   0
                   0
                   0
                   0
                   0
                   0
                   0
                   0
                   0
                   0
                   0
                   0
                   0
                   0
                   0
                   0
                   0
                   0
                   0
                   0
                   0
                   0
                   0
                   0
                   0
                   0
                   0
                   0
                   0
                   0
                   0
                   0
                   0
                   0
                   0
                   0
                   0
                   0
                   0
                   0
                   0
                   0
                   0
                   0
                   0
                   0
                   0
                   0
                   0
                   0
                   0
                   0
                   0
                   0
                   0
                   0
                   0
                   0
                   0
                   0
                   0
                   0
                   0
                   0
                   0
                   0
                   0
                   0
                   0
                   0
                   0
                   0
                   0
                   0
                   0
                   0
                   0
                   0
                   0
                   0
                   0
                   0
                   0
                   0
                   0
                   0
                   0
                   0
                   0
                   0
                   0
                   0
                   0
                   0
                   0
                   0
                   0
                   0
                   0
                   0
                   0
                   0
                   0
                   0
                   0
                   0
                   0
                   0
                   0
                   0
                   0
                   0
                   0
                   0
                   0
                   0
                   0
                   0
                   0
                   0
                   0
                   0
                   0
                   0
                   0
                   0
                   0
                   0
                   0
                   0
                   0
                   0
                   0
                   0
                   0
                   0
                   0
                   0
                   0
                   0
                   0
                   0
                   0
                   0
                   0
                   0
                   0
                   0
                   0
                   0
                   0
                   0
                   0
                   0
                   0
                   0
                   0
                   0
                   0
                   0
                   0
                   0
                   0
                   0
                   0
                   0
                   0
                   0
                   0
                   0
                   0
                   0
                   0
                   0
                   0
                   0
                   0
                   0
                   0
                   0
                   0
                   0
                   0
                   0
                   0
                   0
                   0
                   0
                   0
                   0
                   0
                   0
                   0
                   0
                   0
                   0
                   0
                   0
                   0
                   0
                   0
                   0
                   0
                   0
                   0
                   0
                   0
                   0
                   0
                   0
                   0
                   0
                   0
                   0
                   0
                   0
                   0
                   0
                   0
                   0
                   0
                   0
                   0
                   0
                   0
                   0
                   0
                   0
                   0
                   0
                   0
                   0
                   0
                   0
                   0
                   0
                   0
                   0
                   0
                   0
                   0
                   0
                   0
                   0
                   0
                   0
                   0
                   0
                   0
                   0
                   0
                   0
                   0
                   0
                   0
                   0
                   0
                   0
                   0
                   0
                   0
                   0
                   0
                   0
                   0
                   0
                   0
                   0
                   0
                   0
                   0
                   0
                   0
                   0
                   0
                   0
                   0
                   0
                   0
                   0
                   0
                   0
                   0
                   0
                   0
                   0
                   0
                   0
                   0
                   0
                   0
                   0
                   0
                   0
                   0
                   0
                   0
                   0
                   0
                   0
                   0
                   0
                   0
                   0
                   0
                   0
                   0
                   0
                   0
                   0
                   0
                   0
                   0
                   0
                   0
                   0
                   0
                   0
                   0
                   0
                   0
                   0
                   0
                   0
                   0
                   0
                   0
                   0
                   0
                   0
                   0
                   0
                   0
                   0
                   0
                   0
                   0
                   0
                   0
                   0
                   0
                   0
                   0
                   0
                   0
                   0
                   0
                   0
                   0
                   0
                   0
                   0
                   0
                   0
                   0
                   0
                   0
                   0
                   0
                   0
                   0
                   0
                   0
                   0
                   0
                   0
                   0
                   0
                   0
                   0
                   0
                   0
                   0
                   0
                   0
                   0
                   0
                   0
                   0
                   0
                   0
                   0
                   0
                   0
                   0
                   0
                   0
                   0
                   0
                   0
                   0
                   0
                   0
                   0
                   0
                   0
                   0
                   0
                   0
                   0
                   0
                   0
                   0
                   0
                   0
                   0
                   0
                   0
                   0
                   0
                   0
                   0
                   0
                   0
                   0
                   0
                   0
                   0
                   0
                   0
                   0
                   0
                   0
                   0
                   0
                   0
                   0
                   0
                   0
                   0
                   0
                   0
                   0
                   0
                   0
                   0
                   0
                   0
                   0
                   0
                   0
                   0
                   0
                   0
                   0
                   0
                   0
                   0
                   0
                   0
                   0
                   0
                   0
                   0
                   0
                   0
                   0
                   0
                   0
                   0
                   0
                   0
                   0
                   0
                   0
                   0
                   0
                   0
                   0
                   0
                   0
                   0
                   0
                   0
                   0
                   0
                   0
                   0
                   0
                   0
                   0
                   0
                   0
  
SCALARS                         Ispace  double 1
LOOKUP_TABLE default
                  12
                  12
                  12
                  12
                  12
                  12
                  12
                  12
                  12
                  12
                  12
                  12
                  12
                  11
                  12
                  11
                  11
                  11
                  11
                  11
                  11
                  12
                  12
                  11
                  12
                  12
                  11
                  11
                  11
                  11
                  11
                  11
                  11
                  11
                  11
                  11
                  11
                  11
                  11
                  11
                  11
                  11
                  11
                  11
                  11
                  11
                  11
                  11
                  11
                  11
                  11
                  11
                  11
                  11
                  11
                  11
                  11
                  11
                  11
                  11
                  11
                  11
                  11
                  11
                  11
                  11
                  12
                  12
                  12
                  12
                  12
                  12
                  12
                  12
                  11
                  11
                  11
                  11
                  11
                  11
                  11
                  11
                  11
                  11
                  11
                  11
                  11
                  11
                  11
                  11
                  11
                  11
                  11
                  11
                  11
                  11
                  12
                  12
                  12
                  12
                  12
                  12
                  12
                  12
                  12
                  12
                  12
                  12
                  12
                  12
                  12
                  12
                  12
                  12
                  12
                  12
                  11
                  11
                  11
                  11
                  11
                  11
                  11
                  11
                  11
                  11
                  11
                  11
                  11
                  11
                  11
                  11
                  11
                  11
                  11
                  11
                  11
                  11
                  11
                  11
                  11
                  11
                  11
                  11
                  11
                  11
                  12
                  12
                  12
                  12
                  12
                  12
                  12
                  12
                  12
                  12
                  12
                  12
                  12
                  12
                  12
                  12
                  12
                  11
                  11
                  11
                  11
                  12
                  12
                  11
                  11
                  11
                  11
                  11
                  11
                  11
                  11
                  11
                  11
                  11
                  11
                  11
                  11
                  11
                  11
                  11
                  11
                  11
                  11
                  12
                  12
                  12
                  12
                  11
                  11
                  11
                  11
                  11
                  11
                  11
                  11
                  11
                  11
                  11
                  12
                  12
                  12
                  12
                  12
                  12
                  12
                  12
                  12
                  12
                  11
                  11
                  11
                  11
                  11
                  11
                  11
                  11
                  11
                  11
                  11
                  11
                  11
                  11
                  11
                  12
                  12
                  12
                  12
                  12
                  12
                  12
                  12
                  12
                  12
                  12
                  12
                  11
                  11
                  11
                  11
                  12
                  12
                  11
                  11
                  11
                  11
                  11
                  11
                  11
                  11
                  11
                  11
                  11
                  11
                  11
                  11
                  11
                  11
                  11
                  11
                  11
                  11
                  12
                  12
                  12
                  12
                  11
                  11
                  11
                  11
                  11
                  11
                  11
                  11
                  11
                  11
                  11
                  12
                  12
                  12
                  12
                  12
                  12
                  12
                  12
                  12
                  12
                  11
                  11
                  11
                  11
                  11
                  11
                  11
                  11
                  11
                  11
                  11
                  11
                  11
                  11
                  11
                  12
                  12
                  12
                  12
                  12
                  12
                  12
                  12
                  12
                  12
                  12
                  12
                  11
                  11
                  11
                  11
                  12
                  12
                  11
                  11
                  11
                  11
                  11
                  11
                  11
                  11
                  11
                  11
                  11
                  11
                  11
                  11
                  11
                  11
                  11
                  11
                  11
                  11
                  12
                  12
                  12
                  12
                  11
                  11
                  11
                  11
                  11
                  11
                  11
                  11
                  11
                  11
                  11
                  12
                  12
                  12
                  12
                  12
                  12
                  12
                  12
                  12
                  12
                  11
                  11
                  11
                  11
                  11
                  11
                  11
                  11
                  11
                  11
                  11
                  11
                  11
                  11
                  11
                  12
                  12
                  12
                  12
                  12
                  12
                  12
                  12
                  12
                  12
                  12
                  12
                  11
                  11
                  11
                  11
                  12
                  12
                  11
                  11
                  11
                  11
                  11
                  11
                  11
                  11
                  11
                  11
                  11
                  11
                  11
                  11
                  11
                  11
                  11
                  11
                  11
                  11
                  12
                  12
                  12
                  12
                  11
                  11
                  11
                  11
                  11
                  11
                  11
                  11
                  11
                  11
                  11
                  12
                  12
                  12
                  12
                  12
                  12
                  12
                  12
                  12
                  12
                  11
                  11
                  11
                  11
                  11
                  11
                  11
                  11
                  11
                  11
                  11
                  11
                  11
                  11
                  11
                  12
                  12
                  12
                  12
                  12
                  12
                  12
                  12
                  12
                  12
                  12
                  12
                  11
                  11
                  11
                  11
                  12
                  12
                  11
                  11
                  11
                  11
                  11
                  11
                  11
                  11
                  11
                  11
                  11
                  11
                  11
                  11
                  11
                  11
                  11
                  11
                  11
                  11
                  12
                  12
                  12
                  12
                  11
                  11
                  11
                  11
                  11
                  11
                  11
                  11
                  11
                  11
                  11
                  12
                  12
                  12
                  12
                  12
                  12
                  12
                  12
                  12
                  12
                  11
                  11
                  11
                  11
                  11
                  11
                  11
                  11
                  11
                  11
                  11
                  11
                  11
                  11
                  11
                  12
                  12
                  12
                  12
                  12
                  12
                  12
                  12
                  12
                  12
                  12
                  12
                  11
                  11
                  11
                  11
                  12
                  12
                  11
                  11
                  11
                  11
                  11
                  11
                  11
                  11
                  11
                  11
                  11
                  11
                  11
                  11
                  11
                  11
                  11
                  11
                  11
                  11
                  12
                  12
                  12
                  12
                  11
                  11
                  11
                  11
                  11
                  11
                  11
                  11
                  11
                  11
                  11
                  12
                  12
                  12
                  12
                  12
                  12
                  12
                  12
                  12
                  12
                  11
                  11
                  11
                  11
                  11
                  11
                  11
                  11
                  11
                  11
                  11
                  11
                  11
                  11
                  11
                  12
                  12
                  12
                  12
                  12
                  12
                  12
                  12
                  12
                  12
                  12
                  12
                  11
                  11
                  11
                  11
                  12
                  12
                  11
                  11
                  11
                  11
                  11
                  11
                  11
                  11
                  11
                  11
                  11
                  11
                  11
                  11
                  11
                  11
                  11
                  11
                  11
                  11
                  12
                  12
                  12
                  12
                  11
                  11
                  11
                  11
                  11
                  11
                  11
                  11
                  11
                  11
                  11
                  12
                  12
                  12
                  12
                  12
                  12
                  12
                  12
                  12
                  12
                  11
                  11
                  11
                  11
                  11
                  11
                  11
                  11
                  11
                  11
                  11
                  11
                  11
                  11
                  11
                  12
                  12
                  12
                  12
                  12
                  12
                  12
                  12
                  12
                  12
                  12
                  12
                  11
                  11
                  11
                  11
                  12
                  12
                  11
                  11
                  11
                  11
                  11
                  11
                  11
                  11
                  11
                  11
                  11
                  11
                  11
                  11
                  11
                  11
                  11
                  11
                  11
                  11
                  12
                  12
                  12
                  12
                  11
                  11
                  11
                  11
                  11
                  11
                  11
                  11
                  11
                  11
                  11
                  12
                  12
                  12
                  12
                  12
                  12
                  12
                  12
                  12
                  12
                  11
                  11
                  11
                  11
                  11
                  11
                  11
                  11
                  11
                  11
                  11
                  11
                  11
                  11
                  11
                  12
                  12
                  12
                  12
                  12
                  12
                  12
                  12
                  12
                  12
                  12
                  12
                  11
                  11
                  11
                  11
                  12
                  12
                  11
                  11
                  11
                  11
                  11
                  11
                  11
                  11
                  11
                  11
                  11
                  11
                  11
                  11
                  11
                  11
                  11
                  11
                  11
                  11
                  12
                  12
                  12
                  12
                  11
                  11
                  11
                  11
                  11
                  11
                  11
                  11
                  11
                  11
                  11
                  12
                  12
                  12
                  12
                  12
                  12
                  12
                  12
                  12
                  12
                  11
                  11
                  11
                  11
                  11
                  11
                  11
                  11
                  11
                  11
                  11
                  11
                  11
                  11
                  11
                  12
                  12
                  12
                  12
                  12
                  12
                  12
                  12
                  12
                  12
                  12
                  12
                  11
                  11
                  11
                  11
                  12
                  12
                  11
                  11
                  11
                  11
                  11
                  11
                  11
                  11
                  11
                  11
                  11
                  11
                  11
                  11
                  11
                  11
                  11
                  11
                  11
                  11
                  12
                  12
                  12
                  12
                  11
                  11
                  11
                  11
                  11
                  11
                  11
                  11
                  11
                  11
                  11
                  12
                  12
                  12
                  12
                  12
                  12
                  12
                  12
                  12
                  12
                  11
                  11
                  11
                  11
                  11
                  11
                  11
                  11
                  11
                  11
                  11
                  11
                  11
                  11
                  11
                  12
                  12
                  12
                  12
                  12
                  12
                  12
                  12
                  12
                  12
                  12
                  12
                  11
                  11
                  11
                  11
                  12
                  12
                  11
                  11
                  11
                  11
                  11
                  11
                  11
                  11
                  11
                  11
                  11
                  11
                  11
                  11
                  11
                  11
                  11
                  11
                  11
                  11
                  12
                  12
                  12
                  12
                  11
                  11
                  11
                  11
                  11
                  11
                  11
                  11
                  11
                  11
                  11
                  12
                  12
                  12
                  12
                  12
                  12
                  12
                  12
                  12
                  12
                  11
                  11
                  11
                  11
                  11
                  11
                  11
                  11
                  11
                  11
                  11
                  11
                  11
                  11
                  11
                  12
                  12
                  12
                  12
                  12
                  12
                  12
                  12
                  12
                  12
                  12
                  12
                  11
                  11
                  11
                  11
                  12
                  12
                  11
                  11
                  11
                  11
                  11
                  11
                  11
                  11
                  11
                  11
                  11
                  11
                  11
                  11
                  11
                  11
                  11
                  11
                  11
                  11
                  12
                  12
                  12
                  12
                  11
                  11
                  11
                  11
                  11
                  11
                  11
                  11
                  11
                  11
                  11
                  12
                  12
                  12
                  12
                  12
                  12
                  12
                  12
                  12
                  12
                  11
                  11
                  11
                  11
                  11
                  11
                  11
                  11
                  11
                  11
                  11
                  11
                  11
                  11
                  11
                  12
                  12
                  12
                  12
                  12
                  12
                  12
                  12
                  12
                  12
                  12
                  12
                  11
                  11
                  11
                  11
                  12
                  12
                  11
                  11
                  11
                  11
                  11
                  11
                  11
                  11
                  11
                  11
                  11
                  11
                  11
                  11
                  11
                  11
                  11
                  11
                  11
                  11
                  12
                  12
                  12
                  12
                  11
                  11
                  11
                  11
                  11
                  11
                  11
                  11
                  11
                  11
                  11
                  12
                  12
                  12
                  12
                  12
                  12
                  12
                  12
                  12
                  12
                  11
                  11
                  11
                  11
                  11
                  11
                  11
                  11
                  11
                  11
                  11
                  11
                  11
                  11
                  11
                  12
                  12
                  12
                  12
                  12
                  12
                  12
                  12
                  12
                  12
                  12
                  12
                  11
                  11
                  11
                  11
                  12
                  12
                  11
                  11
                  11
                  11
                  11
                  11
                  11
                  11
                  11
                  11
                  11
                  11
                  11
                  11
                  11
                  11
                  11
                  11
                  11
                  11
                  12
                  12
                  12
                  12
                  11
                  11
                  11
                  11
                  11
                  11
                  11
                  11
                  11
                  11
                  11
                  12
                  12
                  12
                  12
                  12
                  12
                  12
                  12
                  12
                  12
                  11
                  11
                  11
                  11
                  11
                  11
                  11
                  11
                  11
                  11
                  11
                  11
                  11
                  11
                  11
                  12
                  12
                  12
                  12
                  12
                  12
                  12
                  12
                  12
                  12
                  12
                  12
                  11
                  11
                  11
                  11
                  12
                  12
                  11
                  11
                  11
                  11
                  11
                  11
                  11
                  11
                  11
                  11
                  11
                  11
                  11
                  11
                  11
                  11
                  11
                  11
                  11
                  11
                  12
                  12
                  12
                  12
                  11
                  11
                  11
                  11
                  11
                  11
                  11
                  11
                  11
                  11
                  11
                  12
                  12
                  12
                  12
                  12
                  12
                  12
                  12
                  12
                  12
                  11
                  11
                  11
                  11
                  11
                  11
                  11
                  11
                  11
                  11
                  11
                  11
                  11
                  11
                  11
                  12
                  12
                  12
                  12
                  12
                  12
                  12
                  12
                  12
                  12
                  12
                  12
                  11
                  11
                  11
                  11
                  12
                  12
                  11
                  11
                  11
                  11
                  11
                  11
                  11
                  11
                  11
                  11
                  11
                  11
                  11
                  11
                  11
                  11
                  11
                  11
                  11
                  11
                  12
                  12
                  12
                  12
                  11
                  11
                  11
                  11
                  11
                  11
                  11
                  11
                  11
                  11
                  11
                  12
                  12
                  12
                  12
                  12
                  12
                  12
                  12
                  12
                  12
                  11
                  11
                  11
                  11
                  11
                  11
                  11
                  11
                  11
                  11
                  11
                  11
                  11
                  11
                  11
                  12
                  12
                  12
                  12
                  12
                  12
                  12
                  12
                  12
                  12
                  12
                  12
                  11
                  11
                  11
                  11
                  12
                  12
                  11
                  11
                  11
                  11
                  11
                  11
                  11
                  11
                  11
                  11
                  11
                  11
                  11
                  11
                  11
                  11
                  11
                  11
                  11
                  11
                  12
                  12
                  12
                  12
                  11
                  11
                  11
                  11
                  11
                  11
                  11
                  11
                  11
                  11
                  11
                  12
                  12
                  12
                  12
                  12
                  12
                  12
                  12
                  12
                  12
                  11
                  11
                  11
                  11
                  11
                  11
                  11
                  11
                  11
                  11
                  11
                  11
                  11
                  11
                  11
                  12
                  12
                  12
                  12
                  12
                  12
                  12
                  12
                  12
                  12
                  12
                  12
                  11
                  11
                  11
                  11
                  12
                  12
                  11
                  11
                  11
                  11
                  11
                  11
                  11
                  11
                  11
                  11
                  11
                  11
                  11
                  11
                  11
                  11
                  11
                  11
                  11
                  11
                  12
                  12
                  12
                  12
                  11
                  11
                  11
                  11
                  11
                  11
                  11
                  11
                  11
                  11
                  11
                  12
                  12
                  12
                  12
                  12
                  12
                  12
                  12
                  12
                  12
                  11
                  11
                  11
                  11
                  11
                  11
                  11
                  11
                  11
                  11
                  11
                  11
                  11
                  11
                  11
                  12
                  12
                  12
                  12
                  12
                  12
                  12
                  12
                  12
                  12
                  12
                  12
                  11
                  11
                  11
                  11
                  12
                  12
                  11
                  11
                  11
                  11
                  11
                  11
                  11
                  11
                  11
                  11
                  11
                  11
                  11
                  11
                  11
                  11
                  11
                  11
                  11
                  11
                  12
                  12
                  12
                  12
                  11
                  11
                  11
                  11
                  11
                  11
                  11
                  11
                  11
                  11
                  11
                  12
                  12
                  12
                  12
                  12
                  12
                  12
                  12
                  12
                  12
                  11
                  11
                  11
                  11
                  11
                  11
                  11
                  11
                  11
                  11
                  11
                  11
                  11
                  11
                  11
                  12
                  12
                  12
                  12
                  12
                  12
                  12
                  12
                  12
                  12
                  12
                  12
                  11
                  11
                  11
                  11
                  12
                  12
                  11
                  11
                  11
                  11
                  11
                  11
                  11
                  11
                  11
                  11
                  11
                  11
                  11
                  11
                  11
                  11
                  11
                  11
                  11
                  11
                  12
                  12
                  12
                  12
                  11
                  11
                  11
                  11
                  11
                  11
                  11
                  11
                  11
                  11
                  11
                  12
                  12
                  12
                  12
                  12
                  12
                  12
                  12
                  12
                  12
                  11
                  11
                  11
                  11
                  11
                  11
                  11
                  11
                  11
                  11
                  11
                  11
                  11
                  11
                  11
                  12
                  12
                  12
                  12
                  12
                  12
                  12
                  12
                  12
                  12
                  12
                  12
                  11
                  11
                  11
                  11
                  12
                  12
                  11
                  11
                  11
                  11
                  11
                  11
                  11
                  11
                  11
                  11
                  11
                  11
                  11
                  11
                  11
                  11
                  11
                  11
                  11
                  11
                  12
                  12
                  12
                  12
                  11
                  11
                  11
                  11
                  11
                  11
                  11
                  11
                  11
                  11
                  11
                  12
                  12
                  12
                  12
                  12
                  12
                  12
                  12
                  12
                  12
                  11
                  11
                  11
                  11
                  11
                  11
                  11
                  11
                  11
                  11
                  11
                  11
                  11
                  11
                  11
                  12
                  12
                  12
                  12
                  12
                  12
                  12
                  12
                  12
                  12
                  12
                  12
                  11
                  11
                  11
                  11
                  12
                  12
                  11
                  11
                  11
                  11
                  11
                  11
                  11
                  11
                  11
                  11
                  11
                  11
                  11
                  11
                  11
                  11
                  11
                  11
                  11
                  11
                  12
                  12
                  12
                  12
                  11
                  11
                  11
                  11
                  11
                  11
                  11
                  11
                  11
                  11
                  11
                  12
                  12
                  12
                  12
                  12
                  12
                  12
                  12
                  12
                  12
                  11
                  11
                  11
                  11
                  11
                  11
                  11
                  11
                  11
                  11
                  11
                  11
                  11
                  11
                  11
                  12
                  12
                  12
                  12
                  12
                  12
                  12
                  12
                  12
                  12
                  12
                  12
                  11
                  11
                  11
                  11
                  12
                  12
                  11
                  11
                  11
                  11
                  11
                  11
                  11
                  11
                  11
                  11
                  11
                  11
                  11
                  11
                  11
                  11
                  11
                  11
                  11
                  11
                  12
                  12
                  12
                  12
                  11
                  11
                  11
                  11
                  11
                  11
                  11
                  11
                  11
                  11
                  11
                  12
                  12
                  12
                  12
                  12
                  12
                  12
                  12
                  12
                  12
                  11
                  11
                  11
                  11
                  11
                  11
                  11
                  11
                  11
                  11
                  11
                  11
                  11
                  11
                  11
                  12
                  12
                  12
                  12
                  12
  
SCALARS                         Jspace  double 1
LOOKUP_TABLE default
                  11
                  12
                  11
                  11
                  11
                  12
                  11
                  11
                  11
                  11
                  11
                  11
                  12
                  12
                  12
                  12
                  11
                  12
                  11
                  12
                  12
                  12
                  12
                  12
                  12
                  12
                  12
                  12
                  12
                  12
                  11
                  11
                  11
                  11
                  11
                  11
                  11
                  11
                  11
                  11
                  11
                  11
                  11
                  11
                  11
                  11
                  11
                  11
                  11
                  11
                  11
                  11
                  12
                  12
                  12
                  12
                  12
                  11
                  12
                  11
                  11
                  11
                  11
                  11
                  11
                  11
                  11
                  11
                  11
                  12
                  11
                  12
                  12
                  12
                  12
                  12
                  12
                  12
                  12
                  12
                  12
                  12
                  12
                  12
                  11
                  11
                  11
                  11
                  11
                  11
                  11
                  11
                  11
                  11
                  11
                  11
                  11
                  11
                  11
                  11
                  11
                  11
                  11
                  11
                  11
                  11
                  11
                  11
                  12
                  12
                  12
                  12
                  12
                  12
                  12
                  12
                  12
                  12
                  12
                  12
                  12
                  12
                  12
                  12
                  12
                  12
                  12
                  12
                  11
                  11
                  11
                  11
                  11
                  11
                  11
                  11
                  11
                  11
                  11
                  11
                  11
                  11
                  11
                  11
                  11
                  11
                  11
                  11
                  11
                  11
                  11
                  11
                  11
                  11
                  11
                  11
                  11
                  12
                  11
                  11
                  11
                  11
                  12
                  12
                  11
                  12
                  12
                  12
                  12
                  12
                  12
                  11
                  11
                  11
                  11
                  11
                  11
                  11
                  11
                  11
                  11
                  11
                  12
                  12
                  12
                  11
                  11
                  11
                  11
                  11
                  11
                  12
                  12
                  12
                  12
                  12
                  12
                  12
                  11
                  11
                  11
                  11
                  11
                  11
                  11
                  11
                  11
                  11
                  11
                  11
                  12
                  12
                  12
                  12
                  12
                  12
                  12
                  12
                  12
                  12
                  11
                  11
                  11
                  11
                  11
                  11
                  11
                  11
                  11
                  11
                  11
                  11
                  11
                  11
                  11
                  12
                  11
                  11
                  11
                  11
                  12
                  12
                  11
                  12
                  12
                  12
                  12
                  12
                  12
                  11
                  11
                  11
                  11
                  11
                  11
                  11
                  11
                  11
                  11
                  11
                  12
                  12
                  12
                  11
                  11
                  11
                  11
                  11
                  11
                  12
                  12
                  12
                  12
                  12
                  12
                  12
                  11
                  11
                  11
                  11
                  11
                  11
                  11
                  11
                  11
                  11
                  11
                  11
                  12
                  12
                  12
                  12
                  12
                  12
                  12
                  12
                  12
                  12
                  11
                  11
                  11
                  11
                  11
                  11
                  11
                  11
                  11
                  11
                  11
                  11
                  11
                  11
                  11
                  12
                  11
                  11
                  11
                  11
                  12
                  12
                  11
                  12
                  12
                  12
                  12
                  12
                  12
                  11
                  11
                  11
                  11
                  11
                  11
                  11
                  11
                  11
                  11
                  11
                  12
                  12
                  12
                  11
                  11
                  11
                  11
                  11
                  11
                  12
                  12
                  12
                  12
                  12
                  12
                  12
                  11
                  11
                  11
                  11
                  11
                  11
                  11
                  11
                  11
                  11
                  11
                  11
                  12
                  12
                  12
                  12
                  12
                  12
                  12
                  12
                  12
                  12
                  11
                  11
                  11
                  11
                  11
                  11
                  11
                  11
                  11
                  11
                  11
                  11
                  11
                  11
                  11
                  12
                  11
                  11
                  11
                  11
                  12
                  12
                  11
                  12
                  12
                  12
                  12
                  12
                  12
                  11
                  11
                  11
                  11
                  11
                  11
                  11
                  11
                  11
                  11
                  11
                  12
                  12
                  12
                  11
                  11
                  11
                  11
                  11
                  11
                  12
                  12
                  12
                  12
                  12
                  12
                  12
                  11
                  11
                  11
                  11
                  11
                  11
                  11
                  11
                  11
                  11
                  11
                  11
                  12
                  12
                  12
                  12
                  12
                  12
                  12
                  12
                  12
                  12
                  11
                  11
                  11
                  11
                  11
                  11
                  11
                  11
                  11
                  11
                  11
                  11
                  11
                  11
                  11
                  12
                  11
                  11
                  11
                  11
                  12
                  12
                  11
                  12
                  12
                  12
                  12
                  12
                  12
                  11
                  11
                  11
                  11
                  11
                  11
                  11
                  11
                  11
                  11
                  11
                  12
                  12
                  12
                  11
                  11
                  11
                  11
                  11
                  11
                  12
                  12
                  12
                  12
                  12
                  12
                  12
                  11
                  11
                  11
                  11
                  11
                  11
                  11
                  11
                  11
                  11
                  11
                  11
                  12
                  12
                  12
                  12
                  12
                  12
                  12
                  12
                  12
                  12
                  11
                  11
                  11
                  11
                  11
                  11
                  11
                  11
                  11
                  11
                  11
                  11
                  11
                  11
                  11
                  12
                  11
                  11
                  11
                  11
                  12
                  12
                  11
                  12
                  12
                  12
                  12
                  12
                  12
                  11
                  11
                  11
                  11
                  11
                  11
                  11
                  11
                  11
                  11
                  11
                  12
                  12
                  12
                  11
                  11
                  11
                  11
                  11
                  11
                  12
                  12
                  12
                  12
                  12
                  12
                  12
                  11
                  11
                  11
                  11
                  11
                  11
                  11
                  11
                  11
                  11
                  11
                  11
                  12
                  12
                  12
                  12
                  12
                  12
                  12
                  12
                  12
                  12
                  11
                  11
                  11
                  11
                  11
                  11
                  11
                  11
                  11
                  11
                  11
                  11
                  11
                  11
                  11
                  12
                  11
                  11
                  11
                  11
                  12
                  12
                  11
                  12
                  12
                  12
                  12
                  12
                  12
                  11
                  11
                  11
                  11
                  11
                  11
                  11
                  11
                  11
                  11
                  11
                  12
                  12
                  12
                  11
                  11
                  11
                  11
                  11
                  11
                  12
                  12
                  12
                  12
                  12
                  12
                  12
                  11
                  11
                  11
                  11
                  11
                  11
                  11
                  11
                  11
                  11
                  11
                  11
                  12
                  12
                  12
                  12
                  12
                  12
                  12
                  12
                  12
                  12
                  11
                  11
                  11
                  11
                  11
                  11
                  11
                  11
                  11
                  11
                  11
                  11
                  11
                  11
                  11
                  12
                  11
                  11
                  11
                  11
                  12
                  12
                  11
                  12
                  12
                  12
                  12
                  12
                  12
                  11
                  11
                  11
                  11
                  11
                  11
                  11
                  11
                  11
                  11
                  11
                  12
                  12
                  12
                  11
                  11
                  11
                  11
                  11
                  11
                  12
                  12
                  12
                  12
                  12
                  12
                  12
                  11
                  11
                  11
                  11
                  11
                  11
                  11
                  11
                  11
                  11
                  11
                  11
                  12
                  12
                  12
                  12
                  12
                  12
                  12
                  12
                  12
                  12
                  11
                  11
                  11
                  11
                  11
                  11
                  11
                  11
                  11
                  11
                  11
                  11
                  11
                  11
                  11
                  12
                  11
                  11
                  11
                  11
                  12
                  12
                  11
                  12
                  12
                  12
                  12
                  12
                  12
                  11
                  11
                  11
                  11
                  11
                  11
                  11
                  11
                  11
                  11
                  11
                  12
                  12
                  12
                  11
                  11
                  11
                  11
                  11
                  11
                  12
                  12
                  12
                  12
                  12
                  12
                  12
                  11
                  11
                  11
                  11
                  11
                  11
                  11
                  11
                  11
                  11
                  11
                  11
                  12
                  12
                  12
                  12
                  12
                  12
                  12
                  12
                  12
                  12
                  11
                  11
                  11
                  11
                  11
                  11
                  11
                  11
                  11
                  11
                  11
                  11
                  11
                  11
                  11
                  12
                  11
                  11
                  11
                  11
                  12
                  12
                  11
                  12
                  12
                  12
                  12
                  12
                  12
                  11
                  11
                  11
                  11
                  11
                  11
                  11
                  11
                  11
                  11
                  11
                  12
                  12
                  12
                  11
                  11
                  11
                  11
                  11
                  11
                  12
                  12
                  12
                  12
                  12
                  12
                  12
                  11
                  11
                  11
                  11
                  11
                  11
                  11
                  11
                  11
                  11
                  11
                  11
                  12
                  12
                  12
                  12
                  12
                  12
                  12
                  12
                  12
                  12
                  11
                  11
                  11
                  11
                  11
                  11
                  11
                  11
                  11
                  11
                  11
                  11
                  11
                  11
                  11
                  12
                  11
                  11
                  11
                  11
                  12
                  12
                  11
                  12
                  12
                  12
                  12
                  12
                  12
                  11
                  11
                  11
                  11
                  11
                  11
                  11
                  11
                  11
                  11
                  11
                  12
                  12
                  12
                  11
                  11
                  11
                  11
                  11
                  11
                  12
                  12
                  12
                  12
                  12
                  12
                  12
                  11
                  11
                  11
                  11
                  11
                  11
                  11
                  11
                  11
                  11
                  11
                  11
                  12
                  12
                  12
                  12
                  12
                  12
                  12
                  12
                  12
                  12
                  11
                  11
                  11
                  11
                  11
                  11
                  11
                  11
                  11
                  11
                  11
                  11
                  11
                  11
                  11
                  12
                  11
                  11
                  11
                  11
                  12
                  12
                  11
                  12
                  12
                  12
                  12
                  12
                  12
                  11
                  11
                  11
                  11
                  11
                  11
                  11
                  11
                  11
                  11
                  11
                  12
                  12
                  12
                  11
                  11
                  11
                  11
                  11
                  11
                  12
                  12
                  12
                  12
                  12
                  12
                  12
                  11
                  11
                  11
                  11
                  11
                  11
                  11
                  11
                  11
                  11
                  11
                  11
                  12
                  12
                  12
                  12
                  12
                  12
                  12
                  12
                  12
                  12
                  11
                  11
                  11
                  11
                  11
                  11
                  11
                  11
                  11
                  11
                  11
                  11
                  11
                  11
                  11
                  12
                  11
                  11
                  11
                  11
                  12
                  12
                  11
                  12
                  12
                  12
                  12
                  12
                  12
                  11
                  11
                  11
                  11
                  11
                  11
                  11
                  11
                  11
                  11
                  11
                  12
                  12
                  12
                  11
                  11
                  11
                  11
                  11
                  11
                  12
                  12
                  12
                  12
                  12
                  12
                  12
                  11
                  11
                  11
                  11
                  11
                  11
                  11
                  11
                  11
                  11
                  11
                  11
                  12
                  12
                  12
                  12
                  12
                  12
                  12
                  12
                  12
                  12
                  11
                  11
                  11
                  11
                  11
                  11
                  11
                  11
                  11
                  11
                  11
                  11
                  11
                  11
                  11
                  12
                  11
                  11
                  11
                  11
                  12
                  12
                  11
                  12
                  12
                  12
                  12
                  12
                  12
                  11
                  11
                  11
                  11
                  11
                  11
                  11
                  11
                  11
                  11
                  11
                  12
                  12
                  12
                  11
                  11
                  11
                  11
                  11
                  11
                  12
                  12
                  12
                  12
                  12
                  12
                  12
                  11
                  11
                  11
                  11
                  11
                  11
                  11
                  11
                  11
                  11
                  11
                  11
                  12
                  12
                  12
                  12
                  12
                  12
                  12
                  12
                  12
                  12
                  11
                  11
                  11
                  11
                  11
                  11
                  11
                  11
                  11
                  11
                  11
                  11
                  11
                  11
                  11
                  12
                  11
                  11
                  11
                  11
                  12
                  12
                  11
                  12
                  12
                  12
                  12
                  12
                  12
                  11
                  11
                  11
                  11
                  11
                  11
                  11
                  11
                  11
                  11
                  11
                  12
                  12
                  12
                  11
                  11
                  11
                  11
                  11
                  11
                  12
                  12
                  12
                  12
                  12
                  12
                  12
                  11
                  11
                  11
                  11
                  11
                  11
                  11
                  11
                  11
                  11
                  11
                  11
                  12
                  12
                  12
                  12
                  12
                  12
                  12
                  12
                  12
                  12
                  11
                  11
                  11
                  11
                  11
                  11
                  11
                  11
                  11
                  11
                  11
                  11
                  11
                  11
                  11
                  12
                  11
                  11
                  11
                  11
                  12
                  12
                  11
                  12
                  12
                  12
                  12
                  12
                  12
                  11
                  11
                  11
                  11
                  11
                  11
                  11
                  11
                  11
                  11
                  11
                  12
                  12
                  12
                  11
                  11
                  11
                  11
                  11
                  11
                  12
                  12
                  12
                  12
                  12
                  12
                  12
                  11
                  11
                  11
                  11
                  11
                  11
                  11
                  11
                  11
                  11
                  11
                  11
                  12
                  12
                  12
                  12
                  12
                  12
                  12
                  12
                  12
                  12
                  11
                  11
                  11
                  11
                  11
                  11
                  11
                  11
                  11
                  11
                  11
                  11
                  11
                  11
                  11
                  12
                  11
                  11
                  11
                  11
                  12
                  12
                  11
                  12
                  12
                  12
                  12
                  12
                  12
                  11
                  11
                  11
                  11
                  11
                  11
                  11
                  11
                  11
                  11
                  11
                  12
                  12
                  12
                  11
                  11
                  11
                  11
                  11
                  11
                  12
                  12
                  12
                  12
                  12
                  12
                  12
                  11
                  11
                  11
                  11
                  11
                  11
                  11
                  11
                  11
                  11
                  11
                  11
                  12
                  12
                  12
                  12
                  12
                  12
                  12
                  12
                  12
                  12
                  11
                  11
                  11
                  11
                  11
                  11
                  11
                  11
                  11
                  11
                  11
                  11
                  11
                  11
                  11
                  12
                  11
                  11
                  11
                  11
                  12
                  12
                  11
                  12
                  12
                  12
                  12
                  12
                  12
                  11
                  11
                  11
                  11
                  11
                  11
                  11
                  11
                  11
                  11
                  11
                  12
                  12
                  12
                  11
                  11
                  11
                  11
                  11
                  11
                  12
                  12
                  12
                  12
                  12
                  12
                  12
                  11
                  11
                  11
                  11
                  11
                  11
                  11
                  11
                  11
                  11
                  11
                  11
                  12
                  12
                  12
                  12
                  12
                  12
                  12
                  12
                  12
                  12
                  11
                  11
                  11
                  11
                  11
                  11
                  11
                  11
                  11
                  11
                  11
                  11
                  11
                  11
                  11
                  12
                  11
                  11
                  11
                  11
                  12
                  12
                  11
                  12
                  12
                  12
                  12
                  12
                  12
                  11
                  11
                  11
                  11
                  11
                  11
                  11
                  11
                  11
                  11
                  11
                  12
                  12
                  12
                  11
                  11
                  11
                  11
                  11
                  11
                  12
                  12
                  12
                  12
                  12
                  12
                  12
                  11
                  11
                  11
                  11
                  11
                  11
                  11
                  11
                  11
                  11
                  11
                  11
                  12
                  12
                  12
                  12
                  12
                  12
                  12
                  12
                  12
                  12
                  11
                  11
                  11
                  11
                  11
                  11
                  11
                  11
                  11
                  11
                  11
                  11
                  11
                  11
                  11
                  12
                  11
                  11
                  11
                  11
                  12
                  12
                  11
                  12
                  12
                  12
                  12
                  12
                  12
                  11
                  11
                  11
                  11
                  11
                  11
                  11
                  11
                  11
                  11
                  11
                  12
                  12
                  12
                  11
                  11
                  11
                  11
                  11
                  11
                  12
                  12
                  12
                  12
                  12
                  12
                  12
                  11
                  11
                  11
                  11
                  11
                  11
                  11
                  11
                  11
                  11
                  11
                  11
                  12
                  12
                  12
                  12
                  12
                  12
                  12
                  12
                  12
                  12
                  11
                  11
                  11
                  11
                  11
                  11
                  11
                  11
                  11
                  11
                  11
                  11
                  11
                  11
                  11
                  12
                  11
                  11
                  11
                  11
                  12
                  12
                  11
                  12
                  12
                  12
                  12
                  12
                  12
                  11
                  11
                  11
                  11
                  11
                  11
                  11
                  11
                  11
                  11
                  11
                  12
                  12
                  12
                  11
                  11
                  11
                  11
                  11
                  11
                  12
                  12
                  12
                  12
                  12
                  12
                  12
                  11
                  11
                  11
                  11
                  11
                  11
                  11
                  11
                  11
                  11
                  11
                  11
                  12
                  12
                  12
                  12
                  12
                  12
                  12
                  12
                  12
                  12
                  11
                  11
                  11
                  11
                  11
                  11
                  11
                  11
                  11
                  11
                  11
                  11
                  11
                  11
                  11
                  12
                  11
                  11
                  11
                  11
                  12
                  12
                  11
                  12
                  12
                  12
                  12
                  12
                  12
                  11
                  11
                  11
                  11
                  11
                  11
                  11
                  11
                  11
                  11
                  11
                  12
                  12
                  12
                  11
                  11
                  11
                  11
                  11
                  11
                  12
                  12
                  12
                  12
                  12
                  12
                  12
                  11
                  11
                  11
                  11
                  11
                  11
                  11
                  11
                  11
                  11
                  11
                  11
                  12
                  12
                  12
                  12
                  12
                  12
                  12
                  12
                  12
                  12
                  11
                  11
                  11
                  11
                  11
                  11
                  11
                  11
                  11
                  11
                  11
                  11
                  11
                  11
                  11
                  12
                  11
                  11
                  11
                  11
                  12
                  12
                  11
                  12
                  12
                  12
                  12
                  12
                  12
                  11
                  11
                  11
                  11
                  11
                  11
                  11
                  11
                  11
                  11
                  11
                  12
                  12
                  12
                  11
                  11
                  11
                  11
                  11
                  11
                  12
                  12
                  12
                  12
                  12
                  12
                  12
                  11
                  11
                  11
                  11
                  11
                  11
                  11
                  11
                  11
                  11
                  11
                  11
                  12
                  12
                  12
                  12
                  12
                  12
                  12
                  12
                  12
                  12
                  11
                  11
                  11
                  11
                  11
                  11
                  11
                  11
                  11
                  11
                  11
                  11
                  11
                  11
  
SCALARS                         Kspace  double 1
LOOKUP_TABLE default
                  11
                  11
                  11
                  11
                  11
                  11
                  11
                  11
                  11
                  11
                  11
                  11
                  11
                  11
                  11
                  11
                  11
                  11
                  11
                  11
                  11
                  11
                  11
                  11
                  11
                  11
                  11
                  11
                  11
                  11
                  11
                  11
                  11
                  11
                  11
                  11
                  11
                  11
                  11
                  11
                  11
                  11
                  11
                  11
                  11
                  11
                  11
                  11
                  11
                  11
                  11
                  11
                  11
                  11
                  11
                  11
                  11
                  11
                  11
                  11
                  11
                  11
                  11
                  11
                  11
                  11
                  11
                  11
                  11
                  11
                  11
                  11
                  11
                  11
                  11
                  11
                  11
                  11
                  11
                  11
                  11
                  11
                  11
                  11
                  11
                  11
                  11
                  11
                  11
                  11
                  11
                  11
                  11
                  11
                  11
                  11
                  11
                  11
                  11
                  11
                  11
                  11
                  11
                  11
                  11
                  11
                  11
                  11
                  11
                  11
                  11
                  11
                  11
                  11
                  11
                  11
                  11
                  11
                  11
                  11
                  11
                  11
                  11
                  11
                  11
                  11
                  11
                  11
                  11
                  11
                  11
                  11
                  11
                  11
                  11
                  11
                  11
                  11
                  11
                  11
                  11
                  11
                  11
                  11
                  11
                  11
                  11
                  11
                  11
                  11
                  11
                  11
                  11
                  11
                  11
                  11
                  11
                  11
                  11
                  11
                  11
                  11
                  11
                  11
                  11
                  11
                  11
                  11
                  11
                  11
                  11
                  11
                  11
                  11
                  11
                  11
                  11
                  11
                  11
                  11
                  11
                  11
                  11
                  11
                  11
                  11
                  11
                  11
                  11
                  11
                  11
                  11
                  11
                  11
                  11
                  11
                  11
                  11
                  11
                  11
                  11
                  11
                  11
                  11
                  11
                  11
                  11
                  11
                  11
                  11
                  11
                  11
                  11
                  11
                  11
                  11
                  11
                  11
                  11
                  11
                  11
                  11
                  11
                  11
                  11
                  11
                  11
                  11
                  11
                  11
                  11
                  11
                  11
                  11
                  11
                  11
                  11
                  11
                  11
                  11
                  11
                  11
                  11
                  11
                  11
                  11
                  11
                  11
                  11
                  11
                  11
                  11
                  11
                  11
                  11
                  11
                  11
                  11
                  11
                  11
                  11
                  11
                  11
                  11
                  11
                  11
                  11
                  11
                  11
                  11
                  11
                  11
                  11
                  11
                  11
                  11
                  11
                  11
                  11
                  11
                  11
                  11
                  11
                  11
                  11
                  11
                  11
                  11
                  11
                  11
                  11
                  11
                  11
                  11
                  11
                  11
                  11
                  11
                  11
                  11
                  11
                  11
                  11
                  11
                  11
                  11
                  11
                  11
                  11
                  11
                  11
                  11
                  12
                  12
                  12
                  12
                  12
                  12
                  12
                  12
                  12
                  12
                  12
                  12
                  12
                  12
                  12
                  12
                  12
                  12
                  12
                  12
                  12
                  12
                  12
                  12
                  12
                  12
                  12
                  12
                  12
                  12
                  12
                  12
                  12
                  12
                  12
                  12
                  12
                  12
                  12
                  12
                  12
                  12
                  12
                  12
                  12
                  12
                  12
                  12
                  12
                  12
                  12
                  12
                  12
                  12
                  12
                  12
                  12
                  12
                  12
                  12
                  12
                  12
                  12
                  12
                  12
                  12
                  12
                  12
                  12
                  12
                  12
                  12
                  12
                  12
                  12
                  12
                  12
                  12
                  12
                  12
                  12
                  12
                  12
                  12
                  12
                  12
                  12
                  12
                  12
                  12
                  12
                  12
                  12
                  12
                  12
                  12
                  12
                  12
                  12
                  12
                  12
                  12
                  12
                  12
                  12
                  12
                  12
                  12
                  12
                  12
                  12
                  12
                  12
                  12
                  12
                  12
                  12
                  12
                  12
                  12
                  12
                  12
                  12
                  12
                  12
                  12
                  12
                  12
                  12
                  12
                  12
                  12
                  12
                  12
                  12
                  12
                  12
                  12
                  12
                  12
                  12
                  12
                  12
                  12
                  12
                  12
                  12
                  12
                  12
                  12
                  12
                  12
                  12
                  12
                  12
                  12
                  12
                  12
                  12
                  12
                  12
                  12
                  12
                  12
                  12
                  12
                  12
                  12
                  12
                  12
                  12
                  12
                  12
                  12
                  12
                  12
                  12
                  12
                  12
                  12
                  12
                  12
                  12
                  12
                  12
                  12
                  12
                  12
                  12
                  12
                  12
                  12
                  12
                  12
                  12
                  12
                  12
                  12
                  12
                  12
                  12
                  12
                  12
                  12
                  12
                  12
                  12
                  12
                  12
                  12
                  12
                  12
                  12
                  12
                  12
                  12
                  12
                  12
                  12
                  12
                  12
                  12
                  12
                  12
                  12
                  12
                  12
                  12
                  12
                  12
                  12
                  12
                  12
                  12
                  13
                  13
                  13
                  13
                  13
                  13
                  13
                  13
                  13
                  13
                  13
                  13
                  13
                  13
                  13
                  13
                  13
                  13
                  13
                  13
                  13
                  13
                  13
                  13
                  13
                  13
                  13
                  13
                  13
                  13
                  13
                  13
                  13
                  13
                  13
                  13
                  13
                  13
                  13
                  13
                  13
                  13
                  13
                  13
                  13
                  13
                  13
                  13
                  13
                  13
                  13
                  13
                  13
                  13
                  13
                  13
                  13
                  13
                  13
                  13
                  13
                  13
                  13
                  13
                  13
                  13
                  13
                  13
                  13
                  13
                  13
                  13
                  13
                  13
                  13
                  13
                  13
                  13
                  13
                  13
                  13
                  13
                  13
                  13
                  13
                  13
                  13
                  13
                  13
                  13
                  13
                  13
                  13
                  13
                  13
                  13
                  13
                  13
                  13
                  13
                  13
                  13
                  13
                  13
                  13
                  13
                  13
                  13
                  13
                  13
                  13
                  13
                  13
                  13
                  13
                  13
                  13
                  13
                  13
                  13
                  13
                  13
                  13
                  13
                  13
                  13
                  13
                  13
                  13
                  13
                  13
                  13
                  13
                  13
                  13
                  13
                  13
                  13
                  13
                  13
                  13
                  13
                  13
                  13
                  13
                  13
                  13
                  13
                  13
                  13
                  13
                  13
                  13
                  13
                  13
                  13
                  13
                  13
                  13
                  13
                  13
                  13
                  13
                  13
                  13
                  13
                  13
                  13
                  13
                  13
                  13
                  13
                  13
                  13
                  13
                  13
                  13
                  13
                  13
                  13
                  13
                  13
                  13
                  13
                  13
                  13
                  13
                  13
                  13
                  13
                  13
                  13
                  13
                  13
                  13
                  13
                  13
                  13
                  13
                  13
                  13
                  13
                  13
                  13
                  13
                  13
                  13
                  13
                  13
                  13
                  13
                  13
                  13
                  13
                  13
                  13
                  13
                  13
                  13
                  13
                  13
                  13
                  13
                  13
                  13
                  13
                  13
                  13
                  13
                  13
                  13
                  13
                  13
                  13
                  14
                  14
                  14
                  14
                  14
                  14
                  14
                  14
                  14
                  14
                  14
                  14
                  14
                  14
                  14
                  14
                  14
                  14
                  14
                  14
                  14
                  14
                  14
                  14
                  14
                  14
                  14
                  14
                  14
                  14
                  14
                  14
                  14
                  14
                  14
                  14
                  14
                  14
                  14
                  14
                  14
                  14
                  14
                  14
                  14
                  14
                  14
                  14
                  14
                  14
                  14
                  14
                  14
                  14
                  14
                  14
                  14
                  14
                  14
                  14
                  14
                  14
                  14
                  14
                  14
                  14
                  14
                  14
                  14
                  14
                  14
                  14
                  14
                  14
                  14
                  14
                  14
                  14
                  14
                  14
                  14
                  14
                  14
                  14
                  14
                  14
                  14
                  14
                  14
                  14
                  14
                  14
                  14
                  14
                  14
                  14
                  14
                  14
                  14
                  14
                  14
                  14
                  14
                  14
                  14
                  14
                  14
                  14
                  14
                  14
                  14
                  14
                  14
                  14
                  14
                  14
                  14
                  14
                  14
                  14
                  14
                  14
                  14
                  14
                  14
                  14
                  14
                  14
                  14
                  14
                  14
                  14
                  14
                  14
                  14
                  14
                  14
                  14
                  14
                  14
                  14
                  14
                  14
                  14
                  14
                  14
                  14
                  14
                  14
                  14
                  14
                  14
                  14
                  14
                  14
                  14
                  14
                  14
                  14
                  14
                  14
                  14
                  14
                  14
                  14
                  14
                  14
                  14
                  14
                  14
                  14
                  14
                  14
                  14
                  14
                  14
                  14
                  14
                  14
                  14
                  14
                  14
                  14
                  14
                  14
                  14
                  14
                  14
                  14
                  14
                  14
                  14
                  14
                  14
                  14
                  14
                  14
                  14
                  14
                  14
                  14
                  14
                  14
                  14
                  14
                  14
                  14
                  14
                  14
                  14
                  14
                  14
                  14
                  14
                  14
                  14
                  14
                  14
                  14
                  14
                  14
                  14
                  14
                  14
                  14
                  14
                  14
                  14
                  14
                  14
                  14
                  14
                  14
                  14
                  15
                  15
                  15
                  15
                  15
                  15
                  15
                  15
                  15
                  15
                  15
                  15
                  15
                  15
                  15
                  15
                  15
                  15
                  15
                  15
                  15
                  15
                  15
                  15
                  15
                  15
                  15
                  15
                  15
                  15
                  15
                  15
                  15
                  15
                  15
                  15
                  15
                  15
                  15
                  15
                  15
                  15
                  15
                  15
                  15
                  15
                  15
                  15
                  15
                  15
                  15
                  15
                  15
                  15
                  15
                  15
                  15
                  15
                  15
                  15
                  15
                  15
                  15
                  15
                  15
                  15
                  15
                  15
                  15
                  15
                  15
                  15
                  15
                  15
                  15
                  15
                  15
                  15
                  15
                  15
                  15
                  15
                  15
                  15
                  15
                  15
                  15
                  15
                  15
                  15
                  15
                  15
                  15
                  15
                  15
                  15
                  15
                  15
                  15
                  15
                  15
                  15
                  15
                  15
                  15
                  15
                  15
                  15
                  15
                  15
                  15
                  15
                  15
                  15
                  15
                  15
                  15
                  15
                  15
                  15
                  15
                  15
                  15
                  15
                  15
                  15
                  15
                  15
                  15
                  15
                  15
                  15
                  15
                  15
                  15
                  15
                  15
                  15
                  15
                  15
                  15
                  15
                  15
                  15
                  15
                  15
                  15
                  15
                  15
                  15
                  15
                  15
                  15
                  15
                  15
                  15
                  15
                  15
                  15
                  15
                  15
                  15
                  15
                  15
                  15
                  15
                  15
                  15
                  15
                  15
                  15
                  15
                  15
                  15
                  15
                  15
                  15
                  15
                  15
                  15
                  15
                  15
                  15
                  15
                  15
                  15
                  15
                  15
                  15
                  15
                  15
                  15
                  15
                  15
                  15
                  15
                  15
                  15
                  15
                  15
                  15
                  15
                  15
                  15
                  15
                  15
                  15
                  15
                  15
                  15
                  15
                  15
                  15
                  15
                  15
                  15
                  15
                  15
                  15
                  15
                  15
                  15
                  15
                  15
                  15
                  15
                  15
                  15
                  15
                  15
                  15
                  15
                  15
                  15
                  15
                  15
                  15
                  15
                  15
                  15
                  15
                  15
                  15
                  15
                  15
                  15
                  15
                  15
                  15
                  15
                  15
                  15
                  15
                  15
                  15
                  15
                  15
                  15
                  15
                  15
                  15
                  15
                  15
                  15
                  15
                  15
                  15
                  15
                  15
                  15
                  15
                  15
                  15
                  15
                  15
                  15
                  15
                  15
                  15
                  15
                  15
                  15
                  15
                  15
                  15
                  15
                  15
                  15
                  15
                  15
                  15
                  15
                  15
                  15
                  15
                  15
                  15
                  15
                  15
                  15
                  15
                  15
                  15
                  15
                  15
                  15
                  15
                  15
                  15
                  15
                  15
                  15
                  16
                  16
                  16
                  16
                  16
                  16
                  16
                  16
                  16
                  16
                  16
                  16
                  16
                  16
                  16
                  16
                  16
                  16
                  16
                  16
                  16
                  16
                  16
                  16
                  16
                  16
                  16
                  16
                  16
                  16
                  16
                  16
                  16
                  16
                  16
                  16
                  16
                  16
                  16
                  16
                  16
                  16
                  16
                  16
                  16
                  16
                  16
                  16
                  16
                  16
                  16
                  16
                  16
                  16
                  16
                  16
                  16
                  16
                  16
                  16
                  16
                  16
                  16
                  16
                  16
                  16
                  16
                  16
                  16
                  16
                  16
                  16
                  16
                  16
                  16
                  16
                  16
                  16
                  16
                  16
                  16
                  16
                  16
                  16
                  16
                  16
                  16
                  16
                  16
                  16
                  16
                  16
                  16
                  16
                  16
                  16
                  16
                  16
                  16
                  16
                  16
                  16
                  16
                  16
                  16
                  16
                  16
                  16
                  16
                  16
                  16
                  16
                  16
                  16
                  16
                  16
                  16
                  16
                  16
                  16
                  16
                  16
                  16
                  16
                  16
                  16
                  16
                  16
                  16
                  16
                  16
                  16
                  16
                  16
                  16
                  16
                  16
                  16
                  16
                  16
                  16
                  16
                  16
                  16
                  16
                  16
                  16
                  16
                  16
                  16
                  16
                  16
                  16
                  16
                  16
                  16
                  16
                  16
                  16
                  16
                  16
                  16
                  16
                  16
                  16
                  16
                  16
                  16
                  16
                  16
                  16
                  16
                  16
                  16
                  16
                  16
                  16
                  16
                  16
                  16
                  16
                  16
                  16
                  16
                  16
                  16
                  16
                  16
                  16
                  16
                  16
                  16
                  16
                  16
                  16
                  16
                  16
                  16
                  16
                  16
                  16
                  16
                  16
                  16
                  16
                  16
                  16
                  16
                  16
                  16
                  16
                  16
                  16
                  16
                  16
                  16
                  16
                  16
                  16
                  16
                  16
                  16
                  16
                  16
                  16
                  16
                  16
                  16
                  16
                  16
                  16
                  16
                  16
                  16
                  17
                  17
                  17
                  17
                  17
                  17
                  17
                  17
                  17
                  17
                  17
                  17
                  17
                  17
                  17
                  17
                  17
                  17
                  17
                  17
                  17
                  17
                  17
                  17
                  17
                  17
                  17
                  17
                  17
                  17
                  17
                  17
                  17
                  17
                  17
                  17
                  17
                  17
                  17
                  17
                  17
                  17
                  17
                  17
                  17
                  17
                  17
                  17
                  17
                  17
                  17
                  17
                  17
                  17
                  17
                  17
                  17
                  17
                  17
                  17
                  17
                  17
                  17
                  17
                  17
                  17
                  17
                  17
                  17
                  17
                  17
                  17
                  17
                  17
                  17
                  17
                  17
                  17
                  17
                  17
                  17
                  17
                  17
                  17
                  17
                  17
                  17
                  17
                  17
                  17
                  17
                  17
                  17
                  17
                  17
                  17
                  17
                  17
                  17
                  17
                  17
                  17
                  17
                  17
                  17
                  17
                  17
                  17
                  17
                  17
                  17
                  17
                  17
                  17
                  17
                  17
                  17
                  17
                  17
                  17
                  17
                  17
                  17
                  17
                  17
                  17
                  17
                  17
                  17
                  17
                  17
                  17
                  17
                  17
                  17
                  17
                  17
                  17
                  17
                  17
                  17
                  17
                  17
                  17
                  17
                  17
                  17
                  17
                  17
                  17
                  17
                  17
                  17
                  17
                  17
                  17
                  17
                  17
                  17
                  17
                  17
                  17
                  17
                  17
                  17
                  17
                  17
                  17
                  17
                  17
                  17
                  17
                  17
                  17
                  17
                  17
                  17
                  17
                  17
                  17
                  17
                  17
                  17
                  17
                  17
                  17
                  17
                  17
                  17
                  17
                  17
                  17
                  17
                  17
                  17
                  17
                  17
                  17
                  17
                  17
                  17
                  17
                  17
                  17
                  17
                  17
                  17
                  17
                  17
                  17
                  17
                  17
                  17
                  17
                  17
                  17
                  17
                  17
                  17
                  17
                  17
                  17
                  17
                  17
                  17
                  17
                  17
                  17
                  17
                  17
                  17
                  17
                  17
                  17
                  18
                  18
                  18
                  18
                  18
                  18
                  18
                  18
                  18
                  18
                  18
                  18
                  18
                  18
                  18
                  18
                  18
                  18
                  18
                  18
                  18
                  18
                  18
                  18
                  18
                  18
                  18
                  18
                  18
                  18
                  18
                  18
                  18
                  18
                  18
                  18
                  18
                  18
                  18
                  18
                  18
                  18
                  18
                  18
                  18
                  18
                  18
                  18
                  18
                  18
                  18
                  18
                  18
                  18
                  18
                  18
                  18
                  18
                  18
                  18
                  18
                  18
                  18
                  18
                  18
                  18
                  18
                  18
                  18
                  18
                  18
                  18
                  18
                  18
                  18
                  18
                  18
                  18
                  18
                  18
                  18
                  18
                  18
                  18
                  18
                  18
                  18
                  18
                  18
                  18
                  18
                  18
                  18
                  18
                  18
                  18
                  18
                  18
                  18
                  18
                  18
                  18
                  18
                  18
                  18
                  18
                  18
                  18
                  18
                  18
                  18
                  18
                  18
                  18
                  18
                  18
                  18
                  18
                  18
                  18
                  18
                  18
                  18
                  18
                  18
                  18
                  18
                  18
                  18
                  18
                  18
                  18
                  18
                  18
                  18
                  18
                  18
                  18
                  18
                  18
                  18
                  18
                  18
                  18
                  18
                  18
                  18
                  18
                  18
                  18
                  18
                  18
                  18
                  18
                  18
                  18
  
SCALARS                 displacement_x  double 1
LOOKUP_TABLE default
         0.00000E+00
         0.00000E+00
         0.00000E+00
         0.00000E+00
         0.00000E+00
         0.00000E+00
         0.00000E+00
         0.00000E+00
         0.00000E+00
         0.00000E+00
         0.00000E+00
         0.00000E+00
         0.00000E+00
         0.00000E+00
         0.00000E+00
         0.00000E+00
         0.00000E+00
         0.00000E+00
         0.00000E+00
         0.00000E+00
         0.00000E+00
         0.00000E+00
         0.00000E+00
         0.00000E+00
         0.00000E+00
         0.00000E+00
         0.00000E+00
         0.00000E+00
         0.00000E+00
         0.00000E+00
         0.00000E+00
         0.00000E+00
         0.00000E+00
         0.00000E+00
         0.00000E+00
         0.00000E+00
         0.00000E+00
         0.00000E+00
         0.00000E+00
         0.00000E+00
         0.00000E+00
         0.00000E+00
         0.00000E+00
         0.00000E+00
         0.00000E+00
         0.00000E+00
         0.00000E+00
         0.00000E+00
         0.00000E+00
         0.00000E+00
         0.00000E+00
         0.00000E+00
         0.00000E+00
         0.00000E+00
         0.00000E+00
         0.00000E+00
         0.00000E+00
         0.00000E+00
         0.00000E+00
         0.00000E+00
         0.00000E+00
         0.00000E+00
         0.00000E+00
         0.00000E+00
         0.00000E+00
         0.00000E+00
         0.00000E+00
         0.00000E+00
         0.00000E+00
         0.00000E+00
         0.00000E+00
         0.00000E+00
         0.00000E+00
         0.00000E+00
         0.00000E+00
         0.00000E+00
         0.00000E+00
         0.00000E+00
         0.00000E+00
         0.00000E+00
         0.00000E+00
         0.00000E+00
         0.00000E+00
         0.00000E+00
         0.00000E+00
         0.00000E+00
         0.00000E+00
         0.00000E+00
         0.00000E+00
         0.00000E+00
         0.00000E+00
         0.00000E+00
         0.00000E+00
         0.00000E+00
         0.00000E+00
         0.00000E+00
         0.00000E+00
         0.00000E+00
         0.00000E+00
         0.00000E+00
         0.00000E+00
         0.00000E+00
         0.00000E+00
         0.00000E+00
         0.00000E+00
         0.00000E+00
         0.00000E+00
         0.00000E+00
         0.00000E+00
         0.00000E+00
         0.00000E+00
         0.00000E+00
         0.00000E+00
         0.00000E+00
         0.00000E+00
         0.00000E+00
         0.00000E+00
         0.00000E+00
         0.00000E+00
         0.00000E+00
         0.00000E+00
         0.00000E+00
         0.00000E+00
         0.00000E+00
         0.00000E+00
         0.00000E+00
         0.00000E+00
         0.00000E+00
         0.00000E+00
         0.00000E+00
         0.00000E+00
         0.00000E+00
         0.00000E+00
         0.00000E+00
         0.00000E+00
         0.00000E+00
         0.00000E+00
         0.00000E+00
         0.00000E+00
         0.00000E+00
         0.00000E+00
         0.00000E+00
         0.00000E+00
         0.00000E+00
         0.00000E+00
         0.00000E+00
         0.00000E+00
         0.00000E+00
         0.00000E+00
         0.00000E+00
         0.00000E+00
         0.00000E+00
         0.00000E+00
         0.00000E+00
         0.00000E+00
         0.00000E+00
         0.00000E+00
         0.00000E+00
         0.00000E+00
         0.00000E+00
         0.00000E+00
         0.00000E+00
         0.00000E+00
         0.00000E+00
         0.00000E+00
         0.00000E+00
         0.00000E+00
         0.00000E+00
         0.00000E+00
         0.00000E+00
         0.00000E+00
         0.00000E+00
         0.00000E+00
         0.00000E+00
         0.00000E+00
         0.00000E+00
         0.00000E+00
         0.00000E+00
         0.00000E+00
         0.00000E+00
         0.00000E+00
         0.00000E+00
         0.00000E+00
         0.00000E+00
         0.00000E+00
         0.00000E+00
         0.00000E+00
         0.00000E+00
         0.00000E+00
         0.00000E+00
         0.00000E+00
         0.00000E+00
         0.00000E+00
         0.00000E+00
         0.00000E+00
         0.00000E+00
         0.00000E+00
         0.00000E+00
         0.00000E+00
         0.00000E+00
         0.00000E+00
         0.00000E+00
         0.00000E+00
         0.00000E+00
         0.00000E+00
         0.00000E+00
         0.00000E+00
         0.00000E+00
         0.00000E+00
         0.00000E+00
         0.00000E+00
         0.00000E+00
         0.00000E+00
         0.00000E+00
         0.00000E+00
         0.00000E+00
         0.00000E+00
         0.00000E+00
         0.00000E+00
         0.00000E+00
         0.00000E+00
         0.00000E+00
         0.00000E+00
         0.00000E+00
         0.00000E+00
         0.00000E+00
         0.00000E+00
         0.00000E+00
         0.00000E+00
         0.00000E+00
         0.00000E+00
         0.00000E+00
         0.00000E+00
         0.00000E+00
         0.00000E+00
         0.00000E+00
         0.00000E+00
         0.00000E+00
         0.00000E+00
         0.00000E+00
         0.00000E+00
         0.00000E+00
         0.00000E+00
         0.00000E+00
         0.00000E+00
         0.00000E+00
         0.00000E+00
         0.00000E+00
         0.00000E+00
         0.00000E+00
         0.00000E+00
         0.00000E+00
         0.00000E+00
         0.00000E+00
         0.00000E+00
         0.00000E+00
         0.00000E+00
         0.00000E+00
         0.00000E+00
         0.00000E+00
         0.00000E+00
         0.00000E+00
         0.00000E+00
         0.00000E+00
         0.00000E+00
         0.00000E+00
         0.00000E+00
         0.00000E+00
         0.00000E+00
         0.00000E+00
         0.00000E+00
         0.00000E+00
         0.00000E+00
         0.00000E+00
         0.00000E+00
         0.00000E+00
         0.00000E+00
         0.00000E+00
         0.00000E+00
         0.00000E+00
         0.00000E+00
         0.00000E+00
         0.00000E+00
         0.00000E+00
         0.00000E+00
         0.00000E+00
         0.00000E+00
         0.00000E+00
         0.00000E+00
         0.00000E+00
         0.00000E+00
         0.00000E+00
         0.00000E+00
         0.00000E+00
         0.00000E+00
         0.00000E+00
         0.00000E+00
         0.00000E+00
         0.00000E+00
         0.00000E+00
         0.00000E+00
         0.00000E+00
         0.00000E+00
         0.00000E+00
         0.00000E+00
         0.00000E+00
         0.00000E+00
         0.00000E+00
         0.00000E+00
         0.00000E+00
         0.00000E+00
         0.00000E+00
         0.00000E+00
         0.00000E+00
         0.00000E+00
         0.00000E+00
         0.00000E+00
         0.00000E+00
         0.00000E+00
         0.00000E+00
         0.00000E+00
         0.00000E+00
         0.00000E+00
         0.00000E+00
         0.00000E+00
         0.00000E+00
         0.00000E+00
         0.00000E+00
         0.00000E+00
         0.00000E+00
         0.00000E+00
         0.00000E+00
         0.00000E+00
         0.00000E+00
         0.00000E+00
         0.00000E+00
         0.00000E+00
         0.00000E+00
         0.00000E+00
         0.00000E+00
         0.00000E+00
         0.00000E+00
         0.00000E+00
         0.00000E+00
         0.00000E+00
         0.00000E+00
         0.00000E+00
         0.00000E+00
         0.00000E+00
         0.00000E+00
         0.00000E+00
         0.00000E+00
         0.00000E+00
         0.00000E+00
         0.00000E+00
         0.00000E+00
         0.00000E+00
         0.00000E+00
         0.00000E+00
         0.00000E+00
         0.00000E+00
         0.00000E+00
         0.00000E+00
         0.00000E+00
         0.00000E+00
         0.00000E+00
         0.00000E+00
         0.00000E+00
         0.00000E+00
         0.00000E+00
         0.00000E+00
         0.00000E+00
         0.00000E+00
         0.00000E+00
         0.00000E+00
         0.00000E+00
         0.00000E+00
         0.00000E+00
         0.00000E+00
         0.00000E+00
         0.00000E+00
         0.00000E+00
         0.00000E+00
         0.00000E+00
         0.00000E+00
         0.00000E+00
         0.00000E+00
         0.00000E+00
         0.00000E+00
         0.00000E+00
         0.00000E+00
         0.00000E+00
         0.00000E+00
         0.00000E+00
         0.00000E+00
         0.00000E+00
         0.00000E+00
         0.00000E+00
         0.00000E+00
         0.00000E+00
         0.00000E+00
         0.00000E+00
         0.00000E+00
         0.00000E+00
         0.00000E+00
         0.00000E+00
         0.00000E+00
         0.00000E+00
         0.00000E+00
         0.00000E+00
         0.00000E+00
         0.00000E+00
         0.00000E+00
         0.00000E+00
         0.00000E+00
         0.00000E+00
         0.00000E+00
         0.00000E+00
         0.00000E+00
         0.00000E+00
         0.00000E+00
         0.00000E+00
         0.00000E+00
         0.00000E+00
         0.00000E+00
         0.00000E+00
         0.00000E+00
         0.00000E+00
         0.00000E+00
         0.00000E+00
         0.00000E+00
         0.00000E+00
         0.00000E+00
         0.00000E+00
         0.00000E+00
         0.00000E+00
         0.00000E+00
         0.00000E+00
         0.00000E+00
         0.00000E+00
         0.00000E+00
         0.00000E+00
         0.00000E+00
         0.00000E+00
         0.00000E+00
         0.00000E+00
         0.00000E+00
         0.00000E+00
         0.00000E+00
         0.00000E+00
         0.00000E+00
         0.00000E+00
         0.00000E+00
         0.00000E+00
         0.00000E+00
         0.00000E+00
         0.00000E+00
         0.00000E+00
         0.00000E+00
         0.00000E+00
         0.00000E+00
         0.00000E+00
         0.00000E+00
         0.00000E+00
         0.00000E+00
         0.00000E+00
         0.00000E+00
         0.00000E+00
         0.00000E+00
         0.00000E+00
         0.00000E+00
         0.00000E+00
         0.00000E+00
         0.00000E+00
         0.00000E+00
         0.00000E+00
         0.00000E+00
         0.00000E+00
         0.00000E+00
         0.00000E+00
         0.00000E+00
         0.00000E+00
         0.00000E+00
         0.00000E+00
         0.00000E+00
         0.00000E+00
         0.00000E+00
         0.00000E+00
         0.00000E+00
         0.00000E+00
         0.00000E+00
         0.00000E+00
         0.00000E+00
         0.00000E+00
         0.00000E+00
         0.00000E+00
         0.00000E+00
         0.00000E+00
         0.00000E+00
         0.00000E+00
         0.00000E+00
         0.00000E+00
         0.00000E+00
         0.00000E+00
         0.00000E+00
         0.00000E+00
         0.00000E+00
         0.00000E+00
         0.00000E+00
         0.00000E+00
         0.00000E+00
         0.00000E+00
         0.00000E+00
         0.00000E+00
         0.00000E+00
         0.00000E+00
         0.00000E+00
         0.00000E+00
         0.00000E+00
         0.00000E+00
         0.00000E+00
         0.00000E+00
         0.00000E+00
         0.00000E+00
         0.00000E+00
         0.00000E+00
         0.00000E+00
         0.00000E+00
         0.00000E+00
         0.00000E+00
         0.00000E+00
         0.00000E+00
         0.00000E+00
         0.00000E+00
         0.00000E+00
         0.00000E+00
         0.00000E+00
         0.00000E+00
         0.00000E+00
         0.00000E+00
         0.00000E+00
         0.00000E+00
         0.00000E+00
         0.00000E+00
         0.00000E+00
         0.00000E+00
         0.00000E+00
         0.00000E+00
         0.00000E+00
         0.00000E+00
         0.00000E+00
         0.00000E+00
         0.00000E+00
         0.00000E+00
         0.00000E+00
         0.00000E+00
         0.00000E+00
         0.00000E+00
         0.00000E+00
         0.00000E+00
         0.00000E+00
         0.00000E+00
         0.00000E+00
         0.00000E+00
         0.00000E+00
         0.00000E+00
         0.00000E+00
         0.00000E+00
         0.00000E+00
         0.00000E+00
         0.00000E+00
         0.00000E+00
         0.00000E+00
         0.00000E+00
         0.00000E+00
         0.00000E+00
         0.00000E+00
         0.00000E+00
         0.00000E+00
         0.00000E+00
         0.00000E+00
         0.00000E+00
         0.00000E+00
         0.00000E+00
         0.00000E+00
         0.00000E+00
         0.00000E+00
         0.00000E+00
         0.00000E+00
         0.00000E+00
         0.00000E+00
         0.00000E+00
         0.00000E+00
         0.00000E+00
         0.00000E+00
         0.00000E+00
         0.00000E+00
         0.00000E+00
         0.00000E+00
         0.00000E+00
         0.00000E+00
         0.00000E+00
         0.00000E+00
         0.00000E+00
         0.00000E+00
         0.00000E+00
         0.00000E+00
         0.00000E+00
         0.00000E+00
         0.00000E+00
         0.00000E+00
         0.00000E+00
         0.00000E+00
         0.00000E+00
         0.00000E+00
         0.00000E+00
         0.00000E+00
         0.00000E+00
         0.00000E+00
         0.00000E+00
         0.00000E+00
         0.00000E+00
         0.00000E+00
         0.00000E+00
         0.00000E+00
         0.00000E+00
         0.00000E+00
         0.00000E+00
         0.00000E+00
         0.00000E+00
         0.00000E+00
         0.00000E+00
         0.00000E+00
         0.00000E+00
         0.00000E+00
         0.00000E+00
         0.00000E+00
         0.00000E+00
         0.00000E+00
         0.00000E+00
         0.00000E+00
         0.00000E+00
         0.00000E+00
         0.00000E+00
         0.00000E+00
         0.00000E+00
         0.00000E+00
         0.00000E+00
         0.00000E+00
         0.00000E+00
         0.00000E+00
         0.00000E+00
         0.00000E+00
         0.00000E+00
         0.00000E+00
         0.00000E+00
         0.00000E+00
         0.00000E+00
         0.00000E+00
         0.00000E+00
         0.00000E+00
         0.00000E+00
         0.00000E+00
         0.00000E+00
         0.00000E+00
         0.00000E+00
         0.00000E+00
         0.00000E+00
         0.00000E+00
         0.00000E+00
         0.00000E+00
         0.00000E+00
         0.00000E+00
         0.00000E+00
         0.00000E+00
         0.00000E+00
         0.00000E+00
         0.00000E+00
         0.00000E+00
         0.00000E+00
         0.00000E+00
         0.00000E+00
         0.00000E+00
         0.00000E+00
         0.00000E+00
         0.00000E+00
         0.00000E+00
         0.00000E+00
         0.00000E+00
         0.00000E+00
         0.00000E+00
         0.00000E+00
         0.00000E+00
         0.00000E+00
         0.00000E+00
         0.00000E+00
         0.00000E+00
         0.00000E+00
         0.00000E+00
         0.00000E+00
         0.00000E+00
         0.00000E+00
         0.00000E+00
         0.00000E+00
         0.00000E+00
         0.00000E+00
         0.00000E+00
         0.00000E+00
         0.00000E+00
         0.00000E+00
         0.00000E+00
         0.00000E+00
         0.00000E+00
         0.00000E+00
         0.00000E+00
         0.00000E+00
         0.00000E+00
         0.00000E+00
         0.00000E+00
         0.00000E+00
         0.00000E+00
         0.00000E+00
         0.00000E+00
         0.00000E+00
         0.00000E+00
         0.00000E+00
         0.00000E+00
         0.00000E+00
         0.00000E+00
         0.00000E+00
         0.00000E+00
         0.00000E+00
         0.00000E+00
         0.00000E+00
         0.00000E+00
         0.00000E+00
         0.00000E+00
         0.00000E+00
         0.00000E+00
         0.00000E+00
         0.00000E+00
         0.00000E+00
         0.00000E+00
         0.00000E+00
         0.00000E+00
         0.00000E+00
         0.00000E+00
         0.00000E+00
         0.00000E+00
         0.00000E+00
         0.00000E+00
         0.00000E+00
         0.00000E+00
         0.00000E+00
         0.00000E+00
         0.00000E+00
         0.00000E+00
         0.00000E+00
         0.00000E+00
         0.00000E+00
         0.00000E+00
         0.00000E+00
         0.00000E+00
         0.00000E+00
         0.00000E+00
         0.00000E+00
         0.00000E+00
         0.00000E+00
         0.00000E+00
         0.00000E+00
         0.00000E+00
         0.00000E+00
         0.00000E+00
         0.00000E+00
         0.00000E+00
         0.00000E+00
         0.00000E+00
         0.00000E+00
         0.00000E+00
         0.00000E+00
         0.00000E+00
         0.00000E+00
         0.00000E+00
         0.00000E+00
         0.00000E+00
         0.00000E+00
         0.00000E+00
         0.00000E+00
         0.00000E+00
         0.00000E+00
         0.00000E+00
         0.00000E+00
         0.00000E+00
         0.00000E+00
         0.00000E+00
         0.00000E+00
         0.00000E+00
         0.00000E+00
         0.00000E+00
         0.00000E+00
         0.00000E+00
         0.00000E+00
         0.00000E+00
         0.00000E+00
         0.00000E+00
         0.00000E+00
         0.00000E+00
         0.00000E+00
         0.00000E+00
         0.00000E+00
         0.00000E+00
         0.00000E+00
         0.00000E+00
         0.00000E+00
         0.00000E+00
         0.00000E+00
         0.00000E+00
         0.00000E+00
         0.00000E+00
         0.00000E+00
         0.00000E+00
         0.00000E+00
         0.00000E+00
         0.00000E+00
         0.00000E+00
         0.00000E+00
         0.00000E+00
         0.00000E+00
         0.00000E+00
         0.00000E+00
         0.00000E+00
         0.00000E+00
         0.00000E+00
         0.00000E+00
         0.00000E+00
         0.00000E+00
         0.00000E+00
         0.00000E+00
         0.00000E+00
         0.00000E+00
         0.00000E+00
         0.00000E+00
         0.00000E+00
         0.00000E+00
         0.00000E+00
         0.00000E+00
         0.00000E+00
         0.00000E+00
         0.00000E+00
         0.00000E+00
         0.00000E+00
         0.00000E+00
         0.00000E+00
         0.00000E+00
         0.00000E+00
         0.00000E+00
         0.00000E+00
         0.00000E+00
         0.00000E+00
         0.00000E+00
         0.00000E+00
         0.00000E+00
         0.00000E+00
         0.00000E+00
         0.00000E+00
         0.00000E+00
         0.00000E+00
         0.00000E+00
         0.00000E+00
         0.00000E+00
         0.00000E+00
         0.00000E+00
         0.00000E+00
         0.00000E+00
         0.00000E+00
         0.00000E+00
         0.00000E+00
         0.00000E+00
         0.00000E+00
         0.00000E+00
         0.00000E+00
         0.00000E+00
         0.00000E+00
         0.00000E+00
         0.00000E+00
         0.00000E+00
         0.00000E+00
         0.00000E+00
         0.00000E+00
         0.00000E+00
         0.00000E+00
         0.00000E+00
         0.00000E+00
         0.00000E+00
         0.00000E+00
         0.00000E+00
         0.00000E+00
         0.00000E+00
         0.00000E+00
         0.00000E+00
         0.00000E+00
         0.00000E+00
         0.00000E+00
         0.00000E+00
         0.00000E+00
         0.00000E+00
         0.00000E+00
         0.00000E+00
         0.00000E+00
         0.00000E+00
         0.00000E+00
         0.00000E+00
         0.00000E+00
         0.00000E+00
         0.00000E+00
         0.00000E+00
         0.00000E+00
         0.00000E+00
         0.00000E+00
         0.00000E+00
         0.00000E+00
         0.00000E+00
         0.00000E+00
         0.00000E+00
         0.00000E+00
         0.00000E+00
         0.00000E+00
         0.00000E+00
         0.00000E+00
         0.00000E+00
         0.00000E+00
         0.00000E+00
         0.00000E+00
         0.00000E+00
         0.00000E+00
         0.00000E+00
         0.00000E+00
         0.00000E+00
         0.00000E+00
         0.00000E+00
         0.00000E+00
         0.00000E+00
         0.00000E+00
         0.00000E+00
         0.00000E+00
         0.00000E+00
         0.00000E+00
         0.00000E+00
         0.00000E+00
         0.00000E+00
         0.00000E+00
         0.00000E+00
         0.00000E+00
         0.00000E+00
         0.00000E+00
         0.00000E+00
         0.00000E+00
         0.00000E+00
         0.00000E+00
         0.00000E+00
         0.00000E+00
         0.00000E+00
         0.00000E+00
         0.00000E+00
         0.00000E+00
         0.00000E+00
         0.00000E+00
         0.00000E+00
         0.00000E+00
         0.00000E+00
         0.00000E+00
         0.00000E+00
         0.00000E+00
         0.00000E+00
         0.00000E+00
         0.00000E+00
         0.00000E+00
         0.00000E+00
         0.00000E+00
         0.00000E+00
         0.00000E+00
         0.00000E+00
         0.00000E+00
         0.00000E+00
         0.00000E+00
         0.00000E+00
         0.00000E+00
         0.00000E+00
         0.00000E+00
         0.00000E+00
         0.00000E+00
         0.00000E+00
         0.00000E+00
         0.00000E+00
         0.00000E+00
         0.00000E+00
         0.00000E+00
         0.00000E+00
         0.00000E+00
         0.00000E+00
         0.00000E+00
         0.00000E+00
         0.00000E+00
         0.00000E+00
         0.00000E+00
         0.00000E+00
         0.00000E+00
         0.00000E+00
         0.00000E+00
         0.00000E+00
         0.00000E+00
         0.00000E+00
         0.00000E+00
         0.00000E+00
         0.00000E+00
         0.00000E+00
         0.00000E+00
         0.00000E+00
         0.00000E+00
         0.00000E+00
         0.00000E+00
         0.00000E+00
         0.00000E+00
         0.00000E+00
         0.00000E+00
         0.00000E+00
         0.00000E+00
         0.00000E+00
         0.00000E+00
         0.00000E+00
         0.00000E+00
         0.00000E+00
         0.00000E+00
         0.00000E+00
         0.00000E+00
         0.00000E+00
         0.00000E+00
         0.00000E+00
         0.00000E+00
         0.00000E+00
         0.00000E+00
         0.00000E+00
         0.00000E+00
         0.00000E+00
         0.00000E+00
         0.00000E+00
         0.00000E+00
         0.00000E+00
         0.00000E+00
         0.00000E+00
         0.00000E+00
         0.00000E+00
         0.00000E+00
         0.00000E+00
         0.00000E+00
         0.00000E+00
         0.00000E+00
         0.00000E+00
         0.00000E+00
         0.00000E+00
         0.00000E+00
         0.00000E+00
         0.00000E+00
         0.00000E+00
         0.00000E+00
         0.00000E+00
         0.00000E+00
         0.00000E+00
         0.00000E+00
         0.00000E+00
         0.00000E+00
         0.00000E+00
         0.00000E+00
         0.00000E+00
         0.00000E+00
         0.00000E+00
         0.00000E+00
         0.00000E+00
         0.00000E+00
         0.00000E+00
         0.00000E+00
         0.00000E+00
         0.00000E+00
         0.00000E+00
         0.00000E+00
         0.00000E+00
         0.00000E+00
         0.00000E+00
         0.00000E+00
         0.00000E+00
         0.00000E+00
         0.00000E+00
         0.00000E+00
         0.00000E+00
         0.00000E+00
         0.00000E+00
         0.00000E+00
         0.00000E+00
         0.00000E+00
         0.00000E+00
         0.00000E+00
         0.00000E+00
         0.00000E+00
         0.00000E+00
         0.00000E+00
         0.00000E+00
         0.00000E+00
         0.00000E+00
         0.00000E+00
         0.00000E+00
         0.00000E+00
         0.00000E+00
         0.00000E+00
         0.00000E+00
         0.00000E+00
         0.00000E+00
         0.00000E+00
         0.00000E+00
         0.00000E+00
         0.00000E+00
         0.00000E+00
         0.00000E+00
         0.00000E+00
         0.00000E+00
         0.00000E+00
         0.00000E+00
         0.00000E+00
         0.00000E+00
         0.00000E+00
         0.00000E+00
         0.00000E+00
         0.00000E+00
         0.00000E+00
         0.00000E+00
         0.00000E+00
         0.00000E+00
         0.00000E+00
         0.00000E+00
         0.00000E+00
         0.00000E+00
         0.00000E+00
         0.00000E+00
         0.00000E+00
         0.00000E+00
         0.00000E+00
         0.00000E+00
         0.00000E+00
         0.00000E+00
         0.00000E+00
         0.00000E+00
         0.00000E+00
         0.00000E+00
         0.00000E+00
         0.00000E+00
         0.00000E+00
         0.00000E+00
         0.00000E+00
         0.00000E+00
         0.00000E+00
         0.00000E+00
         0.00000E+00
         0.00000E+00
         0.00000E+00
         0.00000E+00
         0.00000E+00
         0.00000E+00
         0.00000E+00
         0.00000E+00
         0.00000E+00
         0.00000E+00
         0.00000E+00
         0.00000E+00
         0.00000E+00
         0.00000E+00
         0.00000E+00
         0.00000E+00
         0.00000E+00
         0.00000E+00
         0.00000E+00
         0.00000E+00
         0.00000E+00
         0.00000E+00
         0.00000E+00
         0.00000E+00
         0.00000E+00
         0.00000E+00
         0.00000E+00
         0.00000E+00
         0.00000E+00
         0.00000E+00
         0.00000E+00
         0.00000E+00
         0.00000E+00
         0.00000E+00
         0.00000E+00
         0.00000E+00
         0.00000E+00
         0.00000E+00
         0.00000E+00
         0.00000E+00
         0.00000E+00
         0.00000E+00
         0.00000E+00
         0.00000E+00
         0.00000E+00
         0.00000E+00
         0.00000E+00
         0.00000E+00
         0.00000E+00
         0.00000E+00
         0.00000E+00
         0.00000E+00
         0.00000E+00
         0.00000E+00
         0.00000E+00
         0.00000E+00
         0.00000E+00
         0.00000E+00
         0.00000E+00
         0.00000E+00
         0.00000E+00
         0.00000E+00
         0.00000E+00
         0.00000E+00
         0.00000E+00
         0.00000E+00
         0.00000E+00
         0.00000E+00
         0.00000E+00
         0.00000E+00
         0.00000E+00
         0.00000E+00
         0.00000E+00
         0.00000E+00
         0.00000E+00
         0.00000E+00
         0.00000E+00
         0.00000E+00
         0.00000E+00
         0.00000E+00
         0.00000E+00
         0.00000E+00
         0.00000E+00
         0.00000E+00
         0.00000E+00
         0.00000E+00
         0.00000E+00
         0.00000E+00
         0.00000E+00
         0.00000E+00
         0.00000E+00
         0.00000E+00
         0.00000E+00
         0.00000E+00
         0.00000E+00
         0.00000E+00
         0.00000E+00
         0.00000E+00
         0.00000E+00
         0.00000E+00
         0.00000E+00
         0.00000E+00
         0.00000E+00
         0.00000E+00
         0.00000E+00
         0.00000E+00
         0.00000E+00
         0.00000E+00
         0.00000E+00
         0.00000E+00
         0.00000E+00
         0.00000E+00
         0.00000E+00
         0.00000E+00
         0.00000E+00
         0.00000E+00
         0.00000E+00
         0.00000E+00
         0.00000E+00
         0.00000E+00
         0.00000E+00
         0.00000E+00
         0.00000E+00
         0.00000E+00
         0.00000E+00
         0.00000E+00
         0.00000E+00
         0.00000E+00
         0.00000E+00
         0.00000E+00
         0.00000E+00
         0.00000E+00
         0.00000E+00
         0.00000E+00
         0.00000E+00
         0.00000E+00
         0.00000E+00
         0.00000E+00
         0.00000E+00
         0.00000E+00
         0.00000E+00
         0.00000E+00
         0.00000E+00
         0.00000E+00
         0.00000E+00
         0.00000E+00
         0.00000E+00
         0.00000E+00
         0.00000E+00
         0.00000E+00
         0.00000E+00
         0.00000E+00
         0.00000E+00
         0.00000E+00
         0.00000E+00
         0.00000E+00
         0.00000E+00
         0.00000E+00
         0.00000E+00
         0.00000E+00
         0.00000E+00
         0.00000E+00
         0.00000E+00
         0.00000E+00
         0.00000E+00
         0.00000E+00
         0.00000E+00
         0.00000E+00
         0.00000E+00
         0.00000E+00
         0.00000E+00
         0.00000E+00
         0.00000E+00
         0.00000E+00
         0.00000E+00
         0.00000E+00
         0.00000E+00
         0.00000E+00
         0.00000E+00
         0.00000E+00
         0.00000E+00
         0.00000E+00
         0.00000E+00
         0.00000E+00
         0.00000E+00
         0.00000E+00
         0.00000E+00
         0.00000E+00
         0.00000E+00
         0.00000E+00
         0.00000E+00
         0.00000E+00
         0.00000E+00
         0.00000E+00
         0.00000E+00
         0.00000E+00
         0.00000E+00
         0.00000E+00
         0.00000E+00
         0.00000E+00
         0.00000E+00
         0.00000E+00
         0.00000E+00
         0.00000E+00
         0.00000E+00
         0.00000E+00
         0.00000E+00
         0.00000E+00
         0.00000E+00
         0.00000E+00
         0.00000E+00
         0.00000E+00
         0.00000E+00
         0.00000E+00
         0.00000E+00
         0.00000E+00
         0.00000E+00
         0.00000E+00
         0.00000E+00
         0.00000E+00
         0.00000E+00
         0.00000E+00
         0.00000E+00
         0.00000E+00
         0.00000E+00
         0.00000E+00
         0.00000E+00
         0.00000E+00
         0.00000E+00
         0.00000E+00
         0.00000E+00
         0.00000E+00
         0.00000E+00
         0.00000E+00
         0.00000E+00
         0.00000E+00
         0.00000E+00
         0.00000E+00
         0.00000E+00
         0.00000E+00
         0.00000E+00
         0.00000E+00
         0.00000E+00
         0.00000E+00
         0.00000E+00
         0.00000E+00
         0.00000E+00
         0.00000E+00
         0.00000E+00
         0.00000E+00
         0.00000E+00
         0.00000E+00
         0.00000E+00
         0.00000E+00
         0.00000E+00
         0.00000E+00
         0.00000E+00
         0.00000E+00
         0.00000E+00
         0.00000E+00
         0.00000E+00
         0.00000E+00
         0.00000E+00
         0.00000E+00
         0.00000E+00
         0.00000E+00
         0.00000E+00
         0.00000E+00
         0.00000E+00
         0.00000E+00
         0.00000E+00
         0.00000E+00
         0.00000E+00
         0.00000E+00
         0.00000E+00
         0.00000E+00
         0.00000E+00
         0.00000E+00
         0.00000E+00
         0.00000E+00
         0.00000E+00
         0.00000E+00
         0.00000E+00
         0.00000E+00
         0.00000E+00
         0.00000E+00
         0.00000E+00
         0.00000E+00
         0.00000E+00
         0.00000E+00
         0.00000E+00
         0.00000E+00
         0.00000E+00
         0.00000E+00
         0.00000E+00
         0.00000E+00
         0.00000E+00
         0.00000E+00
         0.00000E+00
         0.00000E+00
         0.00000E+00
         0.00000E+00
         0.00000E+00
         0.00000E+00
         0.00000E+00
         0.00000E+00
         0.00000E+00
         0.00000E+00
         0.00000E+00
         0.00000E+00
         0.00000E+00
         0.00000E+00
         0.00000E+00
         0.00000E+00
         0.00000E+00
         0.00000E+00
         0.00000E+00
         0.00000E+00
         0.00000E+00
         0.00000E+00
         0.00000E+00
         0.00000E+00
         0.00000E+00
         0.00000E+00
         0.00000E+00
         0.00000E+00
         0.00000E+00
         0.00000E+00
         0.00000E+00
         0.00000E+00
         0.00000E+00
         0.00000E+00
         0.00000E+00
         0.00000E+00
         0.00000E+00
         0.00000E+00
         0.00000E+00
         0.00000E+00
         0.00000E+00
         0.00000E+00
         0.00000E+00
         0.00000E+00
         0.00000E+00
         0.00000E+00
         0.00000E+00
         0.00000E+00
         0.00000E+00
         0.00000E+00
         0.00000E+00
         0.00000E+00
         0.00000E+00
         0.00000E+00
         0.00000E+00
         0.00000E+00
         0.00000E+00
         0.00000E+00
         0.00000E+00
         0.00000E+00
         0.00000E+00
         0.00000E+00
         0.00000E+00
         0.00000E+00
         0.00000E+00
         0.00000E+00
         0.00000E+00
         0.00000E+00
         0.00000E+00
         0.00000E+00
         0.00000E+00
         0.00000E+00
         0.00000E+00
         0.00000E+00
         0.00000E+00
         0.00000E+00
         0.00000E+00
         0.00000E+00
         0.00000E+00
         0.00000E+00
         0.00000E+00
         0.00000E+00
         0.00000E+00
         0.00000E+00
         0.00000E+00
         0.00000E+00
         0.00000E+00
         0.00000E+00
         0.00000E+00
         0.00000E+00
         0.00000E+00
         0.00000E+00
         0.00000E+00
         0.00000E+00
         0.00000E+00
         0.00000E+00
         0.00000E+00
         0.00000E+00
         0.00000E+00
         0.00000E+00
         0.00000E+00
         0.00000E+00
         0.00000E+00
         0.00000E+00
         0.00000E+00
         0.00000E+00
         0.00000E+00
         0.00000E+00
         0.00000E+00
         0.00000E+00
         0.00000E+00
         0.00000E+00
         0.00000E+00
         0.00000E+00
         0.00000E+00
         0.00000E+00
         0.00000E+00
         0.00000E+00
         0.00000E+00
         0.00000E+00
         0.00000E+00
         0.00000E+00
         0.00000E+00
         0.00000E+00
         0.00000E+00
         0.00000E+00
         0.00000E+00
         0.00000E+00
         0.00000E+00
         0.00000E+00
         0.00000E+00
         0.00000E+00
         0.00000E+00
         0.00000E+00
         0.00000E+00
         0.00000E+00
         0.00000E+00
         0.00000E+00
         0.00000E+00
         0.00000E+00
         0.00000E+00
         0.00000E+00
         0.00000E+00
         0.00000E+00
         0.00000E+00
         0.00000E+00
         0.00000E+00
         0.00000E+00
         0.00000E+00
         0.00000E+00
         0.00000E+00
         0.00000E+00
         0.00000E+00
         0.00000E+00
         0.00000E+00
         0.00000E+00
         0.00000E+00
         0.00000E+00
         0.00000E+00
         0.00000E+00
         0.00000E+00
         0.00000E+00
         0.00000E+00
         0.00000E+00
         0.00000E+00
         0.00000E+00
         0.00000E+00
         0.00000E+00
         0.00000E+00
         0.00000E+00
         0.00000E+00
         0.00000E+00
         0.00000E+00
         0.00000E+00
         0.00000E+00
         0.00000E+00
         0.00000E+00
         0.00000E+00
         0.00000E+00
         0.00000E+00
         0.00000E+00
         0.00000E+00
         0.00000E+00
         0.00000E+00
         0.00000E+00
         0.00000E+00
         0.00000E+00
         0.00000E+00
         0.00000E+00
         0.00000E+00
         0.00000E+00
         0.00000E+00
         0.00000E+00
         0.00000E+00
         0.00000E+00
         0.00000E+00
         0.00000E+00
         0.00000E+00
         0.00000E+00
         0.00000E+00
         0.00000E+00
         0.00000E+00
         0.00000E+00
         0.00000E+00
         0.00000E+00
         0.00000E+00
         0.00000E+00
         0.00000E+00
         0.00000E+00
         0.00000E+00
         0.00000E+00
         0.00000E+00
         0.00000E+00
         0.00000E+00
         0.00000E+00
         0.00000E+00
         0.00000E+00
         0.00000E+00
         0.00000E+00
         0.00000E+00
         0.00000E+00
         0.00000E+00
         0.00000E+00
         0.00000E+00
         0.00000E+00
         0.00000E+00
         0.00000E+00
         0.00000E+00
         0.00000E+00
         0.00000E+00
         0.00000E+00
         0.00000E+00
         0.00000E+00
         0.00000E+00
         0.00000E+00
         0.00000E+00
         0.00000E+00
         0.00000E+00
         0.00000E+00
         0.00000E+00
         0.00000E+00
         0.00000E+00
         0.00000E+00
         0.00000E+00
         0.00000E+00
         0.00000E+00
         0.00000E+00
         0.00000E+00
         0.00000E+00
         0.00000E+00
         0.00000E+00
         0.00000E+00
         0.00000E+00
         0.00000E+00
         0.00000E+00
         0.00000E+00
         0.00000E+00
         0.00000E+00
         0.00000E+00
         0.00000E+00
         0.00000E+00
         0.00000E+00
         0.00000E+00
         0.00000E+00
         0.00000E+00
         0.00000E+00
         0.00000E+00
         0.00000E+00
         0.00000E+00
         0.00000E+00
         0.00000E+00
         0.00000E+00
         0.00000E+00
         0.00000E+00
         0.00000E+00
         0.00000E+00
         0.00000E+00
         0.00000E+00
         0.00000E+00
         0.00000E+00
         0.00000E+00
         0.00000E+00
         0.00000E+00
         0.00000E+00
         0.00000E+00
         0.00000E+00
         0.00000E+00
         0.00000E+00
         0.00000E+00
         0.00000E+00
         0.00000E+00
         0.00000E+00
         0.00000E+00
         0.00000E+00
         0.00000E+00
         0.00000E+00
         0.00000E+00
         0.00000E+00
         0.00000E+00
         0.00000E+00
         0.00000E+00
         0.00000E+00
         0.00000E+00
         0.00000E+00
         0.00000E+00
         0.00000E+00
         0.00000E+00
         0.00000E+00
         0.00000E+00
         0.00000E+00
         0.00000E+00
         0.00000E+00
         0.00000E+00
         0.00000E+00
         0.00000E+00
         0.00000E+00
         0.00000E+00
         0.00000E+00
         0.00000E+00
         0.00000E+00
         0.00000E+00
         0.00000E+00
         0.00000E+00
         0.00000E+00
         0.00000E+00
         0.00000E+00
         0.00000E+00
         0.00000E+00
         0.00000E+00
         0.00000E+00
         0.00000E+00
         0.00000E+00
         0.00000E+00
         0.00000E+00
         0.00000E+00
         0.00000E+00
         0.00000E+00
         0.00000E+00
         0.00000E+00
         0.00000E+00
         0.00000E+00
         0.00000E+00
         0.00000E+00
         0.00000E+00
         0.00000E+00
         0.00000E+00
         0.00000E+00
         0.00000E+00
         0.00000E+00
         0.00000E+00
         0.00000E+00
         0.00000E+00
         0.00000E+00
         0.00000E+00
         0.00000E+00
         0.00000E+00
         0.00000E+00
         0.00000E+00
         0.00000E+00
         0.00000E+00
         0.00000E+00
         0.00000E+00
         0.00000E+00
         0.00000E+00
         0.00000E+00
         0.00000E+00
         0.00000E+00
         0.00000E+00
         0.00000E+00
         0.00000E+00
         0.00000E+00
         0.00000E+00
         0.00000E+00
         0.00000E+00
         0.00000E+00
         0.00000E+00
         0.00000E+00
         0.00000E+00
         0.00000E+00
         0.00000E+00
         0.00000E+00
         0.00000E+00
         0.00000E+00
         0.00000E+00
         0.00000E+00
         0.00000E+00
         0.00000E+00
         0.00000E+00
         0.00000E+00
         0.00000E+00
         0.00000E+00
         0.00000E+00
         0.00000E+00
         0.00000E+00
         0.00000E+00
         0.00000E+00
         0.00000E+00
         0.00000E+00
         0.00000E+00
         0.00000E+00
         0.00000E+00
         0.00000E+00
         0.00000E+00
         0.00000E+00
         0.00000E+00
         0.00000E+00
         0.00000E+00
         0.00000E+00
         0.00000E+00
         0.00000E+00
         0.00000E+00
         0.00000E+00
         0.00000E+00
         0.00000E+00
         0.00000E+00
         0.00000E+00
         0.00000E+00
         0.00000E+00
         0.00000E+00
         0.00000E+00
         0.00000E+00
         0.00000E+00
         0.00000E+00
         0.00000E+00
         0.00000E+00
         0.00000E+00
         0.00000E+00
         0.00000E+00
         0.00000E+00
         0.00000E+00
         0.00000E+00
         0.00000E+00
         0.00000E+00
         0.00000E+00
         0.00000E+00
         0.00000E+00
         0.00000E+00
         0.00000E+00
         0.00000E+00
         0.00000E+00
         0.00000E+00
         0.00000E+00
         0.00000E+00
         0.00000E+00
         0.00000E+00
         0.00000E+00
         0.00000E+00
         0.00000E+00
         0.00000E+00
         0.00000E+00
         0.00000E+00
         0.00000E+00
         0.00000E+00
         0.00000E+00
         0.00000E+00
         0.00000E+00
         0.00000E+00
         0.00000E+00
         0.00000E+00
         0.00000E+00
         0.00000E+00
         0.00000E+00
         0.00000E+00
         0.00000E+00
         0.00000E+00
         0.00000E+00
         0.00000E+00
         0.00000E+00
         0.00000E+00
         0.00000E+00
         0.00000E+00
         0.00000E+00
         0.00000E+00
         0.00000E+00
         0.00000E+00
         0.00000E+00
         0.00000E+00
         0.00000E+00
         0.00000E+00
         0.00000E+00
         0.00000E+00
         0.00000E+00
         0.00000E+00
         0.00000E+00
         0.00000E+00
         0.00000E+00
         0.00000E+00
         0.00000E+00
         0.00000E+00
         0.00000E+00
         0.00000E+00
         0.00000E+00
  
SCALARS                 displacement_y  double 1
LOOKUP_TABLE default
         0.00000E+00
         0.00000E+00
         0.00000E+00
         0.00000E+00
         0.00000E+00
         0.00000E+00
         0.00000E+00
         0.00000E+00
         0.00000E+00
         0.00000E+00
         0.00000E+00
         0.00000E+00
         0.00000E+00
         0.00000E+00
         0.00000E+00
         0.00000E+00
         0.00000E+00
         0.00000E+00
         0.00000E+00
         0.00000E+00
         0.00000E+00
         0.00000E+00
         0.00000E+00
         0.00000E+00
         0.00000E+00
         0.00000E+00
         0.00000E+00
         0.00000E+00
         0.00000E+00
         0.00000E+00
         0.00000E+00
         0.00000E+00
         0.00000E+00
         0.00000E+00
         0.00000E+00
         0.00000E+00
         0.00000E+00
         0.00000E+00
         0.00000E+00
         0.00000E+00
         0.00000E+00
         0.00000E+00
         0.00000E+00
         0.00000E+00
         0.00000E+00
         0.00000E+00
         0.00000E+00
         0.00000E+00
         0.00000E+00
         0.00000E+00
         0.00000E+00
         0.00000E+00
         0.00000E+00
         0.00000E+00
         0.00000E+00
         0.00000E+00
         0.00000E+00
         0.00000E+00
         0.00000E+00
         0.00000E+00
         0.00000E+00
         0.00000E+00
         0.00000E+00
         0.00000E+00
         0.00000E+00
         0.00000E+00
         0.00000E+00
         0.00000E+00
         0.00000E+00
         0.00000E+00
         0.00000E+00
         0.00000E+00
         0.00000E+00
         0.00000E+00
         0.00000E+00
         0.00000E+00
         0.00000E+00
         0.00000E+00
         0.00000E+00
         0.00000E+00
         0.00000E+00
         0.00000E+00
         0.00000E+00
         0.00000E+00
         0.00000E+00
         0.00000E+00
         0.00000E+00
         0.00000E+00
         0.00000E+00
         0.00000E+00
         0.00000E+00
         0.00000E+00
         0.00000E+00
         0.00000E+00
         0.00000E+00
         0.00000E+00
         0.00000E+00
         0.00000E+00
         0.00000E+00
         0.00000E+00
         0.00000E+00
         0.00000E+00
         0.00000E+00
         0.00000E+00
         0.00000E+00
         0.00000E+00
         0.00000E+00
         0.00000E+00
         0.00000E+00
         0.00000E+00
         0.00000E+00
         0.00000E+00
         0.00000E+00
         0.00000E+00
         0.00000E+00
         0.00000E+00
         0.00000E+00
         0.00000E+00
         0.00000E+00
         0.00000E+00
         0.00000E+00
         0.00000E+00
         0.00000E+00
         0.00000E+00
         0.00000E+00
         0.00000E+00
         0.00000E+00
         0.00000E+00
         0.00000E+00
         0.00000E+00
         0.00000E+00
         0.00000E+00
         0.00000E+00
         0.00000E+00
         0.00000E+00
         0.00000E+00
         0.00000E+00
         0.00000E+00
         0.00000E+00
         0.00000E+00
         0.00000E+00
         0.00000E+00
         0.00000E+00
         0.00000E+00
         0.00000E+00
         0.00000E+00
         0.00000E+00
         0.00000E+00
         0.00000E+00
         0.00000E+00
         0.00000E+00
         0.00000E+00
         0.00000E+00
         0.00000E+00
         0.00000E+00
         0.00000E+00
         0.00000E+00
         0.00000E+00
         0.00000E+00
         0.00000E+00
         0.00000E+00
         0.00000E+00
         0.00000E+00
         0.00000E+00
         0.00000E+00
         0.00000E+00
         0.00000E+00
         0.00000E+00
         0.00000E+00
         0.00000E+00
         0.00000E+00
         0.00000E+00
         0.00000E+00
         0.00000E+00
         0.00000E+00
         0.00000E+00
         0.00000E+00
         0.00000E+00
         0.00000E+00
         0.00000E+00
         0.00000E+00
         0.00000E+00
         0.00000E+00
         0.00000E+00
         0.00000E+00
         0.00000E+00
         0.00000E+00
         0.00000E+00
         0.00000E+00
         0.00000E+00
         0.00000E+00
         0.00000E+00
         0.00000E+00
         0.00000E+00
         0.00000E+00
         0.00000E+00
         0.00000E+00
         0.00000E+00
         0.00000E+00
         0.00000E+00
         0.00000E+00
         0.00000E+00
         0.00000E+00
         0.00000E+00
         0.00000E+00
         0.00000E+00
         0.00000E+00
         0.00000E+00
         0.00000E+00
         0.00000E+00
         0.00000E+00
         0.00000E+00
         0.00000E+00
         0.00000E+00
         0.00000E+00
         0.00000E+00
         0.00000E+00
         0.00000E+00
         0.00000E+00
         0.00000E+00
         0.00000E+00
         0.00000E+00
         0.00000E+00
         0.00000E+00
         0.00000E+00
         0.00000E+00
         0.00000E+00
         0.00000E+00
         0.00000E+00
         0.00000E+00
         0.00000E+00
         0.00000E+00
         0.00000E+00
         0.00000E+00
         0.00000E+00
         0.00000E+00
         0.00000E+00
         0.00000E+00
         0.00000E+00
         0.00000E+00
         0.00000E+00
         0.00000E+00
         0.00000E+00
         0.00000E+00
         0.00000E+00
         0.00000E+00
         0.00000E+00
         0.00000E+00
         0.00000E+00
         0.00000E+00
         0.00000E+00
         0.00000E+00
         0.00000E+00
         0.00000E+00
         0.00000E+00
         0.00000E+00
         0.00000E+00
         0.00000E+00
         0.00000E+00
         0.00000E+00
         0.00000E+00
         0.00000E+00
         0.00000E+00
         0.00000E+00
         0.00000E+00
         0.00000E+00
         0.00000E+00
         0.00000E+00
         0.00000E+00
         0.00000E+00
         0.00000E+00
         0.00000E+00
         0.00000E+00
         0.00000E+00
         0.00000E+00
         0.00000E+00
         0.00000E+00
         0.00000E+00
         0.00000E+00
         0.00000E+00
         0.00000E+00
         0.00000E+00
         0.00000E+00
         0.00000E+00
         0.00000E+00
         0.00000E+00
         0.00000E+00
         0.00000E+00
         0.00000E+00
         0.00000E+00
         0.00000E+00
         0.00000E+00
         0.00000E+00
         0.00000E+00
         0.00000E+00
         0.00000E+00
         0.00000E+00
         0.00000E+00
         0.00000E+00
         0.00000E+00
         0.00000E+00
         0.00000E+00
         0.00000E+00
         0.00000E+00
         0.00000E+00
         0.00000E+00
         0.00000E+00
         0.00000E+00
         0.00000E+00
         0.00000E+00
         0.00000E+00
         0.00000E+00
         0.00000E+00
         0.00000E+00
         0.00000E+00
         0.00000E+00
         0.00000E+00
         0.00000E+00
         0.00000E+00
         0.00000E+00
         0.00000E+00
         0.00000E+00
         0.00000E+00
         0.00000E+00
         0.00000E+00
         0.00000E+00
         0.00000E+00
         0.00000E+00
         0.00000E+00
         0.00000E+00
         0.00000E+00
         0.00000E+00
         0.00000E+00
         0.00000E+00
         0.00000E+00
         0.00000E+00
         0.00000E+00
         0.00000E+00
         0.00000E+00
         0.00000E+00
         0.00000E+00
         0.00000E+00
         0.00000E+00
         0.00000E+00
         0.00000E+00
         0.00000E+00
         0.00000E+00
         0.00000E+00
         0.00000E+00
         0.00000E+00
         0.00000E+00
         0.00000E+00
         0.00000E+00
         0.00000E+00
         0.00000E+00
         0.00000E+00
         0.00000E+00
         0.00000E+00
         0.00000E+00
         0.00000E+00
         0.00000E+00
         0.00000E+00
         0.00000E+00
         0.00000E+00
         0.00000E+00
         0.00000E+00
         0.00000E+00
         0.00000E+00
         0.00000E+00
         0.00000E+00
         0.00000E+00
         0.00000E+00
         0.00000E+00
         0.00000E+00
         0.00000E+00
         0.00000E+00
         0.00000E+00
         0.00000E+00
         0.00000E+00
         0.00000E+00
         0.00000E+00
         0.00000E+00
         0.00000E+00
         0.00000E+00
         0.00000E+00
         0.00000E+00
         0.00000E+00
         0.00000E+00
         0.00000E+00
         0.00000E+00
         0.00000E+00
         0.00000E+00
         0.00000E+00
         0.00000E+00
         0.00000E+00
         0.00000E+00
         0.00000E+00
         0.00000E+00
         0.00000E+00
         0.00000E+00
         0.00000E+00
         0.00000E+00
         0.00000E+00
         0.00000E+00
         0.00000E+00
         0.00000E+00
         0.00000E+00
         0.00000E+00
         0.00000E+00
         0.00000E+00
         0.00000E+00
         0.00000E+00
         0.00000E+00
         0.00000E+00
         0.00000E+00
         0.00000E+00
         0.00000E+00
         0.00000E+00
         0.00000E+00
         0.00000E+00
         0.00000E+00
         0.00000E+00
         0.00000E+00
         0.00000E+00
         0.00000E+00
         0.00000E+00
         0.00000E+00
         0.00000E+00
         0.00000E+00
         0.00000E+00
         0.00000E+00
         0.00000E+00
         0.00000E+00
         0.00000E+00
         0.00000E+00
         0.00000E+00
         0.00000E+00
         0.00000E+00
         0.00000E+00
         0.00000E+00
         0.00000E+00
         0.00000E+00
         0.00000E+00
         0.00000E+00
         0.00000E+00
         0.00000E+00
         0.00000E+00
         0.00000E+00
         0.00000E+00
         0.00000E+00
         0.00000E+00
         0.00000E+00
         0.00000E+00
         0.00000E+00
         0.00000E+00
         0.00000E+00
         0.00000E+00
         0.00000E+00
         0.00000E+00
         0.00000E+00
         0.00000E+00
         0.00000E+00
         0.00000E+00
         0.00000E+00
         0.00000E+00
         0.00000E+00
         0.00000E+00
         0.00000E+00
         0.00000E+00
         0.00000E+00
         0.00000E+00
         0.00000E+00
         0.00000E+00
         0.00000E+00
         0.00000E+00
         0.00000E+00
         0.00000E+00
         0.00000E+00
         0.00000E+00
         0.00000E+00
         0.00000E+00
         0.00000E+00
         0.00000E+00
         0.00000E+00
         0.00000E+00
         0.00000E+00
         0.00000E+00
         0.00000E+00
         0.00000E+00
         0.00000E+00
         0.00000E+00
         0.00000E+00
         0.00000E+00
         0.00000E+00
         0.00000E+00
         0.00000E+00
         0.00000E+00
         0.00000E+00
         0.00000E+00
         0.00000E+00
         0.00000E+00
         0.00000E+00
         0.00000E+00
         0.00000E+00
         0.00000E+00
         0.00000E+00
         0.00000E+00
         0.00000E+00
         0.00000E+00
         0.00000E+00
         0.00000E+00
         0.00000E+00
         0.00000E+00
         0.00000E+00
         0.00000E+00
         0.00000E+00
         0.00000E+00
         0.00000E+00
         0.00000E+00
         0.00000E+00
         0.00000E+00
         0.00000E+00
         0.00000E+00
         0.00000E+00
         0.00000E+00
         0.00000E+00
         0.00000E+00
         0.00000E+00
         0.00000E+00
         0.00000E+00
         0.00000E+00
         0.00000E+00
         0.00000E+00
         0.00000E+00
         0.00000E+00
         0.00000E+00
         0.00000E+00
         0.00000E+00
         0.00000E+00
         0.00000E+00
         0.00000E+00
         0.00000E+00
         0.00000E+00
         0.00000E+00
         0.00000E+00
         0.00000E+00
         0.00000E+00
         0.00000E+00
         0.00000E+00
         0.00000E+00
         0.00000E+00
         0.00000E+00
         0.00000E+00
         0.00000E+00
         0.00000E+00
         0.00000E+00
         0.00000E+00
         0.00000E+00
         0.00000E+00
         0.00000E+00
         0.00000E+00
         0.00000E+00
         0.00000E+00
         0.00000E+00
         0.00000E+00
         0.00000E+00
         0.00000E+00
         0.00000E+00
         0.00000E+00
         0.00000E+00
         0.00000E+00
         0.00000E+00
         0.00000E+00
         0.00000E+00
         0.00000E+00
         0.00000E+00
         0.00000E+00
         0.00000E+00
         0.00000E+00
         0.00000E+00
         0.00000E+00
         0.00000E+00
         0.00000E+00
         0.00000E+00
         0.00000E+00
         0.00000E+00
         0.00000E+00
         0.00000E+00
         0.00000E+00
         0.00000E+00
         0.00000E+00
         0.00000E+00
         0.00000E+00
         0.00000E+00
         0.00000E+00
         0.00000E+00
         0.00000E+00
         0.00000E+00
         0.00000E+00
         0.00000E+00
         0.00000E+00
         0.00000E+00
         0.00000E+00
         0.00000E+00
         0.00000E+00
         0.00000E+00
         0.00000E+00
         0.00000E+00
         0.00000E+00
         0.00000E+00
         0.00000E+00
         0.00000E+00
         0.00000E+00
         0.00000E+00
         0.00000E+00
         0.00000E+00
         0.00000E+00
         0.00000E+00
         0.00000E+00
         0.00000E+00
         0.00000E+00
         0.00000E+00
         0.00000E+00
         0.00000E+00
         0.00000E+00
         0.00000E+00
         0.00000E+00
         0.00000E+00
         0.00000E+00
         0.00000E+00
         0.00000E+00
         0.00000E+00
         0.00000E+00
         0.00000E+00
         0.00000E+00
         0.00000E+00
         0.00000E+00
         0.00000E+00
         0.00000E+00
         0.00000E+00
         0.00000E+00
         0.00000E+00
         0.00000E+00
         0.00000E+00
         0.00000E+00
         0.00000E+00
         0.00000E+00
         0.00000E+00
         0.00000E+00
         0.00000E+00
         0.00000E+00
         0.00000E+00
         0.00000E+00
         0.00000E+00
         0.00000E+00
         0.00000E+00
         0.00000E+00
         0.00000E+00
         0.00000E+00
         0.00000E+00
         0.00000E+00
         0.00000E+00
         0.00000E+00
         0.00000E+00
         0.00000E+00
         0.00000E+00
         0.00000E+00
         0.00000E+00
         0.00000E+00
         0.00000E+00
         0.00000E+00
         0.00000E+00
         0.00000E+00
         0.00000E+00
         0.00000E+00
         0.00000E+00
         0.00000E+00
         0.00000E+00
         0.00000E+00
         0.00000E+00
         0.00000E+00
         0.00000E+00
         0.00000E+00
         0.00000E+00
         0.00000E+00
         0.00000E+00
         0.00000E+00
         0.00000E+00
         0.00000E+00
         0.00000E+00
         0.00000E+00
         0.00000E+00
         0.00000E+00
         0.00000E+00
         0.00000E+00
         0.00000E+00
         0.00000E+00
         0.00000E+00
         0.00000E+00
         0.00000E+00
         0.00000E+00
         0.00000E+00
         0.00000E+00
         0.00000E+00
         0.00000E+00
         0.00000E+00
         0.00000E+00
         0.00000E+00
         0.00000E+00
         0.00000E+00
         0.00000E+00
         0.00000E+00
         0.00000E+00
         0.00000E+00
         0.00000E+00
         0.00000E+00
         0.00000E+00
         0.00000E+00
         0.00000E+00
         0.00000E+00
         0.00000E+00
         0.00000E+00
         0.00000E+00
         0.00000E+00
         0.00000E+00
         0.00000E+00
         0.00000E+00
         0.00000E+00
         0.00000E+00
         0.00000E+00
         0.00000E+00
         0.00000E+00
         0.00000E+00
         0.00000E+00
         0.00000E+00
         0.00000E+00
         0.00000E+00
         0.00000E+00
         0.00000E+00
         0.00000E+00
         0.00000E+00
         0.00000E+00
         0.00000E+00
         0.00000E+00
         0.00000E+00
         0.00000E+00
         0.00000E+00
         0.00000E+00
         0.00000E+00
         0.00000E+00
         0.00000E+00
         0.00000E+00
         0.00000E+00
         0.00000E+00
         0.00000E+00
         0.00000E+00
         0.00000E+00
         0.00000E+00
         0.00000E+00
         0.00000E+00
         0.00000E+00
         0.00000E+00
         0.00000E+00
         0.00000E+00
         0.00000E+00
         0.00000E+00
         0.00000E+00
         0.00000E+00
         0.00000E+00
         0.00000E+00
         0.00000E+00
         0.00000E+00
         0.00000E+00
         0.00000E+00
         0.00000E+00
         0.00000E+00
         0.00000E+00
         0.00000E+00
         0.00000E+00
         0.00000E+00
         0.00000E+00
         0.00000E+00
         0.00000E+00
         0.00000E+00
         0.00000E+00
         0.00000E+00
         0.00000E+00
         0.00000E+00
         0.00000E+00
         0.00000E+00
         0.00000E+00
         0.00000E+00
         0.00000E+00
         0.00000E+00
         0.00000E+00
         0.00000E+00
         0.00000E+00
         0.00000E+00
         0.00000E+00
         0.00000E+00
         0.00000E+00
         0.00000E+00
         0.00000E+00
         0.00000E+00
         0.00000E+00
         0.00000E+00
         0.00000E+00
         0.00000E+00
         0.00000E+00
         0.00000E+00
         0.00000E+00
         0.00000E+00
         0.00000E+00
         0.00000E+00
         0.00000E+00
         0.00000E+00
         0.00000E+00
         0.00000E+00
         0.00000E+00
         0.00000E+00
         0.00000E+00
         0.00000E+00
         0.00000E+00
         0.00000E+00
         0.00000E+00
         0.00000E+00
         0.00000E+00
         0.00000E+00
         0.00000E+00
         0.00000E+00
         0.00000E+00
         0.00000E+00
         0.00000E+00
         0.00000E+00
         0.00000E+00
         0.00000E+00
         0.00000E+00
         0.00000E+00
         0.00000E+00
         0.00000E+00
         0.00000E+00
         0.00000E+00
         0.00000E+00
         0.00000E+00
         0.00000E+00
         0.00000E+00
         0.00000E+00
         0.00000E+00
         0.00000E+00
         0.00000E+00
         0.00000E+00
         0.00000E+00
         0.00000E+00
         0.00000E+00
         0.00000E+00
         0.00000E+00
         0.00000E+00
         0.00000E+00
         0.00000E+00
         0.00000E+00
         0.00000E+00
         0.00000E+00
         0.00000E+00
         0.00000E+00
         0.00000E+00
         0.00000E+00
         0.00000E+00
         0.00000E+00
         0.00000E+00
         0.00000E+00
         0.00000E+00
         0.00000E+00
         0.00000E+00
         0.00000E+00
         0.00000E+00
         0.00000E+00
         0.00000E+00
         0.00000E+00
         0.00000E+00
         0.00000E+00
         0.00000E+00
         0.00000E+00
         0.00000E+00
         0.00000E+00
         0.00000E+00
         0.00000E+00
         0.00000E+00
         0.00000E+00
         0.00000E+00
         0.00000E+00
         0.00000E+00
         0.00000E+00
         0.00000E+00
         0.00000E+00
         0.00000E+00
         0.00000E+00
         0.00000E+00
         0.00000E+00
         0.00000E+00
         0.00000E+00
         0.00000E+00
         0.00000E+00
         0.00000E+00
         0.00000E+00
         0.00000E+00
         0.00000E+00
         0.00000E+00
         0.00000E+00
         0.00000E+00
         0.00000E+00
         0.00000E+00
         0.00000E+00
         0.00000E+00
         0.00000E+00
         0.00000E+00
         0.00000E+00
         0.00000E+00
         0.00000E+00
         0.00000E+00
         0.00000E+00
         0.00000E+00
         0.00000E+00
         0.00000E+00
         0.00000E+00
         0.00000E+00
         0.00000E+00
         0.00000E+00
         0.00000E+00
         0.00000E+00
         0.00000E+00
         0.00000E+00
         0.00000E+00
         0.00000E+00
         0.00000E+00
         0.00000E+00
         0.00000E+00
         0.00000E+00
         0.00000E+00
         0.00000E+00
         0.00000E+00
         0.00000E+00
         0.00000E+00
         0.00000E+00
         0.00000E+00
         0.00000E+00
         0.00000E+00
         0.00000E+00
         0.00000E+00
         0.00000E+00
         0.00000E+00
         0.00000E+00
         0.00000E+00
         0.00000E+00
         0.00000E+00
         0.00000E+00
         0.00000E+00
         0.00000E+00
         0.00000E+00
         0.00000E+00
         0.00000E+00
         0.00000E+00
         0.00000E+00
         0.00000E+00
         0.00000E+00
         0.00000E+00
         0.00000E+00
         0.00000E+00
         0.00000E+00
         0.00000E+00
         0.00000E+00
         0.00000E+00
         0.00000E+00
         0.00000E+00
         0.00000E+00
         0.00000E+00
         0.00000E+00
         0.00000E+00
         0.00000E+00
         0.00000E+00
         0.00000E+00
         0.00000E+00
         0.00000E+00
         0.00000E+00
         0.00000E+00
         0.00000E+00
         0.00000E+00
         0.00000E+00
         0.00000E+00
         0.00000E+00
         0.00000E+00
         0.00000E+00
         0.00000E+00
         0.00000E+00
         0.00000E+00
         0.00000E+00
         0.00000E+00
         0.00000E+00
         0.00000E+00
         0.00000E+00
         0.00000E+00
         0.00000E+00
         0.00000E+00
         0.00000E+00
         0.00000E+00
         0.00000E+00
         0.00000E+00
         0.00000E+00
         0.00000E+00
         0.00000E+00
         0.00000E+00
         0.00000E+00
         0.00000E+00
         0.00000E+00
         0.00000E+00
         0.00000E+00
         0.00000E+00
         0.00000E+00
         0.00000E+00
         0.00000E+00
         0.00000E+00
         0.00000E+00
         0.00000E+00
         0.00000E+00
         0.00000E+00
         0.00000E+00
         0.00000E+00
         0.00000E+00
         0.00000E+00
         0.00000E+00
         0.00000E+00
         0.00000E+00
         0.00000E+00
         0.00000E+00
         0.00000E+00
         0.00000E+00
         0.00000E+00
         0.00000E+00
         0.00000E+00
         0.00000E+00
         0.00000E+00
         0.00000E+00
         0.00000E+00
         0.00000E+00
         0.00000E+00
         0.00000E+00
         0.00000E+00
         0.00000E+00
         0.00000E+00
         0.00000E+00
         0.00000E+00
         0.00000E+00
         0.00000E+00
         0.00000E+00
         0.00000E+00
         0.00000E+00
         0.00000E+00
         0.00000E+00
         0.00000E+00
         0.00000E+00
         0.00000E+00
         0.00000E+00
         0.00000E+00
         0.00000E+00
         0.00000E+00
         0.00000E+00
         0.00000E+00
         0.00000E+00
         0.00000E+00
         0.00000E+00
         0.00000E+00
         0.00000E+00
         0.00000E+00
         0.00000E+00
         0.00000E+00
         0.00000E+00
         0.00000E+00
         0.00000E+00
         0.00000E+00
         0.00000E+00
         0.00000E+00
         0.00000E+00
         0.00000E+00
         0.00000E+00
         0.00000E+00
         0.00000E+00
         0.00000E+00
         0.00000E+00
         0.00000E+00
         0.00000E+00
         0.00000E+00
         0.00000E+00
         0.00000E+00
         0.00000E+00
         0.00000E+00
         0.00000E+00
         0.00000E+00
         0.00000E+00
         0.00000E+00
         0.00000E+00
         0.00000E+00
         0.00000E+00
         0.00000E+00
         0.00000E+00
         0.00000E+00
         0.00000E+00
         0.00000E+00
         0.00000E+00
         0.00000E+00
         0.00000E+00
         0.00000E+00
         0.00000E+00
         0.00000E+00
         0.00000E+00
         0.00000E+00
         0.00000E+00
         0.00000E+00
         0.00000E+00
         0.00000E+00
         0.00000E+00
         0.00000E+00
         0.00000E+00
         0.00000E+00
         0.00000E+00
         0.00000E+00
         0.00000E+00
         0.00000E+00
         0.00000E+00
         0.00000E+00
         0.00000E+00
         0.00000E+00
         0.00000E+00
         0.00000E+00
         0.00000E+00
         0.00000E+00
         0.00000E+00
         0.00000E+00
         0.00000E+00
         0.00000E+00
         0.00000E+00
         0.00000E+00
         0.00000E+00
         0.00000E+00
         0.00000E+00
         0.00000E+00
         0.00000E+00
         0.00000E+00
         0.00000E+00
         0.00000E+00
         0.00000E+00
         0.00000E+00
         0.00000E+00
         0.00000E+00
         0.00000E+00
         0.00000E+00
         0.00000E+00
         0.00000E+00
         0.00000E+00
         0.00000E+00
         0.00000E+00
         0.00000E+00
         0.00000E+00
         0.00000E+00
         0.00000E+00
         0.00000E+00
         0.00000E+00
         0.00000E+00
         0.00000E+00
         0.00000E+00
         0.00000E+00
         0.00000E+00
         0.00000E+00
         0.00000E+00
         0.00000E+00
         0.00000E+00
         0.00000E+00
         0.00000E+00
         0.00000E+00
         0.00000E+00
         0.00000E+00
         0.00000E+00
         0.00000E+00
         0.00000E+00
         0.00000E+00
         0.00000E+00
         0.00000E+00
         0.00000E+00
         0.00000E+00
         0.00000E+00
         0.00000E+00
         0.00000E+00
         0.00000E+00
         0.00000E+00
         0.00000E+00
         0.00000E+00
         0.00000E+00
         0.00000E+00
         0.00000E+00
         0.00000E+00
         0.00000E+00
         0.00000E+00
         0.00000E+00
         0.00000E+00
         0.00000E+00
         0.00000E+00
         0.00000E+00
         0.00000E+00
         0.00000E+00
         0.00000E+00
         0.00000E+00
         0.00000E+00
         0.00000E+00
         0.00000E+00
         0.00000E+00
         0.00000E+00
         0.00000E+00
         0.00000E+00
         0.00000E+00
         0.00000E+00
         0.00000E+00
         0.00000E+00
         0.00000E+00
         0.00000E+00
         0.00000E+00
         0.00000E+00
         0.00000E+00
         0.00000E+00
         0.00000E+00
         0.00000E+00
         0.00000E+00
         0.00000E+00
         0.00000E+00
         0.00000E+00
         0.00000E+00
         0.00000E+00
         0.00000E+00
         0.00000E+00
         0.00000E+00
         0.00000E+00
         0.00000E+00
         0.00000E+00
         0.00000E+00
         0.00000E+00
         0.00000E+00
         0.00000E+00
         0.00000E+00
         0.00000E+00
         0.00000E+00
         0.00000E+00
         0.00000E+00
         0.00000E+00
         0.00000E+00
         0.00000E+00
         0.00000E+00
         0.00000E+00
         0.00000E+00
         0.00000E+00
         0.00000E+00
         0.00000E+00
         0.00000E+00
         0.00000E+00
         0.00000E+00
         0.00000E+00
         0.00000E+00
         0.00000E+00
         0.00000E+00
         0.00000E+00
         0.00000E+00
         0.00000E+00
         0.00000E+00
         0.00000E+00
         0.00000E+00
         0.00000E+00
         0.00000E+00
         0.00000E+00
         0.00000E+00
         0.00000E+00
         0.00000E+00
         0.00000E+00
         0.00000E+00
         0.00000E+00
         0.00000E+00
         0.00000E+00
         0.00000E+00
         0.00000E+00
         0.00000E+00
         0.00000E+00
         0.00000E+00
         0.00000E+00
         0.00000E+00
         0.00000E+00
         0.00000E+00
         0.00000E+00
         0.00000E+00
         0.00000E+00
         0.00000E+00
         0.00000E+00
         0.00000E+00
         0.00000E+00
         0.00000E+00
         0.00000E+00
         0.00000E+00
         0.00000E+00
         0.00000E+00
         0.00000E+00
         0.00000E+00
         0.00000E+00
         0.00000E+00
         0.00000E+00
         0.00000E+00
         0.00000E+00
         0.00000E+00
         0.00000E+00
         0.00000E+00
         0.00000E+00
         0.00000E+00
         0.00000E+00
         0.00000E+00
         0.00000E+00
         0.00000E+00
         0.00000E+00
         0.00000E+00
         0.00000E+00
         0.00000E+00
         0.00000E+00
         0.00000E+00
         0.00000E+00
         0.00000E+00
         0.00000E+00
         0.00000E+00
         0.00000E+00
         0.00000E+00
         0.00000E+00
         0.00000E+00
         0.00000E+00
         0.00000E+00
         0.00000E+00
         0.00000E+00
         0.00000E+00
         0.00000E+00
         0.00000E+00
         0.00000E+00
         0.00000E+00
         0.00000E+00
         0.00000E+00
         0.00000E+00
         0.00000E+00
         0.00000E+00
         0.00000E+00
         0.00000E+00
         0.00000E+00
         0.00000E+00
         0.00000E+00
         0.00000E+00
         0.00000E+00
         0.00000E+00
         0.00000E+00
         0.00000E+00
         0.00000E+00
         0.00000E+00
         0.00000E+00
         0.00000E+00
         0.00000E+00
         0.00000E+00
         0.00000E+00
         0.00000E+00
         0.00000E+00
         0.00000E+00
         0.00000E+00
         0.00000E+00
         0.00000E+00
         0.00000E+00
         0.00000E+00
         0.00000E+00
         0.00000E+00
         0.00000E+00
         0.00000E+00
         0.00000E+00
         0.00000E+00
         0.00000E+00
         0.00000E+00
         0.00000E+00
         0.00000E+00
         0.00000E+00
         0.00000E+00
         0.00000E+00
         0.00000E+00
         0.00000E+00
         0.00000E+00
         0.00000E+00
         0.00000E+00
         0.00000E+00
         0.00000E+00
         0.00000E+00
         0.00000E+00
         0.00000E+00
         0.00000E+00
         0.00000E+00
         0.00000E+00
         0.00000E+00
         0.00000E+00
         0.00000E+00
         0.00000E+00
         0.00000E+00
         0.00000E+00
         0.00000E+00
         0.00000E+00
         0.00000E+00
         0.00000E+00
         0.00000E+00
         0.00000E+00
         0.00000E+00
         0.00000E+00
         0.00000E+00
         0.00000E+00
         0.00000E+00
         0.00000E+00
         0.00000E+00
         0.00000E+00
         0.00000E+00
         0.00000E+00
         0.00000E+00
         0.00000E+00
         0.00000E+00
         0.00000E+00
         0.00000E+00
         0.00000E+00
         0.00000E+00
         0.00000E+00
         0.00000E+00
         0.00000E+00
         0.00000E+00
         0.00000E+00
         0.00000E+00
         0.00000E+00
         0.00000E+00
         0.00000E+00
         0.00000E+00
         0.00000E+00
         0.00000E+00
         0.00000E+00
         0.00000E+00
         0.00000E+00
         0.00000E+00
         0.00000E+00
         0.00000E+00
         0.00000E+00
         0.00000E+00
         0.00000E+00
         0.00000E+00
         0.00000E+00
         0.00000E+00
         0.00000E+00
         0.00000E+00
         0.00000E+00
         0.00000E+00
         0.00000E+00
         0.00000E+00
         0.00000E+00
         0.00000E+00
         0.00000E+00
         0.00000E+00
         0.00000E+00
         0.00000E+00
         0.00000E+00
         0.00000E+00
         0.00000E+00
         0.00000E+00
         0.00000E+00
         0.00000E+00
         0.00000E+00
         0.00000E+00
         0.00000E+00
         0.00000E+00
         0.00000E+00
         0.00000E+00
         0.00000E+00
         0.00000E+00
         0.00000E+00
         0.00000E+00
         0.00000E+00
         0.00000E+00
         0.00000E+00
         0.00000E+00
         0.00000E+00
         0.00000E+00
         0.00000E+00
         0.00000E+00
         0.00000E+00
         0.00000E+00
         0.00000E+00
         0.00000E+00
         0.00000E+00
         0.00000E+00
         0.00000E+00
         0.00000E+00
         0.00000E+00
         0.00000E+00
         0.00000E+00
         0.00000E+00
         0.00000E+00
         0.00000E+00
         0.00000E+00
         0.00000E+00
         0.00000E+00
         0.00000E+00
         0.00000E+00
         0.00000E+00
         0.00000E+00
         0.00000E+00
         0.00000E+00
         0.00000E+00
         0.00000E+00
         0.00000E+00
         0.00000E+00
         0.00000E+00
         0.00000E+00
         0.00000E+00
         0.00000E+00
         0.00000E+00
         0.00000E+00
         0.00000E+00
         0.00000E+00
         0.00000E+00
         0.00000E+00
         0.00000E+00
         0.00000E+00
         0.00000E+00
         0.00000E+00
         0.00000E+00
         0.00000E+00
         0.00000E+00
         0.00000E+00
         0.00000E+00
         0.00000E+00
         0.00000E+00
         0.00000E+00
         0.00000E+00
         0.00000E+00
         0.00000E+00
         0.00000E+00
         0.00000E+00
         0.00000E+00
         0.00000E+00
         0.00000E+00
         0.00000E+00
         0.00000E+00
         0.00000E+00
         0.00000E+00
         0.00000E+00
         0.00000E+00
         0.00000E+00
         0.00000E+00
         0.00000E+00
         0.00000E+00
         0.00000E+00
         0.00000E+00
         0.00000E+00
         0.00000E+00
         0.00000E+00
         0.00000E+00
         0.00000E+00
         0.00000E+00
         0.00000E+00
         0.00000E+00
         0.00000E+00
         0.00000E+00
         0.00000E+00
         0.00000E+00
         0.00000E+00
         0.00000E+00
         0.00000E+00
         0.00000E+00
         0.00000E+00
         0.00000E+00
         0.00000E+00
         0.00000E+00
         0.00000E+00
         0.00000E+00
         0.00000E+00
         0.00000E+00
         0.00000E+00
         0.00000E+00
         0.00000E+00
         0.00000E+00
         0.00000E+00
         0.00000E+00
         0.00000E+00
         0.00000E+00
         0.00000E+00
         0.00000E+00
         0.00000E+00
         0.00000E+00
         0.00000E+00
         0.00000E+00
         0.00000E+00
         0.00000E+00
         0.00000E+00
         0.00000E+00
         0.00000E+00
         0.00000E+00
         0.00000E+00
         0.00000E+00
         0.00000E+00
         0.00000E+00
         0.00000E+00
         0.00000E+00
         0.00000E+00
         0.00000E+00
         0.00000E+00
         0.00000E+00
         0.00000E+00
         0.00000E+00
         0.00000E+00
         0.00000E+00
         0.00000E+00
         0.00000E+00
         0.00000E+00
         0.00000E+00
         0.00000E+00
         0.00000E+00
         0.00000E+00
         0.00000E+00
         0.00000E+00
         0.00000E+00
         0.00000E+00
         0.00000E+00
         0.00000E+00
         0.00000E+00
         0.00000E+00
         0.00000E+00
         0.00000E+00
         0.00000E+00
         0.00000E+00
         0.00000E+00
         0.00000E+00
         0.00000E+00
         0.00000E+00
         0.00000E+00
         0.00000E+00
         0.00000E+00
         0.00000E+00
         0.00000E+00
         0.00000E+00
         0.00000E+00
         0.00000E+00
         0.00000E+00
         0.00000E+00
         0.00000E+00
         0.00000E+00
         0.00000E+00
         0.00000E+00
         0.00000E+00
         0.00000E+00
         0.00000E+00
         0.00000E+00
         0.00000E+00
         0.00000E+00
         0.00000E+00
         0.00000E+00
         0.00000E+00
         0.00000E+00
         0.00000E+00
         0.00000E+00
         0.00000E+00
         0.00000E+00
         0.00000E+00
         0.00000E+00
         0.00000E+00
         0.00000E+00
         0.00000E+00
         0.00000E+00
         0.00000E+00
         0.00000E+00
         0.00000E+00
         0.00000E+00
         0.00000E+00
         0.00000E+00
         0.00000E+00
         0.00000E+00
         0.00000E+00
         0.00000E+00
         0.00000E+00
         0.00000E+00
         0.00000E+00
         0.00000E+00
         0.00000E+00
         0.00000E+00
         0.00000E+00
         0.00000E+00
         0.00000E+00
         0.00000E+00
         0.00000E+00
         0.00000E+00
         0.00000E+00
         0.00000E+00
         0.00000E+00
         0.00000E+00
         0.00000E+00
         0.00000E+00
         0.00000E+00
         0.00000E+00
         0.00000E+00
         0.00000E+00
         0.00000E+00
         0.00000E+00
         0.00000E+00
         0.00000E+00
         0.00000E+00
         0.00000E+00
         0.00000E+00
         0.00000E+00
         0.00000E+00
         0.00000E+00
         0.00000E+00
         0.00000E+00
         0.00000E+00
         0.00000E+00
         0.00000E+00
         0.00000E+00
         0.00000E+00
         0.00000E+00
         0.00000E+00
         0.00000E+00
         0.00000E+00
         0.00000E+00
         0.00000E+00
         0.00000E+00
         0.00000E+00
         0.00000E+00
         0.00000E+00
         0.00000E+00
         0.00000E+00
         0.00000E+00
         0.00000E+00
         0.00000E+00
         0.00000E+00
         0.00000E+00
         0.00000E+00
         0.00000E+00
         0.00000E+00
         0.00000E+00
         0.00000E+00
         0.00000E+00
         0.00000E+00
         0.00000E+00
         0.00000E+00
         0.00000E+00
         0.00000E+00
         0.00000E+00
         0.00000E+00
         0.00000E+00
         0.00000E+00
         0.00000E+00
         0.00000E+00
         0.00000E+00
         0.00000E+00
         0.00000E+00
         0.00000E+00
         0.00000E+00
         0.00000E+00
         0.00000E+00
         0.00000E+00
         0.00000E+00
         0.00000E+00
         0.00000E+00
         0.00000E+00
         0.00000E+00
         0.00000E+00
         0.00000E+00
         0.00000E+00
         0.00000E+00
         0.00000E+00
         0.00000E+00
         0.00000E+00
         0.00000E+00
         0.00000E+00
         0.00000E+00
         0.00000E+00
         0.00000E+00
         0.00000E+00
         0.00000E+00
         0.00000E+00
         0.00000E+00
         0.00000E+00
         0.00000E+00
         0.00000E+00
         0.00000E+00
         0.00000E+00
         0.00000E+00
         0.00000E+00
         0.00000E+00
         0.00000E+00
         0.00000E+00
         0.00000E+00
         0.00000E+00
         0.00000E+00
         0.00000E+00
         0.00000E+00
         0.00000E+00
         0.00000E+00
         0.00000E+00
         0.00000E+00
         0.00000E+00
         0.00000E+00
         0.00000E+00
         0.00000E+00
         0.00000E+00
         0.00000E+00
         0.00000E+00
         0.00000E+00
         0.00000E+00
         0.00000E+00
         0.00000E+00
         0.00000E+00
         0.00000E+00
         0.00000E+00
         0.00000E+00
         0.00000E+00
         0.00000E+00
         0.00000E+00
         0.00000E+00
         0.00000E+00
         0.00000E+00
         0.00000E+00
         0.00000E+00
         0.00000E+00
         0.00000E+00
         0.00000E+00
         0.00000E+00
         0.00000E+00
         0.00000E+00
         0.00000E+00
         0.00000E+00
         0.00000E+00
         0.00000E+00
         0.00000E+00
         0.00000E+00
         0.00000E+00
         0.00000E+00
         0.00000E+00
         0.00000E+00
         0.00000E+00
         0.00000E+00
         0.00000E+00
         0.00000E+00
         0.00000E+00
         0.00000E+00
         0.00000E+00
         0.00000E+00
         0.00000E+00
         0.00000E+00
         0.00000E+00
         0.00000E+00
         0.00000E+00
         0.00000E+00
         0.00000E+00
         0.00000E+00
         0.00000E+00
         0.00000E+00
         0.00000E+00
         0.00000E+00
         0.00000E+00
         0.00000E+00
         0.00000E+00
         0.00000E+00
         0.00000E+00
         0.00000E+00
         0.00000E+00
         0.00000E+00
         0.00000E+00
         0.00000E+00
         0.00000E+00
         0.00000E+00
         0.00000E+00
         0.00000E+00
         0.00000E+00
         0.00000E+00
         0.00000E+00
         0.00000E+00
         0.00000E+00
         0.00000E+00
         0.00000E+00
         0.00000E+00
         0.00000E+00
         0.00000E+00
         0.00000E+00
         0.00000E+00
         0.00000E+00
         0.00000E+00
         0.00000E+00
         0.00000E+00
         0.00000E+00
         0.00000E+00
         0.00000E+00
         0.00000E+00
         0.00000E+00
         0.00000E+00
         0.00000E+00
         0.00000E+00
         0.00000E+00
         0.00000E+00
         0.00000E+00
         0.00000E+00
         0.00000E+00
         0.00000E+00
         0.00000E+00
         0.00000E+00
         0.00000E+00
         0.00000E+00
         0.00000E+00
         0.00000E+00
         0.00000E+00
         0.00000E+00
         0.00000E+00
         0.00000E+00
         0.00000E+00
         0.00000E+00
         0.00000E+00
         0.00000E+00
         0.00000E+00
         0.00000E+00
         0.00000E+00
         0.00000E+00
         0.00000E+00
         0.00000E+00
         0.00000E+00
         0.00000E+00
         0.00000E+00
         0.00000E+00
         0.00000E+00
         0.00000E+00
         0.00000E+00
         0.00000E+00
         0.00000E+00
         0.00000E+00
         0.00000E+00
         0.00000E+00
         0.00000E+00
         0.00000E+00
         0.00000E+00
         0.00000E+00
         0.00000E+00
         0.00000E+00
         0.00000E+00
         0.00000E+00
         0.00000E+00
         0.00000E+00
         0.00000E+00
         0.00000E+00
         0.00000E+00
  
SCALARS                 displacement_z  double 1
LOOKUP_TABLE default
        -0.26130E-02
        -0.26088E-02
        -0.26082E-02
        -0.26159E-02
        -0.16057E-16
        -0.18006E-16
        -0.17241E-16
        -0.15663E-16
        -0.26004E-02
        -0.26096E-02
        -0.16192E-16
        -0.15670E-16
        -0.26043E-02
        -0.26102E-02
        -0.19239E-16
        -0.18089E-16
        -0.26133E-02
        -0.26145E-02
        -0.14216E-16
        -0.15767E-16
        -0.26012E-02
        -0.25976E-02
        -0.25993E-02
        -0.19067E-16
        -0.16652E-16
        -0.17195E-16
        -0.26084E-02
        -0.26061E-02
        -0.18292E-16
        -0.15427E-16
        -0.26166E-02
        -0.26187E-02
        -0.26152E-02
        -0.15611E-16
        -0.14513E-16
        -0.14110E-16
        -0.26083E-02
        -0.26168E-02
        -0.16515E-16
        -0.15070E-16
        -0.26059E-02
        -0.26130E-02
        -0.14274E-16
        -0.12636E-16
        -0.25993E-02
        -0.26027E-02
        -0.15642E-16
        -0.17478E-16
        -0.26193E-02
        -0.15281E-16
        -0.26073E-02
        -0.17956E-16
        -0.26161E-02
        -0.16136E-16
        -0.26187E-02
        -0.15478E-16
        -0.26116E-02
        -0.26172E-02
        -0.15771E-16
        -0.15359E-16
        -0.26147E-02
        -0.26072E-02
        -0.15815E-16
        -0.17878E-16
        -0.26143E-02
        -0.15260E-16
        -0.26112E-02
        -0.16655E-16
        -0.25888E-02
        -0.25978E-02
        -0.16031E-16
        -0.16798E-16
        -0.26012E-02
        -0.16939E-16
        -0.26109E-02
        -0.13383E-16
        -0.26100E-02
        -0.12990E-16
        -0.26015E-02
        -0.13697E-16
        -0.25918E-02
        -0.26039E-02
        -0.13050E-16
        -0.13605E-16
        -0.26138E-02
        -0.12672E-16
        -0.26002E-02
        -0.16617E-16
        -0.25966E-02
        -0.17007E-16
        -0.25878E-02
        -0.25998E-02
        -0.16332E-16
        -0.16523E-16
        -0.26080E-02
        -0.15008E-16
        -0.26068E-02
        -0.14794E-16
        -0.26003E-02
        -0.15837E-16
        -0.25909E-02
        -0.26019E-02
        -0.15531E-16
        -0.15986E-16
        -0.25639E-02
        -0.25682E-02
        -0.12058E-16
        -0.11341E-16
        -0.25677E-02
        -0.11513E-16
        -0.25645E-02
        -0.11040E-16
        -0.25648E-02
        -0.10886E-16
        -0.25644E-02
        -0.10287E-16
        -0.25669E-02
        -0.91391E-17
        -0.25680E-02
        -0.82293E-17
        -0.25673E-02
        -0.81721E-17
        -0.25668E-02
        -0.88622E-17
        -0.25630E-02
        -0.93138E-17
        -0.25679E-02
        -0.85045E-17
        -0.25696E-02
        -0.76659E-17
        -0.25691E-02
        -0.76572E-17
        -0.25672E-02
        -0.85588E-17
        -0.25653E-02
        -0.97589E-17
        -0.25643E-02
        -0.10484E-16
        -0.25673E-02
        -0.11323E-16
        -0.25644E-02
        -0.12131E-16
        -0.25688E-02
        -0.11113E-16
        -0.25673E-02
        -0.97487E-17
        -0.25659E-02
        -0.97185E-17
        -0.25683E-02
        -0.10633E-16
        -0.25649E-02
        -0.11336E-16
        -0.25683E-02
        -0.10758E-16
        -0.25684E-02
        -0.10400E-16
        -0.36829E-02
        -0.36822E-02
        -0.36821E-02
        -0.36832E-02
        -0.36810E-02
        -0.36823E-02
        -0.36815E-02
        -0.36824E-02
        -0.36831E-02
        -0.36832E-02
        -0.36811E-02
        -0.36806E-02
        -0.36807E-02
        -0.36821E-02
        -0.36819E-02
        -0.36833E-02
        -0.36838E-02
        -0.36833E-02
        -0.36822E-02
        -0.36835E-02
        -0.36818E-02
        -0.36830E-02
        -0.36808E-02
        -0.36814E-02
        -0.36839E-02
        -0.36819E-02
        -0.36834E-02
        -0.36837E-02
        -0.36826E-02
        -0.36835E-02
        -0.36832E-02
        -0.36819E-02
        -0.36831E-02
        -0.36825E-02
        -0.36794E-02
        -0.36805E-02
        -0.36810E-02
        -0.36827E-02
        -0.36825E-02
        -0.36811E-02
        -0.36797E-02
        -0.36814E-02
        -0.36831E-02
        -0.36808E-02
        -0.36803E-02
        -0.36792E-02
        -0.36808E-02
        -0.36821E-02
        -0.36819E-02
        -0.36809E-02
        -0.36797E-02
        -0.36811E-02
        -0.36767E-02
        -0.36774E-02
        -0.36773E-02
        -0.36770E-02
        -0.36770E-02
        -0.36770E-02
        -0.36774E-02
        -0.36775E-02
        -0.36772E-02
        -0.36771E-02
        -0.36764E-02
        -0.36773E-02
        -0.36777E-02
        -0.36776E-02
        -0.36774E-02
        -0.36771E-02
        -0.36769E-02
        -0.36773E-02
        -0.36768E-02
        -0.36776E-02
        -0.36775E-02
        -0.36772E-02
        -0.36774E-02
        -0.36768E-02
        -0.36774E-02
        -0.36776E-02
        -0.37706E-02
        -0.37706E-02
        -0.37706E-02
        -0.37706E-02
        -0.37706E-02
        -0.37706E-02
        -0.37706E-02
        -0.37706E-02
        -0.37706E-02
        -0.37706E-02
        -0.37706E-02
        -0.37706E-02
        -0.37706E-02
        -0.37706E-02
        -0.37706E-02
        -0.37706E-02
        -0.37706E-02
        -0.37706E-02
        -0.37706E-02
        -0.37706E-02
        -0.37706E-02
        -0.37706E-02
        -0.37706E-02
        -0.37706E-02
        -0.37706E-02
        -0.37706E-02
        -0.37706E-02
        -0.37706E-02
        -0.37706E-02
        -0.37706E-02
        -0.37706E-02
        -0.37706E-02
        -0.37706E-02
        -0.37706E-02
        -0.37706E-02
        -0.37706E-02
        -0.37706E-02
        -0.37706E-02
        -0.37706E-02
        -0.37706E-02
        -0.37706E-02
        -0.37706E-02
        -0.37706E-02
        -0.37706E-02
        -0.37706E-02
        -0.37706E-02
        -0.37706E-02
        -0.37706E-02
        -0.37706E-02
        -0.37706E-02
        -0.37706E-02
        -0.37706E-02
        -0.37706E-02
        -0.37706E-02
        -0.37706E-02
        -0.37706E-02
        -0.37706E-02
        -0.37706E-02
        -0.37706E-02
        -0.37706E-02
        -0.37706E-02
        -0.37706E-02
        -0.37706E-02
        -0.37706E-02
        -0.37706E-02
        -0.37706E-02
        -0.37706E-02
        -0.37706E-02
        -0.37706E-02
        -0.37706E-02
        -0.37706E-02
        -0.37706E-02
        -0.37706E-02
        -0.37706E-02
        -0.37706E-02
        -0.37706E-02
        -0.37706E-02
        -0.37706E-02
        -0.37706E-02
        -0.37706E-02
        -0.37706E-02
        -0.37706E-02
        -0.37706E-02
        -0.37706E-02
        -0.37706E-02
        -0.37706E-02
        -0.37706E-02
        -0.37706E-02
        -0.37706E-02
        -0.37706E-02
        -0.37706E-02
        -0.37706E-02
        -0.37706E-02
        -0.37706E-02
        -0.37706E-02
        -0.37706E-02
        -0.37706E-02
        -0.37706E-02
        -0.37706E-02
        -0.37706E-02
        -0.37706E-02
        -0.37706E-02
        -0.37706E-02
        -0.37706E-02
        -0.37706E-02
        -0.37706E-02
        -0.37706E-02
        -0.37706E-02
        -0.37706E-02
        -0.37706E-02
        -0.37706E-02
        -0.37706E-02
        -0.37706E-02
        -0.37706E-02
        -0.37706E-02
        -0.37706E-02
        -0.37706E-02
        -0.37706E-02
        -0.37706E-02
        -0.37706E-02
        -0.37706E-02
        -0.37706E-02
        -0.37706E-02
        -0.37706E-02
        -0.37706E-02
        -0.37706E-02
        -0.37706E-02
        -0.37706E-02
        -0.37706E-02
        -0.37706E-02
        -0.37706E-02
        -0.37706E-02
        -0.37706E-02
        -0.37706E-02
        -0.37706E-02
        -0.37706E-02
        -0.37706E-02
        -0.37706E-02
        -0.37706E-02
        -0.37706E-02
        -0.37706E-02
        -0.37706E-02
        -0.37706E-02
        -0.37706E-02
        -0.37706E-02
        -0.37706E-02
        -0.37706E-02
        -0.37706E-02
        -0.37706E-02
        -0.37706E-02
        -0.37706E-02
        -0.37706E-02
        -0.37706E-02
        -0.37706E-02
        -0.37706E-02
        -0.37706E-02
        -0.37706E-02
        -0.37706E-02
        -0.37706E-02
        -0.37706E-02
        -0.37706E-02
        -0.37706E-02
        -0.37706E-02
        -0.37706E-02
        -0.37706E-02
        -0.37706E-02
        -0.37706E-02
        -0.37706E-02
        -0.37706E-02
        -0.37706E-02
        -0.37706E-02
        -0.37706E-02
        -0.37706E-02
        -0.37706E-02
        -0.37706E-02
        -0.37706E-02
        -0.37706E-02
        -0.37706E-02
        -0.37706E-02
        -0.37706E-02
        -0.37706E-02
        -0.37706E-02
        -0.37706E-02
        -0.37706E-02
        -0.37706E-02
        -0.37706E-02
        -0.37706E-02
        -0.37706E-02
        -0.37706E-02
        -0.37706E-02
        -0.37706E-02
        -0.37706E-02
        -0.37706E-02
        -0.37706E-02
        -0.37706E-02
        -0.37706E-02
        -0.37706E-02
        -0.37706E-02
        -0.37706E-02
        -0.37706E-02
        -0.37706E-02
        -0.37706E-02
        -0.37706E-02
        -0.37706E-02
        -0.37706E-02
        -0.37706E-02
        -0.37706E-02
        -0.37706E-02
        -0.37706E-02
        -0.37706E-02
        -0.37706E-02
        -0.37706E-02
        -0.37706E-02
        -0.37706E-02
        -0.37706E-02
        -0.37706E-02
        -0.37706E-02
        -0.37706E-02
        -0.37706E-02
        -0.37706E-02
        -0.37706E-02
        -0.37706E-02
        -0.37706E-02
        -0.37706E-02
        -0.37706E-02
        -0.37706E-02
        -0.37706E-02
        -0.37706E-02
        -0.37706E-02
        -0.37706E-02
        -0.37706E-02
        -0.37706E-02
        -0.37706E-02
        -0.37706E-02
        -0.37706E-02
        -0.37706E-02
        -0.37706E-02
        -0.37706E-02
        -0.37706E-02
        -0.37706E-02
        -0.37706E-02
        -0.37706E-02
        -0.37706E-02
        -0.37706E-02
        -0.37706E-02
        -0.37706E-02
        -0.37706E-02
        -0.37706E-02
        -0.37706E-02
        -0.37706E-02
        -0.37706E-02
        -0.37706E-02
        -0.37706E-02
        -0.37706E-02
        -0.37706E-02
        -0.37706E-02
        -0.37706E-02
        -0.37706E-02
        -0.37706E-02
        -0.37706E-02
        -0.37706E-02
        -0.37706E-02
        -0.37706E-02
        -0.37706E-02
        -0.37706E-02
        -0.37706E-02
        -0.37706E-02
        -0.37706E-02
        -0.37706E-02
        -0.37706E-02
        -0.37706E-02
        -0.37706E-02
        -0.37706E-02
        -0.37706E-02
        -0.37706E-02
        -0.37706E-02
        -0.37706E-02
        -0.37706E-02
        -0.37706E-02
        -0.37706E-02
        -0.37706E-02
        -0.37706E-02
        -0.37706E-02
        -0.37706E-02
        -0.37706E-02
        -0.37706E-02
        -0.37706E-02
        -0.37706E-02
        -0.37706E-02
        -0.37706E-02
        -0.37706E-02
        -0.37706E-02
        -0.37706E-02
        -0.37706E-02
        -0.37706E-02
        -0.37706E-02
        -0.37706E-02
        -0.37706E-02
        -0.37706E-02
        -0.37706E-02
        -0.37706E-02
        -0.37706E-02
        -0.37706E-02
        -0.37706E-02
        -0.37706E-02
        -0.37706E-02
        -0.37706E-02
        -0.37706E-02
        -0.37706E-02
        -0.37706E-02
        -0.37706E-02
        -0.37706E-02
        -0.37706E-02
        -0.37706E-02
        -0.37706E-02
        -0.37706E-02
        -0.37706E-02
        -0.37706E-02
        -0.37706E-02
        -0.37706E-02
        -0.37706E-02
        -0.37706E-02
        -0.37706E-02
        -0.37706E-02
        -0.37706E-02
        -0.37706E-02
        -0.37706E-02
        -0.37706E-02
        -0.37706E-02
        -0.37706E-02
        -0.37706E-02
        -0.37706E-02
        -0.37706E-02
        -0.37706E-02
        -0.37706E-02
        -0.37706E-02
        -0.37706E-02
        -0.37706E-02
        -0.37706E-02
        -0.37706E-02
        -0.37706E-02
        -0.37706E-02
        -0.37706E-02
        -0.37706E-02
        -0.37706E-02
        -0.37706E-02
        -0.37706E-02
        -0.37706E-02
        -0.37706E-02
        -0.37706E-02
        -0.37706E-02
        -0.37706E-02
        -0.37706E-02
        -0.37706E-02
        -0.37706E-02
        -0.37706E-02
        -0.37706E-02
        -0.37706E-02
        -0.37706E-02
        -0.37706E-02
        -0.37706E-02
        -0.37706E-02
        -0.37706E-02
        -0.37706E-02
        -0.37706E-02
        -0.37706E-02
        -0.37706E-02
        -0.37706E-02
        -0.37706E-02
        -0.37706E-02
        -0.37706E-02
        -0.37706E-02
        -0.37706E-02
        -0.37706E-02
        -0.37706E-02
        -0.37706E-02
        -0.37706E-02
        -0.37706E-02
        -0.37706E-02
        -0.37706E-02
        -0.37706E-02
        -0.37706E-02
        -0.37706E-02
        -0.37706E-02
        -0.37706E-02
        -0.37706E-02
        -0.37706E-02
        -0.37706E-02
        -0.37706E-02
        -0.37706E-02
        -0.37706E-02
        -0.37706E-02
        -0.37706E-02
        -0.37706E-02
        -0.37706E-02
        -0.37706E-02
        -0.37706E-02
        -0.37706E-02
        -0.37706E-02
        -0.37706E-02
        -0.37706E-02
        -0.37706E-02
        -0.37706E-02
        -0.37706E-02
        -0.37706E-02
        -0.37706E-02
        -0.37706E-02
        -0.37706E-02
        -0.37706E-02
        -0.37706E-02
        -0.37706E-02
        -0.37706E-02
        -0.37706E-02
        -0.37706E-02
        -0.37706E-02
        -0.37706E-02
        -0.37706E-02
        -0.37706E-02
        -0.37706E-02
        -0.37706E-02
        -0.37706E-02
        -0.37706E-02
        -0.37706E-02
        -0.37706E-02
        -0.37706E-02
        -0.37706E-02
        -0.37706E-02
        -0.37706E-02
        -0.37706E-02
        -0.37706E-02
        -0.37706E-02
        -0.37706E-02
        -0.37706E-02
        -0.37706E-02
        -0.37706E-02
        -0.37706E-02
        -0.37706E-02
        -0.37706E-02
        -0.37706E-02
        -0.37706E-02
        -0.37706E-02
        -0.37706E-02
        -0.37706E-02
        -0.37706E-02
        -0.37706E-02
        -0.37706E-02
        -0.37706E-02
        -0.37706E-02
        -0.37706E-02
        -0.37706E-02
        -0.37706E-02
        -0.37706E-02
        -0.37706E-02
        -0.37706E-02
        -0.37706E-02
        -0.37706E-02
        -0.37706E-02
        -0.37706E-02
        -0.37706E-02
        -0.37706E-02
        -0.37706E-02
        -0.37706E-02
        -0.37706E-02
        -0.37706E-02
        -0.37706E-02
        -0.37706E-02
        -0.37706E-02
        -0.37706E-02
        -0.37706E-02
        -0.37706E-02
        -0.37706E-02
        -0.37706E-02
        -0.37706E-02
        -0.37706E-02
        -0.37706E-02
        -0.37706E-02
        -0.37706E-02
        -0.37706E-02
        -0.37706E-02
        -0.37706E-02
        -0.37706E-02
        -0.37706E-02
        -0.37706E-02
        -0.37706E-02
        -0.37706E-02
        -0.37706E-02
        -0.37706E-02
        -0.37706E-02
        -0.37706E-02
        -0.37706E-02
        -0.37706E-02
        -0.37706E-02
        -0.37706E-02
        -0.37706E-02
        -0.37706E-02
        -0.37706E-02
        -0.37706E-02
        -0.37706E-02
        -0.37706E-02
        -0.37706E-02
        -0.37706E-02
        -0.37706E-02
        -0.37706E-02
        -0.37706E-02
        -0.37706E-02
        -0.37706E-02
        -0.37706E-02
        -0.37706E-02
        -0.37706E-02
        -0.37706E-02
        -0.37706E-02
        -0.37706E-02
        -0.37706E-02
        -0.37706E-02
        -0.37706E-02
        -0.37706E-02
        -0.37706E-02
        -0.37706E-02
        -0.37706E-02
        -0.37706E-02
        -0.37706E-02
        -0.37706E-02
        -0.37706E-02
        -0.37706E-02
        -0.37706E-02
        -0.37706E-02
        -0.37706E-02
        -0.37706E-02
        -0.37706E-02
        -0.37706E-02
        -0.37706E-02
        -0.37706E-02
        -0.37706E-02
        -0.37706E-02
        -0.37706E-02
        -0.37706E-02
        -0.37706E-02
        -0.37706E-02
        -0.37706E-02
        -0.37706E-02
        -0.37706E-02
        -0.37706E-02
        -0.37706E-02
        -0.37706E-02
        -0.37706E-02
        -0.37706E-02
        -0.37706E-02
        -0.37706E-02
        -0.37706E-02
        -0.37706E-02
        -0.37706E-02
        -0.37706E-02
        -0.37706E-02
        -0.37706E-02
        -0.37706E-02
        -0.37706E-02
        -0.37706E-02
        -0.37706E-02
        -0.37706E-02
        -0.37706E-02
        -0.37706E-02
        -0.37706E-02
        -0.37706E-02
        -0.37706E-02
        -0.37706E-02
        -0.37706E-02
        -0.37706E-02
        -0.37706E-02
        -0.37706E-02
        -0.37706E-02
        -0.37706E-02
        -0.37706E-02
        -0.37706E-02
        -0.37706E-02
        -0.37706E-02
        -0.37706E-02
        -0.37706E-02
        -0.37706E-02
        -0.37706E-02
        -0.37706E-02
        -0.37706E-02
        -0.37706E-02
        -0.37706E-02
        -0.37706E-02
        -0.37706E-02
        -0.37706E-02
        -0.37706E-02
        -0.37706E-02
        -0.37706E-02
        -0.37706E-02
        -0.37706E-02
        -0.37706E-02
        -0.37706E-02
        -0.37706E-02
        -0.37706E-02
        -0.37706E-02
        -0.37706E-02
        -0.37706E-02
        -0.37706E-02
        -0.37706E-02
        -0.37706E-02
        -0.37706E-02
        -0.37706E-02
        -0.37706E-02
        -0.37706E-02
        -0.37706E-02
        -0.37706E-02
        -0.37706E-02
        -0.37706E-02
        -0.37706E-02
        -0.37706E-02
        -0.37706E-02
        -0.37706E-02
        -0.37706E-02
        -0.37706E-02
        -0.37706E-02
        -0.37706E-02
        -0.37706E-02
        -0.37706E-02
        -0.37706E-02
        -0.37706E-02
        -0.37706E-02
        -0.37706E-02
        -0.37706E-02
        -0.37706E-02
        -0.37706E-02
        -0.37706E-02
        -0.37706E-02
        -0.37706E-02
        -0.37706E-02
        -0.37706E-02
        -0.37706E-02
        -0.37706E-02
        -0.37706E-02
        -0.37706E-02
        -0.37706E-02
        -0.37706E-02
        -0.37706E-02
        -0.37706E-02
        -0.37706E-02
        -0.37706E-02
        -0.37706E-02
        -0.37706E-02
        -0.37706E-02
        -0.37706E-02
        -0.37706E-02
        -0.37706E-02
        -0.37706E-02
        -0.37706E-02
        -0.37706E-02
        -0.37706E-02
        -0.37706E-02
        -0.37706E-02
        -0.37706E-02
        -0.37706E-02
        -0.37706E-02
        -0.37706E-02
        -0.37706E-02
        -0.37706E-02
        -0.37706E-02
        -0.37706E-02
        -0.37706E-02
        -0.37706E-02
        -0.37706E-02
        -0.37706E-02
        -0.37706E-02
        -0.37706E-02
        -0.37706E-02
        -0.37706E-02
        -0.37706E-02
        -0.37706E-02
        -0.37706E-02
        -0.37706E-02
        -0.37706E-02
        -0.37706E-02
        -0.37706E-02
        -0.37706E-02
        -0.37706E-02
        -0.37706E-02
        -0.37706E-02
        -0.37706E-02
        -0.37706E-02
        -0.37706E-02
        -0.37706E-02
        -0.37706E-02
        -0.37706E-02
        -0.37706E-02
        -0.37706E-02
        -0.37706E-02
        -0.37706E-02
        -0.37706E-02
        -0.37706E-02
        -0.37706E-02
        -0.37706E-02
        -0.37706E-02
        -0.37706E-02
        -0.37706E-02
        -0.37706E-02
        -0.37706E-02
        -0.37706E-02
        -0.37706E-02
        -0.37706E-02
        -0.37706E-02
        -0.37706E-02
        -0.37706E-02
        -0.37706E-02
        -0.37706E-02
        -0.37706E-02
        -0.37706E-02
        -0.37706E-02
        -0.37706E-02
        -0.37706E-02
        -0.37706E-02
        -0.37706E-02
        -0.37706E-02
        -0.37706E-02
        -0.37706E-02
        -0.37706E-02
        -0.37706E-02
        -0.37706E-02
        -0.37706E-02
        -0.37706E-02
        -0.37706E-02
        -0.37706E-02
        -0.37706E-02
        -0.37706E-02
        -0.37706E-02
        -0.37706E-02
        -0.37706E-02
        -0.37706E-02
        -0.37706E-02
        -0.37706E-02
        -0.37706E-02
        -0.37706E-02
        -0.37706E-02
        -0.37706E-02
        -0.37706E-02
        -0.37706E-02
        -0.37706E-02
        -0.37706E-02
        -0.37706E-02
        -0.37706E-02
        -0.37706E-02
        -0.37706E-02
        -0.37706E-02
        -0.37706E-02
        -0.37706E-02
        -0.37706E-02
        -0.37706E-02
        -0.37706E-02
        -0.37706E-02
        -0.37706E-02
        -0.37706E-02
        -0.37706E-02
        -0.37706E-02
        -0.37706E-02
        -0.37706E-02
        -0.37706E-02
        -0.37706E-02
        -0.37706E-02
        -0.37706E-02
        -0.37706E-02
        -0.37706E-02
        -0.37706E-02
        -0.37706E-02
        -0.37706E-02
        -0.37706E-02
        -0.37706E-02
        -0.37706E-02
        -0.37706E-02
        -0.37706E-02
        -0.37706E-02
        -0.37706E-02
        -0.37706E-02
        -0.37706E-02
        -0.37706E-02
        -0.37706E-02
        -0.37706E-02
        -0.37706E-02
        -0.37706E-02
        -0.37706E-02
        -0.37706E-02
        -0.37706E-02
        -0.37706E-02
        -0.37706E-02
        -0.37706E-02
        -0.37706E-02
        -0.37706E-02
        -0.37706E-02
        -0.37706E-02
        -0.37706E-02
        -0.37706E-02
        -0.37706E-02
        -0.37706E-02
        -0.37706E-02
        -0.37706E-02
        -0.37706E-02
        -0.37706E-02
        -0.37706E-02
        -0.37706E-02
        -0.37706E-02
        -0.37706E-02
        -0.37706E-02
        -0.37706E-02
        -0.37706E-02
        -0.37706E-02
        -0.37706E-02
        -0.37706E-02
        -0.37706E-02
        -0.37706E-02
        -0.37706E-02
        -0.37706E-02
        -0.37706E-02
        -0.37706E-02
        -0.37706E-02
        -0.37706E-02
        -0.37706E-02
        -0.37706E-02
        -0.37706E-02
        -0.37706E-02
        -0.37706E-02
        -0.37706E-02
        -0.37706E-02
        -0.37706E-02
        -0.37706E-02
        -0.37706E-02
        -0.37706E-02
        -0.37706E-02
        -0.37706E-02
        -0.37706E-02
        -0.37706E-02
        -0.37706E-02
        -0.37706E-02
        -0.37706E-02
        -0.37706E-02
        -0.37706E-02
        -0.37706E-02
        -0.37706E-02
        -0.37706E-02
        -0.37706E-02
        -0.37706E-02
        -0.37706E-02
        -0.37706E-02
        -0.37706E-02
        -0.37706E-02
        -0.37706E-02
        -0.37706E-02
        -0.37706E-02
        -0.37706E-02
        -0.37706E-02
        -0.37706E-02
        -0.37706E-02
        -0.37706E-02
        -0.37706E-02
        -0.37706E-02
        -0.37706E-02
        -0.37706E-02
        -0.37706E-02
        -0.37706E-02
        -0.37706E-02
        -0.37706E-02
        -0.37706E-02
        -0.37706E-02
        -0.37706E-02
        -0.37706E-02
        -0.37706E-02
        -0.37706E-02
        -0.37706E-02
        -0.37706E-02
        -0.37706E-02
        -0.37706E-02
        -0.37706E-02
        -0.37706E-02
        -0.37706E-02
        -0.37706E-02
        -0.37706E-02
        -0.37706E-02
        -0.37706E-02
        -0.37706E-02
        -0.37706E-02
        -0.37706E-02
        -0.37706E-02
        -0.37706E-02
        -0.37706E-02
        -0.37706E-02
        -0.37706E-02
        -0.37706E-02
        -0.37706E-02
        -0.37706E-02
        -0.37706E-02
        -0.37706E-02
        -0.37706E-02
        -0.37706E-02
        -0.37706E-02
        -0.37706E-02
        -0.37706E-02
        -0.37706E-02
        -0.37706E-02
        -0.37706E-02
        -0.37706E-02
        -0.37706E-02
        -0.37706E-02
        -0.37706E-02
        -0.37706E-02
        -0.37706E-02
        -0.37706E-02
        -0.37706E-02
        -0.37706E-02
        -0.37706E-02
        -0.37706E-02
        -0.37706E-02
        -0.37706E-02
        -0.37706E-02
        -0.37706E-02
        -0.37706E-02
        -0.37706E-02
        -0.37706E-02
        -0.37706E-02
        -0.37706E-02
        -0.37706E-02
        -0.37706E-02
        -0.37706E-02
        -0.37706E-02
        -0.37706E-02
        -0.37706E-02
        -0.37706E-02
        -0.37706E-02
        -0.37706E-02
        -0.37706E-02
        -0.37706E-02
        -0.37706E-02
        -0.37706E-02
        -0.37706E-02
        -0.37706E-02
        -0.37706E-02
        -0.37706E-02
        -0.37706E-02
        -0.37706E-02
        -0.37706E-02
        -0.37706E-02
        -0.37706E-02
        -0.37706E-02
        -0.37706E-02
        -0.37706E-02
        -0.37706E-02
        -0.37706E-02
        -0.37706E-02
        -0.37706E-02
        -0.37706E-02
        -0.37706E-02
        -0.37706E-02
        -0.37706E-02
        -0.37706E-02
        -0.37706E-02
        -0.37706E-02
        -0.37706E-02
        -0.37706E-02
        -0.37706E-02
        -0.37706E-02
        -0.37706E-02
        -0.37706E-02
        -0.37706E-02
        -0.37706E-02
        -0.37706E-02
        -0.37706E-02
        -0.37706E-02
        -0.37706E-02
        -0.37706E-02
        -0.37706E-02
        -0.37706E-02
        -0.37706E-02
        -0.37706E-02
        -0.37706E-02
        -0.37706E-02
        -0.37706E-02
        -0.37706E-02
        -0.37706E-02
        -0.37706E-02
        -0.37706E-02
        -0.37706E-02
        -0.37706E-02
        -0.37706E-02
        -0.37706E-02
        -0.37706E-02
        -0.37706E-02
        -0.37706E-02
        -0.37706E-02
        -0.37706E-02
        -0.37706E-02
        -0.37706E-02
        -0.37706E-02
        -0.37706E-02
        -0.37706E-02
        -0.37706E-02
        -0.37706E-02
        -0.37706E-02
        -0.37706E-02
        -0.37706E-02
        -0.37706E-02
        -0.37706E-02
        -0.37706E-02
        -0.37706E-02
        -0.37706E-02
        -0.37706E-02
        -0.37706E-02
        -0.37706E-02
        -0.37706E-02
        -0.37706E-02
        -0.37706E-02
        -0.37706E-02
        -0.37706E-02
        -0.37706E-02
        -0.37706E-02
        -0.37706E-02
        -0.37706E-02
        -0.37706E-02
        -0.37706E-02
        -0.37706E-02
        -0.37706E-02
        -0.37706E-02
        -0.37706E-02
        -0.37706E-02
        -0.37706E-02
        -0.37706E-02
        -0.37706E-02
        -0.37706E-02
        -0.37706E-02
        -0.37706E-02
        -0.37706E-02
        -0.37706E-02
        -0.37706E-02
        -0.37706E-02
        -0.37706E-02
        -0.37706E-02
        -0.37706E-02
        -0.37706E-02
        -0.37706E-02
        -0.37706E-02
        -0.37706E-02
        -0.37706E-02
        -0.37706E-02
        -0.37706E-02
        -0.37706E-02
        -0.37706E-02
        -0.37706E-02
        -0.37706E-02
        -0.37706E-02
        -0.37706E-02
        -0.37706E-02
        -0.37706E-02
        -0.37706E-02
        -0.37706E-02
        -0.37706E-02
        -0.37706E-02
        -0.37706E-02
        -0.37706E-02
        -0.37706E-02
        -0.37706E-02
        -0.37706E-02
        -0.37706E-02
        -0.37706E-02
        -0.37706E-02
        -0.37706E-02
        -0.37706E-02
        -0.37706E-02
        -0.37706E-02
        -0.37706E-02
        -0.37706E-02
        -0.37706E-02
        -0.37706E-02
        -0.37706E-02
        -0.37706E-02
        -0.37706E-02
        -0.37706E-02
        -0.37706E-02
        -0.37706E-02
        -0.37706E-02
        -0.37706E-02
        -0.37706E-02
        -0.37706E-02
        -0.37706E-02
        -0.37706E-02
        -0.37706E-02
        -0.37706E-02
        -0.37706E-02
        -0.37706E-02
        -0.37706E-02
        -0.37706E-02
        -0.37706E-02
        -0.37706E-02
        -0.37706E-02
        -0.37706E-02
        -0.37706E-02
        -0.37706E-02
        -0.37706E-02
        -0.37706E-02
        -0.37706E-02
        -0.37706E-02
        -0.37706E-02
        -0.37706E-02
        -0.37706E-02
        -0.37706E-02
        -0.37706E-02
        -0.37706E-02
        -0.37706E-02
        -0.37706E-02
        -0.37706E-02
        -0.37706E-02
        -0.37706E-02
        -0.37706E-02
        -0.37706E-02
        -0.37706E-02
        -0.37706E-02
        -0.37706E-02
        -0.37706E-02
        -0.37706E-02
        -0.37706E-02
        -0.37706E-02
        -0.37706E-02
        -0.37706E-02
        -0.37706E-02
        -0.37706E-02
        -0.37706E-02
        -0.37706E-02
        -0.37706E-02
        -0.37706E-02
        -0.37706E-02
        -0.37706E-02
        -0.37706E-02
        -0.37706E-02
        -0.37706E-02
        -0.37706E-02
        -0.37706E-02
        -0.37706E-02
        -0.37706E-02
        -0.37706E-02
        -0.37706E-02
        -0.37706E-02
        -0.37706E-02
        -0.37706E-02
        -0.37706E-02
        -0.37706E-02
        -0.37706E-02
        -0.37706E-02
        -0.37706E-02
        -0.37706E-02
        -0.37706E-02
        -0.37706E-02
        -0.37706E-02
        -0.37706E-02
        -0.37706E-02
        -0.37706E-02
        -0.37706E-02
        -0.37706E-02
        -0.37706E-02
        -0.37706E-02
        -0.37706E-02
        -0.37706E-02
        -0.37706E-02
        -0.37706E-02
        -0.37706E-02
        -0.37706E-02
        -0.37706E-02
        -0.37706E-02
        -0.37706E-02
        -0.37706E-02
        -0.37706E-02
        -0.37706E-02
        -0.37706E-02
        -0.37706E-02
        -0.37706E-02
        -0.37706E-02
        -0.37706E-02
        -0.37706E-02
        -0.37706E-02
        -0.37706E-02
        -0.37706E-02
        -0.37706E-02
        -0.37706E-02
        -0.37706E-02
        -0.37706E-02
        -0.37706E-02
        -0.37706E-02
        -0.37706E-02
        -0.37706E-02
        -0.37706E-02
        -0.37706E-02
        -0.37706E-02
        -0.37706E-02
        -0.37706E-02
        -0.37706E-02
        -0.37706E-02
        -0.37706E-02
        -0.37706E-02
        -0.37706E-02
        -0.37706E-02
        -0.37706E-02
        -0.37706E-02
        -0.37706E-02
        -0.37706E-02
        -0.37706E-02
        -0.37706E-02
        -0.37706E-02
        -0.37706E-02
        -0.37706E-02
        -0.37706E-02
        -0.37706E-02
        -0.37706E-02
        -0.37706E-02
        -0.37706E-02
        -0.37706E-02
        -0.37706E-02
        -0.37706E-02
        -0.37706E-02
        -0.37706E-02
        -0.37706E-02
        -0.37706E-02
        -0.37706E-02
        -0.37706E-02
        -0.37706E-02
        -0.37706E-02
        -0.37706E-02
        -0.37706E-02
        -0.37706E-02
        -0.37706E-02
        -0.37706E-02
        -0.37706E-02
        -0.37706E-02
        -0.37706E-02
        -0.37706E-02
        -0.37706E-02
        -0.37706E-02
        -0.37706E-02
        -0.37706E-02
        -0.37706E-02
        -0.37706E-02
        -0.37706E-02
        -0.37706E-02
        -0.37706E-02
        -0.37706E-02
        -0.37706E-02
        -0.37706E-02
        -0.37706E-02
        -0.37706E-02
        -0.37706E-02
        -0.37706E-02
        -0.37706E-02
        -0.37706E-02
        -0.37706E-02
        -0.37706E-02
        -0.37706E-02
        -0.37706E-02
        -0.37706E-02
        -0.37706E-02
        -0.37706E-02
        -0.37706E-02
        -0.37706E-02
        -0.37706E-02
        -0.37706E-02
        -0.37706E-02
        -0.37706E-02
        -0.37706E-02
        -0.37706E-02
        -0.37706E-02
        -0.37706E-02
        -0.37706E-02
        -0.37706E-02
        -0.37706E-02
        -0.37706E-02
        -0.37706E-02
        -0.37706E-02
        -0.37706E-02
        -0.37706E-02
        -0.37706E-02
        -0.37706E-02
        -0.37706E-02
        -0.37706E-02
        -0.37706E-02
        -0.37706E-02
        -0.37706E-02
        -0.37706E-02
        -0.37706E-02
        -0.37706E-02
        -0.37706E-02
        -0.37706E-02
        -0.37706E-02
        -0.37706E-02
        -0.37706E-02
        -0.37706E-02
        -0.37706E-02
        -0.37706E-02
        -0.37706E-02
        -0.37706E-02
        -0.37706E-02
        -0.37706E-02
        -0.37706E-02
        -0.37706E-02
        -0.37706E-02
        -0.37706E-02
        -0.37706E-02
        -0.37706E-02
        -0.37706E-02
        -0.37706E-02
        -0.37706E-02
        -0.37706E-02
        -0.37706E-02
        -0.37706E-02
        -0.37706E-02
        -0.37706E-02
        -0.37706E-02
        -0.37706E-02
        -0.37706E-02
        -0.37706E-02
        -0.37706E-02
        -0.37706E-02
        -0.37706E-02
        -0.37706E-02
        -0.37706E-02
        -0.37706E-02
        -0.37706E-02
        -0.37706E-02
        -0.37706E-02
        -0.37706E-02
        -0.37706E-02
        -0.37706E-02
        -0.37706E-02
        -0.37706E-02
        -0.37706E-02
        -0.37706E-02
        -0.37706E-02
        -0.37706E-02
        -0.37706E-02
        -0.37706E-02
        -0.37706E-02
        -0.37706E-02
        -0.37706E-02
        -0.37706E-02
        -0.37706E-02
        -0.37706E-02
        -0.37706E-02
        -0.37706E-02
        -0.37706E-02
        -0.37706E-02
        -0.37706E-02
        -0.37706E-02
        -0.37706E-02
        -0.37706E-02
        -0.37706E-02
        -0.37706E-02
        -0.37706E-02
        -0.37706E-02
        -0.37706E-02
        -0.37706E-02
        -0.37706E-02
        -0.37706E-02
        -0.37706E-02
        -0.37706E-02
        -0.37706E-02
        -0.37706E-02
        -0.37706E-02
        -0.37706E-02
        -0.37706E-02
        -0.37706E-02
        -0.37706E-02
        -0.37706E-02
        -0.37706E-02
        -0.37706E-02
        -0.37706E-02
        -0.37706E-02
        -0.37706E-02
        -0.37706E-02
        -0.37706E-02
        -0.37706E-02
        -0.37706E-02
        -0.37706E-02
        -0.37706E-02
        -0.37706E-02
        -0.37706E-02
        -0.37706E-02
        -0.37706E-02
        -0.37706E-02
        -0.37706E-02
        -0.37706E-02
        -0.37706E-02
        -0.37706E-02
        -0.37706E-02
        -0.37706E-02
        -0.37706E-02
        -0.37706E-02
        -0.37706E-02
        -0.37706E-02
        -0.37706E-02
        -0.37706E-02
        -0.37706E-02
        -0.37706E-02
        -0.37706E-02
        -0.37706E-02
        -0.37706E-02
        -0.37706E-02
        -0.37706E-02
        -0.37706E-02
        -0.37706E-02
        -0.37706E-02
        -0.37706E-02
        -0.37706E-02
        -0.37706E-02
        -0.37706E-02
        -0.37706E-02
        -0.37706E-02
        -0.37706E-02
        -0.37706E-02
        -0.37706E-02
        -0.37706E-02
        -0.37706E-02
        -0.37706E-02
        -0.37706E-02
        -0.37706E-02
        -0.37706E-02
        -0.37706E-02
        -0.37706E-02
        -0.37706E-02
        -0.37706E-02
        -0.37706E-02
        -0.37706E-02
        -0.37706E-02
        -0.37706E-02
        -0.37706E-02
        -0.37706E-02
        -0.37706E-02
        -0.37706E-02
        -0.37706E-02
        -0.37706E-02
        -0.37706E-02
        -0.37706E-02
        -0.37706E-02
        -0.37706E-02
        -0.37706E-02
        -0.37706E-02
        -0.37706E-02
        -0.37706E-02
        -0.37706E-02
        -0.37706E-02
        -0.37706E-02
        -0.37706E-02
        -0.37706E-02
        -0.37706E-02
        -0.37706E-02
        -0.37706E-02
        -0.37706E-02
        -0.37706E-02
        -0.37706E-02
        -0.37706E-02
        -0.37706E-02
        -0.37706E-02
        -0.37706E-02
        -0.37706E-02
        -0.37706E-02
        -0.37706E-02
        -0.37706E-02
        -0.37706E-02
        -0.37706E-02
        -0.37706E-02
        -0.37706E-02
        -0.37706E-02
        -0.37706E-02
        -0.37706E-02
        -0.37706E-02
        -0.37706E-02
        -0.37706E-02
        -0.37706E-02
        -0.37706E-02
        -0.37706E-02
        -0.37706E-02
        -0.37706E-02
        -0.37706E-02
        -0.37706E-02
        -0.37706E-02
        -0.37706E-02
        -0.37706E-02
        -0.37706E-02
        -0.37706E-02
        -0.37706E-02
        -0.37706E-02
        -0.37706E-02
        -0.37706E-02
        -0.37706E-02
        -0.37706E-02
        -0.37706E-02
        -0.37706E-02
        -0.37706E-02
        -0.37706E-02
        -0.37706E-02
        -0.37706E-02
        -0.37706E-02
        -0.37706E-02
        -0.37706E-02
        -0.37706E-02
        -0.37706E-02
        -0.37706E-02
        -0.37706E-02
        -0.37706E-02
        -0.37706E-02
        -0.37706E-02
        -0.37706E-02
        -0.37706E-02
        -0.37706E-02
        -0.37706E-02
        -0.37706E-02
        -0.37706E-02
        -0.37706E-02
        -0.37706E-02
        -0.37706E-02
        -0.37706E-02
        -0.37706E-02
        -0.37706E-02
        -0.37706E-02
        -0.37706E-02
        -0.37706E-02
        -0.37706E-02
        -0.37706E-02
        -0.37706E-02
        -0.37706E-02
        -0.37706E-02
        -0.37706E-02
        -0.37706E-02
        -0.37706E-02
        -0.37706E-02
        -0.37706E-02
        -0.37706E-02
        -0.37706E-02
        -0.37706E-02
        -0.37706E-02
        -0.37706E-02
        -0.37706E-02
        -0.37706E-02
        -0.37706E-02
        -0.37706E-02
        -0.37706E-02
        -0.37706E-02
        -0.37706E-02
        -0.37706E-02
        -0.37706E-02
        -0.37706E-02
        -0.37706E-02
        -0.37706E-02
        -0.37706E-02
        -0.37706E-02
        -0.37706E-02
        -0.37706E-02
        -0.37706E-02
        -0.37706E-02
        -0.37706E-02
        -0.37706E-02
        -0.37706E-02
        -0.37706E-02
        -0.37706E-02
        -0.37706E-02
        -0.37706E-02
        -0.37706E-02
        -0.37706E-02
        -0.37706E-02
        -0.37706E-02
        -0.37706E-02
        -0.37706E-02
        -0.37706E-02
        -0.37706E-02
        -0.37706E-02
        -0.37706E-02
        -0.37706E-02
        -0.37706E-02
        -0.37706E-02
        -0.37706E-02
        -0.37706E-02
        -0.37706E-02
        -0.37706E-02
        -0.37706E-02
        -0.37706E-02
        -0.37706E-02
        -0.37706E-02
        -0.37706E-02
        -0.37706E-02
        -0.37706E-02
        -0.37706E-02
        -0.37706E-02
        -0.37706E-02
        -0.37706E-02
        -0.37706E-02
        -0.37706E-02
        -0.37706E-02
        -0.37706E-02
        -0.37706E-02
        -0.37706E-02
        -0.37706E-02
        -0.37706E-02
        -0.37706E-02
        -0.37706E-02
        -0.37706E-02
        -0.37706E-02
        -0.37706E-02
        -0.37706E-02
        -0.37706E-02
        -0.37706E-02
        -0.37706E-02
        -0.37706E-02
        -0.37706E-02
        -0.37706E-02
        -0.37706E-02
        -0.37706E-02
        -0.37706E-02
        -0.37706E-02
        -0.37706E-02
        -0.37706E-02
        -0.37706E-02
        -0.37706E-02
        -0.37706E-02
        -0.37706E-02
        -0.37706E-02
        -0.37706E-02
        -0.37706E-02
        -0.37706E-02
        -0.37706E-02
        -0.37706E-02
        -0.37706E-02
        -0.37706E-02
        -0.37706E-02
        -0.37706E-02
        -0.37706E-02
        -0.37706E-02
        -0.37706E-02
        -0.37706E-02
        -0.37706E-02
        -0.37706E-02
        -0.37706E-02
        -0.37706E-02
        -0.37706E-02
        -0.37706E-02
        -0.37706E-02
        -0.37706E-02
        -0.37706E-02
        -0.37706E-02
        -0.37706E-02
        -0.37706E-02
        -0.37706E-02
        -0.37706E-02
        -0.37706E-02
        -0.37706E-02
        -0.37706E-02
        -0.37706E-02
        -0.37706E-02
        -0.37706E-02
        -0.37706E-02
        -0.37706E-02
        -0.37706E-02
        -0.37706E-02
        -0.37706E-02
        -0.37706E-02
        -0.37706E-02
        -0.37706E-02
        -0.37706E-02
        -0.37706E-02
        -0.37706E-02
        -0.37706E-02
        -0.37706E-02
        -0.37706E-02
        -0.37706E-02
        -0.37706E-02
        -0.37706E-02
        -0.37706E-02
        -0.37706E-02
        -0.37706E-02
        -0.37706E-02
        -0.37706E-02
        -0.37706E-02
        -0.37706E-02
        -0.37706E-02
        -0.37706E-02
        -0.37706E-02
        -0.37706E-02
        -0.37706E-02
        -0.37706E-02
        -0.37706E-02
        -0.37706E-02
        -0.37706E-02
        -0.37706E-02
        -0.37706E-02
        -0.37706E-02
        -0.37706E-02
        -0.37706E-02
        -0.37706E-02
        -0.37706E-02
        -0.37706E-02
        -0.37706E-02
        -0.37706E-02
        -0.37706E-02
        -0.37706E-02
        -0.37706E-02
        -0.37706E-02
        -0.37706E-02
        -0.37706E-02
        -0.37706E-02
        -0.37706E-02
        -0.37706E-02
        -0.37706E-02
        -0.37706E-02
        -0.37706E-02
        -0.37706E-02
        -0.37706E-02
        -0.37706E-02
        -0.37706E-02
        -0.37706E-02
        -0.37706E-02
        -0.37706E-02
        -0.37706E-02
        -0.37706E-02
        -0.37706E-02
        -0.37706E-02
  
SCALARS                     velocity_x  double 1
LOOKUP_TABLE default
         0.00000E+00
         0.00000E+00
         0.00000E+00
         0.00000E+00
         0.00000E+00
         0.00000E+00
         0.00000E+00
         0.00000E+00
         0.00000E+00
         0.00000E+00
         0.00000E+00
         0.00000E+00
         0.00000E+00
         0.00000E+00
         0.00000E+00
         0.00000E+00
         0.00000E+00
         0.00000E+00
         0.00000E+00
         0.00000E+00
         0.00000E+00
         0.00000E+00
         0.00000E+00
         0.00000E+00
         0.00000E+00
         0.00000E+00
         0.00000E+00
         0.00000E+00
         0.00000E+00
         0.00000E+00
         0.00000E+00
         0.00000E+00
         0.00000E+00
         0.00000E+00
         0.00000E+00
         0.00000E+00
         0.00000E+00
         0.00000E+00
         0.00000E+00
         0.00000E+00
         0.00000E+00
         0.00000E+00
         0.00000E+00
         0.00000E+00
         0.00000E+00
         0.00000E+00
         0.00000E+00
         0.00000E+00
         0.00000E+00
         0.00000E+00
         0.00000E+00
         0.00000E+00
         0.00000E+00
         0.00000E+00
         0.00000E+00
         0.00000E+00
         0.00000E+00
         0.00000E+00
         0.00000E+00
         0.00000E+00
         0.00000E+00
         0.00000E+00
         0.00000E+00
         0.00000E+00
         0.00000E+00
         0.00000E+00
         0.00000E+00
         0.00000E+00
         0.00000E+00
         0.00000E+00
         0.00000E+00
         0.00000E+00
         0.00000E+00
         0.00000E+00
         0.00000E+00
         0.00000E+00
         0.00000E+00
         0.00000E+00
         0.00000E+00
         0.00000E+00
         0.00000E+00
         0.00000E+00
         0.00000E+00
         0.00000E+00
         0.00000E+00
         0.00000E+00
         0.00000E+00
         0.00000E+00
         0.00000E+00
         0.00000E+00
         0.00000E+00
         0.00000E+00
         0.00000E+00
         0.00000E+00
         0.00000E+00
         0.00000E+00
         0.00000E+00
         0.00000E+00
         0.00000E+00
         0.00000E+00
         0.00000E+00
         0.00000E+00
         0.00000E+00
         0.00000E+00
         0.00000E+00
         0.00000E+00
         0.00000E+00
         0.00000E+00
         0.00000E+00
         0.00000E+00
         0.00000E+00
         0.00000E+00
         0.00000E+00
         0.00000E+00
         0.00000E+00
         0.00000E+00
         0.00000E+00
         0.00000E+00
         0.00000E+00
         0.00000E+00
         0.00000E+00
         0.00000E+00
         0.00000E+00
         0.00000E+00
         0.00000E+00
         0.00000E+00
         0.00000E+00
         0.00000E+00
         0.00000E+00
         0.00000E+00
         0.00000E+00
         0.00000E+00
         0.00000E+00
         0.00000E+00
         0.00000E+00
         0.00000E+00
         0.00000E+00
         0.00000E+00
         0.00000E+00
         0.00000E+00
         0.00000E+00
         0.00000E+00
         0.00000E+00
         0.00000E+00
         0.00000E+00
         0.00000E+00
         0.00000E+00
         0.00000E+00
         0.00000E+00
         0.00000E+00
         0.00000E+00
         0.00000E+00
         0.00000E+00
         0.00000E+00
         0.00000E+00
         0.00000E+00
         0.00000E+00
         0.00000E+00
         0.00000E+00
         0.00000E+00
         0.00000E+00
         0.00000E+00
         0.00000E+00
         0.00000E+00
         0.00000E+00
         0.00000E+00
         0.00000E+00
         0.00000E+00
         0.00000E+00
         0.00000E+00
         0.00000E+00
         0.00000E+00
         0.00000E+00
         0.00000E+00
         0.00000E+00
         0.00000E+00
         0.00000E+00
         0.00000E+00
         0.00000E+00
         0.00000E+00
         0.00000E+00
         0.00000E+00
         0.00000E+00
         0.00000E+00
         0.00000E+00
         0.00000E+00
         0.00000E+00
         0.00000E+00
         0.00000E+00
         0.00000E+00
         0.00000E+00
         0.00000E+00
         0.00000E+00
         0.00000E+00
         0.00000E+00
         0.00000E+00
         0.00000E+00
         0.00000E+00
         0.00000E+00
         0.00000E+00
         0.00000E+00
         0.00000E+00
         0.00000E+00
         0.00000E+00
         0.00000E+00
         0.00000E+00
         0.00000E+00
         0.00000E+00
         0.00000E+00
         0.00000E+00
         0.00000E+00
         0.00000E+00
         0.00000E+00
         0.00000E+00
         0.00000E+00
         0.00000E+00
         0.00000E+00
         0.00000E+00
         0.00000E+00
         0.00000E+00
         0.00000E+00
         0.00000E+00
         0.00000E+00
         0.00000E+00
         0.00000E+00
         0.00000E+00
         0.00000E+00
         0.00000E+00
         0.00000E+00
         0.00000E+00
         0.00000E+00
         0.00000E+00
         0.00000E+00
         0.00000E+00
         0.00000E+00
         0.00000E+00
         0.00000E+00
         0.00000E+00
         0.00000E+00
         0.00000E+00
         0.00000E+00
         0.00000E+00
         0.00000E+00
         0.00000E+00
         0.00000E+00
         0.00000E+00
         0.00000E+00
         0.00000E+00
         0.00000E+00
         0.00000E+00
         0.00000E+00
         0.00000E+00
         0.00000E+00
         0.00000E+00
         0.00000E+00
         0.00000E+00
         0.00000E+00
         0.00000E+00
         0.00000E+00
         0.00000E+00
         0.00000E+00
         0.00000E+00
         0.00000E+00
         0.00000E+00
         0.00000E+00
         0.00000E+00
         0.00000E+00
         0.00000E+00
         0.00000E+00
         0.00000E+00
         0.00000E+00
         0.00000E+00
         0.00000E+00
         0.00000E+00
         0.00000E+00
         0.00000E+00
         0.00000E+00
         0.00000E+00
         0.00000E+00
         0.00000E+00
         0.00000E+00
         0.00000E+00
         0.00000E+00
         0.00000E+00
         0.00000E+00
         0.00000E+00
         0.00000E+00
         0.00000E+00
         0.00000E+00
         0.00000E+00
         0.00000E+00
         0.00000E+00
         0.00000E+00
         0.00000E+00
         0.00000E+00
         0.00000E+00
         0.00000E+00
         0.00000E+00
         0.00000E+00
         0.00000E+00
         0.00000E+00
         0.00000E+00
         0.00000E+00
         0.00000E+00
         0.00000E+00
         0.00000E+00
         0.00000E+00
         0.00000E+00
         0.00000E+00
         0.00000E+00
         0.00000E+00
         0.00000E+00
         0.00000E+00
         0.00000E+00
         0.00000E+00
         0.00000E+00
         0.00000E+00
         0.00000E+00
         0.00000E+00
         0.00000E+00
         0.00000E+00
         0.00000E+00
         0.00000E+00
         0.00000E+00
         0.00000E+00
         0.00000E+00
         0.00000E+00
         0.00000E+00
         0.00000E+00
         0.00000E+00
         0.00000E+00
         0.00000E+00
         0.00000E+00
         0.00000E+00
         0.00000E+00
         0.00000E+00
         0.00000E+00
         0.00000E+00
         0.00000E+00
         0.00000E+00
         0.00000E+00
         0.00000E+00
         0.00000E+00
         0.00000E+00
         0.00000E+00
         0.00000E+00
         0.00000E+00
         0.00000E+00
         0.00000E+00
         0.00000E+00
         0.00000E+00
         0.00000E+00
         0.00000E+00
         0.00000E+00
         0.00000E+00
         0.00000E+00
         0.00000E+00
         0.00000E+00
         0.00000E+00
         0.00000E+00
         0.00000E+00
         0.00000E+00
         0.00000E+00
         0.00000E+00
         0.00000E+00
         0.00000E+00
         0.00000E+00
         0.00000E+00
         0.00000E+00
         0.00000E+00
         0.00000E+00
         0.00000E+00
         0.00000E+00
         0.00000E+00
         0.00000E+00
         0.00000E+00
         0.00000E+00
         0.00000E+00
         0.00000E+00
         0.00000E+00
         0.00000E+00
         0.00000E+00
         0.00000E+00
         0.00000E+00
         0.00000E+00
         0.00000E+00
         0.00000E+00
         0.00000E+00
         0.00000E+00
         0.00000E+00
         0.00000E+00
         0.00000E+00
         0.00000E+00
         0.00000E+00
         0.00000E+00
         0.00000E+00
         0.00000E+00
         0.00000E+00
         0.00000E+00
         0.00000E+00
         0.00000E+00
         0.00000E+00
         0.00000E+00
         0.00000E+00
         0.00000E+00
         0.00000E+00
         0.00000E+00
         0.00000E+00
         0.00000E+00
         0.00000E+00
         0.00000E+00
         0.00000E+00
         0.00000E+00
         0.00000E+00
         0.00000E+00
         0.00000E+00
         0.00000E+00
         0.00000E+00
         0.00000E+00
         0.00000E+00
         0.00000E+00
         0.00000E+00
         0.00000E+00
         0.00000E+00
         0.00000E+00
         0.00000E+00
         0.00000E+00
         0.00000E+00
         0.00000E+00
         0.00000E+00
         0.00000E+00
         0.00000E+00
         0.00000E+00
         0.00000E+00
         0.00000E+00
         0.00000E+00
         0.00000E+00
         0.00000E+00
         0.00000E+00
         0.00000E+00
         0.00000E+00
         0.00000E+00
         0.00000E+00
         0.00000E+00
         0.00000E+00
         0.00000E+00
         0.00000E+00
         0.00000E+00
         0.00000E+00
         0.00000E+00
         0.00000E+00
         0.00000E+00
         0.00000E+00
         0.00000E+00
         0.00000E+00
         0.00000E+00
         0.00000E+00
         0.00000E+00
         0.00000E+00
         0.00000E+00
         0.00000E+00
         0.00000E+00
         0.00000E+00
         0.00000E+00
         0.00000E+00
         0.00000E+00
         0.00000E+00
         0.00000E+00
         0.00000E+00
         0.00000E+00
         0.00000E+00
         0.00000E+00
         0.00000E+00
         0.00000E+00
         0.00000E+00
         0.00000E+00
         0.00000E+00
         0.00000E+00
         0.00000E+00
         0.00000E+00
         0.00000E+00
         0.00000E+00
         0.00000E+00
         0.00000E+00
         0.00000E+00
         0.00000E+00
         0.00000E+00
         0.00000E+00
         0.00000E+00
         0.00000E+00
         0.00000E+00
         0.00000E+00
         0.00000E+00
         0.00000E+00
         0.00000E+00
         0.00000E+00
         0.00000E+00
         0.00000E+00
         0.00000E+00
         0.00000E+00
         0.00000E+00
         0.00000E+00
         0.00000E+00
         0.00000E+00
         0.00000E+00
         0.00000E+00
         0.00000E+00
         0.00000E+00
         0.00000E+00
         0.00000E+00
         0.00000E+00
         0.00000E+00
         0.00000E+00
         0.00000E+00
         0.00000E+00
         0.00000E+00
         0.00000E+00
         0.00000E+00
         0.00000E+00
         0.00000E+00
         0.00000E+00
         0.00000E+00
         0.00000E+00
         0.00000E+00
         0.00000E+00
         0.00000E+00
         0.00000E+00
         0.00000E+00
         0.00000E+00
         0.00000E+00
         0.00000E+00
         0.00000E+00
         0.00000E+00
         0.00000E+00
         0.00000E+00
         0.00000E+00
         0.00000E+00
         0.00000E+00
         0.00000E+00
         0.00000E+00
         0.00000E+00
         0.00000E+00
         0.00000E+00
         0.00000E+00
         0.00000E+00
         0.00000E+00
         0.00000E+00
         0.00000E+00
         0.00000E+00
         0.00000E+00
         0.00000E+00
         0.00000E+00
         0.00000E+00
         0.00000E+00
         0.00000E+00
         0.00000E+00
         0.00000E+00
         0.00000E+00
         0.00000E+00
         0.00000E+00
         0.00000E+00
         0.00000E+00
         0.00000E+00
         0.00000E+00
         0.00000E+00
         0.00000E+00
         0.00000E+00
         0.00000E+00
         0.00000E+00
         0.00000E+00
         0.00000E+00
         0.00000E+00
         0.00000E+00
         0.00000E+00
         0.00000E+00
         0.00000E+00
         0.00000E+00
         0.00000E+00
         0.00000E+00
         0.00000E+00
         0.00000E+00
         0.00000E+00
         0.00000E+00
         0.00000E+00
         0.00000E+00
         0.00000E+00
         0.00000E+00
         0.00000E+00
         0.00000E+00
         0.00000E+00
         0.00000E+00
         0.00000E+00
         0.00000E+00
         0.00000E+00
         0.00000E+00
         0.00000E+00
         0.00000E+00
         0.00000E+00
         0.00000E+00
         0.00000E+00
         0.00000E+00
         0.00000E+00
         0.00000E+00
         0.00000E+00
         0.00000E+00
         0.00000E+00
         0.00000E+00
         0.00000E+00
         0.00000E+00
         0.00000E+00
         0.00000E+00
         0.00000E+00
         0.00000E+00
         0.00000E+00
         0.00000E+00
         0.00000E+00
         0.00000E+00
         0.00000E+00
         0.00000E+00
         0.00000E+00
         0.00000E+00
         0.00000E+00
         0.00000E+00
         0.00000E+00
         0.00000E+00
         0.00000E+00
         0.00000E+00
         0.00000E+00
         0.00000E+00
         0.00000E+00
         0.00000E+00
         0.00000E+00
         0.00000E+00
         0.00000E+00
         0.00000E+00
         0.00000E+00
         0.00000E+00
         0.00000E+00
         0.00000E+00
         0.00000E+00
         0.00000E+00
         0.00000E+00
         0.00000E+00
         0.00000E+00
         0.00000E+00
         0.00000E+00
         0.00000E+00
         0.00000E+00
         0.00000E+00
         0.00000E+00
         0.00000E+00
         0.00000E+00
         0.00000E+00
         0.00000E+00
         0.00000E+00
         0.00000E+00
         0.00000E+00
         0.00000E+00
         0.00000E+00
         0.00000E+00
         0.00000E+00
         0.00000E+00
         0.00000E+00
         0.00000E+00
         0.00000E+00
         0.00000E+00
         0.00000E+00
         0.00000E+00
         0.00000E+00
         0.00000E+00
         0.00000E+00
         0.00000E+00
         0.00000E+00
         0.00000E+00
         0.00000E+00
         0.00000E+00
         0.00000E+00
         0.00000E+00
         0.00000E+00
         0.00000E+00
         0.00000E+00
         0.00000E+00
         0.00000E+00
         0.00000E+00
         0.00000E+00
         0.00000E+00
         0.00000E+00
         0.00000E+00
         0.00000E+00
         0.00000E+00
         0.00000E+00
         0.00000E+00
         0.00000E+00
         0.00000E+00
         0.00000E+00
         0.00000E+00
         0.00000E+00
         0.00000E+00
         0.00000E+00
         0.00000E+00
         0.00000E+00
         0.00000E+00
         0.00000E+00
         0.00000E+00
         0.00000E+00
         0.00000E+00
         0.00000E+00
         0.00000E+00
         0.00000E+00
         0.00000E+00
         0.00000E+00
         0.00000E+00
         0.00000E+00
         0.00000E+00
         0.00000E+00
         0.00000E+00
         0.00000E+00
         0.00000E+00
         0.00000E+00
         0.00000E+00
         0.00000E+00
         0.00000E+00
         0.00000E+00
         0.00000E+00
         0.00000E+00
         0.00000E+00
         0.00000E+00
         0.00000E+00
         0.00000E+00
         0.00000E+00
         0.00000E+00
         0.00000E+00
         0.00000E+00
         0.00000E+00
         0.00000E+00
         0.00000E+00
         0.00000E+00
         0.00000E+00
         0.00000E+00
         0.00000E+00
         0.00000E+00
         0.00000E+00
         0.00000E+00
         0.00000E+00
         0.00000E+00
         0.00000E+00
         0.00000E+00
         0.00000E+00
         0.00000E+00
         0.00000E+00
         0.00000E+00
         0.00000E+00
         0.00000E+00
         0.00000E+00
         0.00000E+00
         0.00000E+00
         0.00000E+00
         0.00000E+00
         0.00000E+00
         0.00000E+00
         0.00000E+00
         0.00000E+00
         0.00000E+00
         0.00000E+00
         0.00000E+00
         0.00000E+00
         0.00000E+00
         0.00000E+00
         0.00000E+00
         0.00000E+00
         0.00000E+00
         0.00000E+00
         0.00000E+00
         0.00000E+00
         0.00000E+00
         0.00000E+00
         0.00000E+00
         0.00000E+00
         0.00000E+00
         0.00000E+00
         0.00000E+00
         0.00000E+00
         0.00000E+00
         0.00000E+00
         0.00000E+00
         0.00000E+00
         0.00000E+00
         0.00000E+00
         0.00000E+00
         0.00000E+00
         0.00000E+00
         0.00000E+00
         0.00000E+00
         0.00000E+00
         0.00000E+00
         0.00000E+00
         0.00000E+00
         0.00000E+00
         0.00000E+00
         0.00000E+00
         0.00000E+00
         0.00000E+00
         0.00000E+00
         0.00000E+00
         0.00000E+00
         0.00000E+00
         0.00000E+00
         0.00000E+00
         0.00000E+00
         0.00000E+00
         0.00000E+00
         0.00000E+00
         0.00000E+00
         0.00000E+00
         0.00000E+00
         0.00000E+00
         0.00000E+00
         0.00000E+00
         0.00000E+00
         0.00000E+00
         0.00000E+00
         0.00000E+00
         0.00000E+00
         0.00000E+00
         0.00000E+00
         0.00000E+00
         0.00000E+00
         0.00000E+00
         0.00000E+00
         0.00000E+00
         0.00000E+00
         0.00000E+00
         0.00000E+00
         0.00000E+00
         0.00000E+00
         0.00000E+00
         0.00000E+00
         0.00000E+00
         0.00000E+00
         0.00000E+00
         0.00000E+00
         0.00000E+00
         0.00000E+00
         0.00000E+00
         0.00000E+00
         0.00000E+00
         0.00000E+00
         0.00000E+00
         0.00000E+00
         0.00000E+00
         0.00000E+00
         0.00000E+00
         0.00000E+00
         0.00000E+00
         0.00000E+00
         0.00000E+00
         0.00000E+00
         0.00000E+00
         0.00000E+00
         0.00000E+00
         0.00000E+00
         0.00000E+00
         0.00000E+00
         0.00000E+00
         0.00000E+00
         0.00000E+00
         0.00000E+00
         0.00000E+00
         0.00000E+00
         0.00000E+00
         0.00000E+00
         0.00000E+00
         0.00000E+00
         0.00000E+00
         0.00000E+00
         0.00000E+00
         0.00000E+00
         0.00000E+00
         0.00000E+00
         0.00000E+00
         0.00000E+00
         0.00000E+00
         0.00000E+00
         0.00000E+00
         0.00000E+00
         0.00000E+00
         0.00000E+00
         0.00000E+00
         0.00000E+00
         0.00000E+00
         0.00000E+00
         0.00000E+00
         0.00000E+00
         0.00000E+00
         0.00000E+00
         0.00000E+00
         0.00000E+00
         0.00000E+00
         0.00000E+00
         0.00000E+00
         0.00000E+00
         0.00000E+00
         0.00000E+00
         0.00000E+00
         0.00000E+00
         0.00000E+00
         0.00000E+00
         0.00000E+00
         0.00000E+00
         0.00000E+00
         0.00000E+00
         0.00000E+00
         0.00000E+00
         0.00000E+00
         0.00000E+00
         0.00000E+00
         0.00000E+00
         0.00000E+00
         0.00000E+00
         0.00000E+00
         0.00000E+00
         0.00000E+00
         0.00000E+00
         0.00000E+00
         0.00000E+00
         0.00000E+00
         0.00000E+00
         0.00000E+00
         0.00000E+00
         0.00000E+00
         0.00000E+00
         0.00000E+00
         0.00000E+00
         0.00000E+00
         0.00000E+00
         0.00000E+00
         0.00000E+00
         0.00000E+00
         0.00000E+00
         0.00000E+00
         0.00000E+00
         0.00000E+00
         0.00000E+00
         0.00000E+00
         0.00000E+00
         0.00000E+00
         0.00000E+00
         0.00000E+00
         0.00000E+00
         0.00000E+00
         0.00000E+00
         0.00000E+00
         0.00000E+00
         0.00000E+00
         0.00000E+00
         0.00000E+00
         0.00000E+00
         0.00000E+00
         0.00000E+00
         0.00000E+00
         0.00000E+00
         0.00000E+00
         0.00000E+00
         0.00000E+00
         0.00000E+00
         0.00000E+00
         0.00000E+00
         0.00000E+00
         0.00000E+00
         0.00000E+00
         0.00000E+00
         0.00000E+00
         0.00000E+00
         0.00000E+00
         0.00000E+00
         0.00000E+00
         0.00000E+00
         0.00000E+00
         0.00000E+00
         0.00000E+00
         0.00000E+00
         0.00000E+00
         0.00000E+00
         0.00000E+00
         0.00000E+00
         0.00000E+00
         0.00000E+00
         0.00000E+00
         0.00000E+00
         0.00000E+00
         0.00000E+00
         0.00000E+00
         0.00000E+00
         0.00000E+00
         0.00000E+00
         0.00000E+00
         0.00000E+00
         0.00000E+00
         0.00000E+00
         0.00000E+00
         0.00000E+00
         0.00000E+00
         0.00000E+00
         0.00000E+00
         0.00000E+00
         0.00000E+00
         0.00000E+00
         0.00000E+00
         0.00000E+00
         0.00000E+00
         0.00000E+00
         0.00000E+00
         0.00000E+00
         0.00000E+00
         0.00000E+00
         0.00000E+00
         0.00000E+00
         0.00000E+00
         0.00000E+00
         0.00000E+00
         0.00000E+00
         0.00000E+00
         0.00000E+00
         0.00000E+00
         0.00000E+00
         0.00000E+00
         0.00000E+00
         0.00000E+00
         0.00000E+00
         0.00000E+00
         0.00000E+00
         0.00000E+00
         0.00000E+00
         0.00000E+00
         0.00000E+00
         0.00000E+00
         0.00000E+00
         0.00000E+00
         0.00000E+00
         0.00000E+00
         0.00000E+00
         0.00000E+00
         0.00000E+00
         0.00000E+00
         0.00000E+00
         0.00000E+00
         0.00000E+00
         0.00000E+00
         0.00000E+00
         0.00000E+00
         0.00000E+00
         0.00000E+00
         0.00000E+00
         0.00000E+00
         0.00000E+00
         0.00000E+00
         0.00000E+00
         0.00000E+00
         0.00000E+00
         0.00000E+00
         0.00000E+00
         0.00000E+00
         0.00000E+00
         0.00000E+00
         0.00000E+00
         0.00000E+00
         0.00000E+00
         0.00000E+00
         0.00000E+00
         0.00000E+00
         0.00000E+00
         0.00000E+00
         0.00000E+00
         0.00000E+00
         0.00000E+00
         0.00000E+00
         0.00000E+00
         0.00000E+00
         0.00000E+00
         0.00000E+00
         0.00000E+00
         0.00000E+00
         0.00000E+00
         0.00000E+00
         0.00000E+00
         0.00000E+00
         0.00000E+00
         0.00000E+00
         0.00000E+00
         0.00000E+00
         0.00000E+00
         0.00000E+00
         0.00000E+00
         0.00000E+00
         0.00000E+00
         0.00000E+00
         0.00000E+00
         0.00000E+00
         0.00000E+00
         0.00000E+00
         0.00000E+00
         0.00000E+00
         0.00000E+00
         0.00000E+00
         0.00000E+00
         0.00000E+00
         0.00000E+00
         0.00000E+00
         0.00000E+00
         0.00000E+00
         0.00000E+00
         0.00000E+00
         0.00000E+00
         0.00000E+00
         0.00000E+00
         0.00000E+00
         0.00000E+00
         0.00000E+00
         0.00000E+00
         0.00000E+00
         0.00000E+00
         0.00000E+00
         0.00000E+00
         0.00000E+00
         0.00000E+00
         0.00000E+00
         0.00000E+00
         0.00000E+00
         0.00000E+00
         0.00000E+00
         0.00000E+00
         0.00000E+00
         0.00000E+00
         0.00000E+00
         0.00000E+00
         0.00000E+00
         0.00000E+00
         0.00000E+00
         0.00000E+00
         0.00000E+00
         0.00000E+00
         0.00000E+00
         0.00000E+00
         0.00000E+00
         0.00000E+00
         0.00000E+00
         0.00000E+00
         0.00000E+00
         0.00000E+00
         0.00000E+00
         0.00000E+00
         0.00000E+00
         0.00000E+00
         0.00000E+00
         0.00000E+00
         0.00000E+00
         0.00000E+00
         0.00000E+00
         0.00000E+00
         0.00000E+00
         0.00000E+00
         0.00000E+00
         0.00000E+00
         0.00000E+00
         0.00000E+00
         0.00000E+00
         0.00000E+00
         0.00000E+00
         0.00000E+00
         0.00000E+00
         0.00000E+00
         0.00000E+00
         0.00000E+00
         0.00000E+00
         0.00000E+00
         0.00000E+00
         0.00000E+00
         0.00000E+00
         0.00000E+00
         0.00000E+00
         0.00000E+00
         0.00000E+00
         0.00000E+00
         0.00000E+00
         0.00000E+00
         0.00000E+00
         0.00000E+00
         0.00000E+00
         0.00000E+00
         0.00000E+00
         0.00000E+00
         0.00000E+00
         0.00000E+00
         0.00000E+00
         0.00000E+00
         0.00000E+00
         0.00000E+00
         0.00000E+00
         0.00000E+00
         0.00000E+00
         0.00000E+00
         0.00000E+00
         0.00000E+00
         0.00000E+00
         0.00000E+00
         0.00000E+00
         0.00000E+00
         0.00000E+00
         0.00000E+00
         0.00000E+00
         0.00000E+00
         0.00000E+00
         0.00000E+00
         0.00000E+00
         0.00000E+00
         0.00000E+00
         0.00000E+00
         0.00000E+00
         0.00000E+00
         0.00000E+00
         0.00000E+00
         0.00000E+00
         0.00000E+00
         0.00000E+00
         0.00000E+00
         0.00000E+00
         0.00000E+00
         0.00000E+00
         0.00000E+00
         0.00000E+00
         0.00000E+00
         0.00000E+00
         0.00000E+00
         0.00000E+00
         0.00000E+00
         0.00000E+00
         0.00000E+00
         0.00000E+00
         0.00000E+00
         0.00000E+00
         0.00000E+00
         0.00000E+00
         0.00000E+00
         0.00000E+00
         0.00000E+00
         0.00000E+00
         0.00000E+00
         0.00000E+00
         0.00000E+00
         0.00000E+00
         0.00000E+00
         0.00000E+00
         0.00000E+00
         0.00000E+00
         0.00000E+00
         0.00000E+00
         0.00000E+00
         0.00000E+00
         0.00000E+00
         0.00000E+00
         0.00000E+00
         0.00000E+00
         0.00000E+00
         0.00000E+00
         0.00000E+00
         0.00000E+00
         0.00000E+00
         0.00000E+00
         0.00000E+00
         0.00000E+00
         0.00000E+00
         0.00000E+00
         0.00000E+00
         0.00000E+00
         0.00000E+00
         0.00000E+00
         0.00000E+00
         0.00000E+00
         0.00000E+00
         0.00000E+00
         0.00000E+00
         0.00000E+00
         0.00000E+00
         0.00000E+00
         0.00000E+00
         0.00000E+00
         0.00000E+00
         0.00000E+00
         0.00000E+00
         0.00000E+00
         0.00000E+00
         0.00000E+00
         0.00000E+00
         0.00000E+00
         0.00000E+00
         0.00000E+00
         0.00000E+00
         0.00000E+00
         0.00000E+00
         0.00000E+00
         0.00000E+00
         0.00000E+00
         0.00000E+00
         0.00000E+00
         0.00000E+00
         0.00000E+00
         0.00000E+00
         0.00000E+00
         0.00000E+00
         0.00000E+00
         0.00000E+00
         0.00000E+00
         0.00000E+00
         0.00000E+00
         0.00000E+00
         0.00000E+00
         0.00000E+00
         0.00000E+00
         0.00000E+00
         0.00000E+00
         0.00000E+00
         0.00000E+00
         0.00000E+00
         0.00000E+00
         0.00000E+00
         0.00000E+00
         0.00000E+00
         0.00000E+00
         0.00000E+00
         0.00000E+00
         0.00000E+00
         0.00000E+00
         0.00000E+00
         0.00000E+00
         0.00000E+00
         0.00000E+00
         0.00000E+00
         0.00000E+00
         0.00000E+00
         0.00000E+00
         0.00000E+00
         0.00000E+00
         0.00000E+00
         0.00000E+00
         0.00000E+00
         0.00000E+00
         0.00000E+00
         0.00000E+00
         0.00000E+00
         0.00000E+00
         0.00000E+00
         0.00000E+00
         0.00000E+00
         0.00000E+00
         0.00000E+00
         0.00000E+00
         0.00000E+00
         0.00000E+00
         0.00000E+00
         0.00000E+00
         0.00000E+00
         0.00000E+00
         0.00000E+00
         0.00000E+00
         0.00000E+00
         0.00000E+00
         0.00000E+00
         0.00000E+00
         0.00000E+00
         0.00000E+00
         0.00000E+00
         0.00000E+00
         0.00000E+00
         0.00000E+00
         0.00000E+00
         0.00000E+00
         0.00000E+00
         0.00000E+00
         0.00000E+00
         0.00000E+00
         0.00000E+00
         0.00000E+00
         0.00000E+00
         0.00000E+00
         0.00000E+00
         0.00000E+00
         0.00000E+00
         0.00000E+00
         0.00000E+00
         0.00000E+00
         0.00000E+00
         0.00000E+00
         0.00000E+00
         0.00000E+00
         0.00000E+00
         0.00000E+00
         0.00000E+00
         0.00000E+00
         0.00000E+00
         0.00000E+00
         0.00000E+00
         0.00000E+00
         0.00000E+00
         0.00000E+00
         0.00000E+00
         0.00000E+00
         0.00000E+00
         0.00000E+00
         0.00000E+00
         0.00000E+00
         0.00000E+00
         0.00000E+00
         0.00000E+00
         0.00000E+00
         0.00000E+00
         0.00000E+00
         0.00000E+00
         0.00000E+00
         0.00000E+00
         0.00000E+00
         0.00000E+00
         0.00000E+00
         0.00000E+00
         0.00000E+00
         0.00000E+00
         0.00000E+00
         0.00000E+00
         0.00000E+00
         0.00000E+00
         0.00000E+00
         0.00000E+00
         0.00000E+00
         0.00000E+00
         0.00000E+00
         0.00000E+00
         0.00000E+00
         0.00000E+00
         0.00000E+00
         0.00000E+00
         0.00000E+00
         0.00000E+00
         0.00000E+00
         0.00000E+00
         0.00000E+00
         0.00000E+00
         0.00000E+00
         0.00000E+00
         0.00000E+00
         0.00000E+00
         0.00000E+00
         0.00000E+00
         0.00000E+00
         0.00000E+00
         0.00000E+00
         0.00000E+00
         0.00000E+00
         0.00000E+00
         0.00000E+00
         0.00000E+00
         0.00000E+00
         0.00000E+00
         0.00000E+00
         0.00000E+00
         0.00000E+00
         0.00000E+00
         0.00000E+00
         0.00000E+00
         0.00000E+00
         0.00000E+00
         0.00000E+00
         0.00000E+00
         0.00000E+00
         0.00000E+00
         0.00000E+00
         0.00000E+00
         0.00000E+00
         0.00000E+00
         0.00000E+00
         0.00000E+00
         0.00000E+00
         0.00000E+00
         0.00000E+00
         0.00000E+00
         0.00000E+00
         0.00000E+00
         0.00000E+00
         0.00000E+00
         0.00000E+00
         0.00000E+00
         0.00000E+00
         0.00000E+00
         0.00000E+00
         0.00000E+00
         0.00000E+00
         0.00000E+00
         0.00000E+00
         0.00000E+00
         0.00000E+00
         0.00000E+00
         0.00000E+00
         0.00000E+00
         0.00000E+00
         0.00000E+00
         0.00000E+00
         0.00000E+00
         0.00000E+00
         0.00000E+00
         0.00000E+00
         0.00000E+00
         0.00000E+00
         0.00000E+00
         0.00000E+00
         0.00000E+00
         0.00000E+00
         0.00000E+00
         0.00000E+00
         0.00000E+00
         0.00000E+00
         0.00000E+00
         0.00000E+00
         0.00000E+00
         0.00000E+00
         0.00000E+00
         0.00000E+00
         0.00000E+00
         0.00000E+00
         0.00000E+00
         0.00000E+00
         0.00000E+00
         0.00000E+00
         0.00000E+00
         0.00000E+00
         0.00000E+00
         0.00000E+00
         0.00000E+00
         0.00000E+00
         0.00000E+00
         0.00000E+00
         0.00000E+00
         0.00000E+00
         0.00000E+00
         0.00000E+00
         0.00000E+00
         0.00000E+00
         0.00000E+00
         0.00000E+00
         0.00000E+00
         0.00000E+00
         0.00000E+00
         0.00000E+00
         0.00000E+00
         0.00000E+00
         0.00000E+00
         0.00000E+00
         0.00000E+00
         0.00000E+00
         0.00000E+00
         0.00000E+00
         0.00000E+00
         0.00000E+00
         0.00000E+00
         0.00000E+00
         0.00000E+00
         0.00000E+00
         0.00000E+00
         0.00000E+00
         0.00000E+00
         0.00000E+00
         0.00000E+00
         0.00000E+00
         0.00000E+00
         0.00000E+00
         0.00000E+00
         0.00000E+00
         0.00000E+00
         0.00000E+00
         0.00000E+00
         0.00000E+00
         0.00000E+00
         0.00000E+00
         0.00000E+00
         0.00000E+00
         0.00000E+00
         0.00000E+00
         0.00000E+00
         0.00000E+00
         0.00000E+00
         0.00000E+00
         0.00000E+00
         0.00000E+00
         0.00000E+00
         0.00000E+00
         0.00000E+00
         0.00000E+00
         0.00000E+00
         0.00000E+00
         0.00000E+00
         0.00000E+00
         0.00000E+00
         0.00000E+00
         0.00000E+00
         0.00000E+00
         0.00000E+00
         0.00000E+00
         0.00000E+00
         0.00000E+00
         0.00000E+00
         0.00000E+00
         0.00000E+00
         0.00000E+00
         0.00000E+00
         0.00000E+00
         0.00000E+00
         0.00000E+00
         0.00000E+00
         0.00000E+00
         0.00000E+00
         0.00000E+00
         0.00000E+00
         0.00000E+00
         0.00000E+00
         0.00000E+00
         0.00000E+00
         0.00000E+00
         0.00000E+00
         0.00000E+00
         0.00000E+00
         0.00000E+00
         0.00000E+00
         0.00000E+00
         0.00000E+00
         0.00000E+00
         0.00000E+00
         0.00000E+00
         0.00000E+00
         0.00000E+00
         0.00000E+00
         0.00000E+00
         0.00000E+00
         0.00000E+00
         0.00000E+00
         0.00000E+00
         0.00000E+00
         0.00000E+00
         0.00000E+00
         0.00000E+00
         0.00000E+00
         0.00000E+00
         0.00000E+00
         0.00000E+00
         0.00000E+00
         0.00000E+00
         0.00000E+00
         0.00000E+00
         0.00000E+00
         0.00000E+00
         0.00000E+00
         0.00000E+00
         0.00000E+00
         0.00000E+00
         0.00000E+00
         0.00000E+00
         0.00000E+00
         0.00000E+00
         0.00000E+00
         0.00000E+00
         0.00000E+00
         0.00000E+00
         0.00000E+00
         0.00000E+00
         0.00000E+00
         0.00000E+00
         0.00000E+00
         0.00000E+00
         0.00000E+00
         0.00000E+00
         0.00000E+00
         0.00000E+00
         0.00000E+00
         0.00000E+00
         0.00000E+00
         0.00000E+00
         0.00000E+00
         0.00000E+00
         0.00000E+00
         0.00000E+00
         0.00000E+00
         0.00000E+00
         0.00000E+00
         0.00000E+00
         0.00000E+00
         0.00000E+00
         0.00000E+00
         0.00000E+00
         0.00000E+00
         0.00000E+00
         0.00000E+00
         0.00000E+00
         0.00000E+00
         0.00000E+00
         0.00000E+00
         0.00000E+00
         0.00000E+00
         0.00000E+00
         0.00000E+00
         0.00000E+00
         0.00000E+00
         0.00000E+00
         0.00000E+00
         0.00000E+00
         0.00000E+00
         0.00000E+00
         0.00000E+00
         0.00000E+00
         0.00000E+00
         0.00000E+00
         0.00000E+00
         0.00000E+00
         0.00000E+00
         0.00000E+00
         0.00000E+00
         0.00000E+00
         0.00000E+00
         0.00000E+00
         0.00000E+00
         0.00000E+00
         0.00000E+00
         0.00000E+00
         0.00000E+00
         0.00000E+00
         0.00000E+00
         0.00000E+00
         0.00000E+00
         0.00000E+00
         0.00000E+00
         0.00000E+00
         0.00000E+00
         0.00000E+00
         0.00000E+00
         0.00000E+00
         0.00000E+00
         0.00000E+00
         0.00000E+00
         0.00000E+00
         0.00000E+00
         0.00000E+00
         0.00000E+00
         0.00000E+00
         0.00000E+00
         0.00000E+00
         0.00000E+00
         0.00000E+00
         0.00000E+00
         0.00000E+00
         0.00000E+00
         0.00000E+00
         0.00000E+00
         0.00000E+00
         0.00000E+00
         0.00000E+00
         0.00000E+00
         0.00000E+00
         0.00000E+00
         0.00000E+00
         0.00000E+00
         0.00000E+00
         0.00000E+00
         0.00000E+00
         0.00000E+00
         0.00000E+00
         0.00000E+00
         0.00000E+00
         0.00000E+00
         0.00000E+00
         0.00000E+00
         0.00000E+00
         0.00000E+00
         0.00000E+00
         0.00000E+00
         0.00000E+00
         0.00000E+00
         0.00000E+00
         0.00000E+00
         0.00000E+00
         0.00000E+00
         0.00000E+00
         0.00000E+00
         0.00000E+00
         0.00000E+00
         0.00000E+00
         0.00000E+00
         0.00000E+00
         0.00000E+00
         0.00000E+00
         0.00000E+00
         0.00000E+00
         0.00000E+00
         0.00000E+00
         0.00000E+00
         0.00000E+00
         0.00000E+00
         0.00000E+00
         0.00000E+00
         0.00000E+00
         0.00000E+00
         0.00000E+00
         0.00000E+00
         0.00000E+00
         0.00000E+00
         0.00000E+00
         0.00000E+00
         0.00000E+00
         0.00000E+00
         0.00000E+00
         0.00000E+00
         0.00000E+00
         0.00000E+00
         0.00000E+00
         0.00000E+00
         0.00000E+00
         0.00000E+00
         0.00000E+00
         0.00000E+00
         0.00000E+00
         0.00000E+00
         0.00000E+00
         0.00000E+00
         0.00000E+00
         0.00000E+00
         0.00000E+00
         0.00000E+00
         0.00000E+00
         0.00000E+00
         0.00000E+00
         0.00000E+00
         0.00000E+00
         0.00000E+00
         0.00000E+00
         0.00000E+00
         0.00000E+00
         0.00000E+00
         0.00000E+00
         0.00000E+00
         0.00000E+00
         0.00000E+00
         0.00000E+00
         0.00000E+00
         0.00000E+00
         0.00000E+00
         0.00000E+00
         0.00000E+00
         0.00000E+00
         0.00000E+00
         0.00000E+00
         0.00000E+00
         0.00000E+00
         0.00000E+00
         0.00000E+00
         0.00000E+00
         0.00000E+00
         0.00000E+00
         0.00000E+00
         0.00000E+00
         0.00000E+00
         0.00000E+00
         0.00000E+00
         0.00000E+00
         0.00000E+00
         0.00000E+00
         0.00000E+00
         0.00000E+00
         0.00000E+00
         0.00000E+00
         0.00000E+00
         0.00000E+00
         0.00000E+00
         0.00000E+00
         0.00000E+00
         0.00000E+00
         0.00000E+00
         0.00000E+00
         0.00000E+00
         0.00000E+00
         0.00000E+00
         0.00000E+00
         0.00000E+00
         0.00000E+00
         0.00000E+00
         0.00000E+00
         0.00000E+00
         0.00000E+00
         0.00000E+00
         0.00000E+00
         0.00000E+00
         0.00000E+00
         0.00000E+00
         0.00000E+00
         0.00000E+00
         0.00000E+00
         0.00000E+00
         0.00000E+00
         0.00000E+00
         0.00000E+00
         0.00000E+00
         0.00000E+00
         0.00000E+00
         0.00000E+00
         0.00000E+00
         0.00000E+00
         0.00000E+00
         0.00000E+00
         0.00000E+00
         0.00000E+00
         0.00000E+00
         0.00000E+00
         0.00000E+00
         0.00000E+00
         0.00000E+00
         0.00000E+00
         0.00000E+00
         0.00000E+00
         0.00000E+00
         0.00000E+00
         0.00000E+00
         0.00000E+00
         0.00000E+00
         0.00000E+00
         0.00000E+00
         0.00000E+00
         0.00000E+00
         0.00000E+00
         0.00000E+00
         0.00000E+00
         0.00000E+00
         0.00000E+00
         0.00000E+00
         0.00000E+00
         0.00000E+00
         0.00000E+00
         0.00000E+00
         0.00000E+00
         0.00000E+00
         0.00000E+00
         0.00000E+00
         0.00000E+00
         0.00000E+00
         0.00000E+00
         0.00000E+00
         0.00000E+00
         0.00000E+00
  
SCALARS                     velocity_y  double 1
LOOKUP_TABLE default
         0.00000E+00
         0.00000E+00
         0.00000E+00
         0.00000E+00
         0.00000E+00
         0.00000E+00
         0.00000E+00
         0.00000E+00
         0.00000E+00
         0.00000E+00
         0.00000E+00
         0.00000E+00
         0.00000E+00
         0.00000E+00
         0.00000E+00
         0.00000E+00
         0.00000E+00
         0.00000E+00
         0.00000E+00
         0.00000E+00
         0.00000E+00
         0.00000E+00
         0.00000E+00
         0.00000E+00
         0.00000E+00
         0.00000E+00
         0.00000E+00
         0.00000E+00
         0.00000E+00
         0.00000E+00
         0.00000E+00
         0.00000E+00
         0.00000E+00
         0.00000E+00
         0.00000E+00
         0.00000E+00
         0.00000E+00
         0.00000E+00
         0.00000E+00
         0.00000E+00
         0.00000E+00
         0.00000E+00
         0.00000E+00
         0.00000E+00
         0.00000E+00
         0.00000E+00
         0.00000E+00
         0.00000E+00
         0.00000E+00
         0.00000E+00
         0.00000E+00
         0.00000E+00
         0.00000E+00
         0.00000E+00
         0.00000E+00
         0.00000E+00
         0.00000E+00
         0.00000E+00
         0.00000E+00
         0.00000E+00
         0.00000E+00
         0.00000E+00
         0.00000E+00
         0.00000E+00
         0.00000E+00
         0.00000E+00
         0.00000E+00
         0.00000E+00
         0.00000E+00
         0.00000E+00
         0.00000E+00
         0.00000E+00
         0.00000E+00
         0.00000E+00
         0.00000E+00
         0.00000E+00
         0.00000E+00
         0.00000E+00
         0.00000E+00
         0.00000E+00
         0.00000E+00
         0.00000E+00
         0.00000E+00
         0.00000E+00
         0.00000E+00
         0.00000E+00
         0.00000E+00
         0.00000E+00
         0.00000E+00
         0.00000E+00
         0.00000E+00
         0.00000E+00
         0.00000E+00
         0.00000E+00
         0.00000E+00
         0.00000E+00
         0.00000E+00
         0.00000E+00
         0.00000E+00
         0.00000E+00
         0.00000E+00
         0.00000E+00
         0.00000E+00
         0.00000E+00
         0.00000E+00
         0.00000E+00
         0.00000E+00
         0.00000E+00
         0.00000E+00
         0.00000E+00
         0.00000E+00
         0.00000E+00
         0.00000E+00
         0.00000E+00
         0.00000E+00
         0.00000E+00
         0.00000E+00
         0.00000E+00
         0.00000E+00
         0.00000E+00
         0.00000E+00
         0.00000E+00
         0.00000E+00
         0.00000E+00
         0.00000E+00
         0.00000E+00
         0.00000E+00
         0.00000E+00
         0.00000E+00
         0.00000E+00
         0.00000E+00
         0.00000E+00
         0.00000E+00
         0.00000E+00
         0.00000E+00
         0.00000E+00
         0.00000E+00
         0.00000E+00
         0.00000E+00
         0.00000E+00
         0.00000E+00
         0.00000E+00
         0.00000E+00
         0.00000E+00
         0.00000E+00
         0.00000E+00
         0.00000E+00
         0.00000E+00
         0.00000E+00
         0.00000E+00
         0.00000E+00
         0.00000E+00
         0.00000E+00
         0.00000E+00
         0.00000E+00
         0.00000E+00
         0.00000E+00
         0.00000E+00
         0.00000E+00
         0.00000E+00
         0.00000E+00
         0.00000E+00
         0.00000E+00
         0.00000E+00
         0.00000E+00
         0.00000E+00
         0.00000E+00
         0.00000E+00
         0.00000E+00
         0.00000E+00
         0.00000E+00
         0.00000E+00
         0.00000E+00
         0.00000E+00
         0.00000E+00
         0.00000E+00
         0.00000E+00
         0.00000E+00
         0.00000E+00
         0.00000E+00
         0.00000E+00
         0.00000E+00
         0.00000E+00
         0.00000E+00
         0.00000E+00
         0.00000E+00
         0.00000E+00
         0.00000E+00
         0.00000E+00
         0.00000E+00
         0.00000E+00
         0.00000E+00
         0.00000E+00
         0.00000E+00
         0.00000E+00
         0.00000E+00
         0.00000E+00
         0.00000E+00
         0.00000E+00
         0.00000E+00
         0.00000E+00
         0.00000E+00
         0.00000E+00
         0.00000E+00
         0.00000E+00
         0.00000E+00
         0.00000E+00
         0.00000E+00
         0.00000E+00
         0.00000E+00
         0.00000E+00
         0.00000E+00
         0.00000E+00
         0.00000E+00
         0.00000E+00
         0.00000E+00
         0.00000E+00
         0.00000E+00
         0.00000E+00
         0.00000E+00
         0.00000E+00
         0.00000E+00
         0.00000E+00
         0.00000E+00
         0.00000E+00
         0.00000E+00
         0.00000E+00
         0.00000E+00
         0.00000E+00
         0.00000E+00
         0.00000E+00
         0.00000E+00
         0.00000E+00
         0.00000E+00
         0.00000E+00
         0.00000E+00
         0.00000E+00
         0.00000E+00
         0.00000E+00
         0.00000E+00
         0.00000E+00
         0.00000E+00
         0.00000E+00
         0.00000E+00
         0.00000E+00
         0.00000E+00
         0.00000E+00
         0.00000E+00
         0.00000E+00
         0.00000E+00
         0.00000E+00
         0.00000E+00
         0.00000E+00
         0.00000E+00
         0.00000E+00
         0.00000E+00
         0.00000E+00
         0.00000E+00
         0.00000E+00
         0.00000E+00
         0.00000E+00
         0.00000E+00
         0.00000E+00
         0.00000E+00
         0.00000E+00
         0.00000E+00
         0.00000E+00
         0.00000E+00
         0.00000E+00
         0.00000E+00
         0.00000E+00
         0.00000E+00
         0.00000E+00
         0.00000E+00
         0.00000E+00
         0.00000E+00
         0.00000E+00
         0.00000E+00
         0.00000E+00
         0.00000E+00
         0.00000E+00
         0.00000E+00
         0.00000E+00
         0.00000E+00
         0.00000E+00
         0.00000E+00
         0.00000E+00
         0.00000E+00
         0.00000E+00
         0.00000E+00
         0.00000E+00
         0.00000E+00
         0.00000E+00
         0.00000E+00
         0.00000E+00
         0.00000E+00
         0.00000E+00
         0.00000E+00
         0.00000E+00
         0.00000E+00
         0.00000E+00
         0.00000E+00
         0.00000E+00
         0.00000E+00
         0.00000E+00
         0.00000E+00
         0.00000E+00
         0.00000E+00
         0.00000E+00
         0.00000E+00
         0.00000E+00
         0.00000E+00
         0.00000E+00
         0.00000E+00
         0.00000E+00
         0.00000E+00
         0.00000E+00
         0.00000E+00
         0.00000E+00
         0.00000E+00
         0.00000E+00
         0.00000E+00
         0.00000E+00
         0.00000E+00
         0.00000E+00
         0.00000E+00
         0.00000E+00
         0.00000E+00
         0.00000E+00
         0.00000E+00
         0.00000E+00
         0.00000E+00
         0.00000E+00
         0.00000E+00
         0.00000E+00
         0.00000E+00
         0.00000E+00
         0.00000E+00
         0.00000E+00
         0.00000E+00
         0.00000E+00
         0.00000E+00
         0.00000E+00
         0.00000E+00
         0.00000E+00
         0.00000E+00
         0.00000E+00
         0.00000E+00
         0.00000E+00
         0.00000E+00
         0.00000E+00
         0.00000E+00
         0.00000E+00
         0.00000E+00
         0.00000E+00
         0.00000E+00
         0.00000E+00
         0.00000E+00
         0.00000E+00
         0.00000E+00
         0.00000E+00
         0.00000E+00
         0.00000E+00
         0.00000E+00
         0.00000E+00
         0.00000E+00
         0.00000E+00
         0.00000E+00
         0.00000E+00
         0.00000E+00
         0.00000E+00
         0.00000E+00
         0.00000E+00
         0.00000E+00
         0.00000E+00
         0.00000E+00
         0.00000E+00
         0.00000E+00
         0.00000E+00
         0.00000E+00
         0.00000E+00
         0.00000E+00
         0.00000E+00
         0.00000E+00
         0.00000E+00
         0.00000E+00
         0.00000E+00
         0.00000E+00
         0.00000E+00
         0.00000E+00
         0.00000E+00
         0.00000E+00
         0.00000E+00
         0.00000E+00
         0.00000E+00
         0.00000E+00
         0.00000E+00
         0.00000E+00
         0.00000E+00
         0.00000E+00
         0.00000E+00
         0.00000E+00
         0.00000E+00
         0.00000E+00
         0.00000E+00
         0.00000E+00
         0.00000E+00
         0.00000E+00
         0.00000E+00
         0.00000E+00
         0.00000E+00
         0.00000E+00
         0.00000E+00
         0.00000E+00
         0.00000E+00
         0.00000E+00
         0.00000E+00
         0.00000E+00
         0.00000E+00
         0.00000E+00
         0.00000E+00
         0.00000E+00
         0.00000E+00
         0.00000E+00
         0.00000E+00
         0.00000E+00
         0.00000E+00
         0.00000E+00
         0.00000E+00
         0.00000E+00
         0.00000E+00
         0.00000E+00
         0.00000E+00
         0.00000E+00
         0.00000E+00
         0.00000E+00
         0.00000E+00
         0.00000E+00
         0.00000E+00
         0.00000E+00
         0.00000E+00
         0.00000E+00
         0.00000E+00
         0.00000E+00
         0.00000E+00
         0.00000E+00
         0.00000E+00
         0.00000E+00
         0.00000E+00
         0.00000E+00
         0.00000E+00
         0.00000E+00
         0.00000E+00
         0.00000E+00
         0.00000E+00
         0.00000E+00
         0.00000E+00
         0.00000E+00
         0.00000E+00
         0.00000E+00
         0.00000E+00
         0.00000E+00
         0.00000E+00
         0.00000E+00
         0.00000E+00
         0.00000E+00
         0.00000E+00
         0.00000E+00
         0.00000E+00
         0.00000E+00
         0.00000E+00
         0.00000E+00
         0.00000E+00
         0.00000E+00
         0.00000E+00
         0.00000E+00
         0.00000E+00
         0.00000E+00
         0.00000E+00
         0.00000E+00
         0.00000E+00
         0.00000E+00
         0.00000E+00
         0.00000E+00
         0.00000E+00
         0.00000E+00
         0.00000E+00
         0.00000E+00
         0.00000E+00
         0.00000E+00
         0.00000E+00
         0.00000E+00
         0.00000E+00
         0.00000E+00
         0.00000E+00
         0.00000E+00
         0.00000E+00
         0.00000E+00
         0.00000E+00
         0.00000E+00
         0.00000E+00
         0.00000E+00
         0.00000E+00
         0.00000E+00
         0.00000E+00
         0.00000E+00
         0.00000E+00
         0.00000E+00
         0.00000E+00
         0.00000E+00
         0.00000E+00
         0.00000E+00
         0.00000E+00
         0.00000E+00
         0.00000E+00
         0.00000E+00
         0.00000E+00
         0.00000E+00
         0.00000E+00
         0.00000E+00
         0.00000E+00
         0.00000E+00
         0.00000E+00
         0.00000E+00
         0.00000E+00
         0.00000E+00
         0.00000E+00
         0.00000E+00
         0.00000E+00
         0.00000E+00
         0.00000E+00
         0.00000E+00
         0.00000E+00
         0.00000E+00
         0.00000E+00
         0.00000E+00
         0.00000E+00
         0.00000E+00
         0.00000E+00
         0.00000E+00
         0.00000E+00
         0.00000E+00
         0.00000E+00
         0.00000E+00
         0.00000E+00
         0.00000E+00
         0.00000E+00
         0.00000E+00
         0.00000E+00
         0.00000E+00
         0.00000E+00
         0.00000E+00
         0.00000E+00
         0.00000E+00
         0.00000E+00
         0.00000E+00
         0.00000E+00
         0.00000E+00
         0.00000E+00
         0.00000E+00
         0.00000E+00
         0.00000E+00
         0.00000E+00
         0.00000E+00
         0.00000E+00
         0.00000E+00
         0.00000E+00
         0.00000E+00
         0.00000E+00
         0.00000E+00
         0.00000E+00
         0.00000E+00
         0.00000E+00
         0.00000E+00
         0.00000E+00
         0.00000E+00
         0.00000E+00
         0.00000E+00
         0.00000E+00
         0.00000E+00
         0.00000E+00
         0.00000E+00
         0.00000E+00
         0.00000E+00
         0.00000E+00
         0.00000E+00
         0.00000E+00
         0.00000E+00
         0.00000E+00
         0.00000E+00
         0.00000E+00
         0.00000E+00
         0.00000E+00
         0.00000E+00
         0.00000E+00
         0.00000E+00
         0.00000E+00
         0.00000E+00
         0.00000E+00
         0.00000E+00
         0.00000E+00
         0.00000E+00
         0.00000E+00
         0.00000E+00
         0.00000E+00
         0.00000E+00
         0.00000E+00
         0.00000E+00
         0.00000E+00
         0.00000E+00
         0.00000E+00
         0.00000E+00
         0.00000E+00
         0.00000E+00
         0.00000E+00
         0.00000E+00
         0.00000E+00
         0.00000E+00
         0.00000E+00
         0.00000E+00
         0.00000E+00
         0.00000E+00
         0.00000E+00
         0.00000E+00
         0.00000E+00
         0.00000E+00
         0.00000E+00
         0.00000E+00
         0.00000E+00
         0.00000E+00
         0.00000E+00
         0.00000E+00
         0.00000E+00
         0.00000E+00
         0.00000E+00
         0.00000E+00
         0.00000E+00
         0.00000E+00
         0.00000E+00
         0.00000E+00
         0.00000E+00
         0.00000E+00
         0.00000E+00
         0.00000E+00
         0.00000E+00
         0.00000E+00
         0.00000E+00
         0.00000E+00
         0.00000E+00
         0.00000E+00
         0.00000E+00
         0.00000E+00
         0.00000E+00
         0.00000E+00
         0.00000E+00
         0.00000E+00
         0.00000E+00
         0.00000E+00
         0.00000E+00
         0.00000E+00
         0.00000E+00
         0.00000E+00
         0.00000E+00
         0.00000E+00
         0.00000E+00
         0.00000E+00
         0.00000E+00
         0.00000E+00
         0.00000E+00
         0.00000E+00
         0.00000E+00
         0.00000E+00
         0.00000E+00
         0.00000E+00
         0.00000E+00
         0.00000E+00
         0.00000E+00
         0.00000E+00
         0.00000E+00
         0.00000E+00
         0.00000E+00
         0.00000E+00
         0.00000E+00
         0.00000E+00
         0.00000E+00
         0.00000E+00
         0.00000E+00
         0.00000E+00
         0.00000E+00
         0.00000E+00
         0.00000E+00
         0.00000E+00
         0.00000E+00
         0.00000E+00
         0.00000E+00
         0.00000E+00
         0.00000E+00
         0.00000E+00
         0.00000E+00
         0.00000E+00
         0.00000E+00
         0.00000E+00
         0.00000E+00
         0.00000E+00
         0.00000E+00
         0.00000E+00
         0.00000E+00
         0.00000E+00
         0.00000E+00
         0.00000E+00
         0.00000E+00
         0.00000E+00
         0.00000E+00
         0.00000E+00
         0.00000E+00
         0.00000E+00
         0.00000E+00
         0.00000E+00
         0.00000E+00
         0.00000E+00
         0.00000E+00
         0.00000E+00
         0.00000E+00
         0.00000E+00
         0.00000E+00
         0.00000E+00
         0.00000E+00
         0.00000E+00
         0.00000E+00
         0.00000E+00
         0.00000E+00
         0.00000E+00
         0.00000E+00
         0.00000E+00
         0.00000E+00
         0.00000E+00
         0.00000E+00
         0.00000E+00
         0.00000E+00
         0.00000E+00
         0.00000E+00
         0.00000E+00
         0.00000E+00
         0.00000E+00
         0.00000E+00
         0.00000E+00
         0.00000E+00
         0.00000E+00
         0.00000E+00
         0.00000E+00
         0.00000E+00
         0.00000E+00
         0.00000E+00
         0.00000E+00
         0.00000E+00
         0.00000E+00
         0.00000E+00
         0.00000E+00
         0.00000E+00
         0.00000E+00
         0.00000E+00
         0.00000E+00
         0.00000E+00
         0.00000E+00
         0.00000E+00
         0.00000E+00
         0.00000E+00
         0.00000E+00
         0.00000E+00
         0.00000E+00
         0.00000E+00
         0.00000E+00
         0.00000E+00
         0.00000E+00
         0.00000E+00
         0.00000E+00
         0.00000E+00
         0.00000E+00
         0.00000E+00
         0.00000E+00
         0.00000E+00
         0.00000E+00
         0.00000E+00
         0.00000E+00
         0.00000E+00
         0.00000E+00
         0.00000E+00
         0.00000E+00
         0.00000E+00
         0.00000E+00
         0.00000E+00
         0.00000E+00
         0.00000E+00
         0.00000E+00
         0.00000E+00
         0.00000E+00
         0.00000E+00
         0.00000E+00
         0.00000E+00
         0.00000E+00
         0.00000E+00
         0.00000E+00
         0.00000E+00
         0.00000E+00
         0.00000E+00
         0.00000E+00
         0.00000E+00
         0.00000E+00
         0.00000E+00
         0.00000E+00
         0.00000E+00
         0.00000E+00
         0.00000E+00
         0.00000E+00
         0.00000E+00
         0.00000E+00
         0.00000E+00
         0.00000E+00
         0.00000E+00
         0.00000E+00
         0.00000E+00
         0.00000E+00
         0.00000E+00
         0.00000E+00
         0.00000E+00
         0.00000E+00
         0.00000E+00
         0.00000E+00
         0.00000E+00
         0.00000E+00
         0.00000E+00
         0.00000E+00
         0.00000E+00
         0.00000E+00
         0.00000E+00
         0.00000E+00
         0.00000E+00
         0.00000E+00
         0.00000E+00
         0.00000E+00
         0.00000E+00
         0.00000E+00
         0.00000E+00
         0.00000E+00
         0.00000E+00
         0.00000E+00
         0.00000E+00
         0.00000E+00
         0.00000E+00
         0.00000E+00
         0.00000E+00
         0.00000E+00
         0.00000E+00
         0.00000E+00
         0.00000E+00
         0.00000E+00
         0.00000E+00
         0.00000E+00
         0.00000E+00
         0.00000E+00
         0.00000E+00
         0.00000E+00
         0.00000E+00
         0.00000E+00
         0.00000E+00
         0.00000E+00
         0.00000E+00
         0.00000E+00
         0.00000E+00
         0.00000E+00
         0.00000E+00
         0.00000E+00
         0.00000E+00
         0.00000E+00
         0.00000E+00
         0.00000E+00
         0.00000E+00
         0.00000E+00
         0.00000E+00
         0.00000E+00
         0.00000E+00
         0.00000E+00
         0.00000E+00
         0.00000E+00
         0.00000E+00
         0.00000E+00
         0.00000E+00
         0.00000E+00
         0.00000E+00
         0.00000E+00
         0.00000E+00
         0.00000E+00
         0.00000E+00
         0.00000E+00
         0.00000E+00
         0.00000E+00
         0.00000E+00
         0.00000E+00
         0.00000E+00
         0.00000E+00
         0.00000E+00
         0.00000E+00
         0.00000E+00
         0.00000E+00
         0.00000E+00
         0.00000E+00
         0.00000E+00
         0.00000E+00
         0.00000E+00
         0.00000E+00
         0.00000E+00
         0.00000E+00
         0.00000E+00
         0.00000E+00
         0.00000E+00
         0.00000E+00
         0.00000E+00
         0.00000E+00
         0.00000E+00
         0.00000E+00
         0.00000E+00
         0.00000E+00
         0.00000E+00
         0.00000E+00
         0.00000E+00
         0.00000E+00
         0.00000E+00
         0.00000E+00
         0.00000E+00
         0.00000E+00
         0.00000E+00
         0.00000E+00
         0.00000E+00
         0.00000E+00
         0.00000E+00
         0.00000E+00
         0.00000E+00
         0.00000E+00
         0.00000E+00
         0.00000E+00
         0.00000E+00
         0.00000E+00
         0.00000E+00
         0.00000E+00
         0.00000E+00
         0.00000E+00
         0.00000E+00
         0.00000E+00
         0.00000E+00
         0.00000E+00
         0.00000E+00
         0.00000E+00
         0.00000E+00
         0.00000E+00
         0.00000E+00
         0.00000E+00
         0.00000E+00
         0.00000E+00
         0.00000E+00
         0.00000E+00
         0.00000E+00
         0.00000E+00
         0.00000E+00
         0.00000E+00
         0.00000E+00
         0.00000E+00
         0.00000E+00
         0.00000E+00
         0.00000E+00
         0.00000E+00
         0.00000E+00
         0.00000E+00
         0.00000E+00
         0.00000E+00
         0.00000E+00
         0.00000E+00
         0.00000E+00
         0.00000E+00
         0.00000E+00
         0.00000E+00
         0.00000E+00
         0.00000E+00
         0.00000E+00
         0.00000E+00
         0.00000E+00
         0.00000E+00
         0.00000E+00
         0.00000E+00
         0.00000E+00
         0.00000E+00
         0.00000E+00
         0.00000E+00
         0.00000E+00
         0.00000E+00
         0.00000E+00
         0.00000E+00
         0.00000E+00
         0.00000E+00
         0.00000E+00
         0.00000E+00
         0.00000E+00
         0.00000E+00
         0.00000E+00
         0.00000E+00
         0.00000E+00
         0.00000E+00
         0.00000E+00
         0.00000E+00
         0.00000E+00
         0.00000E+00
         0.00000E+00
         0.00000E+00
         0.00000E+00
         0.00000E+00
         0.00000E+00
         0.00000E+00
         0.00000E+00
         0.00000E+00
         0.00000E+00
         0.00000E+00
         0.00000E+00
         0.00000E+00
         0.00000E+00
         0.00000E+00
         0.00000E+00
         0.00000E+00
         0.00000E+00
         0.00000E+00
         0.00000E+00
         0.00000E+00
         0.00000E+00
         0.00000E+00
         0.00000E+00
         0.00000E+00
         0.00000E+00
         0.00000E+00
         0.00000E+00
         0.00000E+00
         0.00000E+00
         0.00000E+00
         0.00000E+00
         0.00000E+00
         0.00000E+00
         0.00000E+00
         0.00000E+00
         0.00000E+00
         0.00000E+00
         0.00000E+00
         0.00000E+00
         0.00000E+00
         0.00000E+00
         0.00000E+00
         0.00000E+00
         0.00000E+00
         0.00000E+00
         0.00000E+00
         0.00000E+00
         0.00000E+00
         0.00000E+00
         0.00000E+00
         0.00000E+00
         0.00000E+00
         0.00000E+00
         0.00000E+00
         0.00000E+00
         0.00000E+00
         0.00000E+00
         0.00000E+00
         0.00000E+00
         0.00000E+00
         0.00000E+00
         0.00000E+00
         0.00000E+00
         0.00000E+00
         0.00000E+00
         0.00000E+00
         0.00000E+00
         0.00000E+00
         0.00000E+00
         0.00000E+00
         0.00000E+00
         0.00000E+00
         0.00000E+00
         0.00000E+00
         0.00000E+00
         0.00000E+00
         0.00000E+00
         0.00000E+00
         0.00000E+00
         0.00000E+00
         0.00000E+00
         0.00000E+00
         0.00000E+00
         0.00000E+00
         0.00000E+00
         0.00000E+00
         0.00000E+00
         0.00000E+00
         0.00000E+00
         0.00000E+00
         0.00000E+00
         0.00000E+00
         0.00000E+00
         0.00000E+00
         0.00000E+00
         0.00000E+00
         0.00000E+00
         0.00000E+00
         0.00000E+00
         0.00000E+00
         0.00000E+00
         0.00000E+00
         0.00000E+00
         0.00000E+00
         0.00000E+00
         0.00000E+00
         0.00000E+00
         0.00000E+00
         0.00000E+00
         0.00000E+00
         0.00000E+00
         0.00000E+00
         0.00000E+00
         0.00000E+00
         0.00000E+00
         0.00000E+00
         0.00000E+00
         0.00000E+00
         0.00000E+00
         0.00000E+00
         0.00000E+00
         0.00000E+00
         0.00000E+00
         0.00000E+00
         0.00000E+00
         0.00000E+00
         0.00000E+00
         0.00000E+00
         0.00000E+00
         0.00000E+00
         0.00000E+00
         0.00000E+00
         0.00000E+00
         0.00000E+00
         0.00000E+00
         0.00000E+00
         0.00000E+00
         0.00000E+00
         0.00000E+00
         0.00000E+00
         0.00000E+00
         0.00000E+00
         0.00000E+00
         0.00000E+00
         0.00000E+00
         0.00000E+00
         0.00000E+00
         0.00000E+00
         0.00000E+00
         0.00000E+00
         0.00000E+00
         0.00000E+00
         0.00000E+00
         0.00000E+00
         0.00000E+00
         0.00000E+00
         0.00000E+00
         0.00000E+00
         0.00000E+00
         0.00000E+00
         0.00000E+00
         0.00000E+00
         0.00000E+00
         0.00000E+00
         0.00000E+00
         0.00000E+00
         0.00000E+00
         0.00000E+00
         0.00000E+00
         0.00000E+00
         0.00000E+00
         0.00000E+00
         0.00000E+00
         0.00000E+00
         0.00000E+00
         0.00000E+00
         0.00000E+00
         0.00000E+00
         0.00000E+00
         0.00000E+00
         0.00000E+00
         0.00000E+00
         0.00000E+00
         0.00000E+00
         0.00000E+00
         0.00000E+00
         0.00000E+00
         0.00000E+00
         0.00000E+00
         0.00000E+00
         0.00000E+00
         0.00000E+00
         0.00000E+00
         0.00000E+00
         0.00000E+00
         0.00000E+00
         0.00000E+00
         0.00000E+00
         0.00000E+00
         0.00000E+00
         0.00000E+00
         0.00000E+00
         0.00000E+00
         0.00000E+00
         0.00000E+00
         0.00000E+00
         0.00000E+00
         0.00000E+00
         0.00000E+00
         0.00000E+00
         0.00000E+00
         0.00000E+00
         0.00000E+00
         0.00000E+00
         0.00000E+00
         0.00000E+00
         0.00000E+00
         0.00000E+00
         0.00000E+00
         0.00000E+00
         0.00000E+00
         0.00000E+00
         0.00000E+00
         0.00000E+00
         0.00000E+00
         0.00000E+00
         0.00000E+00
         0.00000E+00
         0.00000E+00
         0.00000E+00
         0.00000E+00
         0.00000E+00
         0.00000E+00
         0.00000E+00
         0.00000E+00
         0.00000E+00
         0.00000E+00
         0.00000E+00
         0.00000E+00
         0.00000E+00
         0.00000E+00
         0.00000E+00
         0.00000E+00
         0.00000E+00
         0.00000E+00
         0.00000E+00
         0.00000E+00
         0.00000E+00
         0.00000E+00
         0.00000E+00
         0.00000E+00
         0.00000E+00
         0.00000E+00
         0.00000E+00
         0.00000E+00
         0.00000E+00
         0.00000E+00
         0.00000E+00
         0.00000E+00
         0.00000E+00
         0.00000E+00
         0.00000E+00
         0.00000E+00
         0.00000E+00
         0.00000E+00
         0.00000E+00
         0.00000E+00
         0.00000E+00
         0.00000E+00
         0.00000E+00
         0.00000E+00
         0.00000E+00
         0.00000E+00
         0.00000E+00
         0.00000E+00
         0.00000E+00
         0.00000E+00
         0.00000E+00
         0.00000E+00
         0.00000E+00
         0.00000E+00
         0.00000E+00
         0.00000E+00
         0.00000E+00
         0.00000E+00
         0.00000E+00
         0.00000E+00
         0.00000E+00
         0.00000E+00
         0.00000E+00
         0.00000E+00
         0.00000E+00
         0.00000E+00
         0.00000E+00
         0.00000E+00
         0.00000E+00
         0.00000E+00
         0.00000E+00
         0.00000E+00
         0.00000E+00
         0.00000E+00
         0.00000E+00
         0.00000E+00
         0.00000E+00
         0.00000E+00
         0.00000E+00
         0.00000E+00
         0.00000E+00
         0.00000E+00
         0.00000E+00
         0.00000E+00
         0.00000E+00
         0.00000E+00
         0.00000E+00
         0.00000E+00
         0.00000E+00
         0.00000E+00
         0.00000E+00
         0.00000E+00
         0.00000E+00
         0.00000E+00
         0.00000E+00
         0.00000E+00
         0.00000E+00
         0.00000E+00
         0.00000E+00
         0.00000E+00
         0.00000E+00
         0.00000E+00
         0.00000E+00
         0.00000E+00
         0.00000E+00
         0.00000E+00
         0.00000E+00
         0.00000E+00
         0.00000E+00
         0.00000E+00
         0.00000E+00
         0.00000E+00
         0.00000E+00
         0.00000E+00
         0.00000E+00
         0.00000E+00
         0.00000E+00
         0.00000E+00
         0.00000E+00
         0.00000E+00
         0.00000E+00
         0.00000E+00
         0.00000E+00
         0.00000E+00
         0.00000E+00
         0.00000E+00
         0.00000E+00
         0.00000E+00
         0.00000E+00
         0.00000E+00
         0.00000E+00
         0.00000E+00
         0.00000E+00
         0.00000E+00
         0.00000E+00
         0.00000E+00
         0.00000E+00
         0.00000E+00
         0.00000E+00
         0.00000E+00
         0.00000E+00
         0.00000E+00
         0.00000E+00
         0.00000E+00
         0.00000E+00
         0.00000E+00
         0.00000E+00
         0.00000E+00
         0.00000E+00
         0.00000E+00
         0.00000E+00
         0.00000E+00
         0.00000E+00
         0.00000E+00
         0.00000E+00
         0.00000E+00
         0.00000E+00
         0.00000E+00
         0.00000E+00
         0.00000E+00
         0.00000E+00
         0.00000E+00
         0.00000E+00
         0.00000E+00
         0.00000E+00
         0.00000E+00
         0.00000E+00
         0.00000E+00
         0.00000E+00
         0.00000E+00
         0.00000E+00
         0.00000E+00
         0.00000E+00
         0.00000E+00
         0.00000E+00
         0.00000E+00
         0.00000E+00
         0.00000E+00
         0.00000E+00
         0.00000E+00
         0.00000E+00
         0.00000E+00
         0.00000E+00
         0.00000E+00
         0.00000E+00
         0.00000E+00
         0.00000E+00
         0.00000E+00
         0.00000E+00
         0.00000E+00
         0.00000E+00
         0.00000E+00
         0.00000E+00
         0.00000E+00
         0.00000E+00
         0.00000E+00
         0.00000E+00
         0.00000E+00
         0.00000E+00
         0.00000E+00
         0.00000E+00
         0.00000E+00
         0.00000E+00
         0.00000E+00
         0.00000E+00
         0.00000E+00
         0.00000E+00
         0.00000E+00
         0.00000E+00
         0.00000E+00
         0.00000E+00
         0.00000E+00
         0.00000E+00
         0.00000E+00
         0.00000E+00
         0.00000E+00
         0.00000E+00
         0.00000E+00
         0.00000E+00
         0.00000E+00
         0.00000E+00
         0.00000E+00
         0.00000E+00
         0.00000E+00
         0.00000E+00
         0.00000E+00
         0.00000E+00
         0.00000E+00
         0.00000E+00
         0.00000E+00
         0.00000E+00
         0.00000E+00
         0.00000E+00
         0.00000E+00
         0.00000E+00
         0.00000E+00
         0.00000E+00
         0.00000E+00
         0.00000E+00
         0.00000E+00
         0.00000E+00
         0.00000E+00
         0.00000E+00
         0.00000E+00
         0.00000E+00
         0.00000E+00
         0.00000E+00
         0.00000E+00
         0.00000E+00
         0.00000E+00
         0.00000E+00
         0.00000E+00
         0.00000E+00
         0.00000E+00
         0.00000E+00
         0.00000E+00
         0.00000E+00
         0.00000E+00
         0.00000E+00
         0.00000E+00
         0.00000E+00
         0.00000E+00
         0.00000E+00
         0.00000E+00
         0.00000E+00
         0.00000E+00
         0.00000E+00
         0.00000E+00
         0.00000E+00
         0.00000E+00
         0.00000E+00
         0.00000E+00
         0.00000E+00
         0.00000E+00
         0.00000E+00
         0.00000E+00
         0.00000E+00
         0.00000E+00
         0.00000E+00
         0.00000E+00
         0.00000E+00
         0.00000E+00
         0.00000E+00
         0.00000E+00
         0.00000E+00
         0.00000E+00
         0.00000E+00
         0.00000E+00
         0.00000E+00
         0.00000E+00
         0.00000E+00
         0.00000E+00
         0.00000E+00
         0.00000E+00
         0.00000E+00
         0.00000E+00
         0.00000E+00
         0.00000E+00
         0.00000E+00
         0.00000E+00
         0.00000E+00
         0.00000E+00
         0.00000E+00
         0.00000E+00
         0.00000E+00
         0.00000E+00
         0.00000E+00
         0.00000E+00
         0.00000E+00
         0.00000E+00
         0.00000E+00
         0.00000E+00
         0.00000E+00
         0.00000E+00
         0.00000E+00
         0.00000E+00
         0.00000E+00
         0.00000E+00
         0.00000E+00
         0.00000E+00
         0.00000E+00
         0.00000E+00
         0.00000E+00
         0.00000E+00
         0.00000E+00
         0.00000E+00
         0.00000E+00
         0.00000E+00
         0.00000E+00
         0.00000E+00
         0.00000E+00
         0.00000E+00
         0.00000E+00
         0.00000E+00
         0.00000E+00
         0.00000E+00
         0.00000E+00
         0.00000E+00
         0.00000E+00
         0.00000E+00
         0.00000E+00
         0.00000E+00
         0.00000E+00
         0.00000E+00
         0.00000E+00
         0.00000E+00
         0.00000E+00
         0.00000E+00
         0.00000E+00
         0.00000E+00
         0.00000E+00
         0.00000E+00
         0.00000E+00
         0.00000E+00
         0.00000E+00
         0.00000E+00
         0.00000E+00
         0.00000E+00
         0.00000E+00
         0.00000E+00
         0.00000E+00
         0.00000E+00
         0.00000E+00
         0.00000E+00
         0.00000E+00
         0.00000E+00
         0.00000E+00
         0.00000E+00
         0.00000E+00
         0.00000E+00
         0.00000E+00
         0.00000E+00
         0.00000E+00
         0.00000E+00
         0.00000E+00
         0.00000E+00
         0.00000E+00
         0.00000E+00
         0.00000E+00
         0.00000E+00
         0.00000E+00
         0.00000E+00
         0.00000E+00
         0.00000E+00
         0.00000E+00
         0.00000E+00
         0.00000E+00
         0.00000E+00
         0.00000E+00
         0.00000E+00
         0.00000E+00
         0.00000E+00
         0.00000E+00
         0.00000E+00
         0.00000E+00
         0.00000E+00
         0.00000E+00
         0.00000E+00
         0.00000E+00
         0.00000E+00
         0.00000E+00
         0.00000E+00
         0.00000E+00
         0.00000E+00
         0.00000E+00
         0.00000E+00
         0.00000E+00
         0.00000E+00
         0.00000E+00
         0.00000E+00
         0.00000E+00
         0.00000E+00
         0.00000E+00
         0.00000E+00
         0.00000E+00
         0.00000E+00
         0.00000E+00
         0.00000E+00
         0.00000E+00
         0.00000E+00
         0.00000E+00
         0.00000E+00
         0.00000E+00
         0.00000E+00
         0.00000E+00
         0.00000E+00
         0.00000E+00
         0.00000E+00
         0.00000E+00
         0.00000E+00
         0.00000E+00
         0.00000E+00
         0.00000E+00
         0.00000E+00
         0.00000E+00
         0.00000E+00
         0.00000E+00
         0.00000E+00
         0.00000E+00
         0.00000E+00
         0.00000E+00
         0.00000E+00
         0.00000E+00
         0.00000E+00
         0.00000E+00
         0.00000E+00
         0.00000E+00
         0.00000E+00
         0.00000E+00
         0.00000E+00
         0.00000E+00
         0.00000E+00
         0.00000E+00
         0.00000E+00
         0.00000E+00
         0.00000E+00
         0.00000E+00
         0.00000E+00
         0.00000E+00
         0.00000E+00
         0.00000E+00
         0.00000E+00
         0.00000E+00
         0.00000E+00
         0.00000E+00
         0.00000E+00
         0.00000E+00
         0.00000E+00
         0.00000E+00
         0.00000E+00
         0.00000E+00
         0.00000E+00
         0.00000E+00
         0.00000E+00
         0.00000E+00
         0.00000E+00
         0.00000E+00
         0.00000E+00
         0.00000E+00
         0.00000E+00
         0.00000E+00
         0.00000E+00
         0.00000E+00
         0.00000E+00
         0.00000E+00
         0.00000E+00
         0.00000E+00
         0.00000E+00
         0.00000E+00
         0.00000E+00
         0.00000E+00
         0.00000E+00
         0.00000E+00
         0.00000E+00
         0.00000E+00
         0.00000E+00
         0.00000E+00
         0.00000E+00
         0.00000E+00
         0.00000E+00
         0.00000E+00
         0.00000E+00
         0.00000E+00
         0.00000E+00
         0.00000E+00
         0.00000E+00
         0.00000E+00
         0.00000E+00
         0.00000E+00
         0.00000E+00
         0.00000E+00
         0.00000E+00
         0.00000E+00
         0.00000E+00
         0.00000E+00
         0.00000E+00
         0.00000E+00
         0.00000E+00
         0.00000E+00
         0.00000E+00
         0.00000E+00
         0.00000E+00
         0.00000E+00
         0.00000E+00
         0.00000E+00
         0.00000E+00
         0.00000E+00
         0.00000E+00
         0.00000E+00
         0.00000E+00
         0.00000E+00
         0.00000E+00
         0.00000E+00
         0.00000E+00
         0.00000E+00
         0.00000E+00
         0.00000E+00
         0.00000E+00
         0.00000E+00
         0.00000E+00
         0.00000E+00
         0.00000E+00
         0.00000E+00
         0.00000E+00
         0.00000E+00
         0.00000E+00
         0.00000E+00
         0.00000E+00
         0.00000E+00
         0.00000E+00
         0.00000E+00
         0.00000E+00
         0.00000E+00
         0.00000E+00
         0.00000E+00
         0.00000E+00
         0.00000E+00
         0.00000E+00
         0.00000E+00
         0.00000E+00
         0.00000E+00
         0.00000E+00
         0.00000E+00
         0.00000E+00
         0.00000E+00
         0.00000E+00
         0.00000E+00
         0.00000E+00
         0.00000E+00
         0.00000E+00
         0.00000E+00
         0.00000E+00
         0.00000E+00
         0.00000E+00
         0.00000E+00
         0.00000E+00
         0.00000E+00
         0.00000E+00
         0.00000E+00
         0.00000E+00
         0.00000E+00
         0.00000E+00
         0.00000E+00
         0.00000E+00
         0.00000E+00
         0.00000E+00
         0.00000E+00
         0.00000E+00
         0.00000E+00
         0.00000E+00
         0.00000E+00
         0.00000E+00
         0.00000E+00
         0.00000E+00
         0.00000E+00
         0.00000E+00
         0.00000E+00
         0.00000E+00
         0.00000E+00
         0.00000E+00
         0.00000E+00
         0.00000E+00
         0.00000E+00
         0.00000E+00
         0.00000E+00
         0.00000E+00
         0.00000E+00
         0.00000E+00
         0.00000E+00
         0.00000E+00
         0.00000E+00
         0.00000E+00
         0.00000E+00
         0.00000E+00
         0.00000E+00
         0.00000E+00
         0.00000E+00
         0.00000E+00
         0.00000E+00
         0.00000E+00
         0.00000E+00
         0.00000E+00
         0.00000E+00
         0.00000E+00
         0.00000E+00
         0.00000E+00
         0.00000E+00
         0.00000E+00
         0.00000E+00
         0.00000E+00
         0.00000E+00
         0.00000E+00
         0.00000E+00
         0.00000E+00
         0.00000E+00
         0.00000E+00
         0.00000E+00
         0.00000E+00
         0.00000E+00
         0.00000E+00
         0.00000E+00
         0.00000E+00
         0.00000E+00
         0.00000E+00
         0.00000E+00
         0.00000E+00
         0.00000E+00
         0.00000E+00
         0.00000E+00
         0.00000E+00
         0.00000E+00
         0.00000E+00
         0.00000E+00
         0.00000E+00
         0.00000E+00
         0.00000E+00
         0.00000E+00
         0.00000E+00
         0.00000E+00
         0.00000E+00
         0.00000E+00
         0.00000E+00
         0.00000E+00
         0.00000E+00
         0.00000E+00
         0.00000E+00
         0.00000E+00
         0.00000E+00
         0.00000E+00
         0.00000E+00
         0.00000E+00
         0.00000E+00
         0.00000E+00
         0.00000E+00
         0.00000E+00
         0.00000E+00
         0.00000E+00
         0.00000E+00
         0.00000E+00
         0.00000E+00
         0.00000E+00
         0.00000E+00
         0.00000E+00
         0.00000E+00
         0.00000E+00
         0.00000E+00
         0.00000E+00
         0.00000E+00
         0.00000E+00
         0.00000E+00
         0.00000E+00
         0.00000E+00
         0.00000E+00
         0.00000E+00
         0.00000E+00
         0.00000E+00
         0.00000E+00
         0.00000E+00
         0.00000E+00
         0.00000E+00
         0.00000E+00
         0.00000E+00
         0.00000E+00
         0.00000E+00
         0.00000E+00
         0.00000E+00
         0.00000E+00
         0.00000E+00
         0.00000E+00
         0.00000E+00
         0.00000E+00
         0.00000E+00
         0.00000E+00
  
SCALARS                     velocity_z  double 1
LOOKUP_TABLE default
        -0.37300E+03
        -0.37300E+03
        -0.37300E+03
        -0.37300E+03
         0.00000E+00
         0.00000E+00
         0.00000E+00
         0.00000E+00
        -0.37300E+03
        -0.37300E+03
         0.00000E+00
         0.00000E+00
        -0.37300E+03
        -0.37300E+03
         0.00000E+00
         0.00000E+00
        -0.37300E+03
        -0.37300E+03
         0.00000E+00
         0.00000E+00
        -0.37300E+03
        -0.37300E+03
        -0.37300E+03
         0.00000E+00
         0.00000E+00
         0.00000E+00
        -0.37300E+03
        -0.37300E+03
         0.00000E+00
         0.00000E+00
        -0.37300E+03
        -0.37300E+03
        -0.37300E+03
         0.00000E+00
         0.00000E+00
         0.00000E+00
        -0.37300E+03
        -0.37300E+03
         0.00000E+00
         0.00000E+00
        -0.37300E+03
        -0.37300E+03
         0.00000E+00
         0.00000E+00
        -0.37300E+03
        -0.37300E+03
         0.00000E+00
         0.00000E+00
        -0.37300E+03
         0.00000E+00
        -0.37300E+03
         0.00000E+00
        -0.37300E+03
         0.00000E+00
        -0.37300E+03
         0.00000E+00
        -0.37300E+03
        -0.37300E+03
         0.00000E+00
         0.00000E+00
        -0.37300E+03
        -0.37300E+03
         0.00000E+00
         0.00000E+00
        -0.37300E+03
         0.00000E+00
        -0.37300E+03
         0.00000E+00
        -0.37300E+03
        -0.37300E+03
         0.00000E+00
         0.00000E+00
        -0.37300E+03
         0.00000E+00
        -0.37300E+03
         0.00000E+00
        -0.37300E+03
         0.00000E+00
        -0.37300E+03
         0.00000E+00
        -0.37300E+03
        -0.37300E+03
         0.00000E+00
         0.00000E+00
        -0.37300E+03
         0.00000E+00
        -0.37300E+03
         0.00000E+00
        -0.37300E+03
         0.00000E+00
        -0.37300E+03
        -0.37300E+03
         0.00000E+00
         0.00000E+00
        -0.37300E+03
         0.00000E+00
        -0.37300E+03
         0.00000E+00
        -0.37300E+03
         0.00000E+00
        -0.37300E+03
        -0.37300E+03
         0.00000E+00
         0.00000E+00
        -0.37300E+03
        -0.37300E+03
         0.00000E+00
         0.00000E+00
        -0.37300E+03
         0.00000E+00
        -0.37300E+03
         0.00000E+00
        -0.37300E+03
         0.00000E+00
        -0.37300E+03
         0.00000E+00
        -0.37300E+03
         0.00000E+00
        -0.37300E+03
         0.00000E+00
        -0.37300E+03
         0.00000E+00
        -0.37300E+03
         0.00000E+00
        -0.37300E+03
         0.00000E+00
        -0.37300E+03
         0.00000E+00
        -0.37300E+03
         0.00000E+00
        -0.37300E+03
         0.00000E+00
        -0.37300E+03
         0.00000E+00
        -0.37300E+03
         0.00000E+00
        -0.37300E+03
         0.00000E+00
        -0.37300E+03
         0.00000E+00
        -0.37300E+03
         0.00000E+00
        -0.37300E+03
         0.00000E+00
        -0.37300E+03
         0.00000E+00
        -0.37300E+03
         0.00000E+00
        -0.37300E+03
         0.00000E+00
        -0.37300E+03
         0.00000E+00
        -0.37300E+03
         0.00000E+00
        -0.37300E+03
         0.00000E+00
        -0.37300E+03
        -0.37300E+03
        -0.37300E+03
        -0.37300E+03
        -0.37300E+03
        -0.37300E+03
        -0.37300E+03
        -0.37300E+03
        -0.37300E+03
        -0.37300E+03
        -0.37300E+03
        -0.37300E+03
        -0.37300E+03
        -0.37300E+03
        -0.37300E+03
        -0.37300E+03
        -0.37300E+03
        -0.37300E+03
        -0.37300E+03
        -0.37300E+03
        -0.37300E+03
        -0.37300E+03
        -0.37300E+03
        -0.37300E+03
        -0.37300E+03
        -0.37300E+03
        -0.37300E+03
        -0.37300E+03
        -0.37300E+03
        -0.37300E+03
        -0.37300E+03
        -0.37300E+03
        -0.37300E+03
        -0.37300E+03
        -0.37300E+03
        -0.37300E+03
        -0.37300E+03
        -0.37300E+03
        -0.37300E+03
        -0.37300E+03
        -0.37300E+03
        -0.37300E+03
        -0.37300E+03
        -0.37300E+03
        -0.37300E+03
        -0.37300E+03
        -0.37300E+03
        -0.37300E+03
        -0.37300E+03
        -0.37300E+03
        -0.37300E+03
        -0.37300E+03
        -0.37300E+03
        -0.37300E+03
        -0.37300E+03
        -0.37300E+03
        -0.37300E+03
        -0.37300E+03
        -0.37300E+03
        -0.37300E+03
        -0.37300E+03
        -0.37300E+03
        -0.37300E+03
        -0.37300E+03
        -0.37300E+03
        -0.37300E+03
        -0.37300E+03
        -0.37300E+03
        -0.37300E+03
        -0.37300E+03
        -0.37300E+03
        -0.37300E+03
        -0.37300E+03
        -0.37300E+03
        -0.37300E+03
        -0.37300E+03
        -0.37300E+03
        -0.37300E+03
        -0.37300E+03
        -0.37300E+03
        -0.37300E+03
        -0.37300E+03
        -0.37300E+03
        -0.37300E+03
        -0.37300E+03
        -0.37300E+03
        -0.37300E+03
        -0.37300E+03
        -0.37300E+03
        -0.37300E+03
        -0.37300E+03
        -0.37300E+03
        -0.37300E+03
        -0.37300E+03
        -0.37300E+03
        -0.37300E+03
        -0.37300E+03
        -0.37300E+03
        -0.37300E+03
        -0.37300E+03
        -0.37300E+03
        -0.37300E+03
        -0.37300E+03
        -0.37300E+03
        -0.37300E+03
        -0.37300E+03
        -0.37300E+03
        -0.37300E+03
        -0.37300E+03
        -0.37300E+03
        -0.37300E+03
        -0.37300E+03
        -0.37300E+03
        -0.37300E+03
        -0.37300E+03
        -0.37300E+03
        -0.37300E+03
        -0.37300E+03
        -0.37300E+03
        -0.37300E+03
        -0.37300E+03
        -0.37300E+03
        -0.37300E+03
        -0.37300E+03
        -0.37300E+03
        -0.37300E+03
        -0.37300E+03
        -0.37300E+03
        -0.37300E+03
        -0.37300E+03
        -0.37300E+03
        -0.37300E+03
        -0.37300E+03
        -0.37300E+03
        -0.37300E+03
        -0.37300E+03
        -0.37300E+03
        -0.37300E+03
        -0.37300E+03
        -0.37300E+03
        -0.37300E+03
        -0.37300E+03
        -0.37300E+03
        -0.37300E+03
        -0.37300E+03
        -0.37300E+03
        -0.37300E+03
        -0.37300E+03
        -0.37300E+03
        -0.37300E+03
        -0.37300E+03
        -0.37300E+03
        -0.37300E+03
        -0.37300E+03
        -0.37300E+03
        -0.37300E+03
        -0.37300E+03
        -0.37300E+03
        -0.37300E+03
        -0.37300E+03
        -0.37300E+03
        -0.37300E+03
        -0.37300E+03
        -0.37300E+03
        -0.37300E+03
        -0.37300E+03
        -0.37300E+03
        -0.37300E+03
        -0.37300E+03
        -0.37300E+03
        -0.37300E+03
        -0.37300E+03
        -0.37300E+03
        -0.37300E+03
        -0.37300E+03
        -0.37300E+03
        -0.37300E+03
        -0.37300E+03
        -0.37300E+03
        -0.37300E+03
        -0.37300E+03
        -0.37300E+03
        -0.37300E+03
        -0.37300E+03
        -0.37300E+03
        -0.37300E+03
        -0.37300E+03
        -0.37300E+03
        -0.37300E+03
        -0.37300E+03
        -0.37300E+03
        -0.37300E+03
        -0.37300E+03
        -0.37300E+03
        -0.37300E+03
        -0.37300E+03
        -0.37300E+03
        -0.37300E+03
        -0.37300E+03
        -0.37300E+03
        -0.37300E+03
        -0.37300E+03
        -0.37300E+03
        -0.37300E+03
        -0.37300E+03
        -0.37300E+03
        -0.37300E+03
        -0.37300E+03
        -0.37300E+03
        -0.37300E+03
        -0.37300E+03
        -0.37300E+03
        -0.37300E+03
        -0.37300E+03
        -0.37300E+03
        -0.37300E+03
        -0.37300E+03
        -0.37300E+03
        -0.37300E+03
        -0.37300E+03
        -0.37300E+03
        -0.37300E+03
        -0.37300E+03
        -0.37300E+03
        -0.37300E+03
        -0.37300E+03
        -0.37300E+03
        -0.37300E+03
        -0.37300E+03
        -0.37300E+03
        -0.37300E+03
        -0.37300E+03
        -0.37300E+03
        -0.37300E+03
        -0.37300E+03
        -0.37300E+03
        -0.37300E+03
        -0.37300E+03
        -0.37300E+03
        -0.37300E+03
        -0.37300E+03
        -0.37300E+03
        -0.37300E+03
        -0.37300E+03
        -0.37300E+03
        -0.37300E+03
        -0.37300E+03
        -0.37300E+03
        -0.37300E+03
        -0.37300E+03
        -0.37300E+03
        -0.37300E+03
        -0.37300E+03
        -0.37300E+03
        -0.37300E+03
        -0.37300E+03
        -0.37300E+03
        -0.37300E+03
        -0.37300E+03
        -0.37300E+03
        -0.37300E+03
        -0.37300E+03
        -0.37300E+03
        -0.37300E+03
        -0.37300E+03
        -0.37300E+03
        -0.37300E+03
        -0.37300E+03
        -0.37300E+03
        -0.37300E+03
        -0.37300E+03
        -0.37300E+03
        -0.37300E+03
        -0.37300E+03
        -0.37300E+03
        -0.37300E+03
        -0.37300E+03
        -0.37300E+03
        -0.37300E+03
        -0.37300E+03
        -0.37300E+03
        -0.37300E+03
        -0.37300E+03
        -0.37300E+03
        -0.37300E+03
        -0.37300E+03
        -0.37300E+03
        -0.37300E+03
        -0.37300E+03
        -0.37300E+03
        -0.37300E+03
        -0.37300E+03
        -0.37300E+03
        -0.37300E+03
        -0.37300E+03
        -0.37300E+03
        -0.37300E+03
        -0.37300E+03
        -0.37300E+03
        -0.37300E+03
        -0.37300E+03
        -0.37300E+03
        -0.37300E+03
        -0.37300E+03
        -0.37300E+03
        -0.37300E+03
        -0.37300E+03
        -0.37300E+03
        -0.37300E+03
        -0.37300E+03
        -0.37300E+03
        -0.37300E+03
        -0.37300E+03
        -0.37300E+03
        -0.37300E+03
        -0.37300E+03
        -0.37300E+03
        -0.37300E+03
        -0.37300E+03
        -0.37300E+03
        -0.37300E+03
        -0.37300E+03
        -0.37300E+03
        -0.37300E+03
        -0.37300E+03
        -0.37300E+03
        -0.37300E+03
        -0.37300E+03
        -0.37300E+03
        -0.37300E+03
        -0.37300E+03
        -0.37300E+03
        -0.37300E+03
        -0.37300E+03
        -0.37300E+03
        -0.37300E+03
        -0.37300E+03
        -0.37300E+03
        -0.37300E+03
        -0.37300E+03
        -0.37300E+03
        -0.37300E+03
        -0.37300E+03
        -0.37300E+03
        -0.37300E+03
        -0.37300E+03
        -0.37300E+03
        -0.37300E+03
        -0.37300E+03
        -0.37300E+03
        -0.37300E+03
        -0.37300E+03
        -0.37300E+03
        -0.37300E+03
        -0.37300E+03
        -0.37300E+03
        -0.37300E+03
        -0.37300E+03
        -0.37300E+03
        -0.37300E+03
        -0.37300E+03
        -0.37300E+03
        -0.37300E+03
        -0.37300E+03
        -0.37300E+03
        -0.37300E+03
        -0.37300E+03
        -0.37300E+03
        -0.37300E+03
        -0.37300E+03
        -0.37300E+03
        -0.37300E+03
        -0.37300E+03
        -0.37300E+03
        -0.37300E+03
        -0.37300E+03
        -0.37300E+03
        -0.37300E+03
        -0.37300E+03
        -0.37300E+03
        -0.37300E+03
        -0.37300E+03
        -0.37300E+03
        -0.37300E+03
        -0.37300E+03
        -0.37300E+03
        -0.37300E+03
        -0.37300E+03
        -0.37300E+03
        -0.37300E+03
        -0.37300E+03
        -0.37300E+03
        -0.37300E+03
        -0.37300E+03
        -0.37300E+03
        -0.37300E+03
        -0.37300E+03
        -0.37300E+03
        -0.37300E+03
        -0.37300E+03
        -0.37300E+03
        -0.37300E+03
        -0.37300E+03
        -0.37300E+03
        -0.37300E+03
        -0.37300E+03
        -0.37300E+03
        -0.37300E+03
        -0.37300E+03
        -0.37300E+03
        -0.37300E+03
        -0.37300E+03
        -0.37300E+03
        -0.37300E+03
        -0.37300E+03
        -0.37300E+03
        -0.37300E+03
        -0.37300E+03
        -0.37300E+03
        -0.37300E+03
        -0.37300E+03
        -0.37300E+03
        -0.37300E+03
        -0.37300E+03
        -0.37300E+03
        -0.37300E+03
        -0.37300E+03
        -0.37300E+03
        -0.37300E+03
        -0.37300E+03
        -0.37300E+03
        -0.37300E+03
        -0.37300E+03
        -0.37300E+03
        -0.37300E+03
        -0.37300E+03
        -0.37300E+03
        -0.37300E+03
        -0.37300E+03
        -0.37300E+03
        -0.37300E+03
        -0.37300E+03
        -0.37300E+03
        -0.37300E+03
        -0.37300E+03
        -0.37300E+03
        -0.37300E+03
        -0.37300E+03
        -0.37300E+03
        -0.37300E+03
        -0.37300E+03
        -0.37300E+03
        -0.37300E+03
        -0.37300E+03
        -0.37300E+03
        -0.37300E+03
        -0.37300E+03
        -0.37300E+03
        -0.37300E+03
        -0.37300E+03
        -0.37300E+03
        -0.37300E+03
        -0.37300E+03
        -0.37300E+03
        -0.37300E+03
        -0.37300E+03
        -0.37300E+03
        -0.37300E+03
        -0.37300E+03
        -0.37300E+03
        -0.37300E+03
        -0.37300E+03
        -0.37300E+03
        -0.37300E+03
        -0.37300E+03
        -0.37300E+03
        -0.37300E+03
        -0.37300E+03
        -0.37300E+03
        -0.37300E+03
        -0.37300E+03
        -0.37300E+03
        -0.37300E+03
        -0.37300E+03
        -0.37300E+03
        -0.37300E+03
        -0.37300E+03
        -0.37300E+03
        -0.37300E+03
        -0.37300E+03
        -0.37300E+03
        -0.37300E+03
        -0.37300E+03
        -0.37300E+03
        -0.37300E+03
        -0.37300E+03
        -0.37300E+03
        -0.37300E+03
        -0.37300E+03
        -0.37300E+03
        -0.37300E+03
        -0.37300E+03
        -0.37300E+03
        -0.37300E+03
        -0.37300E+03
        -0.37300E+03
        -0.37300E+03
        -0.37300E+03
        -0.37300E+03
        -0.37300E+03
        -0.37300E+03
        -0.37300E+03
        -0.37300E+03
        -0.37300E+03
        -0.37300E+03
        -0.37300E+03
        -0.37300E+03
        -0.37300E+03
        -0.37300E+03
        -0.37300E+03
        -0.37300E+03
        -0.37300E+03
        -0.37300E+03
        -0.37300E+03
        -0.37300E+03
        -0.37300E+03
        -0.37300E+03
        -0.37300E+03
        -0.37300E+03
        -0.37300E+03
        -0.37300E+03
        -0.37300E+03
        -0.37300E+03
        -0.37300E+03
        -0.37300E+03
        -0.37300E+03
        -0.37300E+03
        -0.37300E+03
        -0.37300E+03
        -0.37300E+03
        -0.37300E+03
        -0.37300E+03
        -0.37300E+03
        -0.37300E+03
        -0.37300E+03
        -0.37300E+03
        -0.37300E+03
        -0.37300E+03
        -0.37300E+03
        -0.37300E+03
        -0.37300E+03
        -0.37300E+03
        -0.37300E+03
        -0.37300E+03
        -0.37300E+03
        -0.37300E+03
        -0.37300E+03
        -0.37300E+03
        -0.37300E+03
        -0.37300E+03
        -0.37300E+03
        -0.37300E+03
        -0.37300E+03
        -0.37300E+03
        -0.37300E+03
        -0.37300E+03
        -0.37300E+03
        -0.37300E+03
        -0.37300E+03
        -0.37300E+03
        -0.37300E+03
        -0.37300E+03
        -0.37300E+03
        -0.37300E+03
        -0.37300E+03
        -0.37300E+03
        -0.37300E+03
        -0.37300E+03
        -0.37300E+03
        -0.37300E+03
        -0.37300E+03
        -0.37300E+03
        -0.37300E+03
        -0.37300E+03
        -0.37300E+03
        -0.37300E+03
        -0.37300E+03
        -0.37300E+03
        -0.37300E+03
        -0.37300E+03
        -0.37300E+03
        -0.37300E+03
        -0.37300E+03
        -0.37300E+03
        -0.37300E+03
        -0.37300E+03
        -0.37300E+03
        -0.37300E+03
        -0.37300E+03
        -0.37300E+03
        -0.37300E+03
        -0.37300E+03
        -0.37300E+03
        -0.37300E+03
        -0.37300E+03
        -0.37300E+03
        -0.37300E+03
        -0.37300E+03
        -0.37300E+03
        -0.37300E+03
        -0.37300E+03
        -0.37300E+03
        -0.37300E+03
        -0.37300E+03
        -0.37300E+03
        -0.37300E+03
        -0.37300E+03
        -0.37300E+03
        -0.37300E+03
        -0.37300E+03
        -0.37300E+03
        -0.37300E+03
        -0.37300E+03
        -0.37300E+03
        -0.37300E+03
        -0.37300E+03
        -0.37300E+03
        -0.37300E+03
        -0.37300E+03
        -0.37300E+03
        -0.37300E+03
        -0.37300E+03
        -0.37300E+03
        -0.37300E+03
        -0.37300E+03
        -0.37300E+03
        -0.37300E+03
        -0.37300E+03
        -0.37300E+03
        -0.37300E+03
        -0.37300E+03
        -0.37300E+03
        -0.37300E+03
        -0.37300E+03
        -0.37300E+03
        -0.37300E+03
        -0.37300E+03
        -0.37300E+03
        -0.37300E+03
        -0.37300E+03
        -0.37300E+03
        -0.37300E+03
        -0.37300E+03
        -0.37300E+03
        -0.37300E+03
        -0.37300E+03
        -0.37300E+03
        -0.37300E+03
        -0.37300E+03
        -0.37300E+03
        -0.37300E+03
        -0.37300E+03
        -0.37300E+03
        -0.37300E+03
        -0.37300E+03
        -0.37300E+03
        -0.37300E+03
        -0.37300E+03
        -0.37300E+03
        -0.37300E+03
        -0.37300E+03
        -0.37300E+03
        -0.37300E+03
        -0.37300E+03
        -0.37300E+03
        -0.37300E+03
        -0.37300E+03
        -0.37300E+03
        -0.37300E+03
        -0.37300E+03
        -0.37300E+03
        -0.37300E+03
        -0.37300E+03
        -0.37300E+03
        -0.37300E+03
        -0.37300E+03
        -0.37300E+03
        -0.37300E+03
        -0.37300E+03
        -0.37300E+03
        -0.37300E+03
        -0.37300E+03
        -0.37300E+03
        -0.37300E+03
        -0.37300E+03
        -0.37300E+03
        -0.37300E+03
        -0.37300E+03
        -0.37300E+03
        -0.37300E+03
        -0.37300E+03
        -0.37300E+03
        -0.37300E+03
        -0.37300E+03
        -0.37300E+03
        -0.37300E+03
        -0.37300E+03
        -0.37300E+03
        -0.37300E+03
        -0.37300E+03
        -0.37300E+03
        -0.37300E+03
        -0.37300E+03
        -0.37300E+03
        -0.37300E+03
        -0.37300E+03
        -0.37300E+03
        -0.37300E+03
        -0.37300E+03
        -0.37300E+03
        -0.37300E+03
        -0.37300E+03
        -0.37300E+03
        -0.37300E+03
        -0.37300E+03
        -0.37300E+03
        -0.37300E+03
        -0.37300E+03
        -0.37300E+03
        -0.37300E+03
        -0.37300E+03
        -0.37300E+03
        -0.37300E+03
        -0.37300E+03
        -0.37300E+03
        -0.37300E+03
        -0.37300E+03
        -0.37300E+03
        -0.37300E+03
        -0.37300E+03
        -0.37300E+03
        -0.37300E+03
        -0.37300E+03
        -0.37300E+03
        -0.37300E+03
        -0.37300E+03
        -0.37300E+03
        -0.37300E+03
        -0.37300E+03
        -0.37300E+03
        -0.37300E+03
        -0.37300E+03
        -0.37300E+03
        -0.37300E+03
        -0.37300E+03
        -0.37300E+03
        -0.37300E+03
        -0.37300E+03
        -0.37300E+03
        -0.37300E+03
        -0.37300E+03
        -0.37300E+03
        -0.37300E+03
        -0.37300E+03
        -0.37300E+03
        -0.37300E+03
        -0.37300E+03
        -0.37300E+03
        -0.37300E+03
        -0.37300E+03
        -0.37300E+03
        -0.37300E+03
        -0.37300E+03
        -0.37300E+03
        -0.37300E+03
        -0.37300E+03
        -0.37300E+03
        -0.37300E+03
        -0.37300E+03
        -0.37300E+03
        -0.37300E+03
        -0.37300E+03
        -0.37300E+03
        -0.37300E+03
        -0.37300E+03
        -0.37300E+03
        -0.37300E+03
        -0.37300E+03
        -0.37300E+03
        -0.37300E+03
        -0.37300E+03
        -0.37300E+03
        -0.37300E+03
        -0.37300E+03
        -0.37300E+03
        -0.37300E+03
        -0.37300E+03
        -0.37300E+03
        -0.37300E+03
        -0.37300E+03
        -0.37300E+03
        -0.37300E+03
        -0.37300E+03
        -0.37300E+03
        -0.37300E+03
        -0.37300E+03
        -0.37300E+03
        -0.37300E+03
        -0.37300E+03
        -0.37300E+03
        -0.37300E+03
        -0.37300E+03
        -0.37300E+03
        -0.37300E+03
        -0.37300E+03
        -0.37300E+03
        -0.37300E+03
        -0.37300E+03
        -0.37300E+03
        -0.37300E+03
        -0.37300E+03
        -0.37300E+03
        -0.37300E+03
        -0.37300E+03
        -0.37300E+03
        -0.37300E+03
        -0.37300E+03
        -0.37300E+03
        -0.37300E+03
        -0.37300E+03
        -0.37300E+03
        -0.37300E+03
        -0.37300E+03
        -0.37300E+03
        -0.37300E+03
        -0.37300E+03
        -0.37300E+03
        -0.37300E+03
        -0.37300E+03
        -0.37300E+03
        -0.37300E+03
        -0.37300E+03
        -0.37300E+03
        -0.37300E+03
        -0.37300E+03
        -0.37300E+03
        -0.37300E+03
        -0.37300E+03
        -0.37300E+03
        -0.37300E+03
        -0.37300E+03
        -0.37300E+03
        -0.37300E+03
        -0.37300E+03
        -0.37300E+03
        -0.37300E+03
        -0.37300E+03
        -0.37300E+03
        -0.37300E+03
        -0.37300E+03
        -0.37300E+03
        -0.37300E+03
        -0.37300E+03
        -0.37300E+03
        -0.37300E+03
        -0.37300E+03
        -0.37300E+03
        -0.37300E+03
        -0.37300E+03
        -0.37300E+03
        -0.37300E+03
        -0.37300E+03
        -0.37300E+03
        -0.37300E+03
        -0.37300E+03
        -0.37300E+03
        -0.37300E+03
        -0.37300E+03
        -0.37300E+03
        -0.37300E+03
        -0.37300E+03
        -0.37300E+03
        -0.37300E+03
        -0.37300E+03
        -0.37300E+03
        -0.37300E+03
        -0.37300E+03
        -0.37300E+03
        -0.37300E+03
        -0.37300E+03
        -0.37300E+03
        -0.37300E+03
        -0.37300E+03
        -0.37300E+03
        -0.37300E+03
        -0.37300E+03
        -0.37300E+03
        -0.37300E+03
        -0.37300E+03
        -0.37300E+03
        -0.37300E+03
        -0.37300E+03
        -0.37300E+03
        -0.37300E+03
        -0.37300E+03
        -0.37300E+03
        -0.37300E+03
        -0.37300E+03
        -0.37300E+03
        -0.37300E+03
        -0.37300E+03
        -0.37300E+03
        -0.37300E+03
        -0.37300E+03
        -0.37300E+03
        -0.37300E+03
        -0.37300E+03
        -0.37300E+03
        -0.37300E+03
        -0.37300E+03
        -0.37300E+03
        -0.37300E+03
        -0.37300E+03
        -0.37300E+03
        -0.37300E+03
        -0.37300E+03
        -0.37300E+03
        -0.37300E+03
        -0.37300E+03
        -0.37300E+03
        -0.37300E+03
        -0.37300E+03
        -0.37300E+03
        -0.37300E+03
        -0.37300E+03
        -0.37300E+03
        -0.37300E+03
        -0.37300E+03
        -0.37300E+03
        -0.37300E+03
        -0.37300E+03
        -0.37300E+03
        -0.37300E+03
        -0.37300E+03
        -0.37300E+03
        -0.37300E+03
        -0.37300E+03
        -0.37300E+03
        -0.37300E+03
        -0.37300E+03
        -0.37300E+03
        -0.37300E+03
        -0.37300E+03
        -0.37300E+03
        -0.37300E+03
        -0.37300E+03
        -0.37300E+03
        -0.37300E+03
        -0.37300E+03
        -0.37300E+03
        -0.37300E+03
        -0.37300E+03
        -0.37300E+03
        -0.37300E+03
        -0.37300E+03
        -0.37300E+03
        -0.37300E+03
        -0.37300E+03
        -0.37300E+03
        -0.37300E+03
        -0.37300E+03
        -0.37300E+03
        -0.37300E+03
        -0.37300E+03
        -0.37300E+03
        -0.37300E+03
        -0.37300E+03
        -0.37300E+03
        -0.37300E+03
        -0.37300E+03
        -0.37300E+03
        -0.37300E+03
        -0.37300E+03
        -0.37300E+03
        -0.37300E+03
        -0.37300E+03
        -0.37300E+03
        -0.37300E+03
        -0.37300E+03
        -0.37300E+03
        -0.37300E+03
        -0.37300E+03
        -0.37300E+03
        -0.37300E+03
        -0.37300E+03
        -0.37300E+03
        -0.37300E+03
        -0.37300E+03
        -0.37300E+03
        -0.37300E+03
        -0.37300E+03
        -0.37300E+03
        -0.37300E+03
        -0.37300E+03
        -0.37300E+03
        -0.37300E+03
        -0.37300E+03
        -0.37300E+03
        -0.37300E+03
        -0.37300E+03
        -0.37300E+03
        -0.37300E+03
        -0.37300E+03
        -0.37300E+03
        -0.37300E+03
        -0.37300E+03
        -0.37300E+03
        -0.37300E+03
        -0.37300E+03
        -0.37300E+03
        -0.37300E+03
        -0.37300E+03
        -0.37300E+03
        -0.37300E+03
        -0.37300E+03
        -0.37300E+03
        -0.37300E+03
        -0.37300E+03
        -0.37300E+03
        -0.37300E+03
        -0.37300E+03
        -0.37300E+03
        -0.37300E+03
        -0.37300E+03
        -0.37300E+03
        -0.37300E+03
        -0.37300E+03
        -0.37300E+03
        -0.37300E+03
        -0.37300E+03
        -0.37300E+03
        -0.37300E+03
        -0.37300E+03
        -0.37300E+03
        -0.37300E+03
        -0.37300E+03
        -0.37300E+03
        -0.37300E+03
        -0.37300E+03
        -0.37300E+03
        -0.37300E+03
        -0.37300E+03
        -0.37300E+03
        -0.37300E+03
        -0.37300E+03
        -0.37300E+03
        -0.37300E+03
        -0.37300E+03
        -0.37300E+03
        -0.37300E+03
        -0.37300E+03
        -0.37300E+03
        -0.37300E+03
        -0.37300E+03
        -0.37300E+03
        -0.37300E+03
        -0.37300E+03
        -0.37300E+03
        -0.37300E+03
        -0.37300E+03
        -0.37300E+03
        -0.37300E+03
        -0.37300E+03
        -0.37300E+03
        -0.37300E+03
        -0.37300E+03
        -0.37300E+03
        -0.37300E+03
        -0.37300E+03
        -0.37300E+03
        -0.37300E+03
        -0.37300E+03
        -0.37300E+03
        -0.37300E+03
        -0.37300E+03
        -0.37300E+03
        -0.37300E+03
        -0.37300E+03
        -0.37300E+03
        -0.37300E+03
        -0.37300E+03
        -0.37300E+03
        -0.37300E+03
        -0.37300E+03
        -0.37300E+03
        -0.37300E+03
        -0.37300E+03
        -0.37300E+03
        -0.37300E+03
        -0.37300E+03
        -0.37300E+03
        -0.37300E+03
        -0.37300E+03
        -0.37300E+03
        -0.37300E+03
        -0.37300E+03
        -0.37300E+03
        -0.37300E+03
        -0.37300E+03
        -0.37300E+03
        -0.37300E+03
        -0.37300E+03
        -0.37300E+03
        -0.37300E+03
        -0.37300E+03
        -0.37300E+03
        -0.37300E+03
        -0.37300E+03
        -0.37300E+03
        -0.37300E+03
        -0.37300E+03
        -0.37300E+03
        -0.37300E+03
        -0.37300E+03
        -0.37300E+03
        -0.37300E+03
        -0.37300E+03
        -0.37300E+03
        -0.37300E+03
        -0.37300E+03
        -0.37300E+03
        -0.37300E+03
        -0.37300E+03
        -0.37300E+03
        -0.37300E+03
        -0.37300E+03
        -0.37300E+03
        -0.37300E+03
        -0.37300E+03
        -0.37300E+03
        -0.37300E+03
        -0.37300E+03
        -0.37300E+03
        -0.37300E+03
        -0.37300E+03
        -0.37300E+03
        -0.37300E+03
        -0.37300E+03
        -0.37300E+03
        -0.37300E+03
        -0.37300E+03
        -0.37300E+03
        -0.37300E+03
        -0.37300E+03
        -0.37300E+03
        -0.37300E+03
        -0.37300E+03
        -0.37300E+03
        -0.37300E+03
        -0.37300E+03
        -0.37300E+03
        -0.37300E+03
        -0.37300E+03
        -0.37300E+03
        -0.37300E+03
        -0.37300E+03
        -0.37300E+03
        -0.37300E+03
        -0.37300E+03
        -0.37300E+03
        -0.37300E+03
        -0.37300E+03
        -0.37300E+03
        -0.37300E+03
        -0.37300E+03
        -0.37300E+03
        -0.37300E+03
        -0.37300E+03
        -0.37300E+03
        -0.37300E+03
        -0.37300E+03
        -0.37300E+03
        -0.37300E+03
        -0.37300E+03
        -0.37300E+03
        -0.37300E+03
        -0.37300E+03
        -0.37300E+03
        -0.37300E+03
        -0.37300E+03
        -0.37300E+03
        -0.37300E+03
        -0.37300E+03
        -0.37300E+03
        -0.37300E+03
        -0.37300E+03
        -0.37300E+03
        -0.37300E+03
        -0.37300E+03
        -0.37300E+03
        -0.37300E+03
        -0.37300E+03
        -0.37300E+03
        -0.37300E+03
        -0.37300E+03
        -0.37300E+03
        -0.37300E+03
        -0.37300E+03
        -0.37300E+03
        -0.37300E+03
        -0.37300E+03
        -0.37300E+03
        -0.37300E+03
        -0.37300E+03
        -0.37300E+03
        -0.37300E+03
        -0.37300E+03
        -0.37300E+03
        -0.37300E+03
        -0.37300E+03
        -0.37300E+03
        -0.37300E+03
        -0.37300E+03
        -0.37300E+03
        -0.37300E+03
        -0.37300E+03
        -0.37300E+03
        -0.37300E+03
        -0.37300E+03
        -0.37300E+03
        -0.37300E+03
        -0.37300E+03
        -0.37300E+03
        -0.37300E+03
        -0.37300E+03
        -0.37300E+03
        -0.37300E+03
        -0.37300E+03
        -0.37300E+03
        -0.37300E+03
        -0.37300E+03
        -0.37300E+03
        -0.37300E+03
        -0.37300E+03
        -0.37300E+03
        -0.37300E+03
        -0.37300E+03
        -0.37300E+03
        -0.37300E+03
        -0.37300E+03
        -0.37300E+03
        -0.37300E+03
        -0.37300E+03
        -0.37300E+03
        -0.37300E+03
        -0.37300E+03
        -0.37300E+03
        -0.37300E+03
        -0.37300E+03
        -0.37300E+03
        -0.37300E+03
        -0.37300E+03
        -0.37300E+03
        -0.37300E+03
        -0.37300E+03
        -0.37300E+03
        -0.37300E+03
        -0.37300E+03
        -0.37300E+03
        -0.37300E+03
        -0.37300E+03
        -0.37300E+03
        -0.37300E+03
        -0.37300E+03
        -0.37300E+03
        -0.37300E+03
        -0.37300E+03
        -0.37300E+03
        -0.37300E+03
        -0.37300E+03
        -0.37300E+03
        -0.37300E+03
        -0.37300E+03
        -0.37300E+03
        -0.37300E+03
        -0.37300E+03
        -0.37300E+03
        -0.37300E+03
        -0.37300E+03
        -0.37300E+03
        -0.37300E+03
        -0.37300E+03
        -0.37300E+03
        -0.37300E+03
        -0.37300E+03
        -0.37300E+03
        -0.37300E+03
        -0.37300E+03
        -0.37300E+03
        -0.37300E+03
        -0.37300E+03
        -0.37300E+03
        -0.37300E+03
        -0.37300E+03
        -0.37300E+03
        -0.37300E+03
        -0.37300E+03
        -0.37300E+03
        -0.37300E+03
        -0.37300E+03
        -0.37300E+03
        -0.37300E+03
        -0.37300E+03
        -0.37300E+03
        -0.37300E+03
        -0.37300E+03
        -0.37300E+03
        -0.37300E+03
        -0.37300E+03
        -0.37300E+03
        -0.37300E+03
        -0.37300E+03
        -0.37300E+03
        -0.37300E+03
        -0.37300E+03
        -0.37300E+03
        -0.37300E+03
        -0.37300E+03
        -0.37300E+03
        -0.37300E+03
        -0.37300E+03
        -0.37300E+03
        -0.37300E+03
        -0.37300E+03
        -0.37300E+03
        -0.37300E+03
        -0.37300E+03
        -0.37300E+03
        -0.37300E+03
        -0.37300E+03
        -0.37300E+03
        -0.37300E+03
        -0.37300E+03
        -0.37300E+03
        -0.37300E+03
        -0.37300E+03
        -0.37300E+03
        -0.37300E+03
        -0.37300E+03
        -0.37300E+03
        -0.37300E+03
        -0.37300E+03
        -0.37300E+03
        -0.37300E+03
        -0.37300E+03
        -0.37300E+03
        -0.37300E+03
        -0.37300E+03
        -0.37300E+03
        -0.37300E+03
        -0.37300E+03
        -0.37300E+03
        -0.37300E+03
        -0.37300E+03
        -0.37300E+03
        -0.37300E+03
        -0.37300E+03
        -0.37300E+03
        -0.37300E+03
        -0.37300E+03
        -0.37300E+03
        -0.37300E+03
        -0.37300E+03
        -0.37300E+03
        -0.37300E+03
        -0.37300E+03
        -0.37300E+03
        -0.37300E+03
        -0.37300E+03
        -0.37300E+03
        -0.37300E+03
        -0.37300E+03
        -0.37300E+03
        -0.37300E+03
        -0.37300E+03
        -0.37300E+03
        -0.37300E+03
        -0.37300E+03
        -0.37300E+03
        -0.37300E+03
        -0.37300E+03
        -0.37300E+03
        -0.37300E+03
        -0.37300E+03
        -0.37300E+03
        -0.37300E+03
        -0.37300E+03
        -0.37300E+03
        -0.37300E+03
        -0.37300E+03
        -0.37300E+03
        -0.37300E+03
        -0.37300E+03
        -0.37300E+03
        -0.37300E+03
        -0.37300E+03
        -0.37300E+03
        -0.37300E+03
        -0.37300E+03
        -0.37300E+03
        -0.37300E+03
        -0.37300E+03
        -0.37300E+03
        -0.37300E+03
        -0.37300E+03
        -0.37300E+03
        -0.37300E+03
        -0.37300E+03
        -0.37300E+03
        -0.37300E+03
        -0.37300E+03
        -0.37300E+03
        -0.37300E+03
        -0.37300E+03
        -0.37300E+03
        -0.37300E+03
        -0.37300E+03
        -0.37300E+03
        -0.37300E+03
        -0.37300E+03
        -0.37300E+03
        -0.37300E+03
        -0.37300E+03
        -0.37300E+03
        -0.37300E+03
        -0.37300E+03
        -0.37300E+03
        -0.37300E+03
        -0.37300E+03
        -0.37300E+03
        -0.37300E+03
        -0.37300E+03
        -0.37300E+03
        -0.37300E+03
        -0.37300E+03
        -0.37300E+03
        -0.37300E+03
        -0.37300E+03
        -0.37300E+03
        -0.37300E+03
        -0.37300E+03
        -0.37300E+03
        -0.37300E+03
        -0.37300E+03
        -0.37300E+03
        -0.37300E+03
        -0.37300E+03
        -0.37300E+03
        -0.37300E+03
        -0.37300E+03
        -0.37300E+03
        -0.37300E+03
        -0.37300E+03
        -0.37300E+03
        -0.37300E+03
        -0.37300E+03
        -0.37300E+03
        -0.37300E+03
        -0.37300E+03
        -0.37300E+03
        -0.37300E+03
        -0.37300E+03
        -0.37300E+03
        -0.37300E+03
        -0.37300E+03
        -0.37300E+03
        -0.37300E+03
        -0.37300E+03
        -0.37300E+03
        -0.37300E+03
        -0.37300E+03
        -0.37300E+03
        -0.37300E+03
        -0.37300E+03
        -0.37300E+03
        -0.37300E+03
        -0.37300E+03
        -0.37300E+03
        -0.37300E+03
        -0.37300E+03
        -0.37300E+03
        -0.37300E+03
        -0.37300E+03
        -0.37300E+03
        -0.37300E+03
        -0.37300E+03
        -0.37300E+03
        -0.37300E+03
        -0.37300E+03
        -0.37300E+03
        -0.37300E+03
        -0.37300E+03
        -0.37300E+03
        -0.37300E+03
        -0.37300E+03
        -0.37300E+03
        -0.37300E+03
        -0.37300E+03
        -0.37300E+03
        -0.37300E+03
        -0.37300E+03
        -0.37300E+03
        -0.37300E+03
        -0.37300E+03
        -0.37300E+03
        -0.37300E+03
        -0.37300E+03
        -0.37300E+03
        -0.37300E+03
        -0.37300E+03
        -0.37300E+03
        -0.37300E+03
        -0.37300E+03
        -0.37300E+03
        -0.37300E+03
        -0.37300E+03
        -0.37300E+03
        -0.37300E+03
        -0.37300E+03
        -0.37300E+03
        -0.37300E+03
        -0.37300E+03
        -0.37300E+03
        -0.37300E+03
        -0.37300E+03
        -0.37300E+03
        -0.37300E+03
        -0.37300E+03
        -0.37300E+03
        -0.37300E+03
        -0.37300E+03
        -0.37300E+03
        -0.37300E+03
        -0.37300E+03
        -0.37300E+03
        -0.37300E+03
        -0.37300E+03
        -0.37300E+03
        -0.37300E+03
        -0.37300E+03
        -0.37300E+03
        -0.37300E+03
        -0.37300E+03
        -0.37300E+03
        -0.37300E+03
        -0.37300E+03
        -0.37300E+03
        -0.37300E+03
        -0.37300E+03
        -0.37300E+03
        -0.37300E+03
        -0.37300E+03
        -0.37300E+03
        -0.37300E+03
        -0.37300E+03
        -0.37300E+03
        -0.37300E+03
        -0.37300E+03
        -0.37300E+03
        -0.37300E+03
        -0.37300E+03
        -0.37300E+03
        -0.37300E+03
        -0.37300E+03
        -0.37300E+03
        -0.37300E+03
        -0.37300E+03
        -0.37300E+03
        -0.37300E+03
        -0.37300E+03
        -0.37300E+03
        -0.37300E+03
        -0.37300E+03
        -0.37300E+03
        -0.37300E+03
        -0.37300E+03
        -0.37300E+03
        -0.37300E+03
        -0.37300E+03
        -0.37300E+03
        -0.37300E+03
        -0.37300E+03
        -0.37300E+03
        -0.37300E+03
        -0.37300E+03
        -0.37300E+03
        -0.37300E+03
        -0.37300E+03
        -0.37300E+03
        -0.37300E+03
        -0.37300E+03
        -0.37300E+03
        -0.37300E+03
        -0.37300E+03
        -0.37300E+03
        -0.37300E+03
        -0.37300E+03
        -0.37300E+03
        -0.37300E+03
        -0.37300E+03
        -0.37300E+03
        -0.37300E+03
        -0.37300E+03
        -0.37300E+03
        -0.37300E+03
        -0.37300E+03
        -0.37300E+03
        -0.37300E+03
        -0.37300E+03
        -0.37300E+03
        -0.37300E+03
        -0.37300E+03
        -0.37300E+03
        -0.37300E+03
        -0.37300E+03
        -0.37300E+03
        -0.37300E+03
        -0.37300E+03
        -0.37300E+03
        -0.37300E+03
        -0.37300E+03
        -0.37300E+03
        -0.37300E+03
        -0.37300E+03
        -0.37300E+03
        -0.37300E+03
        -0.37300E+03
        -0.37300E+03
        -0.37300E+03
        -0.37300E+03
        -0.37300E+03
        -0.37300E+03
        -0.37300E+03
        -0.37300E+03
        -0.37300E+03
        -0.37300E+03
        -0.37300E+03
        -0.37300E+03
        -0.37300E+03
        -0.37300E+03
        -0.37300E+03
        -0.37300E+03
        -0.37300E+03
        -0.37300E+03
        -0.37300E+03
        -0.37300E+03
        -0.37300E+03
        -0.37300E+03
        -0.37300E+03
        -0.37300E+03
        -0.37300E+03
        -0.37300E+03
        -0.37300E+03
        -0.37300E+03
        -0.37300E+03
        -0.37300E+03
        -0.37300E+03
        -0.37300E+03
        -0.37300E+03
        -0.37300E+03
        -0.37300E+03
        -0.37300E+03
        -0.37300E+03
        -0.37300E+03
        -0.37300E+03
        -0.37300E+03
        -0.37300E+03
        -0.37300E+03
        -0.37300E+03
        -0.37300E+03
        -0.37300E+03
        -0.37300E+03
        -0.37300E+03
        -0.37300E+03
        -0.37300E+03
        -0.37300E+03
        -0.37300E+03
        -0.37300E+03
        -0.37300E+03
        -0.37300E+03
        -0.37300E+03
        -0.37300E+03
        -0.37300E+03
        -0.37300E+03
        -0.37300E+03
        -0.37300E+03
        -0.37300E+03
        -0.37300E+03
        -0.37300E+03
        -0.37300E+03
        -0.37300E+03
        -0.37300E+03
        -0.37300E+03
        -0.37300E+03
        -0.37300E+03
        -0.37300E+03
        -0.37300E+03
        -0.37300E+03
        -0.37300E+03
        -0.37300E+03
        -0.37300E+03
        -0.37300E+03
        -0.37300E+03
        -0.37300E+03
        -0.37300E+03
        -0.37300E+03
        -0.37300E+03
        -0.37300E+03
        -0.37300E+03
        -0.37300E+03
        -0.37300E+03
        -0.37300E+03
        -0.37300E+03
        -0.37300E+03
        -0.37300E+03
        -0.37300E+03
        -0.37300E+03
        -0.37300E+03
        -0.37300E+03
        -0.37300E+03
        -0.37300E+03
        -0.37300E+03
        -0.37300E+03
        -0.37300E+03
        -0.37300E+03
        -0.37300E+03
        -0.37300E+03
        -0.37300E+03
        -0.37300E+03
        -0.37300E+03
        -0.37300E+03
        -0.37300E+03
        -0.37300E+03
        -0.37300E+03
        -0.37300E+03
        -0.37300E+03
        -0.37300E+03
        -0.37300E+03
        -0.37300E+03
        -0.37300E+03
        -0.37300E+03
        -0.37300E+03
        -0.37300E+03
        -0.37300E+03
        -0.37300E+03
        -0.37300E+03
        -0.37300E+03
        -0.37300E+03
        -0.37300E+03
        -0.37300E+03
        -0.37300E+03
        -0.37300E+03
        -0.37300E+03
        -0.37300E+03
        -0.37300E+03
        -0.37300E+03
        -0.37300E+03
        -0.37300E+03
        -0.37300E+03
        -0.37300E+03
        -0.37300E+03
        -0.37300E+03
        -0.37300E+03
        -0.37300E+03
        -0.37300E+03
        -0.37300E+03
        -0.37300E+03
        -0.37300E+03
        -0.37300E+03
        -0.37300E+03
        -0.37300E+03
        -0.37300E+03
        -0.37300E+03
        -0.37300E+03
        -0.37300E+03
        -0.37300E+03
        -0.37300E+03
        -0.37300E+03
        -0.37300E+03
        -0.37300E+03
        -0.37300E+03
        -0.37300E+03
        -0.37300E+03
        -0.37300E+03
  
SCALARS                 acceleration_x  double 1
LOOKUP_TABLE default
         0.00000E+00
         0.00000E+00
         0.00000E+00
         0.00000E+00
         0.00000E+00
         0.00000E+00
         0.00000E+00
         0.00000E+00
         0.00000E+00
         0.00000E+00
         0.00000E+00
         0.00000E+00
         0.00000E+00
         0.00000E+00
         0.00000E+00
         0.00000E+00
         0.00000E+00
         0.00000E+00
         0.00000E+00
         0.00000E+00
         0.00000E+00
         0.00000E+00
         0.00000E+00
         0.00000E+00
         0.00000E+00
         0.00000E+00
         0.00000E+00
         0.00000E+00
         0.00000E+00
         0.00000E+00
         0.00000E+00
         0.00000E+00
         0.00000E+00
         0.00000E+00
         0.00000E+00
         0.00000E+00
         0.00000E+00
         0.00000E+00
         0.00000E+00
         0.00000E+00
         0.00000E+00
         0.00000E+00
         0.00000E+00
         0.00000E+00
         0.00000E+00
         0.00000E+00
         0.00000E+00
         0.00000E+00
         0.00000E+00
         0.00000E+00
         0.00000E+00
         0.00000E+00
         0.00000E+00
         0.00000E+00
         0.00000E+00
         0.00000E+00
         0.00000E+00
         0.00000E+00
         0.00000E+00
         0.00000E+00
         0.00000E+00
         0.00000E+00
         0.00000E+00
         0.00000E+00
         0.00000E+00
         0.00000E+00
         0.00000E+00
         0.00000E+00
         0.00000E+00
         0.00000E+00
         0.00000E+00
         0.00000E+00
         0.00000E+00
         0.00000E+00
         0.00000E+00
         0.00000E+00
         0.00000E+00
         0.00000E+00
         0.00000E+00
         0.00000E+00
         0.00000E+00
         0.00000E+00
         0.00000E+00
         0.00000E+00
         0.00000E+00
         0.00000E+00
         0.00000E+00
         0.00000E+00
         0.00000E+00
         0.00000E+00
         0.00000E+00
         0.00000E+00
         0.00000E+00
         0.00000E+00
         0.00000E+00
         0.00000E+00
         0.00000E+00
         0.00000E+00
         0.00000E+00
         0.00000E+00
         0.00000E+00
         0.00000E+00
         0.00000E+00
         0.00000E+00
         0.00000E+00
         0.00000E+00
         0.00000E+00
         0.00000E+00
         0.00000E+00
         0.00000E+00
         0.00000E+00
         0.00000E+00
         0.00000E+00
         0.00000E+00
         0.00000E+00
         0.00000E+00
         0.00000E+00
         0.00000E+00
         0.00000E+00
         0.00000E+00
         0.00000E+00
         0.00000E+00
         0.00000E+00
         0.00000E+00
         0.00000E+00
         0.00000E+00
         0.00000E+00
         0.00000E+00
         0.00000E+00
         0.00000E+00
         0.00000E+00
         0.00000E+00
         0.00000E+00
         0.00000E+00
         0.00000E+00
         0.00000E+00
         0.00000E+00
         0.00000E+00
         0.00000E+00
         0.00000E+00
         0.00000E+00
         0.00000E+00
         0.00000E+00
         0.00000E+00
         0.00000E+00
         0.00000E+00
         0.00000E+00
         0.00000E+00
         0.00000E+00
         0.00000E+00
         0.00000E+00
         0.00000E+00
         0.00000E+00
         0.00000E+00
         0.00000E+00
         0.00000E+00
         0.00000E+00
         0.00000E+00
         0.00000E+00
         0.00000E+00
         0.00000E+00
         0.00000E+00
         0.00000E+00
         0.00000E+00
         0.00000E+00
         0.00000E+00
         0.00000E+00
         0.00000E+00
         0.00000E+00
         0.00000E+00
         0.00000E+00
         0.00000E+00
         0.00000E+00
         0.00000E+00
         0.00000E+00
         0.00000E+00
         0.00000E+00
         0.00000E+00
         0.00000E+00
         0.00000E+00
         0.00000E+00
         0.00000E+00
         0.00000E+00
         0.00000E+00
         0.00000E+00
         0.00000E+00
         0.00000E+00
         0.00000E+00
         0.00000E+00
         0.00000E+00
         0.00000E+00
         0.00000E+00
         0.00000E+00
         0.00000E+00
         0.00000E+00
         0.00000E+00
         0.00000E+00
         0.00000E+00
         0.00000E+00
         0.00000E+00
         0.00000E+00
         0.00000E+00
         0.00000E+00
         0.00000E+00
         0.00000E+00
         0.00000E+00
         0.00000E+00
         0.00000E+00
         0.00000E+00
         0.00000E+00
         0.00000E+00
         0.00000E+00
         0.00000E+00
         0.00000E+00
         0.00000E+00
         0.00000E+00
         0.00000E+00
         0.00000E+00
         0.00000E+00
         0.00000E+00
         0.00000E+00
         0.00000E+00
         0.00000E+00
         0.00000E+00
         0.00000E+00
         0.00000E+00
         0.00000E+00
         0.00000E+00
         0.00000E+00
         0.00000E+00
         0.00000E+00
         0.00000E+00
         0.00000E+00
         0.00000E+00
         0.00000E+00
         0.00000E+00
         0.00000E+00
         0.00000E+00
         0.00000E+00
         0.00000E+00
         0.00000E+00
         0.00000E+00
         0.00000E+00
         0.00000E+00
         0.00000E+00
         0.00000E+00
         0.00000E+00
         0.00000E+00
         0.00000E+00
         0.00000E+00
         0.00000E+00
         0.00000E+00
         0.00000E+00
         0.00000E+00
         0.00000E+00
         0.00000E+00
         0.00000E+00
         0.00000E+00
         0.00000E+00
         0.00000E+00
         0.00000E+00
         0.00000E+00
         0.00000E+00
         0.00000E+00
         0.00000E+00
         0.00000E+00
         0.00000E+00
         0.00000E+00
         0.00000E+00
         0.00000E+00
         0.00000E+00
         0.00000E+00
         0.00000E+00
         0.00000E+00
         0.00000E+00
         0.00000E+00
         0.00000E+00
         0.00000E+00
         0.00000E+00
         0.00000E+00
         0.00000E+00
         0.00000E+00
         0.00000E+00
         0.00000E+00
         0.00000E+00
         0.00000E+00
         0.00000E+00
         0.00000E+00
         0.00000E+00
         0.00000E+00
         0.00000E+00
         0.00000E+00
         0.00000E+00
         0.00000E+00
         0.00000E+00
         0.00000E+00
         0.00000E+00
         0.00000E+00
         0.00000E+00
         0.00000E+00
         0.00000E+00
         0.00000E+00
         0.00000E+00
         0.00000E+00
         0.00000E+00
         0.00000E+00
         0.00000E+00
         0.00000E+00
         0.00000E+00
         0.00000E+00
         0.00000E+00
         0.00000E+00
         0.00000E+00
         0.00000E+00
         0.00000E+00
         0.00000E+00
         0.00000E+00
         0.00000E+00
         0.00000E+00
         0.00000E+00
         0.00000E+00
         0.00000E+00
         0.00000E+00
         0.00000E+00
         0.00000E+00
         0.00000E+00
         0.00000E+00
         0.00000E+00
         0.00000E+00
         0.00000E+00
         0.00000E+00
         0.00000E+00
         0.00000E+00
         0.00000E+00
         0.00000E+00
         0.00000E+00
         0.00000E+00
         0.00000E+00
         0.00000E+00
         0.00000E+00
         0.00000E+00
         0.00000E+00
         0.00000E+00
         0.00000E+00
         0.00000E+00
         0.00000E+00
         0.00000E+00
         0.00000E+00
         0.00000E+00
         0.00000E+00
         0.00000E+00
         0.00000E+00
         0.00000E+00
         0.00000E+00
         0.00000E+00
         0.00000E+00
         0.00000E+00
         0.00000E+00
         0.00000E+00
         0.00000E+00
         0.00000E+00
         0.00000E+00
         0.00000E+00
         0.00000E+00
         0.00000E+00
         0.00000E+00
         0.00000E+00
         0.00000E+00
         0.00000E+00
         0.00000E+00
         0.00000E+00
         0.00000E+00
         0.00000E+00
         0.00000E+00
         0.00000E+00
         0.00000E+00
         0.00000E+00
         0.00000E+00
         0.00000E+00
         0.00000E+00
         0.00000E+00
         0.00000E+00
         0.00000E+00
         0.00000E+00
         0.00000E+00
         0.00000E+00
         0.00000E+00
         0.00000E+00
         0.00000E+00
         0.00000E+00
         0.00000E+00
         0.00000E+00
         0.00000E+00
         0.00000E+00
         0.00000E+00
         0.00000E+00
         0.00000E+00
         0.00000E+00
         0.00000E+00
         0.00000E+00
         0.00000E+00
         0.00000E+00
         0.00000E+00
         0.00000E+00
         0.00000E+00
         0.00000E+00
         0.00000E+00
         0.00000E+00
         0.00000E+00
         0.00000E+00
         0.00000E+00
         0.00000E+00
         0.00000E+00
         0.00000E+00
         0.00000E+00
         0.00000E+00
         0.00000E+00
         0.00000E+00
         0.00000E+00
         0.00000E+00
         0.00000E+00
         0.00000E+00
         0.00000E+00
         0.00000E+00
         0.00000E+00
         0.00000E+00
         0.00000E+00
         0.00000E+00
         0.00000E+00
         0.00000E+00
         0.00000E+00
         0.00000E+00
         0.00000E+00
         0.00000E+00
         0.00000E+00
         0.00000E+00
         0.00000E+00
         0.00000E+00
         0.00000E+00
         0.00000E+00
         0.00000E+00
         0.00000E+00
         0.00000E+00
         0.00000E+00
         0.00000E+00
         0.00000E+00
         0.00000E+00
         0.00000E+00
         0.00000E+00
         0.00000E+00
         0.00000E+00
         0.00000E+00
         0.00000E+00
         0.00000E+00
         0.00000E+00
         0.00000E+00
         0.00000E+00
         0.00000E+00
         0.00000E+00
         0.00000E+00
         0.00000E+00
         0.00000E+00
         0.00000E+00
         0.00000E+00
         0.00000E+00
         0.00000E+00
         0.00000E+00
         0.00000E+00
         0.00000E+00
         0.00000E+00
         0.00000E+00
         0.00000E+00
         0.00000E+00
         0.00000E+00
         0.00000E+00
         0.00000E+00
         0.00000E+00
         0.00000E+00
         0.00000E+00
         0.00000E+00
         0.00000E+00
         0.00000E+00
         0.00000E+00
         0.00000E+00
         0.00000E+00
         0.00000E+00
         0.00000E+00
         0.00000E+00
         0.00000E+00
         0.00000E+00
         0.00000E+00
         0.00000E+00
         0.00000E+00
         0.00000E+00
         0.00000E+00
         0.00000E+00
         0.00000E+00
         0.00000E+00
         0.00000E+00
         0.00000E+00
         0.00000E+00
         0.00000E+00
         0.00000E+00
         0.00000E+00
         0.00000E+00
         0.00000E+00
         0.00000E+00
         0.00000E+00
         0.00000E+00
         0.00000E+00
         0.00000E+00
         0.00000E+00
         0.00000E+00
         0.00000E+00
         0.00000E+00
         0.00000E+00
         0.00000E+00
         0.00000E+00
         0.00000E+00
         0.00000E+00
         0.00000E+00
         0.00000E+00
         0.00000E+00
         0.00000E+00
         0.00000E+00
         0.00000E+00
         0.00000E+00
         0.00000E+00
         0.00000E+00
         0.00000E+00
         0.00000E+00
         0.00000E+00
         0.00000E+00
         0.00000E+00
         0.00000E+00
         0.00000E+00
         0.00000E+00
         0.00000E+00
         0.00000E+00
         0.00000E+00
         0.00000E+00
         0.00000E+00
         0.00000E+00
         0.00000E+00
         0.00000E+00
         0.00000E+00
         0.00000E+00
         0.00000E+00
         0.00000E+00
         0.00000E+00
         0.00000E+00
         0.00000E+00
         0.00000E+00
         0.00000E+00
         0.00000E+00
         0.00000E+00
         0.00000E+00
         0.00000E+00
         0.00000E+00
         0.00000E+00
         0.00000E+00
         0.00000E+00
         0.00000E+00
         0.00000E+00
         0.00000E+00
         0.00000E+00
         0.00000E+00
         0.00000E+00
         0.00000E+00
         0.00000E+00
         0.00000E+00
         0.00000E+00
         0.00000E+00
         0.00000E+00
         0.00000E+00
         0.00000E+00
         0.00000E+00
         0.00000E+00
         0.00000E+00
         0.00000E+00
         0.00000E+00
         0.00000E+00
         0.00000E+00
         0.00000E+00
         0.00000E+00
         0.00000E+00
         0.00000E+00
         0.00000E+00
         0.00000E+00
         0.00000E+00
         0.00000E+00
         0.00000E+00
         0.00000E+00
         0.00000E+00
         0.00000E+00
         0.00000E+00
         0.00000E+00
         0.00000E+00
         0.00000E+00
         0.00000E+00
         0.00000E+00
         0.00000E+00
         0.00000E+00
         0.00000E+00
         0.00000E+00
         0.00000E+00
         0.00000E+00
         0.00000E+00
         0.00000E+00
         0.00000E+00
         0.00000E+00
         0.00000E+00
         0.00000E+00
         0.00000E+00
         0.00000E+00
         0.00000E+00
         0.00000E+00
         0.00000E+00
         0.00000E+00
         0.00000E+00
         0.00000E+00
         0.00000E+00
         0.00000E+00
         0.00000E+00
         0.00000E+00
         0.00000E+00
         0.00000E+00
         0.00000E+00
         0.00000E+00
         0.00000E+00
         0.00000E+00
         0.00000E+00
         0.00000E+00
         0.00000E+00
         0.00000E+00
         0.00000E+00
         0.00000E+00
         0.00000E+00
         0.00000E+00
         0.00000E+00
         0.00000E+00
         0.00000E+00
         0.00000E+00
         0.00000E+00
         0.00000E+00
         0.00000E+00
         0.00000E+00
         0.00000E+00
         0.00000E+00
         0.00000E+00
         0.00000E+00
         0.00000E+00
         0.00000E+00
         0.00000E+00
         0.00000E+00
         0.00000E+00
         0.00000E+00
         0.00000E+00
         0.00000E+00
         0.00000E+00
         0.00000E+00
         0.00000E+00
         0.00000E+00
         0.00000E+00
         0.00000E+00
         0.00000E+00
         0.00000E+00
         0.00000E+00
         0.00000E+00
         0.00000E+00
         0.00000E+00
         0.00000E+00
         0.00000E+00
         0.00000E+00
         0.00000E+00
         0.00000E+00
         0.00000E+00
         0.00000E+00
         0.00000E+00
         0.00000E+00
         0.00000E+00
         0.00000E+00
         0.00000E+00
         0.00000E+00
         0.00000E+00
         0.00000E+00
         0.00000E+00
         0.00000E+00
         0.00000E+00
         0.00000E+00
         0.00000E+00
         0.00000E+00
         0.00000E+00
         0.00000E+00
         0.00000E+00
         0.00000E+00
         0.00000E+00
         0.00000E+00
         0.00000E+00
         0.00000E+00
         0.00000E+00
         0.00000E+00
         0.00000E+00
         0.00000E+00
         0.00000E+00
         0.00000E+00
         0.00000E+00
         0.00000E+00
         0.00000E+00
         0.00000E+00
         0.00000E+00
         0.00000E+00
         0.00000E+00
         0.00000E+00
         0.00000E+00
         0.00000E+00
         0.00000E+00
         0.00000E+00
         0.00000E+00
         0.00000E+00
         0.00000E+00
         0.00000E+00
         0.00000E+00
         0.00000E+00
         0.00000E+00
         0.00000E+00
         0.00000E+00
         0.00000E+00
         0.00000E+00
         0.00000E+00
         0.00000E+00
         0.00000E+00
         0.00000E+00
         0.00000E+00
         0.00000E+00
         0.00000E+00
         0.00000E+00
         0.00000E+00
         0.00000E+00
         0.00000E+00
         0.00000E+00
         0.00000E+00
         0.00000E+00
         0.00000E+00
         0.00000E+00
         0.00000E+00
         0.00000E+00
         0.00000E+00
         0.00000E+00
         0.00000E+00
         0.00000E+00
         0.00000E+00
         0.00000E+00
         0.00000E+00
         0.00000E+00
         0.00000E+00
         0.00000E+00
         0.00000E+00
         0.00000E+00
         0.00000E+00
         0.00000E+00
         0.00000E+00
         0.00000E+00
         0.00000E+00
         0.00000E+00
         0.00000E+00
         0.00000E+00
         0.00000E+00
         0.00000E+00
         0.00000E+00
         0.00000E+00
         0.00000E+00
         0.00000E+00
         0.00000E+00
         0.00000E+00
         0.00000E+00
         0.00000E+00
         0.00000E+00
         0.00000E+00
         0.00000E+00
         0.00000E+00
         0.00000E+00
         0.00000E+00
         0.00000E+00
         0.00000E+00
         0.00000E+00
         0.00000E+00
         0.00000E+00
         0.00000E+00
         0.00000E+00
         0.00000E+00
         0.00000E+00
         0.00000E+00
         0.00000E+00
         0.00000E+00
         0.00000E+00
         0.00000E+00
         0.00000E+00
         0.00000E+00
         0.00000E+00
         0.00000E+00
         0.00000E+00
         0.00000E+00
         0.00000E+00
         0.00000E+00
         0.00000E+00
         0.00000E+00
         0.00000E+00
         0.00000E+00
         0.00000E+00
         0.00000E+00
         0.00000E+00
         0.00000E+00
         0.00000E+00
         0.00000E+00
         0.00000E+00
         0.00000E+00
         0.00000E+00
         0.00000E+00
         0.00000E+00
         0.00000E+00
         0.00000E+00
         0.00000E+00
         0.00000E+00
         0.00000E+00
         0.00000E+00
         0.00000E+00
         0.00000E+00
         0.00000E+00
         0.00000E+00
         0.00000E+00
         0.00000E+00
         0.00000E+00
         0.00000E+00
         0.00000E+00
         0.00000E+00
         0.00000E+00
         0.00000E+00
         0.00000E+00
         0.00000E+00
         0.00000E+00
         0.00000E+00
         0.00000E+00
         0.00000E+00
         0.00000E+00
         0.00000E+00
         0.00000E+00
         0.00000E+00
         0.00000E+00
         0.00000E+00
         0.00000E+00
         0.00000E+00
         0.00000E+00
         0.00000E+00
         0.00000E+00
         0.00000E+00
         0.00000E+00
         0.00000E+00
         0.00000E+00
         0.00000E+00
         0.00000E+00
         0.00000E+00
         0.00000E+00
         0.00000E+00
         0.00000E+00
         0.00000E+00
         0.00000E+00
         0.00000E+00
         0.00000E+00
         0.00000E+00
         0.00000E+00
         0.00000E+00
         0.00000E+00
         0.00000E+00
         0.00000E+00
         0.00000E+00
         0.00000E+00
         0.00000E+00
         0.00000E+00
         0.00000E+00
         0.00000E+00
         0.00000E+00
         0.00000E+00
         0.00000E+00
         0.00000E+00
         0.00000E+00
         0.00000E+00
         0.00000E+00
         0.00000E+00
         0.00000E+00
         0.00000E+00
         0.00000E+00
         0.00000E+00
         0.00000E+00
         0.00000E+00
         0.00000E+00
         0.00000E+00
         0.00000E+00
         0.00000E+00
         0.00000E+00
         0.00000E+00
         0.00000E+00
         0.00000E+00
         0.00000E+00
         0.00000E+00
         0.00000E+00
         0.00000E+00
         0.00000E+00
         0.00000E+00
         0.00000E+00
         0.00000E+00
         0.00000E+00
         0.00000E+00
         0.00000E+00
         0.00000E+00
         0.00000E+00
         0.00000E+00
         0.00000E+00
         0.00000E+00
         0.00000E+00
         0.00000E+00
         0.00000E+00
         0.00000E+00
         0.00000E+00
         0.00000E+00
         0.00000E+00
         0.00000E+00
         0.00000E+00
         0.00000E+00
         0.00000E+00
         0.00000E+00
         0.00000E+00
         0.00000E+00
         0.00000E+00
         0.00000E+00
         0.00000E+00
         0.00000E+00
         0.00000E+00
         0.00000E+00
         0.00000E+00
         0.00000E+00
         0.00000E+00
         0.00000E+00
         0.00000E+00
         0.00000E+00
         0.00000E+00
         0.00000E+00
         0.00000E+00
         0.00000E+00
         0.00000E+00
         0.00000E+00
         0.00000E+00
         0.00000E+00
         0.00000E+00
         0.00000E+00
         0.00000E+00
         0.00000E+00
         0.00000E+00
         0.00000E+00
         0.00000E+00
         0.00000E+00
         0.00000E+00
         0.00000E+00
         0.00000E+00
         0.00000E+00
         0.00000E+00
         0.00000E+00
         0.00000E+00
         0.00000E+00
         0.00000E+00
         0.00000E+00
         0.00000E+00
         0.00000E+00
         0.00000E+00
         0.00000E+00
         0.00000E+00
         0.00000E+00
         0.00000E+00
         0.00000E+00
         0.00000E+00
         0.00000E+00
         0.00000E+00
         0.00000E+00
         0.00000E+00
         0.00000E+00
         0.00000E+00
         0.00000E+00
         0.00000E+00
         0.00000E+00
         0.00000E+00
         0.00000E+00
         0.00000E+00
         0.00000E+00
         0.00000E+00
         0.00000E+00
         0.00000E+00
         0.00000E+00
         0.00000E+00
         0.00000E+00
         0.00000E+00
         0.00000E+00
         0.00000E+00
         0.00000E+00
         0.00000E+00
         0.00000E+00
         0.00000E+00
         0.00000E+00
         0.00000E+00
         0.00000E+00
         0.00000E+00
         0.00000E+00
         0.00000E+00
         0.00000E+00
         0.00000E+00
         0.00000E+00
         0.00000E+00
         0.00000E+00
         0.00000E+00
         0.00000E+00
         0.00000E+00
         0.00000E+00
         0.00000E+00
         0.00000E+00
         0.00000E+00
         0.00000E+00
         0.00000E+00
         0.00000E+00
         0.00000E+00
         0.00000E+00
         0.00000E+00
         0.00000E+00
         0.00000E+00
         0.00000E+00
         0.00000E+00
         0.00000E+00
         0.00000E+00
         0.00000E+00
         0.00000E+00
         0.00000E+00
         0.00000E+00
         0.00000E+00
         0.00000E+00
         0.00000E+00
         0.00000E+00
         0.00000E+00
         0.00000E+00
         0.00000E+00
         0.00000E+00
         0.00000E+00
         0.00000E+00
         0.00000E+00
         0.00000E+00
         0.00000E+00
         0.00000E+00
         0.00000E+00
         0.00000E+00
         0.00000E+00
         0.00000E+00
         0.00000E+00
         0.00000E+00
         0.00000E+00
         0.00000E+00
         0.00000E+00
         0.00000E+00
         0.00000E+00
         0.00000E+00
         0.00000E+00
         0.00000E+00
         0.00000E+00
         0.00000E+00
         0.00000E+00
         0.00000E+00
         0.00000E+00
         0.00000E+00
         0.00000E+00
         0.00000E+00
         0.00000E+00
         0.00000E+00
         0.00000E+00
         0.00000E+00
         0.00000E+00
         0.00000E+00
         0.00000E+00
         0.00000E+00
         0.00000E+00
         0.00000E+00
         0.00000E+00
         0.00000E+00
         0.00000E+00
         0.00000E+00
         0.00000E+00
         0.00000E+00
         0.00000E+00
         0.00000E+00
         0.00000E+00
         0.00000E+00
         0.00000E+00
         0.00000E+00
         0.00000E+00
         0.00000E+00
         0.00000E+00
         0.00000E+00
         0.00000E+00
         0.00000E+00
         0.00000E+00
         0.00000E+00
         0.00000E+00
         0.00000E+00
         0.00000E+00
         0.00000E+00
         0.00000E+00
         0.00000E+00
         0.00000E+00
         0.00000E+00
         0.00000E+00
         0.00000E+00
         0.00000E+00
         0.00000E+00
         0.00000E+00
         0.00000E+00
         0.00000E+00
         0.00000E+00
         0.00000E+00
         0.00000E+00
         0.00000E+00
         0.00000E+00
         0.00000E+00
         0.00000E+00
         0.00000E+00
         0.00000E+00
         0.00000E+00
         0.00000E+00
         0.00000E+00
         0.00000E+00
         0.00000E+00
         0.00000E+00
         0.00000E+00
         0.00000E+00
         0.00000E+00
         0.00000E+00
         0.00000E+00
         0.00000E+00
         0.00000E+00
         0.00000E+00
         0.00000E+00
         0.00000E+00
         0.00000E+00
         0.00000E+00
         0.00000E+00
         0.00000E+00
         0.00000E+00
         0.00000E+00
         0.00000E+00
         0.00000E+00
         0.00000E+00
         0.00000E+00
         0.00000E+00
         0.00000E+00
         0.00000E+00
         0.00000E+00
         0.00000E+00
         0.00000E+00
         0.00000E+00
         0.00000E+00
         0.00000E+00
         0.00000E+00
         0.00000E+00
         0.00000E+00
         0.00000E+00
         0.00000E+00
         0.00000E+00
         0.00000E+00
         0.00000E+00
         0.00000E+00
         0.00000E+00
         0.00000E+00
         0.00000E+00
         0.00000E+00
         0.00000E+00
         0.00000E+00
         0.00000E+00
         0.00000E+00
         0.00000E+00
         0.00000E+00
         0.00000E+00
         0.00000E+00
         0.00000E+00
         0.00000E+00
         0.00000E+00
         0.00000E+00
         0.00000E+00
         0.00000E+00
         0.00000E+00
         0.00000E+00
         0.00000E+00
         0.00000E+00
         0.00000E+00
         0.00000E+00
         0.00000E+00
         0.00000E+00
         0.00000E+00
         0.00000E+00
         0.00000E+00
         0.00000E+00
         0.00000E+00
         0.00000E+00
         0.00000E+00
         0.00000E+00
         0.00000E+00
         0.00000E+00
         0.00000E+00
         0.00000E+00
         0.00000E+00
         0.00000E+00
         0.00000E+00
         0.00000E+00
         0.00000E+00
         0.00000E+00
         0.00000E+00
         0.00000E+00
         0.00000E+00
         0.00000E+00
         0.00000E+00
         0.00000E+00
         0.00000E+00
         0.00000E+00
         0.00000E+00
         0.00000E+00
         0.00000E+00
         0.00000E+00
         0.00000E+00
         0.00000E+00
         0.00000E+00
         0.00000E+00
         0.00000E+00
         0.00000E+00
         0.00000E+00
         0.00000E+00
         0.00000E+00
         0.00000E+00
         0.00000E+00
         0.00000E+00
         0.00000E+00
         0.00000E+00
         0.00000E+00
         0.00000E+00
         0.00000E+00
         0.00000E+00
         0.00000E+00
         0.00000E+00
         0.00000E+00
         0.00000E+00
         0.00000E+00
         0.00000E+00
         0.00000E+00
         0.00000E+00
         0.00000E+00
         0.00000E+00
         0.00000E+00
         0.00000E+00
         0.00000E+00
         0.00000E+00
         0.00000E+00
         0.00000E+00
         0.00000E+00
         0.00000E+00
         0.00000E+00
         0.00000E+00
         0.00000E+00
         0.00000E+00
         0.00000E+00
         0.00000E+00
         0.00000E+00
         0.00000E+00
         0.00000E+00
         0.00000E+00
         0.00000E+00
         0.00000E+00
         0.00000E+00
         0.00000E+00
         0.00000E+00
         0.00000E+00
         0.00000E+00
         0.00000E+00
         0.00000E+00
         0.00000E+00
         0.00000E+00
         0.00000E+00
         0.00000E+00
         0.00000E+00
         0.00000E+00
         0.00000E+00
         0.00000E+00
         0.00000E+00
         0.00000E+00
         0.00000E+00
         0.00000E+00
         0.00000E+00
         0.00000E+00
         0.00000E+00
         0.00000E+00
         0.00000E+00
         0.00000E+00
         0.00000E+00
         0.00000E+00
         0.00000E+00
         0.00000E+00
         0.00000E+00
         0.00000E+00
         0.00000E+00
         0.00000E+00
         0.00000E+00
         0.00000E+00
         0.00000E+00
         0.00000E+00
         0.00000E+00
         0.00000E+00
         0.00000E+00
         0.00000E+00
         0.00000E+00
         0.00000E+00
         0.00000E+00
         0.00000E+00
         0.00000E+00
         0.00000E+00
         0.00000E+00
         0.00000E+00
         0.00000E+00
         0.00000E+00
         0.00000E+00
         0.00000E+00
         0.00000E+00
         0.00000E+00
         0.00000E+00
         0.00000E+00
         0.00000E+00
         0.00000E+00
         0.00000E+00
         0.00000E+00
         0.00000E+00
         0.00000E+00
         0.00000E+00
         0.00000E+00
         0.00000E+00
         0.00000E+00
         0.00000E+00
         0.00000E+00
         0.00000E+00
         0.00000E+00
         0.00000E+00
         0.00000E+00
         0.00000E+00
         0.00000E+00
         0.00000E+00
         0.00000E+00
         0.00000E+00
         0.00000E+00
         0.00000E+00
         0.00000E+00
         0.00000E+00
         0.00000E+00
         0.00000E+00
         0.00000E+00
         0.00000E+00
         0.00000E+00
         0.00000E+00
         0.00000E+00
         0.00000E+00
         0.00000E+00
         0.00000E+00
         0.00000E+00
         0.00000E+00
         0.00000E+00
         0.00000E+00
         0.00000E+00
         0.00000E+00
         0.00000E+00
         0.00000E+00
         0.00000E+00
         0.00000E+00
         0.00000E+00
         0.00000E+00
         0.00000E+00
         0.00000E+00
         0.00000E+00
         0.00000E+00
         0.00000E+00
         0.00000E+00
         0.00000E+00
         0.00000E+00
         0.00000E+00
         0.00000E+00
         0.00000E+00
         0.00000E+00
         0.00000E+00
         0.00000E+00
         0.00000E+00
         0.00000E+00
         0.00000E+00
         0.00000E+00
         0.00000E+00
         0.00000E+00
         0.00000E+00
         0.00000E+00
         0.00000E+00
         0.00000E+00
         0.00000E+00
         0.00000E+00
         0.00000E+00
         0.00000E+00
         0.00000E+00
         0.00000E+00
         0.00000E+00
         0.00000E+00
         0.00000E+00
         0.00000E+00
         0.00000E+00
         0.00000E+00
         0.00000E+00
         0.00000E+00
         0.00000E+00
         0.00000E+00
         0.00000E+00
         0.00000E+00
         0.00000E+00
         0.00000E+00
         0.00000E+00
         0.00000E+00
         0.00000E+00
         0.00000E+00
         0.00000E+00
         0.00000E+00
         0.00000E+00
         0.00000E+00
         0.00000E+00
         0.00000E+00
         0.00000E+00
         0.00000E+00
         0.00000E+00
         0.00000E+00
         0.00000E+00
         0.00000E+00
         0.00000E+00
         0.00000E+00
         0.00000E+00
         0.00000E+00
         0.00000E+00
         0.00000E+00
         0.00000E+00
         0.00000E+00
         0.00000E+00
         0.00000E+00
         0.00000E+00
         0.00000E+00
         0.00000E+00
         0.00000E+00
         0.00000E+00
         0.00000E+00
         0.00000E+00
         0.00000E+00
         0.00000E+00
         0.00000E+00
         0.00000E+00
         0.00000E+00
         0.00000E+00
         0.00000E+00
         0.00000E+00
         0.00000E+00
         0.00000E+00
         0.00000E+00
         0.00000E+00
         0.00000E+00
         0.00000E+00
         0.00000E+00
         0.00000E+00
         0.00000E+00
         0.00000E+00
         0.00000E+00
         0.00000E+00
         0.00000E+00
         0.00000E+00
         0.00000E+00
         0.00000E+00
         0.00000E+00
         0.00000E+00
         0.00000E+00
         0.00000E+00
         0.00000E+00
         0.00000E+00
         0.00000E+00
         0.00000E+00
         0.00000E+00
         0.00000E+00
         0.00000E+00
         0.00000E+00
         0.00000E+00
         0.00000E+00
         0.00000E+00
         0.00000E+00
         0.00000E+00
         0.00000E+00
         0.00000E+00
         0.00000E+00
         0.00000E+00
         0.00000E+00
         0.00000E+00
         0.00000E+00
         0.00000E+00
         0.00000E+00
         0.00000E+00
         0.00000E+00
         0.00000E+00
         0.00000E+00
         0.00000E+00
         0.00000E+00
         0.00000E+00
         0.00000E+00
         0.00000E+00
         0.00000E+00
         0.00000E+00
         0.00000E+00
         0.00000E+00
         0.00000E+00
         0.00000E+00
         0.00000E+00
         0.00000E+00
         0.00000E+00
         0.00000E+00
         0.00000E+00
         0.00000E+00
         0.00000E+00
         0.00000E+00
         0.00000E+00
         0.00000E+00
         0.00000E+00
         0.00000E+00
         0.00000E+00
         0.00000E+00
         0.00000E+00
         0.00000E+00
         0.00000E+00
         0.00000E+00
         0.00000E+00
         0.00000E+00
         0.00000E+00
         0.00000E+00
         0.00000E+00
         0.00000E+00
         0.00000E+00
         0.00000E+00
         0.00000E+00
         0.00000E+00
         0.00000E+00
         0.00000E+00
         0.00000E+00
         0.00000E+00
         0.00000E+00
         0.00000E+00
         0.00000E+00
         0.00000E+00
         0.00000E+00
         0.00000E+00
         0.00000E+00
         0.00000E+00
         0.00000E+00
         0.00000E+00
         0.00000E+00
         0.00000E+00
         0.00000E+00
         0.00000E+00
         0.00000E+00
         0.00000E+00
         0.00000E+00
         0.00000E+00
         0.00000E+00
         0.00000E+00
         0.00000E+00
         0.00000E+00
         0.00000E+00
         0.00000E+00
         0.00000E+00
         0.00000E+00
         0.00000E+00
         0.00000E+00
         0.00000E+00
         0.00000E+00
         0.00000E+00
         0.00000E+00
         0.00000E+00
         0.00000E+00
         0.00000E+00
         0.00000E+00
         0.00000E+00
         0.00000E+00
         0.00000E+00
         0.00000E+00
         0.00000E+00
         0.00000E+00
         0.00000E+00
         0.00000E+00
         0.00000E+00
         0.00000E+00
         0.00000E+00
         0.00000E+00
         0.00000E+00
         0.00000E+00
         0.00000E+00
         0.00000E+00
         0.00000E+00
         0.00000E+00
         0.00000E+00
         0.00000E+00
         0.00000E+00
         0.00000E+00
         0.00000E+00
         0.00000E+00
         0.00000E+00
         0.00000E+00
         0.00000E+00
         0.00000E+00
         0.00000E+00
         0.00000E+00
         0.00000E+00
         0.00000E+00
         0.00000E+00
         0.00000E+00
         0.00000E+00
         0.00000E+00
         0.00000E+00
         0.00000E+00
         0.00000E+00
         0.00000E+00
         0.00000E+00
         0.00000E+00
         0.00000E+00
         0.00000E+00
         0.00000E+00
         0.00000E+00
         0.00000E+00
         0.00000E+00
         0.00000E+00
         0.00000E+00
         0.00000E+00
         0.00000E+00
         0.00000E+00
         0.00000E+00
         0.00000E+00
         0.00000E+00
         0.00000E+00
         0.00000E+00
         0.00000E+00
         0.00000E+00
         0.00000E+00
         0.00000E+00
         0.00000E+00
         0.00000E+00
         0.00000E+00
         0.00000E+00
         0.00000E+00
         0.00000E+00
         0.00000E+00
         0.00000E+00
         0.00000E+00
         0.00000E+00
         0.00000E+00
         0.00000E+00
         0.00000E+00
         0.00000E+00
         0.00000E+00
         0.00000E+00
         0.00000E+00
         0.00000E+00
         0.00000E+00
         0.00000E+00
         0.00000E+00
         0.00000E+00
         0.00000E+00
         0.00000E+00
         0.00000E+00
         0.00000E+00
         0.00000E+00
         0.00000E+00
         0.00000E+00
         0.00000E+00
         0.00000E+00
         0.00000E+00
         0.00000E+00
         0.00000E+00
         0.00000E+00
         0.00000E+00
         0.00000E+00
         0.00000E+00
         0.00000E+00
         0.00000E+00
         0.00000E+00
         0.00000E+00
         0.00000E+00
         0.00000E+00
         0.00000E+00
         0.00000E+00
         0.00000E+00
         0.00000E+00
         0.00000E+00
         0.00000E+00
         0.00000E+00
         0.00000E+00
         0.00000E+00
         0.00000E+00
         0.00000E+00
         0.00000E+00
         0.00000E+00
         0.00000E+00
         0.00000E+00
         0.00000E+00
         0.00000E+00
         0.00000E+00
         0.00000E+00
         0.00000E+00
         0.00000E+00
         0.00000E+00
         0.00000E+00
         0.00000E+00
         0.00000E+00
         0.00000E+00
         0.00000E+00
         0.00000E+00
         0.00000E+00
         0.00000E+00
         0.00000E+00
         0.00000E+00
         0.00000E+00
         0.00000E+00
         0.00000E+00
         0.00000E+00
         0.00000E+00
         0.00000E+00
         0.00000E+00
         0.00000E+00
         0.00000E+00
         0.00000E+00
         0.00000E+00
         0.00000E+00
         0.00000E+00
         0.00000E+00
         0.00000E+00
         0.00000E+00
         0.00000E+00
         0.00000E+00
         0.00000E+00
         0.00000E+00
         0.00000E+00
         0.00000E+00
         0.00000E+00
         0.00000E+00
         0.00000E+00
         0.00000E+00
         0.00000E+00
         0.00000E+00
         0.00000E+00
         0.00000E+00
         0.00000E+00
         0.00000E+00
         0.00000E+00
         0.00000E+00
         0.00000E+00
         0.00000E+00
         0.00000E+00
         0.00000E+00
         0.00000E+00
         0.00000E+00
         0.00000E+00
         0.00000E+00
         0.00000E+00
         0.00000E+00
         0.00000E+00
         0.00000E+00
         0.00000E+00
         0.00000E+00
         0.00000E+00
         0.00000E+00
         0.00000E+00
         0.00000E+00
         0.00000E+00
         0.00000E+00
         0.00000E+00
         0.00000E+00
         0.00000E+00
         0.00000E+00
         0.00000E+00
         0.00000E+00
         0.00000E+00
         0.00000E+00
         0.00000E+00
         0.00000E+00
         0.00000E+00
         0.00000E+00
         0.00000E+00
         0.00000E+00
         0.00000E+00
         0.00000E+00
         0.00000E+00
         0.00000E+00
         0.00000E+00
         0.00000E+00
         0.00000E+00
         0.00000E+00
         0.00000E+00
         0.00000E+00
         0.00000E+00
         0.00000E+00
         0.00000E+00
         0.00000E+00
         0.00000E+00
         0.00000E+00
         0.00000E+00
         0.00000E+00
         0.00000E+00
         0.00000E+00
         0.00000E+00
         0.00000E+00
         0.00000E+00
         0.00000E+00
         0.00000E+00
         0.00000E+00
         0.00000E+00
         0.00000E+00
         0.00000E+00
         0.00000E+00
         0.00000E+00
         0.00000E+00
         0.00000E+00
         0.00000E+00
         0.00000E+00
         0.00000E+00
         0.00000E+00
         0.00000E+00
         0.00000E+00
         0.00000E+00
         0.00000E+00
         0.00000E+00
         0.00000E+00
         0.00000E+00
         0.00000E+00
         0.00000E+00
         0.00000E+00
         0.00000E+00
         0.00000E+00
         0.00000E+00
         0.00000E+00
         0.00000E+00
         0.00000E+00
         0.00000E+00
         0.00000E+00
         0.00000E+00
         0.00000E+00
         0.00000E+00
         0.00000E+00
         0.00000E+00
         0.00000E+00
         0.00000E+00
         0.00000E+00
         0.00000E+00
         0.00000E+00
         0.00000E+00
         0.00000E+00
         0.00000E+00
         0.00000E+00
         0.00000E+00
         0.00000E+00
         0.00000E+00
         0.00000E+00
         0.00000E+00
         0.00000E+00
         0.00000E+00
         0.00000E+00
         0.00000E+00
         0.00000E+00
         0.00000E+00
         0.00000E+00
         0.00000E+00
         0.00000E+00
         0.00000E+00
         0.00000E+00
         0.00000E+00
         0.00000E+00
         0.00000E+00
         0.00000E+00
         0.00000E+00
         0.00000E+00
         0.00000E+00
         0.00000E+00
         0.00000E+00
         0.00000E+00
         0.00000E+00
         0.00000E+00
         0.00000E+00
         0.00000E+00
         0.00000E+00
         0.00000E+00
         0.00000E+00
         0.00000E+00
         0.00000E+00
         0.00000E+00
         0.00000E+00
         0.00000E+00
         0.00000E+00
         0.00000E+00
         0.00000E+00
         0.00000E+00
         0.00000E+00
         0.00000E+00
         0.00000E+00
         0.00000E+00
         0.00000E+00
         0.00000E+00
         0.00000E+00
         0.00000E+00
         0.00000E+00
         0.00000E+00
         0.00000E+00
         0.00000E+00
         0.00000E+00
         0.00000E+00
         0.00000E+00
         0.00000E+00
         0.00000E+00
         0.00000E+00
         0.00000E+00
         0.00000E+00
         0.00000E+00
         0.00000E+00
         0.00000E+00
         0.00000E+00
         0.00000E+00
         0.00000E+00
         0.00000E+00
         0.00000E+00
         0.00000E+00
         0.00000E+00
         0.00000E+00
         0.00000E+00
         0.00000E+00
         0.00000E+00
         0.00000E+00
         0.00000E+00
         0.00000E+00
         0.00000E+00
         0.00000E+00
         0.00000E+00
         0.00000E+00
  
SCALARS                 acceleration_y  double 1
LOOKUP_TABLE default
         0.00000E+00
         0.00000E+00
         0.00000E+00
         0.00000E+00
         0.00000E+00
         0.00000E+00
         0.00000E+00
         0.00000E+00
         0.00000E+00
         0.00000E+00
         0.00000E+00
         0.00000E+00
         0.00000E+00
         0.00000E+00
         0.00000E+00
         0.00000E+00
         0.00000E+00
         0.00000E+00
         0.00000E+00
         0.00000E+00
         0.00000E+00
         0.00000E+00
         0.00000E+00
         0.00000E+00
         0.00000E+00
         0.00000E+00
         0.00000E+00
         0.00000E+00
         0.00000E+00
         0.00000E+00
         0.00000E+00
         0.00000E+00
         0.00000E+00
         0.00000E+00
         0.00000E+00
         0.00000E+00
         0.00000E+00
         0.00000E+00
         0.00000E+00
         0.00000E+00
         0.00000E+00
         0.00000E+00
         0.00000E+00
         0.00000E+00
         0.00000E+00
         0.00000E+00
         0.00000E+00
         0.00000E+00
         0.00000E+00
         0.00000E+00
         0.00000E+00
         0.00000E+00
         0.00000E+00
         0.00000E+00
         0.00000E+00
         0.00000E+00
         0.00000E+00
         0.00000E+00
         0.00000E+00
         0.00000E+00
         0.00000E+00
         0.00000E+00
         0.00000E+00
         0.00000E+00
         0.00000E+00
         0.00000E+00
         0.00000E+00
         0.00000E+00
         0.00000E+00
         0.00000E+00
         0.00000E+00
         0.00000E+00
         0.00000E+00
         0.00000E+00
         0.00000E+00
         0.00000E+00
         0.00000E+00
         0.00000E+00
         0.00000E+00
         0.00000E+00
         0.00000E+00
         0.00000E+00
         0.00000E+00
         0.00000E+00
         0.00000E+00
         0.00000E+00
         0.00000E+00
         0.00000E+00
         0.00000E+00
         0.00000E+00
         0.00000E+00
         0.00000E+00
         0.00000E+00
         0.00000E+00
         0.00000E+00
         0.00000E+00
         0.00000E+00
         0.00000E+00
         0.00000E+00
         0.00000E+00
         0.00000E+00
         0.00000E+00
         0.00000E+00
         0.00000E+00
         0.00000E+00
         0.00000E+00
         0.00000E+00
         0.00000E+00
         0.00000E+00
         0.00000E+00
         0.00000E+00
         0.00000E+00
         0.00000E+00
         0.00000E+00
         0.00000E+00
         0.00000E+00
         0.00000E+00
         0.00000E+00
         0.00000E+00
         0.00000E+00
         0.00000E+00
         0.00000E+00
         0.00000E+00
         0.00000E+00
         0.00000E+00
         0.00000E+00
         0.00000E+00
         0.00000E+00
         0.00000E+00
         0.00000E+00
         0.00000E+00
         0.00000E+00
         0.00000E+00
         0.00000E+00
         0.00000E+00
         0.00000E+00
         0.00000E+00
         0.00000E+00
         0.00000E+00
         0.00000E+00
         0.00000E+00
         0.00000E+00
         0.00000E+00
         0.00000E+00
         0.00000E+00
         0.00000E+00
         0.00000E+00
         0.00000E+00
         0.00000E+00
         0.00000E+00
         0.00000E+00
         0.00000E+00
         0.00000E+00
         0.00000E+00
         0.00000E+00
         0.00000E+00
         0.00000E+00
         0.00000E+00
         0.00000E+00
         0.00000E+00
         0.00000E+00
         0.00000E+00
         0.00000E+00
         0.00000E+00
         0.00000E+00
         0.00000E+00
         0.00000E+00
         0.00000E+00
         0.00000E+00
         0.00000E+00
         0.00000E+00
         0.00000E+00
         0.00000E+00
         0.00000E+00
         0.00000E+00
         0.00000E+00
         0.00000E+00
         0.00000E+00
         0.00000E+00
         0.00000E+00
         0.00000E+00
         0.00000E+00
         0.00000E+00
         0.00000E+00
         0.00000E+00
         0.00000E+00
         0.00000E+00
         0.00000E+00
         0.00000E+00
         0.00000E+00
         0.00000E+00
         0.00000E+00
         0.00000E+00
         0.00000E+00
         0.00000E+00
         0.00000E+00
         0.00000E+00
         0.00000E+00
         0.00000E+00
         0.00000E+00
         0.00000E+00
         0.00000E+00
         0.00000E+00
         0.00000E+00
         0.00000E+00
         0.00000E+00
         0.00000E+00
         0.00000E+00
         0.00000E+00
         0.00000E+00
         0.00000E+00
         0.00000E+00
         0.00000E+00
         0.00000E+00
         0.00000E+00
         0.00000E+00
         0.00000E+00
         0.00000E+00
         0.00000E+00
         0.00000E+00
         0.00000E+00
         0.00000E+00
         0.00000E+00
         0.00000E+00
         0.00000E+00
         0.00000E+00
         0.00000E+00
         0.00000E+00
         0.00000E+00
         0.00000E+00
         0.00000E+00
         0.00000E+00
         0.00000E+00
         0.00000E+00
         0.00000E+00
         0.00000E+00
         0.00000E+00
         0.00000E+00
         0.00000E+00
         0.00000E+00
         0.00000E+00
         0.00000E+00
         0.00000E+00
         0.00000E+00
         0.00000E+00
         0.00000E+00
         0.00000E+00
         0.00000E+00
         0.00000E+00
         0.00000E+00
         0.00000E+00
         0.00000E+00
         0.00000E+00
         0.00000E+00
         0.00000E+00
         0.00000E+00
         0.00000E+00
         0.00000E+00
         0.00000E+00
         0.00000E+00
         0.00000E+00
         0.00000E+00
         0.00000E+00
         0.00000E+00
         0.00000E+00
         0.00000E+00
         0.00000E+00
         0.00000E+00
         0.00000E+00
         0.00000E+00
         0.00000E+00
         0.00000E+00
         0.00000E+00
         0.00000E+00
         0.00000E+00
         0.00000E+00
         0.00000E+00
         0.00000E+00
         0.00000E+00
         0.00000E+00
         0.00000E+00
         0.00000E+00
         0.00000E+00
         0.00000E+00
         0.00000E+00
         0.00000E+00
         0.00000E+00
         0.00000E+00
         0.00000E+00
         0.00000E+00
         0.00000E+00
         0.00000E+00
         0.00000E+00
         0.00000E+00
         0.00000E+00
         0.00000E+00
         0.00000E+00
         0.00000E+00
         0.00000E+00
         0.00000E+00
         0.00000E+00
         0.00000E+00
         0.00000E+00
         0.00000E+00
         0.00000E+00
         0.00000E+00
         0.00000E+00
         0.00000E+00
         0.00000E+00
         0.00000E+00
         0.00000E+00
         0.00000E+00
         0.00000E+00
         0.00000E+00
         0.00000E+00
         0.00000E+00
         0.00000E+00
         0.00000E+00
         0.00000E+00
         0.00000E+00
         0.00000E+00
         0.00000E+00
         0.00000E+00
         0.00000E+00
         0.00000E+00
         0.00000E+00
         0.00000E+00
         0.00000E+00
         0.00000E+00
         0.00000E+00
         0.00000E+00
         0.00000E+00
         0.00000E+00
         0.00000E+00
         0.00000E+00
         0.00000E+00
         0.00000E+00
         0.00000E+00
         0.00000E+00
         0.00000E+00
         0.00000E+00
         0.00000E+00
         0.00000E+00
         0.00000E+00
         0.00000E+00
         0.00000E+00
         0.00000E+00
         0.00000E+00
         0.00000E+00
         0.00000E+00
         0.00000E+00
         0.00000E+00
         0.00000E+00
         0.00000E+00
         0.00000E+00
         0.00000E+00
         0.00000E+00
         0.00000E+00
         0.00000E+00
         0.00000E+00
         0.00000E+00
         0.00000E+00
         0.00000E+00
         0.00000E+00
         0.00000E+00
         0.00000E+00
         0.00000E+00
         0.00000E+00
         0.00000E+00
         0.00000E+00
         0.00000E+00
         0.00000E+00
         0.00000E+00
         0.00000E+00
         0.00000E+00
         0.00000E+00
         0.00000E+00
         0.00000E+00
         0.00000E+00
         0.00000E+00
         0.00000E+00
         0.00000E+00
         0.00000E+00
         0.00000E+00
         0.00000E+00
         0.00000E+00
         0.00000E+00
         0.00000E+00
         0.00000E+00
         0.00000E+00
         0.00000E+00
         0.00000E+00
         0.00000E+00
         0.00000E+00
         0.00000E+00
         0.00000E+00
         0.00000E+00
         0.00000E+00
         0.00000E+00
         0.00000E+00
         0.00000E+00
         0.00000E+00
         0.00000E+00
         0.00000E+00
         0.00000E+00
         0.00000E+00
         0.00000E+00
         0.00000E+00
         0.00000E+00
         0.00000E+00
         0.00000E+00
         0.00000E+00
         0.00000E+00
         0.00000E+00
         0.00000E+00
         0.00000E+00
         0.00000E+00
         0.00000E+00
         0.00000E+00
         0.00000E+00
         0.00000E+00
         0.00000E+00
         0.00000E+00
         0.00000E+00
         0.00000E+00
         0.00000E+00
         0.00000E+00
         0.00000E+00
         0.00000E+00
         0.00000E+00
         0.00000E+00
         0.00000E+00
         0.00000E+00
         0.00000E+00
         0.00000E+00
         0.00000E+00
         0.00000E+00
         0.00000E+00
         0.00000E+00
         0.00000E+00
         0.00000E+00
         0.00000E+00
         0.00000E+00
         0.00000E+00
         0.00000E+00
         0.00000E+00
         0.00000E+00
         0.00000E+00
         0.00000E+00
         0.00000E+00
         0.00000E+00
         0.00000E+00
         0.00000E+00
         0.00000E+00
         0.00000E+00
         0.00000E+00
         0.00000E+00
         0.00000E+00
         0.00000E+00
         0.00000E+00
         0.00000E+00
         0.00000E+00
         0.00000E+00
         0.00000E+00
         0.00000E+00
         0.00000E+00
         0.00000E+00
         0.00000E+00
         0.00000E+00
         0.00000E+00
         0.00000E+00
         0.00000E+00
         0.00000E+00
         0.00000E+00
         0.00000E+00
         0.00000E+00
         0.00000E+00
         0.00000E+00
         0.00000E+00
         0.00000E+00
         0.00000E+00
         0.00000E+00
         0.00000E+00
         0.00000E+00
         0.00000E+00
         0.00000E+00
         0.00000E+00
         0.00000E+00
         0.00000E+00
         0.00000E+00
         0.00000E+00
         0.00000E+00
         0.00000E+00
         0.00000E+00
         0.00000E+00
         0.00000E+00
         0.00000E+00
         0.00000E+00
         0.00000E+00
         0.00000E+00
         0.00000E+00
         0.00000E+00
         0.00000E+00
         0.00000E+00
         0.00000E+00
         0.00000E+00
         0.00000E+00
         0.00000E+00
         0.00000E+00
         0.00000E+00
         0.00000E+00
         0.00000E+00
         0.00000E+00
         0.00000E+00
         0.00000E+00
         0.00000E+00
         0.00000E+00
         0.00000E+00
         0.00000E+00
         0.00000E+00
         0.00000E+00
         0.00000E+00
         0.00000E+00
         0.00000E+00
         0.00000E+00
         0.00000E+00
         0.00000E+00
         0.00000E+00
         0.00000E+00
         0.00000E+00
         0.00000E+00
         0.00000E+00
         0.00000E+00
         0.00000E+00
         0.00000E+00
         0.00000E+00
         0.00000E+00
         0.00000E+00
         0.00000E+00
         0.00000E+00
         0.00000E+00
         0.00000E+00
         0.00000E+00
         0.00000E+00
         0.00000E+00
         0.00000E+00
         0.00000E+00
         0.00000E+00
         0.00000E+00
         0.00000E+00
         0.00000E+00
         0.00000E+00
         0.00000E+00
         0.00000E+00
         0.00000E+00
         0.00000E+00
         0.00000E+00
         0.00000E+00
         0.00000E+00
         0.00000E+00
         0.00000E+00
         0.00000E+00
         0.00000E+00
         0.00000E+00
         0.00000E+00
         0.00000E+00
         0.00000E+00
         0.00000E+00
         0.00000E+00
         0.00000E+00
         0.00000E+00
         0.00000E+00
         0.00000E+00
         0.00000E+00
         0.00000E+00
         0.00000E+00
         0.00000E+00
         0.00000E+00
         0.00000E+00
         0.00000E+00
         0.00000E+00
         0.00000E+00
         0.00000E+00
         0.00000E+00
         0.00000E+00
         0.00000E+00
         0.00000E+00
         0.00000E+00
         0.00000E+00
         0.00000E+00
         0.00000E+00
         0.00000E+00
         0.00000E+00
         0.00000E+00
         0.00000E+00
         0.00000E+00
         0.00000E+00
         0.00000E+00
         0.00000E+00
         0.00000E+00
         0.00000E+00
         0.00000E+00
         0.00000E+00
         0.00000E+00
         0.00000E+00
         0.00000E+00
         0.00000E+00
         0.00000E+00
         0.00000E+00
         0.00000E+00
         0.00000E+00
         0.00000E+00
         0.00000E+00
         0.00000E+00
         0.00000E+00
         0.00000E+00
         0.00000E+00
         0.00000E+00
         0.00000E+00
         0.00000E+00
         0.00000E+00
         0.00000E+00
         0.00000E+00
         0.00000E+00
         0.00000E+00
         0.00000E+00
         0.00000E+00
         0.00000E+00
         0.00000E+00
         0.00000E+00
         0.00000E+00
         0.00000E+00
         0.00000E+00
         0.00000E+00
         0.00000E+00
         0.00000E+00
         0.00000E+00
         0.00000E+00
         0.00000E+00
         0.00000E+00
         0.00000E+00
         0.00000E+00
         0.00000E+00
         0.00000E+00
         0.00000E+00
         0.00000E+00
         0.00000E+00
         0.00000E+00
         0.00000E+00
         0.00000E+00
         0.00000E+00
         0.00000E+00
         0.00000E+00
         0.00000E+00
         0.00000E+00
         0.00000E+00
         0.00000E+00
         0.00000E+00
         0.00000E+00
         0.00000E+00
         0.00000E+00
         0.00000E+00
         0.00000E+00
         0.00000E+00
         0.00000E+00
         0.00000E+00
         0.00000E+00
         0.00000E+00
         0.00000E+00
         0.00000E+00
         0.00000E+00
         0.00000E+00
         0.00000E+00
         0.00000E+00
         0.00000E+00
         0.00000E+00
         0.00000E+00
         0.00000E+00
         0.00000E+00
         0.00000E+00
         0.00000E+00
         0.00000E+00
         0.00000E+00
         0.00000E+00
         0.00000E+00
         0.00000E+00
         0.00000E+00
         0.00000E+00
         0.00000E+00
         0.00000E+00
         0.00000E+00
         0.00000E+00
         0.00000E+00
         0.00000E+00
         0.00000E+00
         0.00000E+00
         0.00000E+00
         0.00000E+00
         0.00000E+00
         0.00000E+00
         0.00000E+00
         0.00000E+00
         0.00000E+00
         0.00000E+00
         0.00000E+00
         0.00000E+00
         0.00000E+00
         0.00000E+00
         0.00000E+00
         0.00000E+00
         0.00000E+00
         0.00000E+00
         0.00000E+00
         0.00000E+00
         0.00000E+00
         0.00000E+00
         0.00000E+00
         0.00000E+00
         0.00000E+00
         0.00000E+00
         0.00000E+00
         0.00000E+00
         0.00000E+00
         0.00000E+00
         0.00000E+00
         0.00000E+00
         0.00000E+00
         0.00000E+00
         0.00000E+00
         0.00000E+00
         0.00000E+00
         0.00000E+00
         0.00000E+00
         0.00000E+00
         0.00000E+00
         0.00000E+00
         0.00000E+00
         0.00000E+00
         0.00000E+00
         0.00000E+00
         0.00000E+00
         0.00000E+00
         0.00000E+00
         0.00000E+00
         0.00000E+00
         0.00000E+00
         0.00000E+00
         0.00000E+00
         0.00000E+00
         0.00000E+00
         0.00000E+00
         0.00000E+00
         0.00000E+00
         0.00000E+00
         0.00000E+00
         0.00000E+00
         0.00000E+00
         0.00000E+00
         0.00000E+00
         0.00000E+00
         0.00000E+00
         0.00000E+00
         0.00000E+00
         0.00000E+00
         0.00000E+00
         0.00000E+00
         0.00000E+00
         0.00000E+00
         0.00000E+00
         0.00000E+00
         0.00000E+00
         0.00000E+00
         0.00000E+00
         0.00000E+00
         0.00000E+00
         0.00000E+00
         0.00000E+00
         0.00000E+00
         0.00000E+00
         0.00000E+00
         0.00000E+00
         0.00000E+00
         0.00000E+00
         0.00000E+00
         0.00000E+00
         0.00000E+00
         0.00000E+00
         0.00000E+00
         0.00000E+00
         0.00000E+00
         0.00000E+00
         0.00000E+00
         0.00000E+00
         0.00000E+00
         0.00000E+00
         0.00000E+00
         0.00000E+00
         0.00000E+00
         0.00000E+00
         0.00000E+00
         0.00000E+00
         0.00000E+00
         0.00000E+00
         0.00000E+00
         0.00000E+00
         0.00000E+00
         0.00000E+00
         0.00000E+00
         0.00000E+00
         0.00000E+00
         0.00000E+00
         0.00000E+00
         0.00000E+00
         0.00000E+00
         0.00000E+00
         0.00000E+00
         0.00000E+00
         0.00000E+00
         0.00000E+00
         0.00000E+00
         0.00000E+00
         0.00000E+00
         0.00000E+00
         0.00000E+00
         0.00000E+00
         0.00000E+00
         0.00000E+00
         0.00000E+00
         0.00000E+00
         0.00000E+00
         0.00000E+00
         0.00000E+00
         0.00000E+00
         0.00000E+00
         0.00000E+00
         0.00000E+00
         0.00000E+00
         0.00000E+00
         0.00000E+00
         0.00000E+00
         0.00000E+00
         0.00000E+00
         0.00000E+00
         0.00000E+00
         0.00000E+00
         0.00000E+00
         0.00000E+00
         0.00000E+00
         0.00000E+00
         0.00000E+00
         0.00000E+00
         0.00000E+00
         0.00000E+00
         0.00000E+00
         0.00000E+00
         0.00000E+00
         0.00000E+00
         0.00000E+00
         0.00000E+00
         0.00000E+00
         0.00000E+00
         0.00000E+00
         0.00000E+00
         0.00000E+00
         0.00000E+00
         0.00000E+00
         0.00000E+00
         0.00000E+00
         0.00000E+00
         0.00000E+00
         0.00000E+00
         0.00000E+00
         0.00000E+00
         0.00000E+00
         0.00000E+00
         0.00000E+00
         0.00000E+00
         0.00000E+00
         0.00000E+00
         0.00000E+00
         0.00000E+00
         0.00000E+00
         0.00000E+00
         0.00000E+00
         0.00000E+00
         0.00000E+00
         0.00000E+00
         0.00000E+00
         0.00000E+00
         0.00000E+00
         0.00000E+00
         0.00000E+00
         0.00000E+00
         0.00000E+00
         0.00000E+00
         0.00000E+00
         0.00000E+00
         0.00000E+00
         0.00000E+00
         0.00000E+00
         0.00000E+00
         0.00000E+00
         0.00000E+00
         0.00000E+00
         0.00000E+00
         0.00000E+00
         0.00000E+00
         0.00000E+00
         0.00000E+00
         0.00000E+00
         0.00000E+00
         0.00000E+00
         0.00000E+00
         0.00000E+00
         0.00000E+00
         0.00000E+00
         0.00000E+00
         0.00000E+00
         0.00000E+00
         0.00000E+00
         0.00000E+00
         0.00000E+00
         0.00000E+00
         0.00000E+00
         0.00000E+00
         0.00000E+00
         0.00000E+00
         0.00000E+00
         0.00000E+00
         0.00000E+00
         0.00000E+00
         0.00000E+00
         0.00000E+00
         0.00000E+00
         0.00000E+00
         0.00000E+00
         0.00000E+00
         0.00000E+00
         0.00000E+00
         0.00000E+00
         0.00000E+00
         0.00000E+00
         0.00000E+00
         0.00000E+00
         0.00000E+00
         0.00000E+00
         0.00000E+00
         0.00000E+00
         0.00000E+00
         0.00000E+00
         0.00000E+00
         0.00000E+00
         0.00000E+00
         0.00000E+00
         0.00000E+00
         0.00000E+00
         0.00000E+00
         0.00000E+00
         0.00000E+00
         0.00000E+00
         0.00000E+00
         0.00000E+00
         0.00000E+00
         0.00000E+00
         0.00000E+00
         0.00000E+00
         0.00000E+00
         0.00000E+00
         0.00000E+00
         0.00000E+00
         0.00000E+00
         0.00000E+00
         0.00000E+00
         0.00000E+00
         0.00000E+00
         0.00000E+00
         0.00000E+00
         0.00000E+00
         0.00000E+00
         0.00000E+00
         0.00000E+00
         0.00000E+00
         0.00000E+00
         0.00000E+00
         0.00000E+00
         0.00000E+00
         0.00000E+00
         0.00000E+00
         0.00000E+00
         0.00000E+00
         0.00000E+00
         0.00000E+00
         0.00000E+00
         0.00000E+00
         0.00000E+00
         0.00000E+00
         0.00000E+00
         0.00000E+00
         0.00000E+00
         0.00000E+00
         0.00000E+00
         0.00000E+00
         0.00000E+00
         0.00000E+00
         0.00000E+00
         0.00000E+00
         0.00000E+00
         0.00000E+00
         0.00000E+00
         0.00000E+00
         0.00000E+00
         0.00000E+00
         0.00000E+00
         0.00000E+00
         0.00000E+00
         0.00000E+00
         0.00000E+00
         0.00000E+00
         0.00000E+00
         0.00000E+00
         0.00000E+00
         0.00000E+00
         0.00000E+00
         0.00000E+00
         0.00000E+00
         0.00000E+00
         0.00000E+00
         0.00000E+00
         0.00000E+00
         0.00000E+00
         0.00000E+00
         0.00000E+00
         0.00000E+00
         0.00000E+00
         0.00000E+00
         0.00000E+00
         0.00000E+00
         0.00000E+00
         0.00000E+00
         0.00000E+00
         0.00000E+00
         0.00000E+00
         0.00000E+00
         0.00000E+00
         0.00000E+00
         0.00000E+00
         0.00000E+00
         0.00000E+00
         0.00000E+00
         0.00000E+00
         0.00000E+00
         0.00000E+00
         0.00000E+00
         0.00000E+00
         0.00000E+00
         0.00000E+00
         0.00000E+00
         0.00000E+00
         0.00000E+00
         0.00000E+00
         0.00000E+00
         0.00000E+00
         0.00000E+00
         0.00000E+00
         0.00000E+00
         0.00000E+00
         0.00000E+00
         0.00000E+00
         0.00000E+00
         0.00000E+00
         0.00000E+00
         0.00000E+00
         0.00000E+00
         0.00000E+00
         0.00000E+00
         0.00000E+00
         0.00000E+00
         0.00000E+00
         0.00000E+00
         0.00000E+00
         0.00000E+00
         0.00000E+00
         0.00000E+00
         0.00000E+00
         0.00000E+00
         0.00000E+00
         0.00000E+00
         0.00000E+00
         0.00000E+00
         0.00000E+00
         0.00000E+00
         0.00000E+00
         0.00000E+00
         0.00000E+00
         0.00000E+00
         0.00000E+00
         0.00000E+00
         0.00000E+00
         0.00000E+00
         0.00000E+00
         0.00000E+00
         0.00000E+00
         0.00000E+00
         0.00000E+00
         0.00000E+00
         0.00000E+00
         0.00000E+00
         0.00000E+00
         0.00000E+00
         0.00000E+00
         0.00000E+00
         0.00000E+00
         0.00000E+00
         0.00000E+00
         0.00000E+00
         0.00000E+00
         0.00000E+00
         0.00000E+00
         0.00000E+00
         0.00000E+00
         0.00000E+00
         0.00000E+00
         0.00000E+00
         0.00000E+00
         0.00000E+00
         0.00000E+00
         0.00000E+00
         0.00000E+00
         0.00000E+00
         0.00000E+00
         0.00000E+00
         0.00000E+00
         0.00000E+00
         0.00000E+00
         0.00000E+00
         0.00000E+00
         0.00000E+00
         0.00000E+00
         0.00000E+00
         0.00000E+00
         0.00000E+00
         0.00000E+00
         0.00000E+00
         0.00000E+00
         0.00000E+00
         0.00000E+00
         0.00000E+00
         0.00000E+00
         0.00000E+00
         0.00000E+00
         0.00000E+00
         0.00000E+00
         0.00000E+00
         0.00000E+00
         0.00000E+00
         0.00000E+00
         0.00000E+00
         0.00000E+00
         0.00000E+00
         0.00000E+00
         0.00000E+00
         0.00000E+00
         0.00000E+00
         0.00000E+00
         0.00000E+00
         0.00000E+00
         0.00000E+00
         0.00000E+00
         0.00000E+00
         0.00000E+00
         0.00000E+00
         0.00000E+00
         0.00000E+00
         0.00000E+00
         0.00000E+00
         0.00000E+00
         0.00000E+00
         0.00000E+00
         0.00000E+00
         0.00000E+00
         0.00000E+00
         0.00000E+00
         0.00000E+00
         0.00000E+00
         0.00000E+00
         0.00000E+00
         0.00000E+00
         0.00000E+00
         0.00000E+00
         0.00000E+00
         0.00000E+00
         0.00000E+00
         0.00000E+00
         0.00000E+00
         0.00000E+00
         0.00000E+00
         0.00000E+00
         0.00000E+00
         0.00000E+00
         0.00000E+00
         0.00000E+00
         0.00000E+00
         0.00000E+00
         0.00000E+00
         0.00000E+00
         0.00000E+00
         0.00000E+00
         0.00000E+00
         0.00000E+00
         0.00000E+00
         0.00000E+00
         0.00000E+00
         0.00000E+00
         0.00000E+00
         0.00000E+00
         0.00000E+00
         0.00000E+00
         0.00000E+00
         0.00000E+00
         0.00000E+00
         0.00000E+00
         0.00000E+00
         0.00000E+00
         0.00000E+00
         0.00000E+00
         0.00000E+00
         0.00000E+00
         0.00000E+00
         0.00000E+00
         0.00000E+00
         0.00000E+00
         0.00000E+00
         0.00000E+00
         0.00000E+00
         0.00000E+00
         0.00000E+00
         0.00000E+00
         0.00000E+00
         0.00000E+00
         0.00000E+00
         0.00000E+00
         0.00000E+00
         0.00000E+00
         0.00000E+00
         0.00000E+00
         0.00000E+00
         0.00000E+00
         0.00000E+00
         0.00000E+00
         0.00000E+00
         0.00000E+00
         0.00000E+00
         0.00000E+00
         0.00000E+00
         0.00000E+00
         0.00000E+00
         0.00000E+00
         0.00000E+00
         0.00000E+00
         0.00000E+00
         0.00000E+00
         0.00000E+00
         0.00000E+00
         0.00000E+00
         0.00000E+00
         0.00000E+00
         0.00000E+00
         0.00000E+00
         0.00000E+00
         0.00000E+00
         0.00000E+00
         0.00000E+00
         0.00000E+00
         0.00000E+00
         0.00000E+00
         0.00000E+00
         0.00000E+00
         0.00000E+00
         0.00000E+00
         0.00000E+00
         0.00000E+00
         0.00000E+00
         0.00000E+00
         0.00000E+00
         0.00000E+00
         0.00000E+00
         0.00000E+00
         0.00000E+00
         0.00000E+00
         0.00000E+00
         0.00000E+00
         0.00000E+00
         0.00000E+00
         0.00000E+00
         0.00000E+00
         0.00000E+00
         0.00000E+00
         0.00000E+00
         0.00000E+00
         0.00000E+00
         0.00000E+00
         0.00000E+00
         0.00000E+00
         0.00000E+00
         0.00000E+00
         0.00000E+00
         0.00000E+00
         0.00000E+00
         0.00000E+00
         0.00000E+00
         0.00000E+00
         0.00000E+00
         0.00000E+00
         0.00000E+00
         0.00000E+00
         0.00000E+00
         0.00000E+00
         0.00000E+00
         0.00000E+00
         0.00000E+00
         0.00000E+00
         0.00000E+00
         0.00000E+00
         0.00000E+00
         0.00000E+00
         0.00000E+00
         0.00000E+00
         0.00000E+00
         0.00000E+00
         0.00000E+00
         0.00000E+00
         0.00000E+00
         0.00000E+00
         0.00000E+00
         0.00000E+00
         0.00000E+00
         0.00000E+00
         0.00000E+00
         0.00000E+00
         0.00000E+00
         0.00000E+00
         0.00000E+00
         0.00000E+00
         0.00000E+00
         0.00000E+00
         0.00000E+00
         0.00000E+00
         0.00000E+00
         0.00000E+00
         0.00000E+00
         0.00000E+00
         0.00000E+00
         0.00000E+00
         0.00000E+00
         0.00000E+00
         0.00000E+00
         0.00000E+00
         0.00000E+00
         0.00000E+00
         0.00000E+00
         0.00000E+00
         0.00000E+00
         0.00000E+00
         0.00000E+00
         0.00000E+00
         0.00000E+00
         0.00000E+00
         0.00000E+00
         0.00000E+00
         0.00000E+00
         0.00000E+00
         0.00000E+00
         0.00000E+00
         0.00000E+00
         0.00000E+00
         0.00000E+00
         0.00000E+00
         0.00000E+00
         0.00000E+00
         0.00000E+00
         0.00000E+00
         0.00000E+00
         0.00000E+00
         0.00000E+00
         0.00000E+00
         0.00000E+00
         0.00000E+00
         0.00000E+00
         0.00000E+00
         0.00000E+00
         0.00000E+00
         0.00000E+00
         0.00000E+00
         0.00000E+00
         0.00000E+00
         0.00000E+00
         0.00000E+00
         0.00000E+00
         0.00000E+00
         0.00000E+00
         0.00000E+00
         0.00000E+00
         0.00000E+00
         0.00000E+00
         0.00000E+00
         0.00000E+00
         0.00000E+00
         0.00000E+00
         0.00000E+00
         0.00000E+00
         0.00000E+00
         0.00000E+00
         0.00000E+00
         0.00000E+00
         0.00000E+00
         0.00000E+00
         0.00000E+00
         0.00000E+00
         0.00000E+00
         0.00000E+00
         0.00000E+00
         0.00000E+00
         0.00000E+00
         0.00000E+00
         0.00000E+00
         0.00000E+00
         0.00000E+00
         0.00000E+00
         0.00000E+00
         0.00000E+00
         0.00000E+00
         0.00000E+00
         0.00000E+00
         0.00000E+00
         0.00000E+00
         0.00000E+00
         0.00000E+00
         0.00000E+00
         0.00000E+00
         0.00000E+00
         0.00000E+00
         0.00000E+00
         0.00000E+00
         0.00000E+00
         0.00000E+00
         0.00000E+00
         0.00000E+00
         0.00000E+00
         0.00000E+00
         0.00000E+00
         0.00000E+00
         0.00000E+00
         0.00000E+00
         0.00000E+00
         0.00000E+00
         0.00000E+00
         0.00000E+00
         0.00000E+00
         0.00000E+00
         0.00000E+00
         0.00000E+00
         0.00000E+00
         0.00000E+00
         0.00000E+00
         0.00000E+00
         0.00000E+00
         0.00000E+00
         0.00000E+00
         0.00000E+00
         0.00000E+00
         0.00000E+00
         0.00000E+00
         0.00000E+00
         0.00000E+00
         0.00000E+00
         0.00000E+00
         0.00000E+00
         0.00000E+00
         0.00000E+00
         0.00000E+00
         0.00000E+00
         0.00000E+00
         0.00000E+00
         0.00000E+00
         0.00000E+00
         0.00000E+00
         0.00000E+00
         0.00000E+00
         0.00000E+00
         0.00000E+00
         0.00000E+00
         0.00000E+00
         0.00000E+00
         0.00000E+00
         0.00000E+00
         0.00000E+00
         0.00000E+00
         0.00000E+00
         0.00000E+00
         0.00000E+00
         0.00000E+00
         0.00000E+00
         0.00000E+00
         0.00000E+00
         0.00000E+00
         0.00000E+00
         0.00000E+00
         0.00000E+00
         0.00000E+00
         0.00000E+00
         0.00000E+00
         0.00000E+00
         0.00000E+00
         0.00000E+00
         0.00000E+00
         0.00000E+00
         0.00000E+00
         0.00000E+00
         0.00000E+00
         0.00000E+00
         0.00000E+00
         0.00000E+00
         0.00000E+00
         0.00000E+00
         0.00000E+00
         0.00000E+00
         0.00000E+00
         0.00000E+00
         0.00000E+00
         0.00000E+00
         0.00000E+00
         0.00000E+00
         0.00000E+00
         0.00000E+00
         0.00000E+00
         0.00000E+00
         0.00000E+00
         0.00000E+00
         0.00000E+00
         0.00000E+00
         0.00000E+00
         0.00000E+00
         0.00000E+00
         0.00000E+00
         0.00000E+00
         0.00000E+00
         0.00000E+00
         0.00000E+00
         0.00000E+00
         0.00000E+00
         0.00000E+00
         0.00000E+00
         0.00000E+00
         0.00000E+00
         0.00000E+00
         0.00000E+00
         0.00000E+00
         0.00000E+00
         0.00000E+00
         0.00000E+00
         0.00000E+00
         0.00000E+00
         0.00000E+00
         0.00000E+00
         0.00000E+00
         0.00000E+00
         0.00000E+00
         0.00000E+00
         0.00000E+00
         0.00000E+00
         0.00000E+00
         0.00000E+00
         0.00000E+00
         0.00000E+00
         0.00000E+00
         0.00000E+00
         0.00000E+00
         0.00000E+00
         0.00000E+00
         0.00000E+00
         0.00000E+00
         0.00000E+00
         0.00000E+00
         0.00000E+00
         0.00000E+00
         0.00000E+00
         0.00000E+00
         0.00000E+00
         0.00000E+00
         0.00000E+00
         0.00000E+00
         0.00000E+00
         0.00000E+00
         0.00000E+00
         0.00000E+00
         0.00000E+00
         0.00000E+00
         0.00000E+00
         0.00000E+00
         0.00000E+00
         0.00000E+00
         0.00000E+00
         0.00000E+00
         0.00000E+00
         0.00000E+00
         0.00000E+00
         0.00000E+00
         0.00000E+00
         0.00000E+00
         0.00000E+00
         0.00000E+00
         0.00000E+00
         0.00000E+00
         0.00000E+00
         0.00000E+00
         0.00000E+00
         0.00000E+00
         0.00000E+00
         0.00000E+00
         0.00000E+00
         0.00000E+00
         0.00000E+00
         0.00000E+00
         0.00000E+00
         0.00000E+00
         0.00000E+00
         0.00000E+00
         0.00000E+00
         0.00000E+00
         0.00000E+00
         0.00000E+00
         0.00000E+00
         0.00000E+00
         0.00000E+00
         0.00000E+00
         0.00000E+00
         0.00000E+00
         0.00000E+00
         0.00000E+00
         0.00000E+00
         0.00000E+00
         0.00000E+00
         0.00000E+00
         0.00000E+00
         0.00000E+00
         0.00000E+00
         0.00000E+00
         0.00000E+00
         0.00000E+00
         0.00000E+00
         0.00000E+00
         0.00000E+00
         0.00000E+00
         0.00000E+00
         0.00000E+00
         0.00000E+00
         0.00000E+00
         0.00000E+00
         0.00000E+00
         0.00000E+00
         0.00000E+00
         0.00000E+00
         0.00000E+00
         0.00000E+00
         0.00000E+00
         0.00000E+00
         0.00000E+00
         0.00000E+00
         0.00000E+00
         0.00000E+00
         0.00000E+00
         0.00000E+00
         0.00000E+00
         0.00000E+00
         0.00000E+00
         0.00000E+00
         0.00000E+00
         0.00000E+00
         0.00000E+00
         0.00000E+00
         0.00000E+00
         0.00000E+00
         0.00000E+00
         0.00000E+00
         0.00000E+00
         0.00000E+00
         0.00000E+00
         0.00000E+00
         0.00000E+00
         0.00000E+00
         0.00000E+00
         0.00000E+00
         0.00000E+00
         0.00000E+00
         0.00000E+00
         0.00000E+00
         0.00000E+00
         0.00000E+00
         0.00000E+00
         0.00000E+00
         0.00000E+00
         0.00000E+00
         0.00000E+00
         0.00000E+00
         0.00000E+00
         0.00000E+00
         0.00000E+00
         0.00000E+00
         0.00000E+00
         0.00000E+00
         0.00000E+00
         0.00000E+00
         0.00000E+00
         0.00000E+00
         0.00000E+00
         0.00000E+00
         0.00000E+00
         0.00000E+00
         0.00000E+00
         0.00000E+00
         0.00000E+00
         0.00000E+00
         0.00000E+00
         0.00000E+00
         0.00000E+00
         0.00000E+00
         0.00000E+00
         0.00000E+00
         0.00000E+00
         0.00000E+00
         0.00000E+00
         0.00000E+00
         0.00000E+00
         0.00000E+00
         0.00000E+00
         0.00000E+00
         0.00000E+00
         0.00000E+00
         0.00000E+00
         0.00000E+00
         0.00000E+00
         0.00000E+00
         0.00000E+00
         0.00000E+00
         0.00000E+00
         0.00000E+00
         0.00000E+00
         0.00000E+00
         0.00000E+00
         0.00000E+00
         0.00000E+00
         0.00000E+00
         0.00000E+00
         0.00000E+00
         0.00000E+00
         0.00000E+00
         0.00000E+00
         0.00000E+00
         0.00000E+00
         0.00000E+00
         0.00000E+00
         0.00000E+00
         0.00000E+00
         0.00000E+00
         0.00000E+00
         0.00000E+00
         0.00000E+00
         0.00000E+00
         0.00000E+00
         0.00000E+00
         0.00000E+00
         0.00000E+00
         0.00000E+00
         0.00000E+00
         0.00000E+00
         0.00000E+00
         0.00000E+00
         0.00000E+00
         0.00000E+00
         0.00000E+00
         0.00000E+00
         0.00000E+00
         0.00000E+00
         0.00000E+00
         0.00000E+00
         0.00000E+00
         0.00000E+00
         0.00000E+00
         0.00000E+00
         0.00000E+00
         0.00000E+00
         0.00000E+00
         0.00000E+00
         0.00000E+00
         0.00000E+00
         0.00000E+00
         0.00000E+00
         0.00000E+00
         0.00000E+00
         0.00000E+00
         0.00000E+00
         0.00000E+00
         0.00000E+00
         0.00000E+00
         0.00000E+00
         0.00000E+00
         0.00000E+00
         0.00000E+00
         0.00000E+00
         0.00000E+00
         0.00000E+00
         0.00000E+00
         0.00000E+00
         0.00000E+00
         0.00000E+00
         0.00000E+00
         0.00000E+00
         0.00000E+00
         0.00000E+00
         0.00000E+00
         0.00000E+00
         0.00000E+00
         0.00000E+00
         0.00000E+00
         0.00000E+00
         0.00000E+00
         0.00000E+00
         0.00000E+00
         0.00000E+00
         0.00000E+00
         0.00000E+00
         0.00000E+00
         0.00000E+00
         0.00000E+00
         0.00000E+00
         0.00000E+00
         0.00000E+00
         0.00000E+00
         0.00000E+00
         0.00000E+00
         0.00000E+00
         0.00000E+00
         0.00000E+00
         0.00000E+00
         0.00000E+00
         0.00000E+00
         0.00000E+00
         0.00000E+00
         0.00000E+00
         0.00000E+00
         0.00000E+00
         0.00000E+00
         0.00000E+00
         0.00000E+00
         0.00000E+00
         0.00000E+00
         0.00000E+00
         0.00000E+00
         0.00000E+00
         0.00000E+00
         0.00000E+00
         0.00000E+00
         0.00000E+00
         0.00000E+00
         0.00000E+00
         0.00000E+00
         0.00000E+00
         0.00000E+00
         0.00000E+00
         0.00000E+00
         0.00000E+00
         0.00000E+00
         0.00000E+00
         0.00000E+00
         0.00000E+00
         0.00000E+00
         0.00000E+00
         0.00000E+00
         0.00000E+00
         0.00000E+00
         0.00000E+00
         0.00000E+00
         0.00000E+00
         0.00000E+00
         0.00000E+00
         0.00000E+00
         0.00000E+00
         0.00000E+00
         0.00000E+00
         0.00000E+00
         0.00000E+00
         0.00000E+00
         0.00000E+00
         0.00000E+00
         0.00000E+00
         0.00000E+00
         0.00000E+00
         0.00000E+00
         0.00000E+00
         0.00000E+00
         0.00000E+00
         0.00000E+00
         0.00000E+00
         0.00000E+00
         0.00000E+00
         0.00000E+00
         0.00000E+00
         0.00000E+00
         0.00000E+00
         0.00000E+00
         0.00000E+00
         0.00000E+00
         0.00000E+00
         0.00000E+00
         0.00000E+00
         0.00000E+00
         0.00000E+00
         0.00000E+00
         0.00000E+00
         0.00000E+00
         0.00000E+00
         0.00000E+00
         0.00000E+00
         0.00000E+00
         0.00000E+00
         0.00000E+00
         0.00000E+00
         0.00000E+00
         0.00000E+00
         0.00000E+00
         0.00000E+00
         0.00000E+00
         0.00000E+00
         0.00000E+00
         0.00000E+00
         0.00000E+00
         0.00000E+00
         0.00000E+00
         0.00000E+00
         0.00000E+00
         0.00000E+00
         0.00000E+00
         0.00000E+00
         0.00000E+00
         0.00000E+00
         0.00000E+00
         0.00000E+00
         0.00000E+00
         0.00000E+00
         0.00000E+00
  
SCALARS                 acceleration_z  double 1
LOOKUP_TABLE default
         0.00000E+00
         0.00000E+00
         0.00000E+00
         0.00000E+00
         0.00000E+00
         0.00000E+00
         0.00000E+00
         0.00000E+00
         0.00000E+00
         0.00000E+00
         0.00000E+00
         0.00000E+00
         0.00000E+00
         0.00000E+00
         0.00000E+00
         0.00000E+00
         0.00000E+00
         0.00000E+00
         0.00000E+00
         0.00000E+00
         0.00000E+00
         0.00000E+00
         0.00000E+00
         0.00000E+00
         0.00000E+00
         0.00000E+00
         0.00000E+00
         0.00000E+00
         0.00000E+00
         0.00000E+00
         0.00000E+00
         0.00000E+00
         0.00000E+00
         0.00000E+00
         0.00000E+00
         0.00000E+00
         0.00000E+00
         0.00000E+00
         0.00000E+00
         0.00000E+00
         0.00000E+00
         0.00000E+00
         0.00000E+00
         0.00000E+00
         0.00000E+00
         0.00000E+00
         0.00000E+00
         0.00000E+00
         0.00000E+00
         0.00000E+00
         0.00000E+00
         0.00000E+00
         0.00000E+00
         0.00000E+00
         0.00000E+00
         0.00000E+00
         0.00000E+00
         0.00000E+00
         0.00000E+00
         0.00000E+00
         0.00000E+00
         0.00000E+00
         0.00000E+00
         0.00000E+00
         0.00000E+00
         0.00000E+00
         0.00000E+00
         0.00000E+00
         0.00000E+00
         0.00000E+00
         0.00000E+00
         0.00000E+00
         0.00000E+00
         0.00000E+00
         0.00000E+00
         0.00000E+00
         0.00000E+00
         0.00000E+00
         0.00000E+00
         0.00000E+00
         0.00000E+00
         0.00000E+00
         0.00000E+00
         0.00000E+00
         0.00000E+00
         0.00000E+00
         0.00000E+00
         0.00000E+00
         0.00000E+00
         0.00000E+00
         0.00000E+00
         0.00000E+00
         0.00000E+00
         0.00000E+00
         0.00000E+00
         0.00000E+00
         0.00000E+00
         0.00000E+00
         0.00000E+00
         0.00000E+00
         0.00000E+00
         0.00000E+00
         0.00000E+00
         0.00000E+00
         0.00000E+00
         0.00000E+00
         0.00000E+00
         0.00000E+00
         0.00000E+00
         0.00000E+00
         0.00000E+00
         0.00000E+00
         0.00000E+00
         0.00000E+00
         0.00000E+00
         0.00000E+00
         0.00000E+00
         0.00000E+00
         0.00000E+00
         0.00000E+00
         0.00000E+00
         0.00000E+00
         0.00000E+00
         0.00000E+00
         0.00000E+00
         0.00000E+00
         0.00000E+00
         0.00000E+00
         0.00000E+00
         0.00000E+00
         0.00000E+00
         0.00000E+00
         0.00000E+00
         0.00000E+00
         0.00000E+00
         0.00000E+00
         0.00000E+00
         0.00000E+00
         0.00000E+00
         0.00000E+00
         0.00000E+00
         0.00000E+00
         0.00000E+00
         0.00000E+00
         0.00000E+00
         0.00000E+00
         0.00000E+00
         0.00000E+00
         0.00000E+00
         0.00000E+00
         0.00000E+00
         0.00000E+00
         0.00000E+00
         0.00000E+00
         0.00000E+00
         0.00000E+00
         0.00000E+00
         0.00000E+00
         0.00000E+00
         0.00000E+00
         0.00000E+00
         0.00000E+00
         0.00000E+00
         0.00000E+00
         0.00000E+00
         0.00000E+00
         0.00000E+00
         0.00000E+00
         0.00000E+00
         0.00000E+00
         0.00000E+00
         0.00000E+00
         0.00000E+00
         0.00000E+00
         0.00000E+00
         0.00000E+00
         0.00000E+00
         0.00000E+00
         0.00000E+00
         0.00000E+00
         0.00000E+00
         0.00000E+00
         0.00000E+00
         0.00000E+00
         0.00000E+00
         0.00000E+00
         0.00000E+00
         0.00000E+00
         0.00000E+00
         0.00000E+00
         0.00000E+00
         0.00000E+00
         0.00000E+00
         0.00000E+00
         0.00000E+00
         0.00000E+00
         0.00000E+00
         0.00000E+00
         0.00000E+00
         0.00000E+00
         0.00000E+00
         0.00000E+00
         0.00000E+00
         0.00000E+00
         0.00000E+00
         0.00000E+00
         0.00000E+00
         0.00000E+00
         0.00000E+00
         0.00000E+00
         0.00000E+00
         0.00000E+00
         0.00000E+00
         0.00000E+00
         0.00000E+00
         0.00000E+00
         0.00000E+00
         0.00000E+00
         0.00000E+00
         0.00000E+00
         0.00000E+00
         0.00000E+00
         0.00000E+00
         0.00000E+00
         0.00000E+00
         0.00000E+00
         0.00000E+00
         0.00000E+00
         0.00000E+00
         0.00000E+00
         0.00000E+00
         0.00000E+00
         0.00000E+00
         0.00000E+00
         0.00000E+00
         0.00000E+00
         0.00000E+00
         0.00000E+00
         0.00000E+00
         0.00000E+00
         0.00000E+00
         0.00000E+00
         0.00000E+00
         0.00000E+00
         0.00000E+00
         0.00000E+00
         0.00000E+00
         0.00000E+00
         0.00000E+00
         0.00000E+00
         0.00000E+00
         0.00000E+00
         0.00000E+00
         0.00000E+00
         0.00000E+00
         0.00000E+00
         0.00000E+00
         0.00000E+00
         0.00000E+00
         0.00000E+00
         0.00000E+00
         0.00000E+00
         0.00000E+00
         0.00000E+00
         0.00000E+00
         0.00000E+00
         0.00000E+00
         0.00000E+00
         0.00000E+00
         0.00000E+00
         0.00000E+00
         0.00000E+00
         0.00000E+00
         0.00000E+00
         0.00000E+00
         0.00000E+00
         0.00000E+00
         0.00000E+00
         0.00000E+00
         0.00000E+00
         0.00000E+00
         0.00000E+00
         0.00000E+00
         0.00000E+00
         0.00000E+00
         0.00000E+00
         0.00000E+00
         0.00000E+00
         0.00000E+00
         0.00000E+00
         0.00000E+00
         0.00000E+00
         0.00000E+00
         0.00000E+00
         0.00000E+00
         0.00000E+00
         0.00000E+00
         0.00000E+00
         0.00000E+00
         0.00000E+00
         0.00000E+00
         0.00000E+00
         0.00000E+00
         0.00000E+00
         0.00000E+00
         0.00000E+00
         0.00000E+00
         0.00000E+00
         0.00000E+00
         0.00000E+00
         0.00000E+00
         0.00000E+00
         0.00000E+00
         0.00000E+00
         0.00000E+00
         0.00000E+00
         0.00000E+00
         0.00000E+00
         0.00000E+00
         0.00000E+00
         0.00000E+00
         0.00000E+00
         0.00000E+00
         0.00000E+00
         0.00000E+00
         0.00000E+00
         0.00000E+00
         0.00000E+00
         0.00000E+00
         0.00000E+00
         0.00000E+00
         0.00000E+00
         0.00000E+00
         0.00000E+00
         0.00000E+00
         0.00000E+00
         0.00000E+00
         0.00000E+00
         0.00000E+00
         0.00000E+00
         0.00000E+00
         0.00000E+00
         0.00000E+00
         0.00000E+00
         0.00000E+00
         0.00000E+00
         0.00000E+00
         0.00000E+00
         0.00000E+00
         0.00000E+00
         0.00000E+00
         0.00000E+00
         0.00000E+00
         0.00000E+00
         0.00000E+00
         0.00000E+00
         0.00000E+00
         0.00000E+00
         0.00000E+00
         0.00000E+00
         0.00000E+00
         0.00000E+00
         0.00000E+00
         0.00000E+00
         0.00000E+00
         0.00000E+00
         0.00000E+00
         0.00000E+00
         0.00000E+00
         0.00000E+00
         0.00000E+00
         0.00000E+00
         0.00000E+00
         0.00000E+00
         0.00000E+00
         0.00000E+00
         0.00000E+00
         0.00000E+00
         0.00000E+00
         0.00000E+00
         0.00000E+00
         0.00000E+00
         0.00000E+00
         0.00000E+00
         0.00000E+00
         0.00000E+00
         0.00000E+00
         0.00000E+00
         0.00000E+00
         0.00000E+00
         0.00000E+00
         0.00000E+00
         0.00000E+00
         0.00000E+00
         0.00000E+00
         0.00000E+00
         0.00000E+00
         0.00000E+00
         0.00000E+00
         0.00000E+00
         0.00000E+00
         0.00000E+00
         0.00000E+00
         0.00000E+00
         0.00000E+00
         0.00000E+00
         0.00000E+00
         0.00000E+00
         0.00000E+00
         0.00000E+00
         0.00000E+00
         0.00000E+00
         0.00000E+00
         0.00000E+00
         0.00000E+00
         0.00000E+00
         0.00000E+00
         0.00000E+00
         0.00000E+00
         0.00000E+00
         0.00000E+00
         0.00000E+00
         0.00000E+00
         0.00000E+00
         0.00000E+00
         0.00000E+00
         0.00000E+00
         0.00000E+00
         0.00000E+00
         0.00000E+00
         0.00000E+00
         0.00000E+00
         0.00000E+00
         0.00000E+00
         0.00000E+00
         0.00000E+00
         0.00000E+00
         0.00000E+00
         0.00000E+00
         0.00000E+00
         0.00000E+00
         0.00000E+00
         0.00000E+00
         0.00000E+00
         0.00000E+00
         0.00000E+00
         0.00000E+00
         0.00000E+00
         0.00000E+00
         0.00000E+00
         0.00000E+00
         0.00000E+00
         0.00000E+00
         0.00000E+00
         0.00000E+00
         0.00000E+00
         0.00000E+00
         0.00000E+00
         0.00000E+00
         0.00000E+00
         0.00000E+00
         0.00000E+00
         0.00000E+00
         0.00000E+00
         0.00000E+00
         0.00000E+00
         0.00000E+00
         0.00000E+00
         0.00000E+00
         0.00000E+00
         0.00000E+00
         0.00000E+00
         0.00000E+00
         0.00000E+00
         0.00000E+00
         0.00000E+00
         0.00000E+00
         0.00000E+00
         0.00000E+00
         0.00000E+00
         0.00000E+00
         0.00000E+00
         0.00000E+00
         0.00000E+00
         0.00000E+00
         0.00000E+00
         0.00000E+00
         0.00000E+00
         0.00000E+00
         0.00000E+00
         0.00000E+00
         0.00000E+00
         0.00000E+00
         0.00000E+00
         0.00000E+00
         0.00000E+00
         0.00000E+00
         0.00000E+00
         0.00000E+00
         0.00000E+00
         0.00000E+00
         0.00000E+00
         0.00000E+00
         0.00000E+00
         0.00000E+00
         0.00000E+00
         0.00000E+00
         0.00000E+00
         0.00000E+00
         0.00000E+00
         0.00000E+00
         0.00000E+00
         0.00000E+00
         0.00000E+00
         0.00000E+00
         0.00000E+00
         0.00000E+00
         0.00000E+00
         0.00000E+00
         0.00000E+00
         0.00000E+00
         0.00000E+00
         0.00000E+00
         0.00000E+00
         0.00000E+00
         0.00000E+00
         0.00000E+00
         0.00000E+00
         0.00000E+00
         0.00000E+00
         0.00000E+00
         0.00000E+00
         0.00000E+00
         0.00000E+00
         0.00000E+00
         0.00000E+00
         0.00000E+00
         0.00000E+00
         0.00000E+00
         0.00000E+00
         0.00000E+00
         0.00000E+00
         0.00000E+00
         0.00000E+00
         0.00000E+00
         0.00000E+00
         0.00000E+00
         0.00000E+00
         0.00000E+00
         0.00000E+00
         0.00000E+00
         0.00000E+00
         0.00000E+00
         0.00000E+00
         0.00000E+00
         0.00000E+00
         0.00000E+00
         0.00000E+00
         0.00000E+00
         0.00000E+00
         0.00000E+00
         0.00000E+00
         0.00000E+00
         0.00000E+00
         0.00000E+00
         0.00000E+00
         0.00000E+00
         0.00000E+00
         0.00000E+00
         0.00000E+00
         0.00000E+00
         0.00000E+00
         0.00000E+00
         0.00000E+00
         0.00000E+00
         0.00000E+00
         0.00000E+00
         0.00000E+00
         0.00000E+00
         0.00000E+00
         0.00000E+00
         0.00000E+00
         0.00000E+00
         0.00000E+00
         0.00000E+00
         0.00000E+00
         0.00000E+00
         0.00000E+00
         0.00000E+00
         0.00000E+00
         0.00000E+00
         0.00000E+00
         0.00000E+00
         0.00000E+00
         0.00000E+00
         0.00000E+00
         0.00000E+00
         0.00000E+00
         0.00000E+00
         0.00000E+00
         0.00000E+00
         0.00000E+00
         0.00000E+00
         0.00000E+00
         0.00000E+00
         0.00000E+00
         0.00000E+00
         0.00000E+00
         0.00000E+00
         0.00000E+00
         0.00000E+00
         0.00000E+00
         0.00000E+00
         0.00000E+00
         0.00000E+00
         0.00000E+00
         0.00000E+00
         0.00000E+00
         0.00000E+00
         0.00000E+00
         0.00000E+00
         0.00000E+00
         0.00000E+00
         0.00000E+00
         0.00000E+00
         0.00000E+00
         0.00000E+00
         0.00000E+00
         0.00000E+00
         0.00000E+00
         0.00000E+00
         0.00000E+00
         0.00000E+00
         0.00000E+00
         0.00000E+00
         0.00000E+00
         0.00000E+00
         0.00000E+00
         0.00000E+00
         0.00000E+00
         0.00000E+00
         0.00000E+00
         0.00000E+00
         0.00000E+00
         0.00000E+00
         0.00000E+00
         0.00000E+00
         0.00000E+00
         0.00000E+00
         0.00000E+00
         0.00000E+00
         0.00000E+00
         0.00000E+00
         0.00000E+00
         0.00000E+00
         0.00000E+00
         0.00000E+00
         0.00000E+00
         0.00000E+00
         0.00000E+00
         0.00000E+00
         0.00000E+00
         0.00000E+00
         0.00000E+00
         0.00000E+00
         0.00000E+00
         0.00000E+00
         0.00000E+00
         0.00000E+00
         0.00000E+00
         0.00000E+00
         0.00000E+00
         0.00000E+00
         0.00000E+00
         0.00000E+00
         0.00000E+00
         0.00000E+00
         0.00000E+00
         0.00000E+00
         0.00000E+00
         0.00000E+00
         0.00000E+00
         0.00000E+00
         0.00000E+00
         0.00000E+00
         0.00000E+00
         0.00000E+00
         0.00000E+00
         0.00000E+00
         0.00000E+00
         0.00000E+00
         0.00000E+00
         0.00000E+00
         0.00000E+00
         0.00000E+00
         0.00000E+00
         0.00000E+00
         0.00000E+00
         0.00000E+00
         0.00000E+00
         0.00000E+00
         0.00000E+00
         0.00000E+00
         0.00000E+00
         0.00000E+00
         0.00000E+00
         0.00000E+00
         0.00000E+00
         0.00000E+00
         0.00000E+00
         0.00000E+00
         0.00000E+00
         0.00000E+00
         0.00000E+00
         0.00000E+00
         0.00000E+00
         0.00000E+00
         0.00000E+00
         0.00000E+00
         0.00000E+00
         0.00000E+00
         0.00000E+00
         0.00000E+00
         0.00000E+00
         0.00000E+00
         0.00000E+00
         0.00000E+00
         0.00000E+00
         0.00000E+00
         0.00000E+00
         0.00000E+00
         0.00000E+00
         0.00000E+00
         0.00000E+00
         0.00000E+00
         0.00000E+00
         0.00000E+00
         0.00000E+00
         0.00000E+00
         0.00000E+00
         0.00000E+00
         0.00000E+00
         0.00000E+00
         0.00000E+00
         0.00000E+00
         0.00000E+00
         0.00000E+00
         0.00000E+00
         0.00000E+00
         0.00000E+00
         0.00000E+00
         0.00000E+00
         0.00000E+00
         0.00000E+00
         0.00000E+00
         0.00000E+00
         0.00000E+00
         0.00000E+00
         0.00000E+00
         0.00000E+00
         0.00000E+00
         0.00000E+00
         0.00000E+00
         0.00000E+00
         0.00000E+00
         0.00000E+00
         0.00000E+00
         0.00000E+00
         0.00000E+00
         0.00000E+00
         0.00000E+00
         0.00000E+00
         0.00000E+00
         0.00000E+00
         0.00000E+00
         0.00000E+00
         0.00000E+00
         0.00000E+00
         0.00000E+00
         0.00000E+00
         0.00000E+00
         0.00000E+00
         0.00000E+00
         0.00000E+00
         0.00000E+00
         0.00000E+00
         0.00000E+00
         0.00000E+00
         0.00000E+00
         0.00000E+00
         0.00000E+00
         0.00000E+00
         0.00000E+00
         0.00000E+00
         0.00000E+00
         0.00000E+00
         0.00000E+00
         0.00000E+00
         0.00000E+00
         0.00000E+00
         0.00000E+00
         0.00000E+00
         0.00000E+00
         0.00000E+00
         0.00000E+00
         0.00000E+00
         0.00000E+00
         0.00000E+00
         0.00000E+00
         0.00000E+00
         0.00000E+00
         0.00000E+00
         0.00000E+00
         0.00000E+00
         0.00000E+00
         0.00000E+00
         0.00000E+00
         0.00000E+00
         0.00000E+00
         0.00000E+00
         0.00000E+00
         0.00000E+00
         0.00000E+00
         0.00000E+00
         0.00000E+00
         0.00000E+00
         0.00000E+00
         0.00000E+00
         0.00000E+00
         0.00000E+00
         0.00000E+00
         0.00000E+00
         0.00000E+00
         0.00000E+00
         0.00000E+00
         0.00000E+00
         0.00000E+00
         0.00000E+00
         0.00000E+00
         0.00000E+00
         0.00000E+00
         0.00000E+00
         0.00000E+00
         0.00000E+00
         0.00000E+00
         0.00000E+00
         0.00000E+00
         0.00000E+00
         0.00000E+00
         0.00000E+00
         0.00000E+00
         0.00000E+00
         0.00000E+00
         0.00000E+00
         0.00000E+00
         0.00000E+00
         0.00000E+00
         0.00000E+00
         0.00000E+00
         0.00000E+00
         0.00000E+00
         0.00000E+00
         0.00000E+00
         0.00000E+00
         0.00000E+00
         0.00000E+00
         0.00000E+00
         0.00000E+00
         0.00000E+00
         0.00000E+00
         0.00000E+00
         0.00000E+00
         0.00000E+00
         0.00000E+00
         0.00000E+00
         0.00000E+00
         0.00000E+00
         0.00000E+00
         0.00000E+00
         0.00000E+00
         0.00000E+00
         0.00000E+00
         0.00000E+00
         0.00000E+00
         0.00000E+00
         0.00000E+00
         0.00000E+00
         0.00000E+00
         0.00000E+00
         0.00000E+00
         0.00000E+00
         0.00000E+00
         0.00000E+00
         0.00000E+00
         0.00000E+00
         0.00000E+00
         0.00000E+00
         0.00000E+00
         0.00000E+00
         0.00000E+00
         0.00000E+00
         0.00000E+00
         0.00000E+00
         0.00000E+00
         0.00000E+00
         0.00000E+00
         0.00000E+00
         0.00000E+00
         0.00000E+00
         0.00000E+00
         0.00000E+00
         0.00000E+00
         0.00000E+00
         0.00000E+00
         0.00000E+00
         0.00000E+00
         0.00000E+00
         0.00000E+00
         0.00000E+00
         0.00000E+00
         0.00000E+00
         0.00000E+00
         0.00000E+00
         0.00000E+00
         0.00000E+00
         0.00000E+00
         0.00000E+00
         0.00000E+00
         0.00000E+00
         0.00000E+00
         0.00000E+00
         0.00000E+00
         0.00000E+00
         0.00000E+00
         0.00000E+00
         0.00000E+00
         0.00000E+00
         0.00000E+00
         0.00000E+00
         0.00000E+00
         0.00000E+00
         0.00000E+00
         0.00000E+00
         0.00000E+00
         0.00000E+00
         0.00000E+00
         0.00000E+00
         0.00000E+00
         0.00000E+00
         0.00000E+00
         0.00000E+00
         0.00000E+00
         0.00000E+00
         0.00000E+00
         0.00000E+00
         0.00000E+00
         0.00000E+00
         0.00000E+00
         0.00000E+00
         0.00000E+00
         0.00000E+00
         0.00000E+00
         0.00000E+00
         0.00000E+00
         0.00000E+00
         0.00000E+00
         0.00000E+00
         0.00000E+00
         0.00000E+00
         0.00000E+00
         0.00000E+00
         0.00000E+00
         0.00000E+00
         0.00000E+00
         0.00000E+00
         0.00000E+00
         0.00000E+00
         0.00000E+00
         0.00000E+00
         0.00000E+00
         0.00000E+00
         0.00000E+00
         0.00000E+00
         0.00000E+00
         0.00000E+00
         0.00000E+00
         0.00000E+00
         0.00000E+00
         0.00000E+00
         0.00000E+00
         0.00000E+00
         0.00000E+00
         0.00000E+00
         0.00000E+00
         0.00000E+00
         0.00000E+00
         0.00000E+00
         0.00000E+00
         0.00000E+00
         0.00000E+00
         0.00000E+00
         0.00000E+00
         0.00000E+00
         0.00000E+00
         0.00000E+00
         0.00000E+00
         0.00000E+00
         0.00000E+00
         0.00000E+00
         0.00000E+00
         0.00000E+00
         0.00000E+00
         0.00000E+00
         0.00000E+00
         0.00000E+00
         0.00000E+00
         0.00000E+00
         0.00000E+00
         0.00000E+00
         0.00000E+00
         0.00000E+00
         0.00000E+00
         0.00000E+00
         0.00000E+00
         0.00000E+00
         0.00000E+00
         0.00000E+00
         0.00000E+00
         0.00000E+00
         0.00000E+00
         0.00000E+00
         0.00000E+00
         0.00000E+00
         0.00000E+00
         0.00000E+00
         0.00000E+00
         0.00000E+00
         0.00000E+00
         0.00000E+00
         0.00000E+00
         0.00000E+00
         0.00000E+00
         0.00000E+00
         0.00000E+00
         0.00000E+00
         0.00000E+00
         0.00000E+00
         0.00000E+00
         0.00000E+00
         0.00000E+00
         0.00000E+00
         0.00000E+00
         0.00000E+00
         0.00000E+00
         0.00000E+00
         0.00000E+00
         0.00000E+00
         0.00000E+00
         0.00000E+00
         0.00000E+00
         0.00000E+00
         0.00000E+00
         0.00000E+00
         0.00000E+00
         0.00000E+00
         0.00000E+00
         0.00000E+00
         0.00000E+00
         0.00000E+00
         0.00000E+00
         0.00000E+00
         0.00000E+00
         0.00000E+00
         0.00000E+00
         0.00000E+00
         0.00000E+00
         0.00000E+00
         0.00000E+00
         0.00000E+00
         0.00000E+00
         0.00000E+00
         0.00000E+00
         0.00000E+00
         0.00000E+00
         0.00000E+00
         0.00000E+00
         0.00000E+00
         0.00000E+00
         0.00000E+00
         0.00000E+00
         0.00000E+00
         0.00000E+00
         0.00000E+00
         0.00000E+00
         0.00000E+00
         0.00000E+00
         0.00000E+00
         0.00000E+00
         0.00000E+00
         0.00000E+00
         0.00000E+00
         0.00000E+00
         0.00000E+00
         0.00000E+00
         0.00000E+00
         0.00000E+00
         0.00000E+00
         0.00000E+00
         0.00000E+00
         0.00000E+00
         0.00000E+00
         0.00000E+00
         0.00000E+00
         0.00000E+00
         0.00000E+00
         0.00000E+00
         0.00000E+00
         0.00000E+00
         0.00000E+00
         0.00000E+00
         0.00000E+00
         0.00000E+00
         0.00000E+00
         0.00000E+00
         0.00000E+00
         0.00000E+00
         0.00000E+00
         0.00000E+00
         0.00000E+00
         0.00000E+00
         0.00000E+00
         0.00000E+00
         0.00000E+00
         0.00000E+00
         0.00000E+00
         0.00000E+00
         0.00000E+00
         0.00000E+00
         0.00000E+00
         0.00000E+00
         0.00000E+00
         0.00000E+00
         0.00000E+00
         0.00000E+00
         0.00000E+00
         0.00000E+00
         0.00000E+00
         0.00000E+00
         0.00000E+00
         0.00000E+00
         0.00000E+00
         0.00000E+00
         0.00000E+00
         0.00000E+00
         0.00000E+00
         0.00000E+00
         0.00000E+00
         0.00000E+00
         0.00000E+00
         0.00000E+00
         0.00000E+00
         0.00000E+00
         0.00000E+00
         0.00000E+00
         0.00000E+00
         0.00000E+00
         0.00000E+00
         0.00000E+00
         0.00000E+00
         0.00000E+00
         0.00000E+00
         0.00000E+00
         0.00000E+00
         0.00000E+00
         0.00000E+00
         0.00000E+00
         0.00000E+00
         0.00000E+00
         0.00000E+00
         0.00000E+00
         0.00000E+00
         0.00000E+00
         0.00000E+00
         0.00000E+00
         0.00000E+00
         0.00000E+00
         0.00000E+00
         0.00000E+00
         0.00000E+00
         0.00000E+00
         0.00000E+00
         0.00000E+00
         0.00000E+00
         0.00000E+00
         0.00000E+00
         0.00000E+00
         0.00000E+00
         0.00000E+00
         0.00000E+00
         0.00000E+00
         0.00000E+00
         0.00000E+00
         0.00000E+00
         0.00000E+00
         0.00000E+00
         0.00000E+00
         0.00000E+00
         0.00000E+00
         0.00000E+00
         0.00000E+00
         0.00000E+00
         0.00000E+00
         0.00000E+00
         0.00000E+00
         0.00000E+00
         0.00000E+00
         0.00000E+00
         0.00000E+00
         0.00000E+00
         0.00000E+00
         0.00000E+00
         0.00000E+00
         0.00000E+00
         0.00000E+00
         0.00000E+00
         0.00000E+00
         0.00000E+00
         0.00000E+00
         0.00000E+00
         0.00000E+00
         0.00000E+00
         0.00000E+00
         0.00000E+00
         0.00000E+00
         0.00000E+00
         0.00000E+00
         0.00000E+00
         0.00000E+00
         0.00000E+00
         0.00000E+00
         0.00000E+00
         0.00000E+00
         0.00000E+00
         0.00000E+00
         0.00000E+00
         0.00000E+00
         0.00000E+00
         0.00000E+00
         0.00000E+00
         0.00000E+00
         0.00000E+00
         0.00000E+00
         0.00000E+00
         0.00000E+00
         0.00000E+00
         0.00000E+00
         0.00000E+00
         0.00000E+00
         0.00000E+00
         0.00000E+00
         0.00000E+00
         0.00000E+00
         0.00000E+00
         0.00000E+00
         0.00000E+00
         0.00000E+00
         0.00000E+00
         0.00000E+00
         0.00000E+00
         0.00000E+00
         0.00000E+00
         0.00000E+00
         0.00000E+00
         0.00000E+00
         0.00000E+00
         0.00000E+00
         0.00000E+00
         0.00000E+00
         0.00000E+00
         0.00000E+00
         0.00000E+00
         0.00000E+00
         0.00000E+00
         0.00000E+00
         0.00000E+00
         0.00000E+00
         0.00000E+00
         0.00000E+00
         0.00000E+00
         0.00000E+00
         0.00000E+00
         0.00000E+00
         0.00000E+00
         0.00000E+00
         0.00000E+00
         0.00000E+00
         0.00000E+00
         0.00000E+00
         0.00000E+00
         0.00000E+00
         0.00000E+00
         0.00000E+00
         0.00000E+00
         0.00000E+00
         0.00000E+00
         0.00000E+00
         0.00000E+00
         0.00000E+00
         0.00000E+00
         0.00000E+00
         0.00000E+00
         0.00000E+00
         0.00000E+00
         0.00000E+00
         0.00000E+00
         0.00000E+00
         0.00000E+00
         0.00000E+00
         0.00000E+00
         0.00000E+00
         0.00000E+00
         0.00000E+00
         0.00000E+00
         0.00000E+00
         0.00000E+00
         0.00000E+00
         0.00000E+00
         0.00000E+00
         0.00000E+00
         0.00000E+00
         0.00000E+00
         0.00000E+00
         0.00000E+00
         0.00000E+00
         0.00000E+00
         0.00000E+00
         0.00000E+00
         0.00000E+00
         0.00000E+00
         0.00000E+00
         0.00000E+00
         0.00000E+00
         0.00000E+00
         0.00000E+00
         0.00000E+00
         0.00000E+00
         0.00000E+00
         0.00000E+00
         0.00000E+00
         0.00000E+00
         0.00000E+00
         0.00000E+00
         0.00000E+00
         0.00000E+00
         0.00000E+00
         0.00000E+00
         0.00000E+00
         0.00000E+00
         0.00000E+00
         0.00000E+00
         0.00000E+00
         0.00000E+00
         0.00000E+00
         0.00000E+00
         0.00000E+00
         0.00000E+00
         0.00000E+00
         0.00000E+00
         0.00000E+00
         0.00000E+00
         0.00000E+00
         0.00000E+00
         0.00000E+00
         0.00000E+00
         0.00000E+00
         0.00000E+00
         0.00000E+00
         0.00000E+00
         0.00000E+00
         0.00000E+00
         0.00000E+00
         0.00000E+00
         0.00000E+00
         0.00000E+00
         0.00000E+00
         0.00000E+00
         0.00000E+00
         0.00000E+00
         0.00000E+00
         0.00000E+00
         0.00000E+00
         0.00000E+00
         0.00000E+00
         0.00000E+00
         0.00000E+00
         0.00000E+00
         0.00000E+00
         0.00000E+00
         0.00000E+00
         0.00000E+00
         0.00000E+00
         0.00000E+00
         0.00000E+00
         0.00000E+00
         0.00000E+00
         0.00000E+00
         0.00000E+00
         0.00000E+00
         0.00000E+00
         0.00000E+00
         0.00000E+00
         0.00000E+00
         0.00000E+00
         0.00000E+00
         0.00000E+00
         0.00000E+00
         0.00000E+00
         0.00000E+00
         0.00000E+00
         0.00000E+00
         0.00000E+00
         0.00000E+00
         0.00000E+00
         0.00000E+00
         0.00000E+00
         0.00000E+00
         0.00000E+00
         0.00000E+00
         0.00000E+00
         0.00000E+00
         0.00000E+00
         0.00000E+00
         0.00000E+00
         0.00000E+00
         0.00000E+00
         0.00000E+00
         0.00000E+00
         0.00000E+00
         0.00000E+00
         0.00000E+00
         0.00000E+00
         0.00000E+00
         0.00000E+00
         0.00000E+00
         0.00000E+00
         0.00000E+00
         0.00000E+00
         0.00000E+00
         0.00000E+00
         0.00000E+00
         0.00000E+00
         0.00000E+00
         0.00000E+00
         0.00000E+00
         0.00000E+00
         0.00000E+00
         0.00000E+00
         0.00000E+00
         0.00000E+00
         0.00000E+00
         0.00000E+00
         0.00000E+00
         0.00000E+00
         0.00000E+00
         0.00000E+00
         0.00000E+00
         0.00000E+00
         0.00000E+00
         0.00000E+00
         0.00000E+00
         0.00000E+00
         0.00000E+00
         0.00000E+00
         0.00000E+00
         0.00000E+00
         0.00000E+00
         0.00000E+00
         0.00000E+00
         0.00000E+00
         0.00000E+00
         0.00000E+00
         0.00000E+00
         0.00000E+00
         0.00000E+00
         0.00000E+00
         0.00000E+00
         0.00000E+00
         0.00000E+00
         0.00000E+00
         0.00000E+00
         0.00000E+00
         0.00000E+00
         0.00000E+00
         0.00000E+00
         0.00000E+00
         0.00000E+00
         0.00000E+00
         0.00000E+00
         0.00000E+00
         0.00000E+00
         0.00000E+00
         0.00000E+00
         0.00000E+00
         0.00000E+00
         0.00000E+00
         0.00000E+00
         0.00000E+00
         0.00000E+00
         0.00000E+00
         0.00000E+00
         0.00000E+00
         0.00000E+00
         0.00000E+00
         0.00000E+00
         0.00000E+00
         0.00000E+00
         0.00000E+00
         0.00000E+00
         0.00000E+00
         0.00000E+00
         0.00000E+00
         0.00000E+00
         0.00000E+00
         0.00000E+00
         0.00000E+00
         0.00000E+00
         0.00000E+00
         0.00000E+00
         0.00000E+00
         0.00000E+00
         0.00000E+00
         0.00000E+00
         0.00000E+00
         0.00000E+00
         0.00000E+00
         0.00000E+00
         0.00000E+00
         0.00000E+00
         0.00000E+00
         0.00000E+00
         0.00000E+00
         0.00000E+00
         0.00000E+00
         0.00000E+00
         0.00000E+00
         0.00000E+00
         0.00000E+00
         0.00000E+00
         0.00000E+00
         0.00000E+00
         0.00000E+00
         0.00000E+00
         0.00000E+00
         0.00000E+00
         0.00000E+00
         0.00000E+00
         0.00000E+00
         0.00000E+00
         0.00000E+00
         0.00000E+00
         0.00000E+00
         0.00000E+00
         0.00000E+00
         0.00000E+00
         0.00000E+00
         0.00000E+00
         0.00000E+00
         0.00000E+00
         0.00000E+00
         0.00000E+00
         0.00000E+00
         0.00000E+00
         0.00000E+00
         0.00000E+00
         0.00000E+00
         0.00000E+00
         0.00000E+00
         0.00000E+00
         0.00000E+00
         0.00000E+00
         0.00000E+00
         0.00000E+00
         0.00000E+00
         0.00000E+00
         0.00000E+00
         0.00000E+00
         0.00000E+00
         0.00000E+00
         0.00000E+00
         0.00000E+00
         0.00000E+00
         0.00000E+00
         0.00000E+00
         0.00000E+00
         0.00000E+00
         0.00000E+00
         0.00000E+00
         0.00000E+00
         0.00000E+00
         0.00000E+00
         0.00000E+00
         0.00000E+00
         0.00000E+00
         0.00000E+00
         0.00000E+00
         0.00000E+00
         0.00000E+00
         0.00000E+00
         0.00000E+00
         0.00000E+00
         0.00000E+00
         0.00000E+00
         0.00000E+00
         0.00000E+00
         0.00000E+00
         0.00000E+00
         0.00000E+00
         0.00000E+00
         0.00000E+00
         0.00000E+00
         0.00000E+00
         0.00000E+00
         0.00000E+00
         0.00000E+00
         0.00000E+00
         0.00000E+00
         0.00000E+00
         0.00000E+00
         0.00000E+00
         0.00000E+00
         0.00000E+00
         0.00000E+00
         0.00000E+00
         0.00000E+00
         0.00000E+00
         0.00000E+00
         0.00000E+00
         0.00000E+00
         0.00000E+00
         0.00000E+00
         0.00000E+00
         0.00000E+00
         0.00000E+00
         0.00000E+00
         0.00000E+00
         0.00000E+00
         0.00000E+00
         0.00000E+00
         0.00000E+00
         0.00000E+00
         0.00000E+00
         0.00000E+00
         0.00000E+00
         0.00000E+00
         0.00000E+00
         0.00000E+00
         0.00000E+00
         0.00000E+00
         0.00000E+00
         0.00000E+00
         0.00000E+00
         0.00000E+00
         0.00000E+00
         0.00000E+00
         0.00000E+00
         0.00000E+00
         0.00000E+00
         0.00000E+00
         0.00000E+00
         0.00000E+00
         0.00000E+00
         0.00000E+00
         0.00000E+00
         0.00000E+00
         0.00000E+00
         0.00000E+00
         0.00000E+00
         0.00000E+00
         0.00000E+00
         0.00000E+00
         0.00000E+00
         0.00000E+00
         0.00000E+00
         0.00000E+00
         0.00000E+00
         0.00000E+00
         0.00000E+00
         0.00000E+00
         0.00000E+00
         0.00000E+00
         0.00000E+00
         0.00000E+00
         0.00000E+00
         0.00000E+00
         0.00000E+00
         0.00000E+00
         0.00000E+00
         0.00000E+00
         0.00000E+00
         0.00000E+00
         0.00000E+00
         0.00000E+00
         0.00000E+00
         0.00000E+00
         0.00000E+00
         0.00000E+00
         0.00000E+00
         0.00000E+00
         0.00000E+00
         0.00000E+00
         0.00000E+00
         0.00000E+00
         0.00000E+00
         0.00000E+00
         0.00000E+00
         0.00000E+00
         0.00000E+00
         0.00000E+00
         0.00000E+00
         0.00000E+00
         0.00000E+00
         0.00000E+00
         0.00000E+00
         0.00000E+00
         0.00000E+00
         0.00000E+00
         0.00000E+00
         0.00000E+00
         0.00000E+00
         0.00000E+00
         0.00000E+00
         0.00000E+00
         0.00000E+00
         0.00000E+00
         0.00000E+00
         0.00000E+00
         0.00000E+00
         0.00000E+00
         0.00000E+00
         0.00000E+00
         0.00000E+00
         0.00000E+00
         0.00000E+00
         0.00000E+00
         0.00000E+00
         0.00000E+00
         0.00000E+00
         0.00000E+00
         0.00000E+00
         0.00000E+00
         0.00000E+00
         0.00000E+00
         0.00000E+00
         0.00000E+00
         0.00000E+00
         0.00000E+00
         0.00000E+00
         0.00000E+00
         0.00000E+00
         0.00000E+00
         0.00000E+00
         0.00000E+00
         0.00000E+00
         0.00000E+00
         0.00000E+00
         0.00000E+00
         0.00000E+00
         0.00000E+00
         0.00000E+00
         0.00000E+00
         0.00000E+00
         0.00000E+00
         0.00000E+00
         0.00000E+00
         0.00000E+00
         0.00000E+00
         0.00000E+00
         0.00000E+00
         0.00000E+00
         0.00000E+00
         0.00000E+00
         0.00000E+00
         0.00000E+00
         0.00000E+00
         0.00000E+00
         0.00000E+00
         0.00000E+00
         0.00000E+00
         0.00000E+00
         0.00000E+00
         0.00000E+00
         0.00000E+00
         0.00000E+00
         0.00000E+00
         0.00000E+00
         0.00000E+00
         0.00000E+00
         0.00000E+00
         0.00000E+00
         0.00000E+00
         0.00000E+00
         0.00000E+00
         0.00000E+00
         0.00000E+00
         0.00000E+00
         0.00000E+00
         0.00000E+00
         0.00000E+00
         0.00000E+00
         0.00000E+00
         0.00000E+00
         0.00000E+00
         0.00000E+00
         0.00000E+00
         0.00000E+00
         0.00000E+00
         0.00000E+00
         0.00000E+00
         0.00000E+00
         0.00000E+00
         0.00000E+00
         0.00000E+00
         0.00000E+00
         0.00000E+00
         0.00000E+00
         0.00000E+00
         0.00000E+00
         0.00000E+00
         0.00000E+00
         0.00000E+00
         0.00000E+00
         0.00000E+00
         0.00000E+00
         0.00000E+00
         0.00000E+00
         0.00000E+00
         0.00000E+00
         0.00000E+00
         0.00000E+00
         0.00000E+00
         0.00000E+00
         0.00000E+00
         0.00000E+00
         0.00000E+00
         0.00000E+00
         0.00000E+00
         0.00000E+00
         0.00000E+00
         0.00000E+00
         0.00000E+00
         0.00000E+00
         0.00000E+00
         0.00000E+00
         0.00000E+00
         0.00000E+00
         0.00000E+00
         0.00000E+00
         0.00000E+00
         0.00000E+00
         0.00000E+00
         0.00000E+00
         0.00000E+00
         0.00000E+00
         0.00000E+00
         0.00000E+00
         0.00000E+00
         0.00000E+00
         0.00000E+00
         0.00000E+00
         0.00000E+00
         0.00000E+00
         0.00000E+00
         0.00000E+00
         0.00000E+00
         0.00000E+00
         0.00000E+00
         0.00000E+00
         0.00000E+00
         0.00000E+00
         0.00000E+00
         0.00000E+00
         0.00000E+00
         0.00000E+00
         0.00000E+00
         0.00000E+00
         0.00000E+00
         0.00000E+00
         0.00000E+00
         0.00000E+00
         0.00000E+00
         0.00000E+00
         0.00000E+00
         0.00000E+00
         0.00000E+00
         0.00000E+00
         0.00000E+00
         0.00000E+00
         0.00000E+00
         0.00000E+00
         0.00000E+00
         0.00000E+00
         0.00000E+00
         0.00000E+00
         0.00000E+00
         0.00000E+00
         0.00000E+00
         0.00000E+00
         0.00000E+00
         0.00000E+00
         0.00000E+00
         0.00000E+00
         0.00000E+00
         0.00000E+00
         0.00000E+00
         0.00000E+00
         0.00000E+00
         0.00000E+00
         0.00000E+00
         0.00000E+00
         0.00000E+00
         0.00000E+00
         0.00000E+00
         0.00000E+00
         0.00000E+00
         0.00000E+00
         0.00000E+00
         0.00000E+00
         0.00000E+00
         0.00000E+00
         0.00000E+00
         0.00000E+00
         0.00000E+00
         0.00000E+00
         0.00000E+00
         0.00000E+00
         0.00000E+00
         0.00000E+00
         0.00000E+00
         0.00000E+00
         0.00000E+00
         0.00000E+00
         0.00000E+00
         0.00000E+00
         0.00000E+00
         0.00000E+00
         0.00000E+00
         0.00000E+00
         0.00000E+00
         0.00000E+00
         0.00000E+00
  
SCALARS                         fint_x  double 1
LOOKUP_TABLE default
         0.00000E+00
         0.00000E+00
         0.00000E+00
         0.00000E+00
         0.00000E+00
         0.00000E+00
         0.00000E+00
         0.00000E+00
         0.00000E+00
         0.00000E+00
         0.00000E+00
         0.00000E+00
         0.00000E+00
         0.00000E+00
         0.00000E+00
         0.00000E+00
         0.00000E+00
         0.00000E+00
         0.00000E+00
         0.00000E+00
         0.00000E+00
         0.00000E+00
         0.00000E+00
         0.00000E+00
         0.00000E+00
         0.00000E+00
         0.00000E+00
         0.00000E+00
         0.00000E+00
         0.00000E+00
         0.00000E+00
         0.00000E+00
         0.00000E+00
         0.00000E+00
         0.00000E+00
         0.00000E+00
         0.00000E+00
         0.00000E+00
         0.00000E+00
         0.00000E+00
         0.00000E+00
         0.00000E+00
         0.00000E+00
         0.00000E+00
         0.00000E+00
         0.00000E+00
         0.00000E+00
         0.00000E+00
         0.00000E+00
         0.00000E+00
         0.00000E+00
         0.00000E+00
         0.00000E+00
         0.00000E+00
         0.00000E+00
         0.00000E+00
         0.00000E+00
         0.00000E+00
         0.00000E+00
         0.00000E+00
         0.00000E+00
         0.00000E+00
         0.00000E+00
         0.00000E+00
         0.00000E+00
         0.00000E+00
         0.00000E+00
         0.00000E+00
         0.00000E+00
         0.00000E+00
         0.00000E+00
         0.00000E+00
         0.00000E+00
         0.00000E+00
         0.00000E+00
         0.00000E+00
         0.00000E+00
         0.00000E+00
         0.00000E+00
         0.00000E+00
         0.00000E+00
         0.00000E+00
         0.00000E+00
         0.00000E+00
         0.00000E+00
         0.00000E+00
         0.00000E+00
         0.00000E+00
         0.00000E+00
         0.00000E+00
         0.00000E+00
         0.00000E+00
         0.00000E+00
         0.00000E+00
         0.00000E+00
         0.00000E+00
         0.00000E+00
         0.00000E+00
         0.00000E+00
         0.00000E+00
         0.00000E+00
         0.00000E+00
         0.00000E+00
         0.00000E+00
         0.00000E+00
         0.00000E+00
         0.00000E+00
         0.00000E+00
         0.00000E+00
         0.00000E+00
         0.00000E+00
         0.00000E+00
         0.00000E+00
         0.00000E+00
         0.00000E+00
         0.00000E+00
         0.00000E+00
         0.00000E+00
         0.00000E+00
         0.00000E+00
         0.00000E+00
         0.00000E+00
         0.00000E+00
         0.00000E+00
         0.00000E+00
         0.00000E+00
         0.00000E+00
         0.00000E+00
         0.00000E+00
         0.00000E+00
         0.00000E+00
         0.00000E+00
         0.00000E+00
         0.00000E+00
         0.00000E+00
         0.00000E+00
         0.00000E+00
         0.00000E+00
         0.00000E+00
         0.00000E+00
         0.00000E+00
         0.00000E+00
         0.00000E+00
         0.00000E+00
         0.00000E+00
         0.00000E+00
         0.00000E+00
         0.00000E+00
         0.00000E+00
         0.00000E+00
         0.00000E+00
         0.00000E+00
         0.00000E+00
         0.00000E+00
         0.00000E+00
         0.00000E+00
         0.00000E+00
         0.00000E+00
         0.00000E+00
         0.00000E+00
         0.00000E+00
         0.00000E+00
         0.00000E+00
         0.00000E+00
         0.00000E+00
         0.00000E+00
         0.00000E+00
         0.00000E+00
         0.00000E+00
         0.00000E+00
         0.00000E+00
         0.00000E+00
         0.00000E+00
         0.00000E+00
         0.00000E+00
         0.00000E+00
         0.00000E+00
         0.00000E+00
         0.00000E+00
         0.00000E+00
         0.00000E+00
         0.00000E+00
         0.00000E+00
         0.00000E+00
         0.00000E+00
         0.00000E+00
         0.00000E+00
         0.00000E+00
         0.00000E+00
         0.00000E+00
         0.00000E+00
         0.00000E+00
         0.00000E+00
         0.00000E+00
         0.00000E+00
         0.00000E+00
         0.00000E+00
         0.00000E+00
         0.00000E+00
         0.00000E+00
         0.00000E+00
         0.00000E+00
         0.00000E+00
         0.00000E+00
         0.00000E+00
         0.00000E+00
         0.00000E+00
         0.00000E+00
         0.00000E+00
         0.00000E+00
         0.00000E+00
         0.00000E+00
         0.00000E+00
         0.00000E+00
         0.00000E+00
         0.00000E+00
         0.00000E+00
         0.00000E+00
         0.00000E+00
         0.00000E+00
         0.00000E+00
         0.00000E+00
         0.00000E+00
         0.00000E+00
         0.00000E+00
         0.00000E+00
         0.00000E+00
         0.00000E+00
         0.00000E+00
         0.00000E+00
         0.00000E+00
         0.00000E+00
         0.00000E+00
         0.00000E+00
         0.00000E+00
         0.00000E+00
         0.00000E+00
         0.00000E+00
         0.00000E+00
         0.00000E+00
         0.00000E+00
         0.00000E+00
         0.00000E+00
         0.00000E+00
         0.00000E+00
         0.00000E+00
         0.00000E+00
         0.00000E+00
         0.00000E+00
         0.00000E+00
         0.00000E+00
         0.00000E+00
         0.00000E+00
         0.00000E+00
         0.00000E+00
         0.00000E+00
         0.00000E+00
         0.00000E+00
         0.00000E+00
         0.00000E+00
         0.00000E+00
         0.00000E+00
         0.00000E+00
         0.00000E+00
         0.00000E+00
         0.00000E+00
         0.00000E+00
         0.00000E+00
         0.00000E+00
         0.00000E+00
         0.00000E+00
         0.00000E+00
         0.00000E+00
         0.00000E+00
         0.00000E+00
         0.00000E+00
         0.00000E+00
         0.00000E+00
         0.00000E+00
         0.00000E+00
         0.00000E+00
         0.00000E+00
         0.00000E+00
         0.00000E+00
         0.00000E+00
         0.00000E+00
         0.00000E+00
         0.00000E+00
         0.00000E+00
         0.00000E+00
         0.00000E+00
         0.00000E+00
         0.00000E+00
         0.00000E+00
         0.00000E+00
         0.00000E+00
         0.00000E+00
         0.00000E+00
         0.00000E+00
         0.00000E+00
         0.00000E+00
         0.00000E+00
         0.00000E+00
         0.00000E+00
         0.00000E+00
         0.00000E+00
         0.00000E+00
         0.00000E+00
         0.00000E+00
         0.00000E+00
         0.00000E+00
         0.00000E+00
         0.00000E+00
         0.00000E+00
         0.00000E+00
         0.00000E+00
         0.00000E+00
         0.00000E+00
         0.00000E+00
         0.00000E+00
         0.00000E+00
         0.00000E+00
         0.00000E+00
         0.00000E+00
         0.00000E+00
         0.00000E+00
         0.00000E+00
         0.00000E+00
         0.00000E+00
         0.00000E+00
         0.00000E+00
         0.00000E+00
         0.00000E+00
         0.00000E+00
         0.00000E+00
         0.00000E+00
         0.00000E+00
         0.00000E+00
         0.00000E+00
         0.00000E+00
         0.00000E+00
         0.00000E+00
         0.00000E+00
         0.00000E+00
         0.00000E+00
         0.00000E+00
         0.00000E+00
         0.00000E+00
         0.00000E+00
         0.00000E+00
         0.00000E+00
         0.00000E+00
         0.00000E+00
         0.00000E+00
         0.00000E+00
         0.00000E+00
         0.00000E+00
         0.00000E+00
         0.00000E+00
         0.00000E+00
         0.00000E+00
         0.00000E+00
         0.00000E+00
         0.00000E+00
         0.00000E+00
         0.00000E+00
         0.00000E+00
         0.00000E+00
         0.00000E+00
         0.00000E+00
         0.00000E+00
         0.00000E+00
         0.00000E+00
         0.00000E+00
         0.00000E+00
         0.00000E+00
         0.00000E+00
         0.00000E+00
         0.00000E+00
         0.00000E+00
         0.00000E+00
         0.00000E+00
         0.00000E+00
         0.00000E+00
         0.00000E+00
         0.00000E+00
         0.00000E+00
         0.00000E+00
         0.00000E+00
         0.00000E+00
         0.00000E+00
         0.00000E+00
         0.00000E+00
         0.00000E+00
         0.00000E+00
         0.00000E+00
         0.00000E+00
         0.00000E+00
         0.00000E+00
         0.00000E+00
         0.00000E+00
         0.00000E+00
         0.00000E+00
         0.00000E+00
         0.00000E+00
         0.00000E+00
         0.00000E+00
         0.00000E+00
         0.00000E+00
         0.00000E+00
         0.00000E+00
         0.00000E+00
         0.00000E+00
         0.00000E+00
         0.00000E+00
         0.00000E+00
         0.00000E+00
         0.00000E+00
         0.00000E+00
         0.00000E+00
         0.00000E+00
         0.00000E+00
         0.00000E+00
         0.00000E+00
         0.00000E+00
         0.00000E+00
         0.00000E+00
         0.00000E+00
         0.00000E+00
         0.00000E+00
         0.00000E+00
         0.00000E+00
         0.00000E+00
         0.00000E+00
         0.00000E+00
         0.00000E+00
         0.00000E+00
         0.00000E+00
         0.00000E+00
         0.00000E+00
         0.00000E+00
         0.00000E+00
         0.00000E+00
         0.00000E+00
         0.00000E+00
         0.00000E+00
         0.00000E+00
         0.00000E+00
         0.00000E+00
         0.00000E+00
         0.00000E+00
         0.00000E+00
         0.00000E+00
         0.00000E+00
         0.00000E+00
         0.00000E+00
         0.00000E+00
         0.00000E+00
         0.00000E+00
         0.00000E+00
         0.00000E+00
         0.00000E+00
         0.00000E+00
         0.00000E+00
         0.00000E+00
         0.00000E+00
         0.00000E+00
         0.00000E+00
         0.00000E+00
         0.00000E+00
         0.00000E+00
         0.00000E+00
         0.00000E+00
         0.00000E+00
         0.00000E+00
         0.00000E+00
         0.00000E+00
         0.00000E+00
         0.00000E+00
         0.00000E+00
         0.00000E+00
         0.00000E+00
         0.00000E+00
         0.00000E+00
         0.00000E+00
         0.00000E+00
         0.00000E+00
         0.00000E+00
         0.00000E+00
         0.00000E+00
         0.00000E+00
         0.00000E+00
         0.00000E+00
         0.00000E+00
         0.00000E+00
         0.00000E+00
         0.00000E+00
         0.00000E+00
         0.00000E+00
         0.00000E+00
         0.00000E+00
         0.00000E+00
         0.00000E+00
         0.00000E+00
         0.00000E+00
         0.00000E+00
         0.00000E+00
         0.00000E+00
         0.00000E+00
         0.00000E+00
         0.00000E+00
         0.00000E+00
         0.00000E+00
         0.00000E+00
         0.00000E+00
         0.00000E+00
         0.00000E+00
         0.00000E+00
         0.00000E+00
         0.00000E+00
         0.00000E+00
         0.00000E+00
         0.00000E+00
         0.00000E+00
         0.00000E+00
         0.00000E+00
         0.00000E+00
         0.00000E+00
         0.00000E+00
         0.00000E+00
         0.00000E+00
         0.00000E+00
         0.00000E+00
         0.00000E+00
         0.00000E+00
         0.00000E+00
         0.00000E+00
         0.00000E+00
         0.00000E+00
         0.00000E+00
         0.00000E+00
         0.00000E+00
         0.00000E+00
         0.00000E+00
         0.00000E+00
         0.00000E+00
         0.00000E+00
         0.00000E+00
         0.00000E+00
         0.00000E+00
         0.00000E+00
         0.00000E+00
         0.00000E+00
         0.00000E+00
         0.00000E+00
         0.00000E+00
         0.00000E+00
         0.00000E+00
         0.00000E+00
         0.00000E+00
         0.00000E+00
         0.00000E+00
         0.00000E+00
         0.00000E+00
         0.00000E+00
         0.00000E+00
         0.00000E+00
         0.00000E+00
         0.00000E+00
         0.00000E+00
         0.00000E+00
         0.00000E+00
         0.00000E+00
         0.00000E+00
         0.00000E+00
         0.00000E+00
         0.00000E+00
         0.00000E+00
         0.00000E+00
         0.00000E+00
         0.00000E+00
         0.00000E+00
         0.00000E+00
         0.00000E+00
         0.00000E+00
         0.00000E+00
         0.00000E+00
         0.00000E+00
         0.00000E+00
         0.00000E+00
         0.00000E+00
         0.00000E+00
         0.00000E+00
         0.00000E+00
         0.00000E+00
         0.00000E+00
         0.00000E+00
         0.00000E+00
         0.00000E+00
         0.00000E+00
         0.00000E+00
         0.00000E+00
         0.00000E+00
         0.00000E+00
         0.00000E+00
         0.00000E+00
         0.00000E+00
         0.00000E+00
         0.00000E+00
         0.00000E+00
         0.00000E+00
         0.00000E+00
         0.00000E+00
         0.00000E+00
         0.00000E+00
         0.00000E+00
         0.00000E+00
         0.00000E+00
         0.00000E+00
         0.00000E+00
         0.00000E+00
         0.00000E+00
         0.00000E+00
         0.00000E+00
         0.00000E+00
         0.00000E+00
         0.00000E+00
         0.00000E+00
         0.00000E+00
         0.00000E+00
         0.00000E+00
         0.00000E+00
         0.00000E+00
         0.00000E+00
         0.00000E+00
         0.00000E+00
         0.00000E+00
         0.00000E+00
         0.00000E+00
         0.00000E+00
         0.00000E+00
         0.00000E+00
         0.00000E+00
         0.00000E+00
         0.00000E+00
         0.00000E+00
         0.00000E+00
         0.00000E+00
         0.00000E+00
         0.00000E+00
         0.00000E+00
         0.00000E+00
         0.00000E+00
         0.00000E+00
         0.00000E+00
         0.00000E+00
         0.00000E+00
         0.00000E+00
         0.00000E+00
         0.00000E+00
         0.00000E+00
         0.00000E+00
         0.00000E+00
         0.00000E+00
         0.00000E+00
         0.00000E+00
         0.00000E+00
         0.00000E+00
         0.00000E+00
         0.00000E+00
         0.00000E+00
         0.00000E+00
         0.00000E+00
         0.00000E+00
         0.00000E+00
         0.00000E+00
         0.00000E+00
         0.00000E+00
         0.00000E+00
         0.00000E+00
         0.00000E+00
         0.00000E+00
         0.00000E+00
         0.00000E+00
         0.00000E+00
         0.00000E+00
         0.00000E+00
         0.00000E+00
         0.00000E+00
         0.00000E+00
         0.00000E+00
         0.00000E+00
         0.00000E+00
         0.00000E+00
         0.00000E+00
         0.00000E+00
         0.00000E+00
         0.00000E+00
         0.00000E+00
         0.00000E+00
         0.00000E+00
         0.00000E+00
         0.00000E+00
         0.00000E+00
         0.00000E+00
         0.00000E+00
         0.00000E+00
         0.00000E+00
         0.00000E+00
         0.00000E+00
         0.00000E+00
         0.00000E+00
         0.00000E+00
         0.00000E+00
         0.00000E+00
         0.00000E+00
         0.00000E+00
         0.00000E+00
         0.00000E+00
         0.00000E+00
         0.00000E+00
         0.00000E+00
         0.00000E+00
         0.00000E+00
         0.00000E+00
         0.00000E+00
         0.00000E+00
         0.00000E+00
         0.00000E+00
         0.00000E+00
         0.00000E+00
         0.00000E+00
         0.00000E+00
         0.00000E+00
         0.00000E+00
         0.00000E+00
         0.00000E+00
         0.00000E+00
         0.00000E+00
         0.00000E+00
         0.00000E+00
         0.00000E+00
         0.00000E+00
         0.00000E+00
         0.00000E+00
         0.00000E+00
         0.00000E+00
         0.00000E+00
         0.00000E+00
         0.00000E+00
         0.00000E+00
         0.00000E+00
         0.00000E+00
         0.00000E+00
         0.00000E+00
         0.00000E+00
         0.00000E+00
         0.00000E+00
         0.00000E+00
         0.00000E+00
         0.00000E+00
         0.00000E+00
         0.00000E+00
         0.00000E+00
         0.00000E+00
         0.00000E+00
         0.00000E+00
         0.00000E+00
         0.00000E+00
         0.00000E+00
         0.00000E+00
         0.00000E+00
         0.00000E+00
         0.00000E+00
         0.00000E+00
         0.00000E+00
         0.00000E+00
         0.00000E+00
         0.00000E+00
         0.00000E+00
         0.00000E+00
         0.00000E+00
         0.00000E+00
         0.00000E+00
         0.00000E+00
         0.00000E+00
         0.00000E+00
         0.00000E+00
         0.00000E+00
         0.00000E+00
         0.00000E+00
         0.00000E+00
         0.00000E+00
         0.00000E+00
         0.00000E+00
         0.00000E+00
         0.00000E+00
         0.00000E+00
         0.00000E+00
         0.00000E+00
         0.00000E+00
         0.00000E+00
         0.00000E+00
         0.00000E+00
         0.00000E+00
         0.00000E+00
         0.00000E+00
         0.00000E+00
         0.00000E+00
         0.00000E+00
         0.00000E+00
         0.00000E+00
         0.00000E+00
         0.00000E+00
         0.00000E+00
         0.00000E+00
         0.00000E+00
         0.00000E+00
         0.00000E+00
         0.00000E+00
         0.00000E+00
         0.00000E+00
         0.00000E+00
         0.00000E+00
         0.00000E+00
         0.00000E+00
         0.00000E+00
         0.00000E+00
         0.00000E+00
         0.00000E+00
         0.00000E+00
         0.00000E+00
         0.00000E+00
         0.00000E+00
         0.00000E+00
         0.00000E+00
         0.00000E+00
         0.00000E+00
         0.00000E+00
         0.00000E+00
         0.00000E+00
         0.00000E+00
         0.00000E+00
         0.00000E+00
         0.00000E+00
         0.00000E+00
         0.00000E+00
         0.00000E+00
         0.00000E+00
         0.00000E+00
         0.00000E+00
         0.00000E+00
         0.00000E+00
         0.00000E+00
         0.00000E+00
         0.00000E+00
         0.00000E+00
         0.00000E+00
         0.00000E+00
         0.00000E+00
         0.00000E+00
         0.00000E+00
         0.00000E+00
         0.00000E+00
         0.00000E+00
         0.00000E+00
         0.00000E+00
         0.00000E+00
         0.00000E+00
         0.00000E+00
         0.00000E+00
         0.00000E+00
         0.00000E+00
         0.00000E+00
         0.00000E+00
         0.00000E+00
         0.00000E+00
         0.00000E+00
         0.00000E+00
         0.00000E+00
         0.00000E+00
         0.00000E+00
         0.00000E+00
         0.00000E+00
         0.00000E+00
         0.00000E+00
         0.00000E+00
         0.00000E+00
         0.00000E+00
         0.00000E+00
         0.00000E+00
         0.00000E+00
         0.00000E+00
         0.00000E+00
         0.00000E+00
         0.00000E+00
         0.00000E+00
         0.00000E+00
         0.00000E+00
         0.00000E+00
         0.00000E+00
         0.00000E+00
         0.00000E+00
         0.00000E+00
         0.00000E+00
         0.00000E+00
         0.00000E+00
         0.00000E+00
         0.00000E+00
         0.00000E+00
         0.00000E+00
         0.00000E+00
         0.00000E+00
         0.00000E+00
         0.00000E+00
         0.00000E+00
         0.00000E+00
         0.00000E+00
         0.00000E+00
         0.00000E+00
         0.00000E+00
         0.00000E+00
         0.00000E+00
         0.00000E+00
         0.00000E+00
         0.00000E+00
         0.00000E+00
         0.00000E+00
         0.00000E+00
         0.00000E+00
         0.00000E+00
         0.00000E+00
         0.00000E+00
         0.00000E+00
         0.00000E+00
         0.00000E+00
         0.00000E+00
         0.00000E+00
         0.00000E+00
         0.00000E+00
         0.00000E+00
         0.00000E+00
         0.00000E+00
         0.00000E+00
         0.00000E+00
         0.00000E+00
         0.00000E+00
         0.00000E+00
         0.00000E+00
         0.00000E+00
         0.00000E+00
         0.00000E+00
         0.00000E+00
         0.00000E+00
         0.00000E+00
         0.00000E+00
         0.00000E+00
         0.00000E+00
         0.00000E+00
         0.00000E+00
         0.00000E+00
         0.00000E+00
         0.00000E+00
         0.00000E+00
         0.00000E+00
         0.00000E+00
         0.00000E+00
         0.00000E+00
         0.00000E+00
         0.00000E+00
         0.00000E+00
         0.00000E+00
         0.00000E+00
         0.00000E+00
         0.00000E+00
         0.00000E+00
         0.00000E+00
         0.00000E+00
         0.00000E+00
         0.00000E+00
         0.00000E+00
         0.00000E+00
         0.00000E+00
         0.00000E+00
         0.00000E+00
         0.00000E+00
         0.00000E+00
         0.00000E+00
         0.00000E+00
         0.00000E+00
         0.00000E+00
         0.00000E+00
         0.00000E+00
         0.00000E+00
         0.00000E+00
         0.00000E+00
         0.00000E+00
         0.00000E+00
         0.00000E+00
         0.00000E+00
         0.00000E+00
         0.00000E+00
         0.00000E+00
         0.00000E+00
         0.00000E+00
         0.00000E+00
         0.00000E+00
         0.00000E+00
         0.00000E+00
         0.00000E+00
         0.00000E+00
         0.00000E+00
         0.00000E+00
         0.00000E+00
         0.00000E+00
         0.00000E+00
         0.00000E+00
         0.00000E+00
         0.00000E+00
         0.00000E+00
         0.00000E+00
         0.00000E+00
         0.00000E+00
         0.00000E+00
         0.00000E+00
         0.00000E+00
         0.00000E+00
         0.00000E+00
         0.00000E+00
         0.00000E+00
         0.00000E+00
         0.00000E+00
         0.00000E+00
         0.00000E+00
         0.00000E+00
         0.00000E+00
         0.00000E+00
         0.00000E+00
         0.00000E+00
         0.00000E+00
         0.00000E+00
         0.00000E+00
         0.00000E+00
         0.00000E+00
         0.00000E+00
         0.00000E+00
         0.00000E+00
         0.00000E+00
         0.00000E+00
         0.00000E+00
         0.00000E+00
         0.00000E+00
         0.00000E+00
         0.00000E+00
         0.00000E+00
         0.00000E+00
         0.00000E+00
         0.00000E+00
         0.00000E+00
         0.00000E+00
         0.00000E+00
         0.00000E+00
         0.00000E+00
         0.00000E+00
         0.00000E+00
         0.00000E+00
         0.00000E+00
         0.00000E+00
         0.00000E+00
         0.00000E+00
         0.00000E+00
         0.00000E+00
         0.00000E+00
         0.00000E+00
         0.00000E+00
         0.00000E+00
         0.00000E+00
         0.00000E+00
         0.00000E+00
         0.00000E+00
         0.00000E+00
         0.00000E+00
         0.00000E+00
         0.00000E+00
         0.00000E+00
         0.00000E+00
         0.00000E+00
         0.00000E+00
         0.00000E+00
         0.00000E+00
         0.00000E+00
         0.00000E+00
         0.00000E+00
         0.00000E+00
         0.00000E+00
         0.00000E+00
         0.00000E+00
         0.00000E+00
         0.00000E+00
         0.00000E+00
         0.00000E+00
         0.00000E+00
         0.00000E+00
         0.00000E+00
         0.00000E+00
         0.00000E+00
         0.00000E+00
         0.00000E+00
         0.00000E+00
         0.00000E+00
         0.00000E+00
         0.00000E+00
         0.00000E+00
         0.00000E+00
         0.00000E+00
         0.00000E+00
         0.00000E+00
         0.00000E+00
         0.00000E+00
         0.00000E+00
         0.00000E+00
         0.00000E+00
         0.00000E+00
         0.00000E+00
         0.00000E+00
         0.00000E+00
         0.00000E+00
         0.00000E+00
         0.00000E+00
         0.00000E+00
         0.00000E+00
         0.00000E+00
         0.00000E+00
         0.00000E+00
         0.00000E+00
         0.00000E+00
         0.00000E+00
         0.00000E+00
         0.00000E+00
         0.00000E+00
         0.00000E+00
         0.00000E+00
         0.00000E+00
         0.00000E+00
         0.00000E+00
         0.00000E+00
         0.00000E+00
         0.00000E+00
         0.00000E+00
         0.00000E+00
         0.00000E+00
         0.00000E+00
         0.00000E+00
         0.00000E+00
         0.00000E+00
         0.00000E+00
         0.00000E+00
         0.00000E+00
         0.00000E+00
         0.00000E+00
         0.00000E+00
         0.00000E+00
         0.00000E+00
         0.00000E+00
         0.00000E+00
         0.00000E+00
         0.00000E+00
         0.00000E+00
         0.00000E+00
         0.00000E+00
         0.00000E+00
         0.00000E+00
         0.00000E+00
         0.00000E+00
         0.00000E+00
         0.00000E+00
         0.00000E+00
         0.00000E+00
         0.00000E+00
         0.00000E+00
         0.00000E+00
         0.00000E+00
         0.00000E+00
         0.00000E+00
         0.00000E+00
         0.00000E+00
         0.00000E+00
         0.00000E+00
         0.00000E+00
         0.00000E+00
         0.00000E+00
         0.00000E+00
         0.00000E+00
         0.00000E+00
         0.00000E+00
         0.00000E+00
         0.00000E+00
         0.00000E+00
         0.00000E+00
         0.00000E+00
         0.00000E+00
         0.00000E+00
         0.00000E+00
         0.00000E+00
         0.00000E+00
         0.00000E+00
         0.00000E+00
         0.00000E+00
         0.00000E+00
         0.00000E+00
         0.00000E+00
         0.00000E+00
         0.00000E+00
         0.00000E+00
         0.00000E+00
         0.00000E+00
         0.00000E+00
         0.00000E+00
         0.00000E+00
         0.00000E+00
         0.00000E+00
         0.00000E+00
         0.00000E+00
         0.00000E+00
         0.00000E+00
         0.00000E+00
         0.00000E+00
         0.00000E+00
         0.00000E+00
         0.00000E+00
         0.00000E+00
         0.00000E+00
         0.00000E+00
         0.00000E+00
         0.00000E+00
         0.00000E+00
         0.00000E+00
         0.00000E+00
         0.00000E+00
         0.00000E+00
         0.00000E+00
         0.00000E+00
         0.00000E+00
         0.00000E+00
         0.00000E+00
         0.00000E+00
         0.00000E+00
         0.00000E+00
         0.00000E+00
         0.00000E+00
         0.00000E+00
         0.00000E+00
         0.00000E+00
         0.00000E+00
         0.00000E+00
         0.00000E+00
         0.00000E+00
         0.00000E+00
         0.00000E+00
         0.00000E+00
         0.00000E+00
         0.00000E+00
         0.00000E+00
         0.00000E+00
         0.00000E+00
         0.00000E+00
         0.00000E+00
         0.00000E+00
         0.00000E+00
         0.00000E+00
         0.00000E+00
         0.00000E+00
         0.00000E+00
         0.00000E+00
         0.00000E+00
         0.00000E+00
         0.00000E+00
         0.00000E+00
         0.00000E+00
         0.00000E+00
         0.00000E+00
         0.00000E+00
         0.00000E+00
         0.00000E+00
         0.00000E+00
         0.00000E+00
         0.00000E+00
         0.00000E+00
         0.00000E+00
         0.00000E+00
         0.00000E+00
         0.00000E+00
         0.00000E+00
         0.00000E+00
         0.00000E+00
         0.00000E+00
         0.00000E+00
         0.00000E+00
         0.00000E+00
         0.00000E+00
         0.00000E+00
         0.00000E+00
         0.00000E+00
         0.00000E+00
         0.00000E+00
         0.00000E+00
         0.00000E+00
         0.00000E+00
         0.00000E+00
         0.00000E+00
         0.00000E+00
         0.00000E+00
         0.00000E+00
         0.00000E+00
         0.00000E+00
         0.00000E+00
         0.00000E+00
         0.00000E+00
         0.00000E+00
         0.00000E+00
         0.00000E+00
         0.00000E+00
         0.00000E+00
         0.00000E+00
         0.00000E+00
         0.00000E+00
         0.00000E+00
         0.00000E+00
         0.00000E+00
         0.00000E+00
         0.00000E+00
         0.00000E+00
         0.00000E+00
         0.00000E+00
         0.00000E+00
         0.00000E+00
         0.00000E+00
         0.00000E+00
         0.00000E+00
         0.00000E+00
         0.00000E+00
         0.00000E+00
         0.00000E+00
         0.00000E+00
         0.00000E+00
         0.00000E+00
         0.00000E+00
         0.00000E+00
         0.00000E+00
         0.00000E+00
         0.00000E+00
         0.00000E+00
         0.00000E+00
         0.00000E+00
         0.00000E+00
         0.00000E+00
         0.00000E+00
         0.00000E+00
         0.00000E+00
         0.00000E+00
         0.00000E+00
         0.00000E+00
         0.00000E+00
         0.00000E+00
         0.00000E+00
         0.00000E+00
         0.00000E+00
         0.00000E+00
         0.00000E+00
         0.00000E+00
         0.00000E+00
         0.00000E+00
         0.00000E+00
         0.00000E+00
         0.00000E+00
         0.00000E+00
         0.00000E+00
         0.00000E+00
         0.00000E+00
         0.00000E+00
         0.00000E+00
         0.00000E+00
         0.00000E+00
         0.00000E+00
         0.00000E+00
         0.00000E+00
         0.00000E+00
         0.00000E+00
         0.00000E+00
         0.00000E+00
         0.00000E+00
         0.00000E+00
         0.00000E+00
         0.00000E+00
         0.00000E+00
         0.00000E+00
         0.00000E+00
         0.00000E+00
         0.00000E+00
         0.00000E+00
         0.00000E+00
         0.00000E+00
         0.00000E+00
         0.00000E+00
         0.00000E+00
         0.00000E+00
         0.00000E+00
         0.00000E+00
         0.00000E+00
         0.00000E+00
         0.00000E+00
         0.00000E+00
         0.00000E+00
         0.00000E+00
         0.00000E+00
         0.00000E+00
         0.00000E+00
         0.00000E+00
         0.00000E+00
         0.00000E+00
         0.00000E+00
         0.00000E+00
         0.00000E+00
         0.00000E+00
         0.00000E+00
         0.00000E+00
         0.00000E+00
         0.00000E+00
         0.00000E+00
         0.00000E+00
         0.00000E+00
         0.00000E+00
         0.00000E+00
         0.00000E+00
         0.00000E+00
         0.00000E+00
         0.00000E+00
         0.00000E+00
         0.00000E+00
         0.00000E+00
         0.00000E+00
         0.00000E+00
         0.00000E+00
         0.00000E+00
         0.00000E+00
         0.00000E+00
         0.00000E+00
         0.00000E+00
         0.00000E+00
         0.00000E+00
         0.00000E+00
         0.00000E+00
         0.00000E+00
         0.00000E+00
         0.00000E+00
         0.00000E+00
         0.00000E+00
         0.00000E+00
         0.00000E+00
         0.00000E+00
         0.00000E+00
         0.00000E+00
         0.00000E+00
         0.00000E+00
         0.00000E+00
         0.00000E+00
         0.00000E+00
         0.00000E+00
         0.00000E+00
         0.00000E+00
         0.00000E+00
         0.00000E+00
         0.00000E+00
         0.00000E+00
         0.00000E+00
         0.00000E+00
         0.00000E+00
         0.00000E+00
         0.00000E+00
         0.00000E+00
         0.00000E+00
         0.00000E+00
         0.00000E+00
         0.00000E+00
         0.00000E+00
         0.00000E+00
         0.00000E+00
         0.00000E+00
         0.00000E+00
         0.00000E+00
         0.00000E+00
         0.00000E+00
         0.00000E+00
         0.00000E+00
         0.00000E+00
         0.00000E+00
         0.00000E+00
         0.00000E+00
         0.00000E+00
         0.00000E+00
         0.00000E+00
         0.00000E+00
         0.00000E+00
         0.00000E+00
         0.00000E+00
         0.00000E+00
         0.00000E+00
         0.00000E+00
         0.00000E+00
         0.00000E+00
         0.00000E+00
         0.00000E+00
         0.00000E+00
         0.00000E+00
         0.00000E+00
         0.00000E+00
         0.00000E+00
         0.00000E+00
         0.00000E+00
         0.00000E+00
         0.00000E+00
         0.00000E+00
         0.00000E+00
         0.00000E+00
         0.00000E+00
         0.00000E+00
         0.00000E+00
         0.00000E+00
         0.00000E+00
         0.00000E+00
         0.00000E+00
         0.00000E+00
         0.00000E+00
         0.00000E+00
         0.00000E+00
         0.00000E+00
         0.00000E+00
         0.00000E+00
         0.00000E+00
         0.00000E+00
         0.00000E+00
         0.00000E+00
         0.00000E+00
         0.00000E+00
         0.00000E+00
         0.00000E+00
         0.00000E+00
         0.00000E+00
         0.00000E+00
         0.00000E+00
         0.00000E+00
         0.00000E+00
         0.00000E+00
         0.00000E+00
         0.00000E+00
         0.00000E+00
         0.00000E+00
         0.00000E+00
         0.00000E+00
         0.00000E+00
         0.00000E+00
         0.00000E+00
         0.00000E+00
         0.00000E+00
         0.00000E+00
         0.00000E+00
         0.00000E+00
         0.00000E+00
         0.00000E+00
         0.00000E+00
         0.00000E+00
         0.00000E+00
         0.00000E+00
         0.00000E+00
         0.00000E+00
         0.00000E+00
         0.00000E+00
         0.00000E+00
         0.00000E+00
         0.00000E+00
         0.00000E+00
         0.00000E+00
         0.00000E+00
         0.00000E+00
         0.00000E+00
         0.00000E+00
         0.00000E+00
         0.00000E+00
         0.00000E+00
         0.00000E+00
         0.00000E+00
         0.00000E+00
         0.00000E+00
         0.00000E+00
         0.00000E+00
         0.00000E+00
         0.00000E+00
         0.00000E+00
         0.00000E+00
         0.00000E+00
         0.00000E+00
         0.00000E+00
         0.00000E+00
         0.00000E+00
         0.00000E+00
         0.00000E+00
         0.00000E+00
         0.00000E+00
         0.00000E+00
         0.00000E+00
         0.00000E+00
         0.00000E+00
         0.00000E+00
         0.00000E+00
         0.00000E+00
         0.00000E+00
         0.00000E+00
         0.00000E+00
         0.00000E+00
         0.00000E+00
         0.00000E+00
         0.00000E+00
         0.00000E+00
         0.00000E+00
         0.00000E+00
         0.00000E+00
         0.00000E+00
         0.00000E+00
         0.00000E+00
         0.00000E+00
         0.00000E+00
         0.00000E+00
         0.00000E+00
         0.00000E+00
         0.00000E+00
         0.00000E+00
         0.00000E+00
         0.00000E+00
         0.00000E+00
         0.00000E+00
         0.00000E+00
         0.00000E+00
         0.00000E+00
         0.00000E+00
         0.00000E+00
         0.00000E+00
         0.00000E+00
         0.00000E+00
         0.00000E+00
         0.00000E+00
         0.00000E+00
         0.00000E+00
         0.00000E+00
         0.00000E+00
         0.00000E+00
         0.00000E+00
         0.00000E+00
         0.00000E+00
         0.00000E+00
         0.00000E+00
         0.00000E+00
         0.00000E+00
         0.00000E+00
         0.00000E+00
         0.00000E+00
         0.00000E+00
         0.00000E+00
         0.00000E+00
         0.00000E+00
         0.00000E+00
         0.00000E+00
         0.00000E+00
         0.00000E+00
         0.00000E+00
         0.00000E+00
         0.00000E+00
         0.00000E+00
         0.00000E+00
         0.00000E+00
         0.00000E+00
         0.00000E+00
         0.00000E+00
         0.00000E+00
         0.00000E+00
         0.00000E+00
         0.00000E+00
         0.00000E+00
         0.00000E+00
         0.00000E+00
         0.00000E+00
         0.00000E+00
         0.00000E+00
         0.00000E+00
         0.00000E+00
         0.00000E+00
         0.00000E+00
         0.00000E+00
         0.00000E+00
         0.00000E+00
         0.00000E+00
         0.00000E+00
         0.00000E+00
         0.00000E+00
         0.00000E+00
         0.00000E+00
         0.00000E+00
         0.00000E+00
         0.00000E+00
         0.00000E+00
         0.00000E+00
         0.00000E+00
         0.00000E+00
         0.00000E+00
         0.00000E+00
         0.00000E+00
         0.00000E+00
         0.00000E+00
         0.00000E+00
         0.00000E+00
         0.00000E+00
         0.00000E+00
         0.00000E+00
         0.00000E+00
         0.00000E+00
         0.00000E+00
         0.00000E+00
         0.00000E+00
         0.00000E+00
         0.00000E+00
         0.00000E+00
         0.00000E+00
         0.00000E+00
         0.00000E+00
         0.00000E+00
         0.00000E+00
         0.00000E+00
         0.00000E+00
         0.00000E+00
         0.00000E+00
         0.00000E+00
         0.00000E+00
         0.00000E+00
         0.00000E+00
         0.00000E+00
         0.00000E+00
         0.00000E+00
         0.00000E+00
         0.00000E+00
         0.00000E+00
         0.00000E+00
         0.00000E+00
         0.00000E+00
         0.00000E+00
         0.00000E+00
         0.00000E+00
         0.00000E+00
         0.00000E+00
         0.00000E+00
         0.00000E+00
         0.00000E+00
         0.00000E+00
         0.00000E+00
         0.00000E+00
         0.00000E+00
         0.00000E+00
         0.00000E+00
         0.00000E+00
         0.00000E+00
         0.00000E+00
         0.00000E+00
         0.00000E+00
         0.00000E+00
         0.00000E+00
         0.00000E+00
         0.00000E+00
         0.00000E+00
         0.00000E+00
         0.00000E+00
         0.00000E+00
         0.00000E+00
         0.00000E+00
         0.00000E+00
         0.00000E+00
         0.00000E+00
         0.00000E+00
         0.00000E+00
         0.00000E+00
         0.00000E+00
         0.00000E+00
         0.00000E+00
         0.00000E+00
         0.00000E+00
         0.00000E+00
         0.00000E+00
         0.00000E+00
         0.00000E+00
         0.00000E+00
         0.00000E+00
         0.00000E+00
         0.00000E+00
         0.00000E+00
         0.00000E+00
         0.00000E+00
         0.00000E+00
         0.00000E+00
         0.00000E+00
         0.00000E+00
         0.00000E+00
         0.00000E+00
         0.00000E+00
         0.00000E+00
         0.00000E+00
         0.00000E+00
         0.00000E+00
         0.00000E+00
         0.00000E+00
         0.00000E+00
         0.00000E+00
         0.00000E+00
         0.00000E+00
         0.00000E+00
         0.00000E+00
         0.00000E+00
         0.00000E+00
         0.00000E+00
         0.00000E+00
         0.00000E+00
         0.00000E+00
         0.00000E+00
         0.00000E+00
         0.00000E+00
         0.00000E+00
         0.00000E+00
         0.00000E+00
         0.00000E+00
         0.00000E+00
         0.00000E+00
         0.00000E+00
         0.00000E+00
         0.00000E+00
         0.00000E+00
         0.00000E+00
         0.00000E+00
         0.00000E+00
         0.00000E+00
         0.00000E+00
         0.00000E+00
         0.00000E+00
         0.00000E+00
         0.00000E+00
         0.00000E+00
         0.00000E+00
         0.00000E+00
         0.00000E+00
         0.00000E+00
         0.00000E+00
         0.00000E+00
         0.00000E+00
         0.00000E+00
         0.00000E+00
         0.00000E+00
         0.00000E+00
         0.00000E+00
         0.00000E+00
         0.00000E+00
         0.00000E+00
         0.00000E+00
         0.00000E+00
         0.00000E+00
         0.00000E+00
         0.00000E+00
         0.00000E+00
         0.00000E+00
         0.00000E+00
         0.00000E+00
         0.00000E+00
         0.00000E+00
         0.00000E+00
         0.00000E+00
         0.00000E+00
         0.00000E+00
         0.00000E+00
         0.00000E+00
         0.00000E+00
         0.00000E+00
         0.00000E+00
         0.00000E+00
         0.00000E+00
         0.00000E+00
         0.00000E+00
         0.00000E+00
         0.00000E+00
         0.00000E+00
         0.00000E+00
         0.00000E+00
         0.00000E+00
         0.00000E+00
         0.00000E+00
         0.00000E+00
         0.00000E+00
         0.00000E+00
         0.00000E+00
         0.00000E+00
         0.00000E+00
         0.00000E+00
         0.00000E+00
         0.00000E+00
         0.00000E+00
         0.00000E+00
         0.00000E+00
         0.00000E+00
         0.00000E+00
         0.00000E+00
         0.00000E+00
         0.00000E+00
         0.00000E+00
         0.00000E+00
         0.00000E+00
         0.00000E+00
         0.00000E+00
         0.00000E+00
         0.00000E+00
         0.00000E+00
         0.00000E+00
         0.00000E+00
         0.00000E+00
         0.00000E+00
         0.00000E+00
         0.00000E+00
         0.00000E+00
         0.00000E+00
         0.00000E+00
         0.00000E+00
         0.00000E+00
         0.00000E+00
         0.00000E+00
         0.00000E+00
         0.00000E+00
         0.00000E+00
         0.00000E+00
         0.00000E+00
         0.00000E+00
         0.00000E+00
         0.00000E+00
         0.00000E+00
         0.00000E+00
         0.00000E+00
         0.00000E+00
         0.00000E+00
         0.00000E+00
  
SCALARS                         fint_y  double 1
LOOKUP_TABLE default
         0.00000E+00
         0.00000E+00
         0.00000E+00
         0.00000E+00
         0.00000E+00
         0.00000E+00
         0.00000E+00
         0.00000E+00
         0.00000E+00
         0.00000E+00
         0.00000E+00
         0.00000E+00
         0.00000E+00
         0.00000E+00
         0.00000E+00
         0.00000E+00
         0.00000E+00
         0.00000E+00
         0.00000E+00
         0.00000E+00
         0.00000E+00
         0.00000E+00
         0.00000E+00
         0.00000E+00
         0.00000E+00
         0.00000E+00
         0.00000E+00
         0.00000E+00
         0.00000E+00
         0.00000E+00
         0.00000E+00
         0.00000E+00
         0.00000E+00
         0.00000E+00
         0.00000E+00
         0.00000E+00
         0.00000E+00
         0.00000E+00
         0.00000E+00
         0.00000E+00
         0.00000E+00
         0.00000E+00
         0.00000E+00
         0.00000E+00
         0.00000E+00
         0.00000E+00
         0.00000E+00
         0.00000E+00
         0.00000E+00
         0.00000E+00
         0.00000E+00
         0.00000E+00
         0.00000E+00
         0.00000E+00
         0.00000E+00
         0.00000E+00
         0.00000E+00
         0.00000E+00
         0.00000E+00
         0.00000E+00
         0.00000E+00
         0.00000E+00
         0.00000E+00
         0.00000E+00
         0.00000E+00
         0.00000E+00
         0.00000E+00
         0.00000E+00
         0.00000E+00
         0.00000E+00
         0.00000E+00
         0.00000E+00
         0.00000E+00
         0.00000E+00
         0.00000E+00
         0.00000E+00
         0.00000E+00
         0.00000E+00
         0.00000E+00
         0.00000E+00
         0.00000E+00
         0.00000E+00
         0.00000E+00
         0.00000E+00
         0.00000E+00
         0.00000E+00
         0.00000E+00
         0.00000E+00
         0.00000E+00
         0.00000E+00
         0.00000E+00
         0.00000E+00
         0.00000E+00
         0.00000E+00
         0.00000E+00
         0.00000E+00
         0.00000E+00
         0.00000E+00
         0.00000E+00
         0.00000E+00
         0.00000E+00
         0.00000E+00
         0.00000E+00
         0.00000E+00
         0.00000E+00
         0.00000E+00
         0.00000E+00
         0.00000E+00
         0.00000E+00
         0.00000E+00
         0.00000E+00
         0.00000E+00
         0.00000E+00
         0.00000E+00
         0.00000E+00
         0.00000E+00
         0.00000E+00
         0.00000E+00
         0.00000E+00
         0.00000E+00
         0.00000E+00
         0.00000E+00
         0.00000E+00
         0.00000E+00
         0.00000E+00
         0.00000E+00
         0.00000E+00
         0.00000E+00
         0.00000E+00
         0.00000E+00
         0.00000E+00
         0.00000E+00
         0.00000E+00
         0.00000E+00
         0.00000E+00
         0.00000E+00
         0.00000E+00
         0.00000E+00
         0.00000E+00
         0.00000E+00
         0.00000E+00
         0.00000E+00
         0.00000E+00
         0.00000E+00
         0.00000E+00
         0.00000E+00
         0.00000E+00
         0.00000E+00
         0.00000E+00
         0.00000E+00
         0.00000E+00
         0.00000E+00
         0.00000E+00
         0.00000E+00
         0.00000E+00
         0.00000E+00
         0.00000E+00
         0.00000E+00
         0.00000E+00
         0.00000E+00
         0.00000E+00
         0.00000E+00
         0.00000E+00
         0.00000E+00
         0.00000E+00
         0.00000E+00
         0.00000E+00
         0.00000E+00
         0.00000E+00
         0.00000E+00
         0.00000E+00
         0.00000E+00
         0.00000E+00
         0.00000E+00
         0.00000E+00
         0.00000E+00
         0.00000E+00
         0.00000E+00
         0.00000E+00
         0.00000E+00
         0.00000E+00
         0.00000E+00
         0.00000E+00
         0.00000E+00
         0.00000E+00
         0.00000E+00
         0.00000E+00
         0.00000E+00
         0.00000E+00
         0.00000E+00
         0.00000E+00
         0.00000E+00
         0.00000E+00
         0.00000E+00
         0.00000E+00
         0.00000E+00
         0.00000E+00
         0.00000E+00
         0.00000E+00
         0.00000E+00
         0.00000E+00
         0.00000E+00
         0.00000E+00
         0.00000E+00
         0.00000E+00
         0.00000E+00
         0.00000E+00
         0.00000E+00
         0.00000E+00
         0.00000E+00
         0.00000E+00
         0.00000E+00
         0.00000E+00
         0.00000E+00
         0.00000E+00
         0.00000E+00
         0.00000E+00
         0.00000E+00
         0.00000E+00
         0.00000E+00
         0.00000E+00
         0.00000E+00
         0.00000E+00
         0.00000E+00
         0.00000E+00
         0.00000E+00
         0.00000E+00
         0.00000E+00
         0.00000E+00
         0.00000E+00
         0.00000E+00
         0.00000E+00
         0.00000E+00
         0.00000E+00
         0.00000E+00
         0.00000E+00
         0.00000E+00
         0.00000E+00
         0.00000E+00
         0.00000E+00
         0.00000E+00
         0.00000E+00
         0.00000E+00
         0.00000E+00
         0.00000E+00
         0.00000E+00
         0.00000E+00
         0.00000E+00
         0.00000E+00
         0.00000E+00
         0.00000E+00
         0.00000E+00
         0.00000E+00
         0.00000E+00
         0.00000E+00
         0.00000E+00
         0.00000E+00
         0.00000E+00
         0.00000E+00
         0.00000E+00
         0.00000E+00
         0.00000E+00
         0.00000E+00
         0.00000E+00
         0.00000E+00
         0.00000E+00
         0.00000E+00
         0.00000E+00
         0.00000E+00
         0.00000E+00
         0.00000E+00
         0.00000E+00
         0.00000E+00
         0.00000E+00
         0.00000E+00
         0.00000E+00
         0.00000E+00
         0.00000E+00
         0.00000E+00
         0.00000E+00
         0.00000E+00
         0.00000E+00
         0.00000E+00
         0.00000E+00
         0.00000E+00
         0.00000E+00
         0.00000E+00
         0.00000E+00
         0.00000E+00
         0.00000E+00
         0.00000E+00
         0.00000E+00
         0.00000E+00
         0.00000E+00
         0.00000E+00
         0.00000E+00
         0.00000E+00
         0.00000E+00
         0.00000E+00
         0.00000E+00
         0.00000E+00
         0.00000E+00
         0.00000E+00
         0.00000E+00
         0.00000E+00
         0.00000E+00
         0.00000E+00
         0.00000E+00
         0.00000E+00
         0.00000E+00
         0.00000E+00
         0.00000E+00
         0.00000E+00
         0.00000E+00
         0.00000E+00
         0.00000E+00
         0.00000E+00
         0.00000E+00
         0.00000E+00
         0.00000E+00
         0.00000E+00
         0.00000E+00
         0.00000E+00
         0.00000E+00
         0.00000E+00
         0.00000E+00
         0.00000E+00
         0.00000E+00
         0.00000E+00
         0.00000E+00
         0.00000E+00
         0.00000E+00
         0.00000E+00
         0.00000E+00
         0.00000E+00
         0.00000E+00
         0.00000E+00
         0.00000E+00
         0.00000E+00
         0.00000E+00
         0.00000E+00
         0.00000E+00
         0.00000E+00
         0.00000E+00
         0.00000E+00
         0.00000E+00
         0.00000E+00
         0.00000E+00
         0.00000E+00
         0.00000E+00
         0.00000E+00
         0.00000E+00
         0.00000E+00
         0.00000E+00
         0.00000E+00
         0.00000E+00
         0.00000E+00
         0.00000E+00
         0.00000E+00
         0.00000E+00
         0.00000E+00
         0.00000E+00
         0.00000E+00
         0.00000E+00
         0.00000E+00
         0.00000E+00
         0.00000E+00
         0.00000E+00
         0.00000E+00
         0.00000E+00
         0.00000E+00
         0.00000E+00
         0.00000E+00
         0.00000E+00
         0.00000E+00
         0.00000E+00
         0.00000E+00
         0.00000E+00
         0.00000E+00
         0.00000E+00
         0.00000E+00
         0.00000E+00
         0.00000E+00
         0.00000E+00
         0.00000E+00
         0.00000E+00
         0.00000E+00
         0.00000E+00
         0.00000E+00
         0.00000E+00
         0.00000E+00
         0.00000E+00
         0.00000E+00
         0.00000E+00
         0.00000E+00
         0.00000E+00
         0.00000E+00
         0.00000E+00
         0.00000E+00
         0.00000E+00
         0.00000E+00
         0.00000E+00
         0.00000E+00
         0.00000E+00
         0.00000E+00
         0.00000E+00
         0.00000E+00
         0.00000E+00
         0.00000E+00
         0.00000E+00
         0.00000E+00
         0.00000E+00
         0.00000E+00
         0.00000E+00
         0.00000E+00
         0.00000E+00
         0.00000E+00
         0.00000E+00
         0.00000E+00
         0.00000E+00
         0.00000E+00
         0.00000E+00
         0.00000E+00
         0.00000E+00
         0.00000E+00
         0.00000E+00
         0.00000E+00
         0.00000E+00
         0.00000E+00
         0.00000E+00
         0.00000E+00
         0.00000E+00
         0.00000E+00
         0.00000E+00
         0.00000E+00
         0.00000E+00
         0.00000E+00
         0.00000E+00
         0.00000E+00
         0.00000E+00
         0.00000E+00
         0.00000E+00
         0.00000E+00
         0.00000E+00
         0.00000E+00
         0.00000E+00
         0.00000E+00
         0.00000E+00
         0.00000E+00
         0.00000E+00
         0.00000E+00
         0.00000E+00
         0.00000E+00
         0.00000E+00
         0.00000E+00
         0.00000E+00
         0.00000E+00
         0.00000E+00
         0.00000E+00
         0.00000E+00
         0.00000E+00
         0.00000E+00
         0.00000E+00
         0.00000E+00
         0.00000E+00
         0.00000E+00
         0.00000E+00
         0.00000E+00
         0.00000E+00
         0.00000E+00
         0.00000E+00
         0.00000E+00
         0.00000E+00
         0.00000E+00
         0.00000E+00
         0.00000E+00
         0.00000E+00
         0.00000E+00
         0.00000E+00
         0.00000E+00
         0.00000E+00
         0.00000E+00
         0.00000E+00
         0.00000E+00
         0.00000E+00
         0.00000E+00
         0.00000E+00
         0.00000E+00
         0.00000E+00
         0.00000E+00
         0.00000E+00
         0.00000E+00
         0.00000E+00
         0.00000E+00
         0.00000E+00
         0.00000E+00
         0.00000E+00
         0.00000E+00
         0.00000E+00
         0.00000E+00
         0.00000E+00
         0.00000E+00
         0.00000E+00
         0.00000E+00
         0.00000E+00
         0.00000E+00
         0.00000E+00
         0.00000E+00
         0.00000E+00
         0.00000E+00
         0.00000E+00
         0.00000E+00
         0.00000E+00
         0.00000E+00
         0.00000E+00
         0.00000E+00
         0.00000E+00
         0.00000E+00
         0.00000E+00
         0.00000E+00
         0.00000E+00
         0.00000E+00
         0.00000E+00
         0.00000E+00
         0.00000E+00
         0.00000E+00
         0.00000E+00
         0.00000E+00
         0.00000E+00
         0.00000E+00
         0.00000E+00
         0.00000E+00
         0.00000E+00
         0.00000E+00
         0.00000E+00
         0.00000E+00
         0.00000E+00
         0.00000E+00
         0.00000E+00
         0.00000E+00
         0.00000E+00
         0.00000E+00
         0.00000E+00
         0.00000E+00
         0.00000E+00
         0.00000E+00
         0.00000E+00
         0.00000E+00
         0.00000E+00
         0.00000E+00
         0.00000E+00
         0.00000E+00
         0.00000E+00
         0.00000E+00
         0.00000E+00
         0.00000E+00
         0.00000E+00
         0.00000E+00
         0.00000E+00
         0.00000E+00
         0.00000E+00
         0.00000E+00
         0.00000E+00
         0.00000E+00
         0.00000E+00
         0.00000E+00
         0.00000E+00
         0.00000E+00
         0.00000E+00
         0.00000E+00
         0.00000E+00
         0.00000E+00
         0.00000E+00
         0.00000E+00
         0.00000E+00
         0.00000E+00
         0.00000E+00
         0.00000E+00
         0.00000E+00
         0.00000E+00
         0.00000E+00
         0.00000E+00
         0.00000E+00
         0.00000E+00
         0.00000E+00
         0.00000E+00
         0.00000E+00
         0.00000E+00
         0.00000E+00
         0.00000E+00
         0.00000E+00
         0.00000E+00
         0.00000E+00
         0.00000E+00
         0.00000E+00
         0.00000E+00
         0.00000E+00
         0.00000E+00
         0.00000E+00
         0.00000E+00
         0.00000E+00
         0.00000E+00
         0.00000E+00
         0.00000E+00
         0.00000E+00
         0.00000E+00
         0.00000E+00
         0.00000E+00
         0.00000E+00
         0.00000E+00
         0.00000E+00
         0.00000E+00
         0.00000E+00
         0.00000E+00
         0.00000E+00
         0.00000E+00
         0.00000E+00
         0.00000E+00
         0.00000E+00
         0.00000E+00
         0.00000E+00
         0.00000E+00
         0.00000E+00
         0.00000E+00
         0.00000E+00
         0.00000E+00
         0.00000E+00
         0.00000E+00
         0.00000E+00
         0.00000E+00
         0.00000E+00
         0.00000E+00
         0.00000E+00
         0.00000E+00
         0.00000E+00
         0.00000E+00
         0.00000E+00
         0.00000E+00
         0.00000E+00
         0.00000E+00
         0.00000E+00
         0.00000E+00
         0.00000E+00
         0.00000E+00
         0.00000E+00
         0.00000E+00
         0.00000E+00
         0.00000E+00
         0.00000E+00
         0.00000E+00
         0.00000E+00
         0.00000E+00
         0.00000E+00
         0.00000E+00
         0.00000E+00
         0.00000E+00
         0.00000E+00
         0.00000E+00
         0.00000E+00
         0.00000E+00
         0.00000E+00
         0.00000E+00
         0.00000E+00
         0.00000E+00
         0.00000E+00
         0.00000E+00
         0.00000E+00
         0.00000E+00
         0.00000E+00
         0.00000E+00
         0.00000E+00
         0.00000E+00
         0.00000E+00
         0.00000E+00
         0.00000E+00
         0.00000E+00
         0.00000E+00
         0.00000E+00
         0.00000E+00
         0.00000E+00
         0.00000E+00
         0.00000E+00
         0.00000E+00
         0.00000E+00
         0.00000E+00
         0.00000E+00
         0.00000E+00
         0.00000E+00
         0.00000E+00
         0.00000E+00
         0.00000E+00
         0.00000E+00
         0.00000E+00
         0.00000E+00
         0.00000E+00
         0.00000E+00
         0.00000E+00
         0.00000E+00
         0.00000E+00
         0.00000E+00
         0.00000E+00
         0.00000E+00
         0.00000E+00
         0.00000E+00
         0.00000E+00
         0.00000E+00
         0.00000E+00
         0.00000E+00
         0.00000E+00
         0.00000E+00
         0.00000E+00
         0.00000E+00
         0.00000E+00
         0.00000E+00
         0.00000E+00
         0.00000E+00
         0.00000E+00
         0.00000E+00
         0.00000E+00
         0.00000E+00
         0.00000E+00
         0.00000E+00
         0.00000E+00
         0.00000E+00
         0.00000E+00
         0.00000E+00
         0.00000E+00
         0.00000E+00
         0.00000E+00
         0.00000E+00
         0.00000E+00
         0.00000E+00
         0.00000E+00
         0.00000E+00
         0.00000E+00
         0.00000E+00
         0.00000E+00
         0.00000E+00
         0.00000E+00
         0.00000E+00
         0.00000E+00
         0.00000E+00
         0.00000E+00
         0.00000E+00
         0.00000E+00
         0.00000E+00
         0.00000E+00
         0.00000E+00
         0.00000E+00
         0.00000E+00
         0.00000E+00
         0.00000E+00
         0.00000E+00
         0.00000E+00
         0.00000E+00
         0.00000E+00
         0.00000E+00
         0.00000E+00
         0.00000E+00
         0.00000E+00
         0.00000E+00
         0.00000E+00
         0.00000E+00
         0.00000E+00
         0.00000E+00
         0.00000E+00
         0.00000E+00
         0.00000E+00
         0.00000E+00
         0.00000E+00
         0.00000E+00
         0.00000E+00
         0.00000E+00
         0.00000E+00
         0.00000E+00
         0.00000E+00
         0.00000E+00
         0.00000E+00
         0.00000E+00
         0.00000E+00
         0.00000E+00
         0.00000E+00
         0.00000E+00
         0.00000E+00
         0.00000E+00
         0.00000E+00
         0.00000E+00
         0.00000E+00
         0.00000E+00
         0.00000E+00
         0.00000E+00
         0.00000E+00
         0.00000E+00
         0.00000E+00
         0.00000E+00
         0.00000E+00
         0.00000E+00
         0.00000E+00
         0.00000E+00
         0.00000E+00
         0.00000E+00
         0.00000E+00
         0.00000E+00
         0.00000E+00
         0.00000E+00
         0.00000E+00
         0.00000E+00
         0.00000E+00
         0.00000E+00
         0.00000E+00
         0.00000E+00
         0.00000E+00
         0.00000E+00
         0.00000E+00
         0.00000E+00
         0.00000E+00
         0.00000E+00
         0.00000E+00
         0.00000E+00
         0.00000E+00
         0.00000E+00
         0.00000E+00
         0.00000E+00
         0.00000E+00
         0.00000E+00
         0.00000E+00
         0.00000E+00
         0.00000E+00
         0.00000E+00
         0.00000E+00
         0.00000E+00
         0.00000E+00
         0.00000E+00
         0.00000E+00
         0.00000E+00
         0.00000E+00
         0.00000E+00
         0.00000E+00
         0.00000E+00
         0.00000E+00
         0.00000E+00
         0.00000E+00
         0.00000E+00
         0.00000E+00
         0.00000E+00
         0.00000E+00
         0.00000E+00
         0.00000E+00
         0.00000E+00
         0.00000E+00
         0.00000E+00
         0.00000E+00
         0.00000E+00
         0.00000E+00
         0.00000E+00
         0.00000E+00
         0.00000E+00
         0.00000E+00
         0.00000E+00
         0.00000E+00
         0.00000E+00
         0.00000E+00
         0.00000E+00
         0.00000E+00
         0.00000E+00
         0.00000E+00
         0.00000E+00
         0.00000E+00
         0.00000E+00
         0.00000E+00
         0.00000E+00
         0.00000E+00
         0.00000E+00
         0.00000E+00
         0.00000E+00
         0.00000E+00
         0.00000E+00
         0.00000E+00
         0.00000E+00
         0.00000E+00
         0.00000E+00
         0.00000E+00
         0.00000E+00
         0.00000E+00
         0.00000E+00
         0.00000E+00
         0.00000E+00
         0.00000E+00
         0.00000E+00
         0.00000E+00
         0.00000E+00
         0.00000E+00
         0.00000E+00
         0.00000E+00
         0.00000E+00
         0.00000E+00
         0.00000E+00
         0.00000E+00
         0.00000E+00
         0.00000E+00
         0.00000E+00
         0.00000E+00
         0.00000E+00
         0.00000E+00
         0.00000E+00
         0.00000E+00
         0.00000E+00
         0.00000E+00
         0.00000E+00
         0.00000E+00
         0.00000E+00
         0.00000E+00
         0.00000E+00
         0.00000E+00
         0.00000E+00
         0.00000E+00
         0.00000E+00
         0.00000E+00
         0.00000E+00
         0.00000E+00
         0.00000E+00
         0.00000E+00
         0.00000E+00
         0.00000E+00
         0.00000E+00
         0.00000E+00
         0.00000E+00
         0.00000E+00
         0.00000E+00
         0.00000E+00
         0.00000E+00
         0.00000E+00
         0.00000E+00
         0.00000E+00
         0.00000E+00
         0.00000E+00
         0.00000E+00
         0.00000E+00
         0.00000E+00
         0.00000E+00
         0.00000E+00
         0.00000E+00
         0.00000E+00
         0.00000E+00
         0.00000E+00
         0.00000E+00
         0.00000E+00
         0.00000E+00
         0.00000E+00
         0.00000E+00
         0.00000E+00
         0.00000E+00
         0.00000E+00
         0.00000E+00
         0.00000E+00
         0.00000E+00
         0.00000E+00
         0.00000E+00
         0.00000E+00
         0.00000E+00
         0.00000E+00
         0.00000E+00
         0.00000E+00
         0.00000E+00
         0.00000E+00
         0.00000E+00
         0.00000E+00
         0.00000E+00
         0.00000E+00
         0.00000E+00
         0.00000E+00
         0.00000E+00
         0.00000E+00
         0.00000E+00
         0.00000E+00
         0.00000E+00
         0.00000E+00
         0.00000E+00
         0.00000E+00
         0.00000E+00
         0.00000E+00
         0.00000E+00
         0.00000E+00
         0.00000E+00
         0.00000E+00
         0.00000E+00
         0.00000E+00
         0.00000E+00
         0.00000E+00
         0.00000E+00
         0.00000E+00
         0.00000E+00
         0.00000E+00
         0.00000E+00
         0.00000E+00
         0.00000E+00
         0.00000E+00
         0.00000E+00
         0.00000E+00
         0.00000E+00
         0.00000E+00
         0.00000E+00
         0.00000E+00
         0.00000E+00
         0.00000E+00
         0.00000E+00
         0.00000E+00
         0.00000E+00
         0.00000E+00
         0.00000E+00
         0.00000E+00
         0.00000E+00
         0.00000E+00
         0.00000E+00
         0.00000E+00
         0.00000E+00
         0.00000E+00
         0.00000E+00
         0.00000E+00
         0.00000E+00
         0.00000E+00
         0.00000E+00
         0.00000E+00
         0.00000E+00
         0.00000E+00
         0.00000E+00
         0.00000E+00
         0.00000E+00
         0.00000E+00
         0.00000E+00
         0.00000E+00
         0.00000E+00
         0.00000E+00
         0.00000E+00
         0.00000E+00
         0.00000E+00
         0.00000E+00
         0.00000E+00
         0.00000E+00
         0.00000E+00
         0.00000E+00
         0.00000E+00
         0.00000E+00
         0.00000E+00
         0.00000E+00
         0.00000E+00
         0.00000E+00
         0.00000E+00
         0.00000E+00
         0.00000E+00
         0.00000E+00
         0.00000E+00
         0.00000E+00
         0.00000E+00
         0.00000E+00
         0.00000E+00
         0.00000E+00
         0.00000E+00
         0.00000E+00
         0.00000E+00
         0.00000E+00
         0.00000E+00
         0.00000E+00
         0.00000E+00
         0.00000E+00
         0.00000E+00
         0.00000E+00
         0.00000E+00
         0.00000E+00
         0.00000E+00
         0.00000E+00
         0.00000E+00
         0.00000E+00
         0.00000E+00
         0.00000E+00
         0.00000E+00
         0.00000E+00
         0.00000E+00
         0.00000E+00
         0.00000E+00
         0.00000E+00
         0.00000E+00
         0.00000E+00
         0.00000E+00
         0.00000E+00
         0.00000E+00
         0.00000E+00
         0.00000E+00
         0.00000E+00
         0.00000E+00
         0.00000E+00
         0.00000E+00
         0.00000E+00
         0.00000E+00
         0.00000E+00
         0.00000E+00
         0.00000E+00
         0.00000E+00
         0.00000E+00
         0.00000E+00
         0.00000E+00
         0.00000E+00
         0.00000E+00
         0.00000E+00
         0.00000E+00
         0.00000E+00
         0.00000E+00
         0.00000E+00
         0.00000E+00
         0.00000E+00
         0.00000E+00
         0.00000E+00
         0.00000E+00
         0.00000E+00
         0.00000E+00
         0.00000E+00
         0.00000E+00
         0.00000E+00
         0.00000E+00
         0.00000E+00
         0.00000E+00
         0.00000E+00
         0.00000E+00
         0.00000E+00
         0.00000E+00
         0.00000E+00
         0.00000E+00
         0.00000E+00
         0.00000E+00
         0.00000E+00
         0.00000E+00
         0.00000E+00
         0.00000E+00
         0.00000E+00
         0.00000E+00
         0.00000E+00
         0.00000E+00
         0.00000E+00
         0.00000E+00
         0.00000E+00
         0.00000E+00
         0.00000E+00
         0.00000E+00
         0.00000E+00
         0.00000E+00
         0.00000E+00
         0.00000E+00
         0.00000E+00
         0.00000E+00
         0.00000E+00
         0.00000E+00
         0.00000E+00
         0.00000E+00
         0.00000E+00
         0.00000E+00
         0.00000E+00
         0.00000E+00
         0.00000E+00
         0.00000E+00
         0.00000E+00
         0.00000E+00
         0.00000E+00
         0.00000E+00
         0.00000E+00
         0.00000E+00
         0.00000E+00
         0.00000E+00
         0.00000E+00
         0.00000E+00
         0.00000E+00
         0.00000E+00
         0.00000E+00
         0.00000E+00
         0.00000E+00
         0.00000E+00
         0.00000E+00
         0.00000E+00
         0.00000E+00
         0.00000E+00
         0.00000E+00
         0.00000E+00
         0.00000E+00
         0.00000E+00
         0.00000E+00
         0.00000E+00
         0.00000E+00
         0.00000E+00
         0.00000E+00
         0.00000E+00
         0.00000E+00
         0.00000E+00
         0.00000E+00
         0.00000E+00
         0.00000E+00
         0.00000E+00
         0.00000E+00
         0.00000E+00
         0.00000E+00
         0.00000E+00
         0.00000E+00
         0.00000E+00
         0.00000E+00
         0.00000E+00
         0.00000E+00
         0.00000E+00
         0.00000E+00
         0.00000E+00
         0.00000E+00
         0.00000E+00
         0.00000E+00
         0.00000E+00
         0.00000E+00
         0.00000E+00
         0.00000E+00
         0.00000E+00
         0.00000E+00
         0.00000E+00
         0.00000E+00
         0.00000E+00
         0.00000E+00
         0.00000E+00
         0.00000E+00
         0.00000E+00
         0.00000E+00
         0.00000E+00
         0.00000E+00
         0.00000E+00
         0.00000E+00
         0.00000E+00
         0.00000E+00
         0.00000E+00
         0.00000E+00
         0.00000E+00
         0.00000E+00
         0.00000E+00
         0.00000E+00
         0.00000E+00
         0.00000E+00
         0.00000E+00
         0.00000E+00
         0.00000E+00
         0.00000E+00
         0.00000E+00
         0.00000E+00
         0.00000E+00
         0.00000E+00
         0.00000E+00
         0.00000E+00
         0.00000E+00
         0.00000E+00
         0.00000E+00
         0.00000E+00
         0.00000E+00
         0.00000E+00
         0.00000E+00
         0.00000E+00
         0.00000E+00
         0.00000E+00
         0.00000E+00
         0.00000E+00
         0.00000E+00
         0.00000E+00
         0.00000E+00
         0.00000E+00
         0.00000E+00
         0.00000E+00
         0.00000E+00
         0.00000E+00
         0.00000E+00
         0.00000E+00
         0.00000E+00
         0.00000E+00
         0.00000E+00
         0.00000E+00
         0.00000E+00
         0.00000E+00
         0.00000E+00
         0.00000E+00
         0.00000E+00
         0.00000E+00
         0.00000E+00
         0.00000E+00
         0.00000E+00
         0.00000E+00
         0.00000E+00
         0.00000E+00
         0.00000E+00
         0.00000E+00
         0.00000E+00
         0.00000E+00
         0.00000E+00
         0.00000E+00
         0.00000E+00
         0.00000E+00
         0.00000E+00
         0.00000E+00
         0.00000E+00
         0.00000E+00
         0.00000E+00
         0.00000E+00
         0.00000E+00
         0.00000E+00
         0.00000E+00
         0.00000E+00
         0.00000E+00
         0.00000E+00
         0.00000E+00
         0.00000E+00
         0.00000E+00
         0.00000E+00
         0.00000E+00
         0.00000E+00
         0.00000E+00
         0.00000E+00
         0.00000E+00
         0.00000E+00
         0.00000E+00
         0.00000E+00
         0.00000E+00
         0.00000E+00
         0.00000E+00
         0.00000E+00
         0.00000E+00
         0.00000E+00
         0.00000E+00
         0.00000E+00
         0.00000E+00
         0.00000E+00
         0.00000E+00
         0.00000E+00
         0.00000E+00
         0.00000E+00
         0.00000E+00
         0.00000E+00
         0.00000E+00
         0.00000E+00
         0.00000E+00
         0.00000E+00
         0.00000E+00
         0.00000E+00
         0.00000E+00
         0.00000E+00
         0.00000E+00
         0.00000E+00
         0.00000E+00
         0.00000E+00
         0.00000E+00
         0.00000E+00
         0.00000E+00
         0.00000E+00
         0.00000E+00
         0.00000E+00
         0.00000E+00
         0.00000E+00
         0.00000E+00
         0.00000E+00
         0.00000E+00
         0.00000E+00
         0.00000E+00
         0.00000E+00
         0.00000E+00
         0.00000E+00
         0.00000E+00
         0.00000E+00
         0.00000E+00
         0.00000E+00
         0.00000E+00
         0.00000E+00
         0.00000E+00
         0.00000E+00
         0.00000E+00
         0.00000E+00
         0.00000E+00
         0.00000E+00
         0.00000E+00
         0.00000E+00
         0.00000E+00
         0.00000E+00
         0.00000E+00
         0.00000E+00
         0.00000E+00
         0.00000E+00
         0.00000E+00
         0.00000E+00
         0.00000E+00
         0.00000E+00
         0.00000E+00
         0.00000E+00
         0.00000E+00
         0.00000E+00
         0.00000E+00
         0.00000E+00
         0.00000E+00
         0.00000E+00
         0.00000E+00
         0.00000E+00
         0.00000E+00
         0.00000E+00
         0.00000E+00
         0.00000E+00
         0.00000E+00
         0.00000E+00
         0.00000E+00
         0.00000E+00
         0.00000E+00
         0.00000E+00
         0.00000E+00
         0.00000E+00
         0.00000E+00
         0.00000E+00
         0.00000E+00
         0.00000E+00
         0.00000E+00
         0.00000E+00
         0.00000E+00
         0.00000E+00
         0.00000E+00
         0.00000E+00
         0.00000E+00
         0.00000E+00
         0.00000E+00
         0.00000E+00
         0.00000E+00
         0.00000E+00
         0.00000E+00
         0.00000E+00
         0.00000E+00
         0.00000E+00
         0.00000E+00
         0.00000E+00
         0.00000E+00
         0.00000E+00
         0.00000E+00
         0.00000E+00
         0.00000E+00
         0.00000E+00
         0.00000E+00
         0.00000E+00
         0.00000E+00
         0.00000E+00
         0.00000E+00
         0.00000E+00
         0.00000E+00
         0.00000E+00
         0.00000E+00
         0.00000E+00
         0.00000E+00
         0.00000E+00
         0.00000E+00
         0.00000E+00
         0.00000E+00
         0.00000E+00
         0.00000E+00
         0.00000E+00
         0.00000E+00
         0.00000E+00
         0.00000E+00
         0.00000E+00
         0.00000E+00
         0.00000E+00
         0.00000E+00
         0.00000E+00
         0.00000E+00
         0.00000E+00
         0.00000E+00
         0.00000E+00
         0.00000E+00
         0.00000E+00
         0.00000E+00
         0.00000E+00
         0.00000E+00
         0.00000E+00
         0.00000E+00
         0.00000E+00
         0.00000E+00
         0.00000E+00
         0.00000E+00
         0.00000E+00
         0.00000E+00
         0.00000E+00
         0.00000E+00
         0.00000E+00
         0.00000E+00
         0.00000E+00
         0.00000E+00
         0.00000E+00
         0.00000E+00
         0.00000E+00
         0.00000E+00
         0.00000E+00
         0.00000E+00
         0.00000E+00
         0.00000E+00
         0.00000E+00
         0.00000E+00
         0.00000E+00
         0.00000E+00
         0.00000E+00
         0.00000E+00
         0.00000E+00
         0.00000E+00
         0.00000E+00
         0.00000E+00
         0.00000E+00
         0.00000E+00
         0.00000E+00
         0.00000E+00
         0.00000E+00
         0.00000E+00
         0.00000E+00
         0.00000E+00
         0.00000E+00
         0.00000E+00
         0.00000E+00
         0.00000E+00
         0.00000E+00
         0.00000E+00
         0.00000E+00
         0.00000E+00
         0.00000E+00
         0.00000E+00
         0.00000E+00
         0.00000E+00
         0.00000E+00
         0.00000E+00
         0.00000E+00
         0.00000E+00
         0.00000E+00
         0.00000E+00
         0.00000E+00
         0.00000E+00
         0.00000E+00
         0.00000E+00
         0.00000E+00
         0.00000E+00
         0.00000E+00
         0.00000E+00
         0.00000E+00
         0.00000E+00
         0.00000E+00
         0.00000E+00
         0.00000E+00
         0.00000E+00
         0.00000E+00
         0.00000E+00
         0.00000E+00
         0.00000E+00
         0.00000E+00
         0.00000E+00
         0.00000E+00
         0.00000E+00
         0.00000E+00
         0.00000E+00
         0.00000E+00
         0.00000E+00
         0.00000E+00
         0.00000E+00
         0.00000E+00
         0.00000E+00
         0.00000E+00
         0.00000E+00
         0.00000E+00
         0.00000E+00
         0.00000E+00
         0.00000E+00
         0.00000E+00
         0.00000E+00
         0.00000E+00
         0.00000E+00
         0.00000E+00
         0.00000E+00
         0.00000E+00
         0.00000E+00
         0.00000E+00
         0.00000E+00
         0.00000E+00
         0.00000E+00
         0.00000E+00
         0.00000E+00
         0.00000E+00
         0.00000E+00
         0.00000E+00
         0.00000E+00
         0.00000E+00
         0.00000E+00
         0.00000E+00
         0.00000E+00
         0.00000E+00
         0.00000E+00
         0.00000E+00
         0.00000E+00
         0.00000E+00
         0.00000E+00
         0.00000E+00
         0.00000E+00
         0.00000E+00
         0.00000E+00
         0.00000E+00
         0.00000E+00
         0.00000E+00
         0.00000E+00
         0.00000E+00
         0.00000E+00
         0.00000E+00
         0.00000E+00
         0.00000E+00
         0.00000E+00
         0.00000E+00
         0.00000E+00
         0.00000E+00
         0.00000E+00
         0.00000E+00
         0.00000E+00
         0.00000E+00
         0.00000E+00
         0.00000E+00
         0.00000E+00
         0.00000E+00
         0.00000E+00
         0.00000E+00
         0.00000E+00
         0.00000E+00
         0.00000E+00
         0.00000E+00
         0.00000E+00
         0.00000E+00
         0.00000E+00
         0.00000E+00
         0.00000E+00
         0.00000E+00
         0.00000E+00
         0.00000E+00
         0.00000E+00
         0.00000E+00
         0.00000E+00
         0.00000E+00
         0.00000E+00
         0.00000E+00
         0.00000E+00
         0.00000E+00
         0.00000E+00
         0.00000E+00
         0.00000E+00
         0.00000E+00
         0.00000E+00
         0.00000E+00
         0.00000E+00
         0.00000E+00
         0.00000E+00
         0.00000E+00
         0.00000E+00
         0.00000E+00
         0.00000E+00
         0.00000E+00
         0.00000E+00
         0.00000E+00
         0.00000E+00
         0.00000E+00
         0.00000E+00
         0.00000E+00
         0.00000E+00
         0.00000E+00
         0.00000E+00
         0.00000E+00
         0.00000E+00
         0.00000E+00
         0.00000E+00
         0.00000E+00
         0.00000E+00
         0.00000E+00
         0.00000E+00
         0.00000E+00
         0.00000E+00
         0.00000E+00
         0.00000E+00
         0.00000E+00
         0.00000E+00
         0.00000E+00
         0.00000E+00
         0.00000E+00
         0.00000E+00
         0.00000E+00
         0.00000E+00
         0.00000E+00
         0.00000E+00
         0.00000E+00
         0.00000E+00
         0.00000E+00
         0.00000E+00
         0.00000E+00
         0.00000E+00
         0.00000E+00
         0.00000E+00
         0.00000E+00
         0.00000E+00
         0.00000E+00
         0.00000E+00
         0.00000E+00
         0.00000E+00
         0.00000E+00
         0.00000E+00
         0.00000E+00
         0.00000E+00
         0.00000E+00
         0.00000E+00
         0.00000E+00
         0.00000E+00
         0.00000E+00
         0.00000E+00
         0.00000E+00
         0.00000E+00
         0.00000E+00
         0.00000E+00
         0.00000E+00
         0.00000E+00
         0.00000E+00
         0.00000E+00
         0.00000E+00
         0.00000E+00
         0.00000E+00
         0.00000E+00
         0.00000E+00
         0.00000E+00
         0.00000E+00
         0.00000E+00
         0.00000E+00
         0.00000E+00
         0.00000E+00
         0.00000E+00
         0.00000E+00
         0.00000E+00
         0.00000E+00
         0.00000E+00
         0.00000E+00
         0.00000E+00
         0.00000E+00
         0.00000E+00
         0.00000E+00
         0.00000E+00
         0.00000E+00
         0.00000E+00
         0.00000E+00
         0.00000E+00
         0.00000E+00
         0.00000E+00
         0.00000E+00
         0.00000E+00
         0.00000E+00
         0.00000E+00
         0.00000E+00
         0.00000E+00
         0.00000E+00
         0.00000E+00
         0.00000E+00
         0.00000E+00
         0.00000E+00
         0.00000E+00
         0.00000E+00
         0.00000E+00
         0.00000E+00
         0.00000E+00
         0.00000E+00
         0.00000E+00
         0.00000E+00
         0.00000E+00
         0.00000E+00
         0.00000E+00
         0.00000E+00
         0.00000E+00
         0.00000E+00
         0.00000E+00
         0.00000E+00
         0.00000E+00
         0.00000E+00
         0.00000E+00
         0.00000E+00
         0.00000E+00
         0.00000E+00
         0.00000E+00
         0.00000E+00
         0.00000E+00
         0.00000E+00
         0.00000E+00
         0.00000E+00
         0.00000E+00
         0.00000E+00
         0.00000E+00
         0.00000E+00
         0.00000E+00
         0.00000E+00
         0.00000E+00
         0.00000E+00
         0.00000E+00
         0.00000E+00
         0.00000E+00
         0.00000E+00
         0.00000E+00
         0.00000E+00
         0.00000E+00
         0.00000E+00
         0.00000E+00
         0.00000E+00
         0.00000E+00
         0.00000E+00
         0.00000E+00
         0.00000E+00
         0.00000E+00
         0.00000E+00
         0.00000E+00
         0.00000E+00
         0.00000E+00
         0.00000E+00
         0.00000E+00
         0.00000E+00
         0.00000E+00
         0.00000E+00
         0.00000E+00
         0.00000E+00
         0.00000E+00
         0.00000E+00
         0.00000E+00
         0.00000E+00
         0.00000E+00
         0.00000E+00
         0.00000E+00
         0.00000E+00
         0.00000E+00
         0.00000E+00
         0.00000E+00
         0.00000E+00
         0.00000E+00
         0.00000E+00
         0.00000E+00
         0.00000E+00
         0.00000E+00
         0.00000E+00
         0.00000E+00
         0.00000E+00
         0.00000E+00
         0.00000E+00
         0.00000E+00
         0.00000E+00
         0.00000E+00
         0.00000E+00
         0.00000E+00
         0.00000E+00
         0.00000E+00
         0.00000E+00
         0.00000E+00
         0.00000E+00
         0.00000E+00
         0.00000E+00
         0.00000E+00
         0.00000E+00
         0.00000E+00
         0.00000E+00
         0.00000E+00
         0.00000E+00
         0.00000E+00
         0.00000E+00
         0.00000E+00
         0.00000E+00
         0.00000E+00
         0.00000E+00
         0.00000E+00
         0.00000E+00
         0.00000E+00
         0.00000E+00
         0.00000E+00
         0.00000E+00
         0.00000E+00
         0.00000E+00
         0.00000E+00
         0.00000E+00
         0.00000E+00
         0.00000E+00
         0.00000E+00
         0.00000E+00
         0.00000E+00
         0.00000E+00
         0.00000E+00
         0.00000E+00
         0.00000E+00
         0.00000E+00
         0.00000E+00
         0.00000E+00
         0.00000E+00
         0.00000E+00
         0.00000E+00
         0.00000E+00
         0.00000E+00
         0.00000E+00
         0.00000E+00
         0.00000E+00
         0.00000E+00
         0.00000E+00
         0.00000E+00
         0.00000E+00
         0.00000E+00
         0.00000E+00
         0.00000E+00
         0.00000E+00
         0.00000E+00
         0.00000E+00
         0.00000E+00
         0.00000E+00
         0.00000E+00
         0.00000E+00
         0.00000E+00
         0.00000E+00
         0.00000E+00
         0.00000E+00
         0.00000E+00
         0.00000E+00
         0.00000E+00
         0.00000E+00
         0.00000E+00
         0.00000E+00
         0.00000E+00
         0.00000E+00
         0.00000E+00
         0.00000E+00
         0.00000E+00
         0.00000E+00
         0.00000E+00
         0.00000E+00
         0.00000E+00
         0.00000E+00
         0.00000E+00
         0.00000E+00
         0.00000E+00
         0.00000E+00
         0.00000E+00
         0.00000E+00
         0.00000E+00
         0.00000E+00
         0.00000E+00
         0.00000E+00
         0.00000E+00
         0.00000E+00
         0.00000E+00
         0.00000E+00
         0.00000E+00
         0.00000E+00
         0.00000E+00
         0.00000E+00
         0.00000E+00
         0.00000E+00
         0.00000E+00
         0.00000E+00
  
SCALARS                         fint_z  double 1
LOOKUP_TABLE default
         0.00000E+00
         0.00000E+00
         0.00000E+00
         0.00000E+00
         0.00000E+00
         0.00000E+00
         0.00000E+00
         0.00000E+00
         0.00000E+00
         0.00000E+00
         0.00000E+00
         0.00000E+00
         0.00000E+00
         0.00000E+00
         0.00000E+00
         0.00000E+00
         0.00000E+00
         0.00000E+00
         0.00000E+00
         0.00000E+00
         0.00000E+00
         0.00000E+00
         0.00000E+00
         0.00000E+00
         0.00000E+00
         0.00000E+00
         0.00000E+00
         0.00000E+00
         0.00000E+00
         0.00000E+00
         0.00000E+00
         0.00000E+00
         0.00000E+00
         0.00000E+00
         0.00000E+00
         0.00000E+00
         0.00000E+00
         0.00000E+00
         0.00000E+00
         0.00000E+00
         0.00000E+00
         0.00000E+00
         0.00000E+00
         0.00000E+00
         0.00000E+00
         0.00000E+00
         0.00000E+00
         0.00000E+00
         0.00000E+00
         0.00000E+00
         0.00000E+00
         0.00000E+00
         0.00000E+00
         0.00000E+00
         0.00000E+00
         0.00000E+00
         0.00000E+00
         0.00000E+00
         0.00000E+00
         0.00000E+00
         0.00000E+00
         0.00000E+00
         0.00000E+00
         0.00000E+00
         0.00000E+00
         0.00000E+00
         0.00000E+00
         0.00000E+00
         0.00000E+00
         0.00000E+00
         0.00000E+00
         0.00000E+00
         0.00000E+00
         0.00000E+00
         0.00000E+00
         0.00000E+00
         0.00000E+00
         0.00000E+00
         0.00000E+00
         0.00000E+00
         0.00000E+00
         0.00000E+00
         0.00000E+00
         0.00000E+00
         0.00000E+00
         0.00000E+00
         0.00000E+00
         0.00000E+00
         0.00000E+00
         0.00000E+00
         0.00000E+00
         0.00000E+00
         0.00000E+00
         0.00000E+00
         0.00000E+00
         0.00000E+00
         0.00000E+00
         0.00000E+00
         0.00000E+00
         0.00000E+00
         0.00000E+00
         0.00000E+00
         0.00000E+00
         0.00000E+00
         0.00000E+00
         0.00000E+00
         0.00000E+00
         0.00000E+00
         0.00000E+00
         0.00000E+00
         0.00000E+00
         0.00000E+00
         0.00000E+00
         0.00000E+00
         0.00000E+00
         0.00000E+00
         0.00000E+00
         0.00000E+00
         0.00000E+00
         0.00000E+00
         0.00000E+00
         0.00000E+00
         0.00000E+00
         0.00000E+00
         0.00000E+00
         0.00000E+00
         0.00000E+00
         0.00000E+00
         0.00000E+00
         0.00000E+00
         0.00000E+00
         0.00000E+00
         0.00000E+00
         0.00000E+00
         0.00000E+00
         0.00000E+00
         0.00000E+00
         0.00000E+00
         0.00000E+00
         0.00000E+00
         0.00000E+00
         0.00000E+00
         0.00000E+00
         0.00000E+00
         0.00000E+00
         0.00000E+00
         0.00000E+00
         0.00000E+00
         0.00000E+00
         0.00000E+00
         0.00000E+00
         0.00000E+00
         0.00000E+00
         0.00000E+00
         0.00000E+00
         0.00000E+00
         0.00000E+00
         0.00000E+00
         0.00000E+00
         0.00000E+00
         0.00000E+00
         0.00000E+00
         0.00000E+00
         0.00000E+00
         0.00000E+00
         0.00000E+00
         0.00000E+00
         0.00000E+00
         0.00000E+00
         0.00000E+00
         0.00000E+00
         0.00000E+00
         0.00000E+00
         0.00000E+00
         0.00000E+00
         0.00000E+00
         0.00000E+00
         0.00000E+00
         0.00000E+00
         0.00000E+00
         0.00000E+00
         0.00000E+00
         0.00000E+00
         0.00000E+00
         0.00000E+00
         0.00000E+00
         0.00000E+00
         0.00000E+00
         0.00000E+00
         0.00000E+00
         0.00000E+00
         0.00000E+00
         0.00000E+00
         0.00000E+00
         0.00000E+00
         0.00000E+00
         0.00000E+00
         0.00000E+00
         0.00000E+00
         0.00000E+00
         0.00000E+00
         0.00000E+00
         0.00000E+00
         0.00000E+00
         0.00000E+00
         0.00000E+00
         0.00000E+00
         0.00000E+00
         0.00000E+00
         0.00000E+00
         0.00000E+00
         0.00000E+00
         0.00000E+00
         0.00000E+00
         0.00000E+00
         0.00000E+00
         0.00000E+00
         0.00000E+00
         0.00000E+00
         0.00000E+00
         0.00000E+00
         0.00000E+00
         0.00000E+00
         0.00000E+00
         0.00000E+00
         0.00000E+00
         0.00000E+00
         0.00000E+00
         0.00000E+00
         0.00000E+00
         0.00000E+00
         0.00000E+00
         0.00000E+00
         0.00000E+00
         0.00000E+00
         0.00000E+00
         0.00000E+00
         0.00000E+00
         0.00000E+00
         0.00000E+00
         0.00000E+00
         0.00000E+00
         0.00000E+00
         0.00000E+00
         0.00000E+00
         0.00000E+00
         0.00000E+00
         0.00000E+00
         0.00000E+00
         0.00000E+00
         0.00000E+00
         0.00000E+00
         0.00000E+00
         0.00000E+00
         0.00000E+00
         0.00000E+00
         0.00000E+00
         0.00000E+00
         0.00000E+00
         0.00000E+00
         0.00000E+00
         0.00000E+00
         0.00000E+00
         0.00000E+00
         0.00000E+00
         0.00000E+00
         0.00000E+00
         0.00000E+00
         0.00000E+00
         0.00000E+00
         0.00000E+00
         0.00000E+00
         0.00000E+00
         0.00000E+00
         0.00000E+00
         0.00000E+00
         0.00000E+00
         0.00000E+00
         0.00000E+00
         0.00000E+00
         0.00000E+00
         0.00000E+00
         0.00000E+00
         0.00000E+00
         0.00000E+00
         0.00000E+00
         0.00000E+00
         0.00000E+00
         0.00000E+00
         0.00000E+00
         0.00000E+00
         0.00000E+00
         0.00000E+00
         0.00000E+00
         0.00000E+00
         0.00000E+00
         0.00000E+00
         0.00000E+00
         0.00000E+00
         0.00000E+00
         0.00000E+00
         0.00000E+00
         0.00000E+00
         0.00000E+00
         0.00000E+00
         0.00000E+00
         0.00000E+00
         0.00000E+00
         0.00000E+00
         0.00000E+00
         0.00000E+00
         0.00000E+00
         0.00000E+00
         0.00000E+00
         0.00000E+00
         0.00000E+00
         0.00000E+00
         0.00000E+00
         0.00000E+00
         0.00000E+00
         0.00000E+00
         0.00000E+00
         0.00000E+00
         0.00000E+00
         0.00000E+00
         0.00000E+00
         0.00000E+00
         0.00000E+00
         0.00000E+00
         0.00000E+00
         0.00000E+00
         0.00000E+00
         0.00000E+00
         0.00000E+00
         0.00000E+00
         0.00000E+00
         0.00000E+00
         0.00000E+00
         0.00000E+00
         0.00000E+00
         0.00000E+00
         0.00000E+00
         0.00000E+00
         0.00000E+00
         0.00000E+00
         0.00000E+00
         0.00000E+00
         0.00000E+00
         0.00000E+00
         0.00000E+00
         0.00000E+00
         0.00000E+00
         0.00000E+00
         0.00000E+00
         0.00000E+00
         0.00000E+00
         0.00000E+00
         0.00000E+00
         0.00000E+00
         0.00000E+00
         0.00000E+00
         0.00000E+00
         0.00000E+00
         0.00000E+00
         0.00000E+00
         0.00000E+00
         0.00000E+00
         0.00000E+00
         0.00000E+00
         0.00000E+00
         0.00000E+00
         0.00000E+00
         0.00000E+00
         0.00000E+00
         0.00000E+00
         0.00000E+00
         0.00000E+00
         0.00000E+00
         0.00000E+00
         0.00000E+00
         0.00000E+00
         0.00000E+00
         0.00000E+00
         0.00000E+00
         0.00000E+00
         0.00000E+00
         0.00000E+00
         0.00000E+00
         0.00000E+00
         0.00000E+00
         0.00000E+00
         0.00000E+00
         0.00000E+00
         0.00000E+00
         0.00000E+00
         0.00000E+00
         0.00000E+00
         0.00000E+00
         0.00000E+00
         0.00000E+00
         0.00000E+00
         0.00000E+00
         0.00000E+00
         0.00000E+00
         0.00000E+00
         0.00000E+00
         0.00000E+00
         0.00000E+00
         0.00000E+00
         0.00000E+00
         0.00000E+00
         0.00000E+00
         0.00000E+00
         0.00000E+00
         0.00000E+00
         0.00000E+00
         0.00000E+00
         0.00000E+00
         0.00000E+00
         0.00000E+00
         0.00000E+00
         0.00000E+00
         0.00000E+00
         0.00000E+00
         0.00000E+00
         0.00000E+00
         0.00000E+00
         0.00000E+00
         0.00000E+00
         0.00000E+00
         0.00000E+00
         0.00000E+00
         0.00000E+00
         0.00000E+00
         0.00000E+00
         0.00000E+00
         0.00000E+00
         0.00000E+00
         0.00000E+00
         0.00000E+00
         0.00000E+00
         0.00000E+00
         0.00000E+00
         0.00000E+00
         0.00000E+00
         0.00000E+00
         0.00000E+00
         0.00000E+00
         0.00000E+00
         0.00000E+00
         0.00000E+00
         0.00000E+00
         0.00000E+00
         0.00000E+00
         0.00000E+00
         0.00000E+00
         0.00000E+00
         0.00000E+00
         0.00000E+00
         0.00000E+00
         0.00000E+00
         0.00000E+00
         0.00000E+00
         0.00000E+00
         0.00000E+00
         0.00000E+00
         0.00000E+00
         0.00000E+00
         0.00000E+00
         0.00000E+00
         0.00000E+00
         0.00000E+00
         0.00000E+00
         0.00000E+00
         0.00000E+00
         0.00000E+00
         0.00000E+00
         0.00000E+00
         0.00000E+00
         0.00000E+00
         0.00000E+00
         0.00000E+00
         0.00000E+00
         0.00000E+00
         0.00000E+00
         0.00000E+00
         0.00000E+00
         0.00000E+00
         0.00000E+00
         0.00000E+00
         0.00000E+00
         0.00000E+00
         0.00000E+00
         0.00000E+00
         0.00000E+00
         0.00000E+00
         0.00000E+00
         0.00000E+00
         0.00000E+00
         0.00000E+00
         0.00000E+00
         0.00000E+00
         0.00000E+00
         0.00000E+00
         0.00000E+00
         0.00000E+00
         0.00000E+00
         0.00000E+00
         0.00000E+00
         0.00000E+00
         0.00000E+00
         0.00000E+00
         0.00000E+00
         0.00000E+00
         0.00000E+00
         0.00000E+00
         0.00000E+00
         0.00000E+00
         0.00000E+00
         0.00000E+00
         0.00000E+00
         0.00000E+00
         0.00000E+00
         0.00000E+00
         0.00000E+00
         0.00000E+00
         0.00000E+00
         0.00000E+00
         0.00000E+00
         0.00000E+00
         0.00000E+00
         0.00000E+00
         0.00000E+00
         0.00000E+00
         0.00000E+00
         0.00000E+00
         0.00000E+00
         0.00000E+00
         0.00000E+00
         0.00000E+00
         0.00000E+00
         0.00000E+00
         0.00000E+00
         0.00000E+00
         0.00000E+00
         0.00000E+00
         0.00000E+00
         0.00000E+00
         0.00000E+00
         0.00000E+00
         0.00000E+00
         0.00000E+00
         0.00000E+00
         0.00000E+00
         0.00000E+00
         0.00000E+00
         0.00000E+00
         0.00000E+00
         0.00000E+00
         0.00000E+00
         0.00000E+00
         0.00000E+00
         0.00000E+00
         0.00000E+00
         0.00000E+00
         0.00000E+00
         0.00000E+00
         0.00000E+00
         0.00000E+00
         0.00000E+00
         0.00000E+00
         0.00000E+00
         0.00000E+00
         0.00000E+00
         0.00000E+00
         0.00000E+00
         0.00000E+00
         0.00000E+00
         0.00000E+00
         0.00000E+00
         0.00000E+00
         0.00000E+00
         0.00000E+00
         0.00000E+00
         0.00000E+00
         0.00000E+00
         0.00000E+00
         0.00000E+00
         0.00000E+00
         0.00000E+00
         0.00000E+00
         0.00000E+00
         0.00000E+00
         0.00000E+00
         0.00000E+00
         0.00000E+00
         0.00000E+00
         0.00000E+00
         0.00000E+00
         0.00000E+00
         0.00000E+00
         0.00000E+00
         0.00000E+00
         0.00000E+00
         0.00000E+00
         0.00000E+00
         0.00000E+00
         0.00000E+00
         0.00000E+00
         0.00000E+00
         0.00000E+00
         0.00000E+00
         0.00000E+00
         0.00000E+00
         0.00000E+00
         0.00000E+00
         0.00000E+00
         0.00000E+00
         0.00000E+00
         0.00000E+00
         0.00000E+00
         0.00000E+00
         0.00000E+00
         0.00000E+00
         0.00000E+00
         0.00000E+00
         0.00000E+00
         0.00000E+00
         0.00000E+00
         0.00000E+00
         0.00000E+00
         0.00000E+00
         0.00000E+00
         0.00000E+00
         0.00000E+00
         0.00000E+00
         0.00000E+00
         0.00000E+00
         0.00000E+00
         0.00000E+00
         0.00000E+00
         0.00000E+00
         0.00000E+00
         0.00000E+00
         0.00000E+00
         0.00000E+00
         0.00000E+00
         0.00000E+00
         0.00000E+00
         0.00000E+00
         0.00000E+00
         0.00000E+00
         0.00000E+00
         0.00000E+00
         0.00000E+00
         0.00000E+00
         0.00000E+00
         0.00000E+00
         0.00000E+00
         0.00000E+00
         0.00000E+00
         0.00000E+00
         0.00000E+00
         0.00000E+00
         0.00000E+00
         0.00000E+00
         0.00000E+00
         0.00000E+00
         0.00000E+00
         0.00000E+00
         0.00000E+00
         0.00000E+00
         0.00000E+00
         0.00000E+00
         0.00000E+00
         0.00000E+00
         0.00000E+00
         0.00000E+00
         0.00000E+00
         0.00000E+00
         0.00000E+00
         0.00000E+00
         0.00000E+00
         0.00000E+00
         0.00000E+00
         0.00000E+00
         0.00000E+00
         0.00000E+00
         0.00000E+00
         0.00000E+00
         0.00000E+00
         0.00000E+00
         0.00000E+00
         0.00000E+00
         0.00000E+00
         0.00000E+00
         0.00000E+00
         0.00000E+00
         0.00000E+00
         0.00000E+00
         0.00000E+00
         0.00000E+00
         0.00000E+00
         0.00000E+00
         0.00000E+00
         0.00000E+00
         0.00000E+00
         0.00000E+00
         0.00000E+00
         0.00000E+00
         0.00000E+00
         0.00000E+00
         0.00000E+00
         0.00000E+00
         0.00000E+00
         0.00000E+00
         0.00000E+00
         0.00000E+00
         0.00000E+00
         0.00000E+00
         0.00000E+00
         0.00000E+00
         0.00000E+00
         0.00000E+00
         0.00000E+00
         0.00000E+00
         0.00000E+00
         0.00000E+00
         0.00000E+00
         0.00000E+00
         0.00000E+00
         0.00000E+00
         0.00000E+00
         0.00000E+00
         0.00000E+00
         0.00000E+00
         0.00000E+00
         0.00000E+00
         0.00000E+00
         0.00000E+00
         0.00000E+00
         0.00000E+00
         0.00000E+00
         0.00000E+00
         0.00000E+00
         0.00000E+00
         0.00000E+00
         0.00000E+00
         0.00000E+00
         0.00000E+00
         0.00000E+00
         0.00000E+00
         0.00000E+00
         0.00000E+00
         0.00000E+00
         0.00000E+00
         0.00000E+00
         0.00000E+00
         0.00000E+00
         0.00000E+00
         0.00000E+00
         0.00000E+00
         0.00000E+00
         0.00000E+00
         0.00000E+00
         0.00000E+00
         0.00000E+00
         0.00000E+00
         0.00000E+00
         0.00000E+00
         0.00000E+00
         0.00000E+00
         0.00000E+00
         0.00000E+00
         0.00000E+00
         0.00000E+00
         0.00000E+00
         0.00000E+00
         0.00000E+00
         0.00000E+00
         0.00000E+00
         0.00000E+00
         0.00000E+00
         0.00000E+00
         0.00000E+00
         0.00000E+00
         0.00000E+00
         0.00000E+00
         0.00000E+00
         0.00000E+00
         0.00000E+00
         0.00000E+00
         0.00000E+00
         0.00000E+00
         0.00000E+00
         0.00000E+00
         0.00000E+00
         0.00000E+00
         0.00000E+00
         0.00000E+00
         0.00000E+00
         0.00000E+00
         0.00000E+00
         0.00000E+00
         0.00000E+00
         0.00000E+00
         0.00000E+00
         0.00000E+00
         0.00000E+00
         0.00000E+00
         0.00000E+00
         0.00000E+00
         0.00000E+00
         0.00000E+00
         0.00000E+00
         0.00000E+00
         0.00000E+00
         0.00000E+00
         0.00000E+00
         0.00000E+00
         0.00000E+00
         0.00000E+00
         0.00000E+00
         0.00000E+00
         0.00000E+00
         0.00000E+00
         0.00000E+00
         0.00000E+00
         0.00000E+00
         0.00000E+00
         0.00000E+00
         0.00000E+00
         0.00000E+00
         0.00000E+00
         0.00000E+00
         0.00000E+00
         0.00000E+00
         0.00000E+00
         0.00000E+00
         0.00000E+00
         0.00000E+00
         0.00000E+00
         0.00000E+00
         0.00000E+00
         0.00000E+00
         0.00000E+00
         0.00000E+00
         0.00000E+00
         0.00000E+00
         0.00000E+00
         0.00000E+00
         0.00000E+00
         0.00000E+00
         0.00000E+00
         0.00000E+00
         0.00000E+00
         0.00000E+00
         0.00000E+00
         0.00000E+00
         0.00000E+00
         0.00000E+00
         0.00000E+00
         0.00000E+00
         0.00000E+00
         0.00000E+00
         0.00000E+00
         0.00000E+00
         0.00000E+00
         0.00000E+00
         0.00000E+00
         0.00000E+00
         0.00000E+00
         0.00000E+00
         0.00000E+00
         0.00000E+00
         0.00000E+00
         0.00000E+00
         0.00000E+00
         0.00000E+00
         0.00000E+00
         0.00000E+00
         0.00000E+00
         0.00000E+00
         0.00000E+00
         0.00000E+00
         0.00000E+00
         0.00000E+00
         0.00000E+00
         0.00000E+00
         0.00000E+00
         0.00000E+00
         0.00000E+00
         0.00000E+00
         0.00000E+00
         0.00000E+00
         0.00000E+00
         0.00000E+00
         0.00000E+00
         0.00000E+00
         0.00000E+00
         0.00000E+00
         0.00000E+00
         0.00000E+00
         0.00000E+00
         0.00000E+00
         0.00000E+00
         0.00000E+00
         0.00000E+00
         0.00000E+00
         0.00000E+00
         0.00000E+00
         0.00000E+00
         0.00000E+00
         0.00000E+00
         0.00000E+00
         0.00000E+00
         0.00000E+00
         0.00000E+00
         0.00000E+00
         0.00000E+00
         0.00000E+00
         0.00000E+00
         0.00000E+00
         0.00000E+00
         0.00000E+00
         0.00000E+00
         0.00000E+00
         0.00000E+00
         0.00000E+00
         0.00000E+00
         0.00000E+00
         0.00000E+00
         0.00000E+00
         0.00000E+00
         0.00000E+00
         0.00000E+00
         0.00000E+00
         0.00000E+00
         0.00000E+00
         0.00000E+00
         0.00000E+00
         0.00000E+00
         0.00000E+00
         0.00000E+00
         0.00000E+00
         0.00000E+00
         0.00000E+00
         0.00000E+00
         0.00000E+00
         0.00000E+00
         0.00000E+00
         0.00000E+00
         0.00000E+00
         0.00000E+00
         0.00000E+00
         0.00000E+00
         0.00000E+00
         0.00000E+00
         0.00000E+00
         0.00000E+00
         0.00000E+00
         0.00000E+00
         0.00000E+00
         0.00000E+00
         0.00000E+00
         0.00000E+00
         0.00000E+00
         0.00000E+00
         0.00000E+00
         0.00000E+00
         0.00000E+00
         0.00000E+00
         0.00000E+00
         0.00000E+00
         0.00000E+00
         0.00000E+00
         0.00000E+00
         0.00000E+00
         0.00000E+00
         0.00000E+00
         0.00000E+00
         0.00000E+00
         0.00000E+00
         0.00000E+00
         0.00000E+00
         0.00000E+00
         0.00000E+00
         0.00000E+00
         0.00000E+00
         0.00000E+00
         0.00000E+00
         0.00000E+00
         0.00000E+00
         0.00000E+00
         0.00000E+00
         0.00000E+00
         0.00000E+00
         0.00000E+00
         0.00000E+00
         0.00000E+00
         0.00000E+00
         0.00000E+00
         0.00000E+00
         0.00000E+00
         0.00000E+00
         0.00000E+00
         0.00000E+00
         0.00000E+00
         0.00000E+00
         0.00000E+00
         0.00000E+00
         0.00000E+00
         0.00000E+00
         0.00000E+00
         0.00000E+00
         0.00000E+00
         0.00000E+00
         0.00000E+00
         0.00000E+00
         0.00000E+00
         0.00000E+00
         0.00000E+00
         0.00000E+00
         0.00000E+00
         0.00000E+00
         0.00000E+00
         0.00000E+00
         0.00000E+00
         0.00000E+00
         0.00000E+00
         0.00000E+00
         0.00000E+00
         0.00000E+00
         0.00000E+00
         0.00000E+00
         0.00000E+00
         0.00000E+00
         0.00000E+00
         0.00000E+00
         0.00000E+00
         0.00000E+00
         0.00000E+00
         0.00000E+00
         0.00000E+00
         0.00000E+00
         0.00000E+00
         0.00000E+00
         0.00000E+00
         0.00000E+00
         0.00000E+00
         0.00000E+00
         0.00000E+00
         0.00000E+00
         0.00000E+00
         0.00000E+00
         0.00000E+00
         0.00000E+00
         0.00000E+00
         0.00000E+00
         0.00000E+00
         0.00000E+00
         0.00000E+00
         0.00000E+00
         0.00000E+00
         0.00000E+00
         0.00000E+00
         0.00000E+00
         0.00000E+00
         0.00000E+00
         0.00000E+00
         0.00000E+00
         0.00000E+00
         0.00000E+00
         0.00000E+00
         0.00000E+00
         0.00000E+00
         0.00000E+00
         0.00000E+00
         0.00000E+00
         0.00000E+00
         0.00000E+00
         0.00000E+00
         0.00000E+00
         0.00000E+00
         0.00000E+00
         0.00000E+00
         0.00000E+00
         0.00000E+00
         0.00000E+00
         0.00000E+00
         0.00000E+00
         0.00000E+00
         0.00000E+00
         0.00000E+00
         0.00000E+00
         0.00000E+00
         0.00000E+00
         0.00000E+00
         0.00000E+00
         0.00000E+00
         0.00000E+00
         0.00000E+00
         0.00000E+00
         0.00000E+00
         0.00000E+00
         0.00000E+00
         0.00000E+00
         0.00000E+00
         0.00000E+00
         0.00000E+00
         0.00000E+00
         0.00000E+00
         0.00000E+00
         0.00000E+00
         0.00000E+00
         0.00000E+00
         0.00000E+00
         0.00000E+00
         0.00000E+00
         0.00000E+00
         0.00000E+00
         0.00000E+00
         0.00000E+00
         0.00000E+00
         0.00000E+00
         0.00000E+00
         0.00000E+00
         0.00000E+00
         0.00000E+00
         0.00000E+00
         0.00000E+00
         0.00000E+00
         0.00000E+00
         0.00000E+00
         0.00000E+00
         0.00000E+00
         0.00000E+00
         0.00000E+00
         0.00000E+00
         0.00000E+00
         0.00000E+00
         0.00000E+00
         0.00000E+00
         0.00000E+00
         0.00000E+00
         0.00000E+00
         0.00000E+00
         0.00000E+00
         0.00000E+00
         0.00000E+00
         0.00000E+00
         0.00000E+00
         0.00000E+00
         0.00000E+00
         0.00000E+00
         0.00000E+00
         0.00000E+00
         0.00000E+00
         0.00000E+00
         0.00000E+00
         0.00000E+00
         0.00000E+00
         0.00000E+00
         0.00000E+00
         0.00000E+00
         0.00000E+00
         0.00000E+00
         0.00000E+00
         0.00000E+00
         0.00000E+00
         0.00000E+00
         0.00000E+00
         0.00000E+00
         0.00000E+00
         0.00000E+00
         0.00000E+00
         0.00000E+00
         0.00000E+00
         0.00000E+00
         0.00000E+00
         0.00000E+00
         0.00000E+00
         0.00000E+00
         0.00000E+00
         0.00000E+00
         0.00000E+00
         0.00000E+00
         0.00000E+00
         0.00000E+00
         0.00000E+00
         0.00000E+00
         0.00000E+00
         0.00000E+00
         0.00000E+00
         0.00000E+00
         0.00000E+00
         0.00000E+00
         0.00000E+00
         0.00000E+00
         0.00000E+00
         0.00000E+00
         0.00000E+00
         0.00000E+00
         0.00000E+00
         0.00000E+00
         0.00000E+00
         0.00000E+00
         0.00000E+00
         0.00000E+00
         0.00000E+00
         0.00000E+00
         0.00000E+00
         0.00000E+00
         0.00000E+00
         0.00000E+00
         0.00000E+00
         0.00000E+00
         0.00000E+00
         0.00000E+00
         0.00000E+00
         0.00000E+00
         0.00000E+00
         0.00000E+00
         0.00000E+00
         0.00000E+00
         0.00000E+00
         0.00000E+00
         0.00000E+00
         0.00000E+00
         0.00000E+00
         0.00000E+00
         0.00000E+00
         0.00000E+00
         0.00000E+00
         0.00000E+00
         0.00000E+00
         0.00000E+00
         0.00000E+00
         0.00000E+00
         0.00000E+00
         0.00000E+00
         0.00000E+00
         0.00000E+00
         0.00000E+00
         0.00000E+00
         0.00000E+00
         0.00000E+00
         0.00000E+00
         0.00000E+00
         0.00000E+00
         0.00000E+00
         0.00000E+00
         0.00000E+00
         0.00000E+00
         0.00000E+00
         0.00000E+00
         0.00000E+00
         0.00000E+00
         0.00000E+00
         0.00000E+00
         0.00000E+00
         0.00000E+00
         0.00000E+00
         0.00000E+00
         0.00000E+00
         0.00000E+00
         0.00000E+00
         0.00000E+00
         0.00000E+00
         0.00000E+00
         0.00000E+00
         0.00000E+00
         0.00000E+00
         0.00000E+00
         0.00000E+00
         0.00000E+00
         0.00000E+00
         0.00000E+00
         0.00000E+00
         0.00000E+00
         0.00000E+00
         0.00000E+00
         0.00000E+00
         0.00000E+00
         0.00000E+00
         0.00000E+00
         0.00000E+00
         0.00000E+00
         0.00000E+00
         0.00000E+00
         0.00000E+00
         0.00000E+00
         0.00000E+00
         0.00000E+00
         0.00000E+00
         0.00000E+00
         0.00000E+00
         0.00000E+00
         0.00000E+00
         0.00000E+00
         0.00000E+00
         0.00000E+00
         0.00000E+00
         0.00000E+00
         0.00000E+00
         0.00000E+00
         0.00000E+00
         0.00000E+00
         0.00000E+00
         0.00000E+00
         0.00000E+00
         0.00000E+00
         0.00000E+00
         0.00000E+00
         0.00000E+00
         0.00000E+00
         0.00000E+00
         0.00000E+00
         0.00000E+00
         0.00000E+00
         0.00000E+00
         0.00000E+00
         0.00000E+00
         0.00000E+00
         0.00000E+00
         0.00000E+00
         0.00000E+00
         0.00000E+00
         0.00000E+00
         0.00000E+00
         0.00000E+00
         0.00000E+00
         0.00000E+00
         0.00000E+00
         0.00000E+00
         0.00000E+00
         0.00000E+00
         0.00000E+00
         0.00000E+00
         0.00000E+00
         0.00000E+00
         0.00000E+00
         0.00000E+00
         0.00000E+00
         0.00000E+00
         0.00000E+00
         0.00000E+00
         0.00000E+00
         0.00000E+00
         0.00000E+00
         0.00000E+00
         0.00000E+00
         0.00000E+00
         0.00000E+00
         0.00000E+00
         0.00000E+00
         0.00000E+00
         0.00000E+00
         0.00000E+00
         0.00000E+00
         0.00000E+00
         0.00000E+00
         0.00000E+00
         0.00000E+00
         0.00000E+00
         0.00000E+00
         0.00000E+00
         0.00000E+00
         0.00000E+00
         0.00000E+00
         0.00000E+00
         0.00000E+00
         0.00000E+00
         0.00000E+00
         0.00000E+00
         0.00000E+00
         0.00000E+00
         0.00000E+00
         0.00000E+00
         0.00000E+00
         0.00000E+00
         0.00000E+00
         0.00000E+00
         0.00000E+00
         0.00000E+00
         0.00000E+00
         0.00000E+00
         0.00000E+00
         0.00000E+00
         0.00000E+00
         0.00000E+00
         0.00000E+00
         0.00000E+00
         0.00000E+00
         0.00000E+00
         0.00000E+00
         0.00000E+00
         0.00000E+00
         0.00000E+00
         0.00000E+00
         0.00000E+00
         0.00000E+00
         0.00000E+00
         0.00000E+00
         0.00000E+00
         0.00000E+00
         0.00000E+00
         0.00000E+00
         0.00000E+00
         0.00000E+00
         0.00000E+00
         0.00000E+00
         0.00000E+00
         0.00000E+00
         0.00000E+00
         0.00000E+00
         0.00000E+00
         0.00000E+00
         0.00000E+00
         0.00000E+00
         0.00000E+00
         0.00000E+00
         0.00000E+00
         0.00000E+00
         0.00000E+00
         0.00000E+00
         0.00000E+00
         0.00000E+00
         0.00000E+00
         0.00000E+00
         0.00000E+00
         0.00000E+00
         0.00000E+00
         0.00000E+00
         0.00000E+00
         0.00000E+00
         0.00000E+00
         0.00000E+00
         0.00000E+00
         0.00000E+00
         0.00000E+00
         0.00000E+00
         0.00000E+00
         0.00000E+00
         0.00000E+00
         0.00000E+00
         0.00000E+00
         0.00000E+00
         0.00000E+00
         0.00000E+00
         0.00000E+00
         0.00000E+00
         0.00000E+00
         0.00000E+00
         0.00000E+00
         0.00000E+00
         0.00000E+00
         0.00000E+00
         0.00000E+00
         0.00000E+00
         0.00000E+00
         0.00000E+00
         0.00000E+00
         0.00000E+00
         0.00000E+00
         0.00000E+00
         0.00000E+00
         0.00000E+00
         0.00000E+00
         0.00000E+00
         0.00000E+00
         0.00000E+00
         0.00000E+00
         0.00000E+00
         0.00000E+00
         0.00000E+00
         0.00000E+00
         0.00000E+00
         0.00000E+00
         0.00000E+00
         0.00000E+00
         0.00000E+00
         0.00000E+00
         0.00000E+00
         0.00000E+00
         0.00000E+00
         0.00000E+00
         0.00000E+00
         0.00000E+00
         0.00000E+00
         0.00000E+00
         0.00000E+00
         0.00000E+00
         0.00000E+00
         0.00000E+00
         0.00000E+00
         0.00000E+00
         0.00000E+00
         0.00000E+00
         0.00000E+00
         0.00000E+00
         0.00000E+00
         0.00000E+00
         0.00000E+00
         0.00000E+00
         0.00000E+00
         0.00000E+00
         0.00000E+00
         0.00000E+00
         0.00000E+00
         0.00000E+00
         0.00000E+00
         0.00000E+00
         0.00000E+00
         0.00000E+00
         0.00000E+00
         0.00000E+00
         0.00000E+00
         0.00000E+00
         0.00000E+00
         0.00000E+00
         0.00000E+00
         0.00000E+00
         0.00000E+00
         0.00000E+00
         0.00000E+00
         0.00000E+00
         0.00000E+00
         0.00000E+00
         0.00000E+00
         0.00000E+00
         0.00000E+00
         0.00000E+00
         0.00000E+00
         0.00000E+00
         0.00000E+00
         0.00000E+00
         0.00000E+00
         0.00000E+00
         0.00000E+00
         0.00000E+00
         0.00000E+00
         0.00000E+00
         0.00000E+00
         0.00000E+00
         0.00000E+00
         0.00000E+00
         0.00000E+00
         0.00000E+00
         0.00000E+00
         0.00000E+00
         0.00000E+00
         0.00000E+00
         0.00000E+00
         0.00000E+00
         0.00000E+00
         0.00000E+00
         0.00000E+00
         0.00000E+00
         0.00000E+00
         0.00000E+00
         0.00000E+00
         0.00000E+00
         0.00000E+00
         0.00000E+00
         0.00000E+00
         0.00000E+00
         0.00000E+00
         0.00000E+00
         0.00000E+00
         0.00000E+00
         0.00000E+00
         0.00000E+00
         0.00000E+00
         0.00000E+00
         0.00000E+00
         0.00000E+00
         0.00000E+00
         0.00000E+00
         0.00000E+00
         0.00000E+00
         0.00000E+00
         0.00000E+00
         0.00000E+00
         0.00000E+00
         0.00000E+00
         0.00000E+00
         0.00000E+00
         0.00000E+00
         0.00000E+00
         0.00000E+00
         0.00000E+00
         0.00000E+00
         0.00000E+00
         0.00000E+00
         0.00000E+00
         0.00000E+00
         0.00000E+00
         0.00000E+00
         0.00000E+00
         0.00000E+00
         0.00000E+00
         0.00000E+00
         0.00000E+00
         0.00000E+00
         0.00000E+00
         0.00000E+00
         0.00000E+00
         0.00000E+00
         0.00000E+00
         0.00000E+00
         0.00000E+00
         0.00000E+00
         0.00000E+00
         0.00000E+00
         0.00000E+00
         0.00000E+00
         0.00000E+00
         0.00000E+00
         0.00000E+00
         0.00000E+00
         0.00000E+00
         0.00000E+00
         0.00000E+00
         0.00000E+00
         0.00000E+00
         0.00000E+00
         0.00000E+00
         0.00000E+00
         0.00000E+00
         0.00000E+00
         0.00000E+00
         0.00000E+00
         0.00000E+00
         0.00000E+00
         0.00000E+00
         0.00000E+00
         0.00000E+00
         0.00000E+00
         0.00000E+00
         0.00000E+00
         0.00000E+00
         0.00000E+00
         0.00000E+00
         0.00000E+00
         0.00000E+00
         0.00000E+00
         0.00000E+00
         0.00000E+00
         0.00000E+00
         0.00000E+00
         0.00000E+00
         0.00000E+00
         0.00000E+00
         0.00000E+00
         0.00000E+00
         0.00000E+00
         0.00000E+00
         0.00000E+00
         0.00000E+00
         0.00000E+00
         0.00000E+00
         0.00000E+00
         0.00000E+00
         0.00000E+00
         0.00000E+00
         0.00000E+00
         0.00000E+00
         0.00000E+00
         0.00000E+00
         0.00000E+00
         0.00000E+00
         0.00000E+00
         0.00000E+00
         0.00000E+00
         0.00000E+00
         0.00000E+00
         0.00000E+00
         0.00000E+00
         0.00000E+00
         0.00000E+00
         0.00000E+00
         0.00000E+00
         0.00000E+00
         0.00000E+00
         0.00000E+00
         0.00000E+00
         0.00000E+00
         0.00000E+00
         0.00000E+00
         0.00000E+00
         0.00000E+00
         0.00000E+00
         0.00000E+00
         0.00000E+00
         0.00000E+00
         0.00000E+00
         0.00000E+00
         0.00000E+00
         0.00000E+00
         0.00000E+00
         0.00000E+00
         0.00000E+00
         0.00000E+00
         0.00000E+00
         0.00000E+00
         0.00000E+00
         0.00000E+00
         0.00000E+00
         0.00000E+00
         0.00000E+00
         0.00000E+00
         0.00000E+00
         0.00000E+00
         0.00000E+00
         0.00000E+00
         0.00000E+00
         0.00000E+00
         0.00000E+00
         0.00000E+00
         0.00000E+00
         0.00000E+00
         0.00000E+00
         0.00000E+00
         0.00000E+00
         0.00000E+00
         0.00000E+00
         0.00000E+00
         0.00000E+00
         0.00000E+00
         0.00000E+00
         0.00000E+00
         0.00000E+00
         0.00000E+00
         0.00000E+00
         0.00000E+00
         0.00000E+00
         0.00000E+00
         0.00000E+00
         0.00000E+00
         0.00000E+00
         0.00000E+00
         0.00000E+00
         0.00000E+00
         0.00000E+00
         0.00000E+00
         0.00000E+00
         0.00000E+00
         0.00000E+00
         0.00000E+00
         0.00000E+00
         0.00000E+00
         0.00000E+00
         0.00000E+00
         0.00000E+00
         0.00000E+00
         0.00000E+00
         0.00000E+00
         0.00000E+00
         0.00000E+00
         0.00000E+00
         0.00000E+00
         0.00000E+00
         0.00000E+00
         0.00000E+00
         0.00000E+00
         0.00000E+00
         0.00000E+00
         0.00000E+00
         0.00000E+00
         0.00000E+00
         0.00000E+00
         0.00000E+00
         0.00000E+00
         0.00000E+00
         0.00000E+00
         0.00000E+00
         0.00000E+00
         0.00000E+00
         0.00000E+00
         0.00000E+00
         0.00000E+00
         0.00000E+00
         0.00000E+00
         0.00000E+00
         0.00000E+00
         0.00000E+00
         0.00000E+00
         0.00000E+00
         0.00000E+00
         0.00000E+00
         0.00000E+00
         0.00000E+00
         0.00000E+00
         0.00000E+00
         0.00000E+00
         0.00000E+00
         0.00000E+00
         0.00000E+00
         0.00000E+00
         0.00000E+00
         0.00000E+00
         0.00000E+00
         0.00000E+00
         0.00000E+00
         0.00000E+00
         0.00000E+00
         0.00000E+00
         0.00000E+00
         0.00000E+00
         0.00000E+00
         0.00000E+00
         0.00000E+00
         0.00000E+00
         0.00000E+00
         0.00000E+00
         0.00000E+00
         0.00000E+00
         0.00000E+00
         0.00000E+00
         0.00000E+00
         0.00000E+00
         0.00000E+00
         0.00000E+00
         0.00000E+00
         0.00000E+00
         0.00000E+00
         0.00000E+00
         0.00000E+00
         0.00000E+00
         0.00000E+00
         0.00000E+00
         0.00000E+00
         0.00000E+00
         0.00000E+00
         0.00000E+00
         0.00000E+00
         0.00000E+00
         0.00000E+00
         0.00000E+00
         0.00000E+00
         0.00000E+00
         0.00000E+00
         0.00000E+00
         0.00000E+00
         0.00000E+00
         0.00000E+00
         0.00000E+00
         0.00000E+00
         0.00000E+00
         0.00000E+00
         0.00000E+00
         0.00000E+00
         0.00000E+00
         0.00000E+00
         0.00000E+00
         0.00000E+00
         0.00000E+00
         0.00000E+00
         0.00000E+00
         0.00000E+00
         0.00000E+00
         0.00000E+00
         0.00000E+00
         0.00000E+00
         0.00000E+00
         0.00000E+00
         0.00000E+00
         0.00000E+00
         0.00000E+00
         0.00000E+00
         0.00000E+00
         0.00000E+00
         0.00000E+00
         0.00000E+00
         0.00000E+00
         0.00000E+00
         0.00000E+00
         0.00000E+00
         0.00000E+00
         0.00000E+00
         0.00000E+00
         0.00000E+00
         0.00000E+00
         0.00000E+00
         0.00000E+00
         0.00000E+00
         0.00000E+00
         0.00000E+00
         0.00000E+00
         0.00000E+00
         0.00000E+00
         0.00000E+00
         0.00000E+00
         0.00000E+00
         0.00000E+00
         0.00000E+00
         0.00000E+00
         0.00000E+00
         0.00000E+00
         0.00000E+00
         0.00000E+00
         0.00000E+00
         0.00000E+00
         0.00000E+00
         0.00000E+00
         0.00000E+00
         0.00000E+00
         0.00000E+00
         0.00000E+00
         0.00000E+00
         0.00000E+00
         0.00000E+00
         0.00000E+00
         0.00000E+00
         0.00000E+00
         0.00000E+00
         0.00000E+00
         0.00000E+00
         0.00000E+00
         0.00000E+00
         0.00000E+00
         0.00000E+00
         0.00000E+00
         0.00000E+00
         0.00000E+00
         0.00000E+00
         0.00000E+00
         0.00000E+00
         0.00000E+00
         0.00000E+00
         0.00000E+00
         0.00000E+00
         0.00000E+00
         0.00000E+00
         0.00000E+00
         0.00000E+00
         0.00000E+00
         0.00000E+00
         0.00000E+00
         0.00000E+00
         0.00000E+00
         0.00000E+00
         0.00000E+00
         0.00000E+00
         0.00000E+00
         0.00000E+00
         0.00000E+00
         0.00000E+00
         0.00000E+00
  
SCALARS        characteristic_distance  double 1
LOOKUP_TABLE default
         0.00000E+00
         0.00000E+00
         0.00000E+00
         0.00000E+00
         0.00000E+00
         0.00000E+00
         0.00000E+00
         0.00000E+00
         0.00000E+00
         0.00000E+00
         0.00000E+00
         0.00000E+00
         0.00000E+00
         0.00000E+00
         0.00000E+00
         0.00000E+00
         0.00000E+00
         0.00000E+00
         0.00000E+00
         0.00000E+00
         0.00000E+00
         0.00000E+00
         0.00000E+00
         0.00000E+00
         0.00000E+00
         0.00000E+00
         0.00000E+00
         0.00000E+00
         0.00000E+00
         0.00000E+00
         0.00000E+00
         0.00000E+00
         0.00000E+00
         0.00000E+00
         0.00000E+00
         0.00000E+00
         0.00000E+00
         0.00000E+00
         0.00000E+00
         0.00000E+00
         0.00000E+00
         0.00000E+00
         0.00000E+00
         0.00000E+00
         0.00000E+00
         0.00000E+00
         0.00000E+00
         0.00000E+00
         0.00000E+00
         0.00000E+00
         0.00000E+00
         0.00000E+00
         0.00000E+00
         0.00000E+00
         0.00000E+00
         0.00000E+00
         0.00000E+00
         0.00000E+00
         0.00000E+00
         0.00000E+00
         0.00000E+00
         0.00000E+00
         0.00000E+00
         0.00000E+00
         0.00000E+00
         0.00000E+00
         0.00000E+00
         0.00000E+00
         0.00000E+00
         0.00000E+00
         0.00000E+00
         0.00000E+00
         0.00000E+00
         0.00000E+00
         0.00000E+00
         0.00000E+00
         0.00000E+00
         0.00000E+00
         0.00000E+00
         0.00000E+00
         0.00000E+00
         0.00000E+00
         0.00000E+00
         0.00000E+00
         0.00000E+00
         0.00000E+00
         0.00000E+00
         0.00000E+00
         0.00000E+00
         0.00000E+00
         0.00000E+00
         0.00000E+00
         0.00000E+00
         0.00000E+00
         0.00000E+00
         0.00000E+00
         0.00000E+00
         0.00000E+00
         0.00000E+00
         0.00000E+00
         0.00000E+00
         0.00000E+00
         0.00000E+00
         0.00000E+00
         0.00000E+00
         0.00000E+00
         0.00000E+00
         0.00000E+00
         0.00000E+00
         0.00000E+00
         0.00000E+00
         0.00000E+00
         0.00000E+00
         0.00000E+00
         0.00000E+00
         0.00000E+00
         0.00000E+00
         0.00000E+00
         0.00000E+00
         0.00000E+00
         0.00000E+00
         0.00000E+00
         0.00000E+00
         0.00000E+00
         0.00000E+00
         0.00000E+00
         0.00000E+00
         0.00000E+00
         0.00000E+00
         0.00000E+00
         0.00000E+00
         0.00000E+00
         0.00000E+00
         0.00000E+00
         0.00000E+00
         0.00000E+00
         0.00000E+00
         0.00000E+00
         0.00000E+00
         0.00000E+00
         0.00000E+00
         0.00000E+00
         0.00000E+00
         0.00000E+00
         0.00000E+00
         0.00000E+00
         0.00000E+00
         0.00000E+00
         0.00000E+00
         0.00000E+00
         0.00000E+00
         0.00000E+00
         0.00000E+00
         0.00000E+00
         0.00000E+00
         0.00000E+00
         0.00000E+00
         0.00000E+00
         0.00000E+00
         0.00000E+00
         0.00000E+00
         0.00000E+00
         0.00000E+00
         0.00000E+00
         0.00000E+00
         0.00000E+00
         0.00000E+00
         0.00000E+00
         0.00000E+00
         0.00000E+00
         0.00000E+00
         0.00000E+00
         0.00000E+00
         0.00000E+00
         0.00000E+00
         0.00000E+00
         0.00000E+00
         0.00000E+00
         0.00000E+00
         0.00000E+00
         0.00000E+00
         0.00000E+00
         0.00000E+00
         0.00000E+00
         0.00000E+00
         0.00000E+00
         0.00000E+00
         0.00000E+00
         0.00000E+00
         0.00000E+00
         0.00000E+00
         0.00000E+00
         0.00000E+00
         0.00000E+00
         0.00000E+00
         0.00000E+00
         0.00000E+00
         0.00000E+00
         0.00000E+00
         0.00000E+00
         0.00000E+00
         0.00000E+00
         0.00000E+00
         0.00000E+00
         0.00000E+00
         0.00000E+00
         0.00000E+00
         0.00000E+00
         0.00000E+00
         0.00000E+00
         0.00000E+00
         0.00000E+00
         0.00000E+00
         0.00000E+00
         0.00000E+00
         0.00000E+00
         0.00000E+00
         0.00000E+00
         0.00000E+00
         0.00000E+00
         0.00000E+00
         0.00000E+00
         0.00000E+00
         0.00000E+00
         0.00000E+00
         0.00000E+00
         0.00000E+00
         0.00000E+00
         0.00000E+00
         0.00000E+00
         0.00000E+00
         0.00000E+00
         0.00000E+00
         0.00000E+00
         0.00000E+00
         0.00000E+00
         0.00000E+00
         0.00000E+00
         0.00000E+00
         0.00000E+00
         0.00000E+00
         0.00000E+00
         0.00000E+00
         0.00000E+00
         0.00000E+00
         0.00000E+00
         0.00000E+00
         0.00000E+00
         0.00000E+00
         0.00000E+00
         0.00000E+00
         0.00000E+00
         0.00000E+00
         0.00000E+00
         0.00000E+00
         0.00000E+00
         0.00000E+00
         0.00000E+00
         0.00000E+00
         0.00000E+00
         0.00000E+00
         0.00000E+00
         0.00000E+00
         0.00000E+00
         0.00000E+00
         0.00000E+00
         0.00000E+00
         0.00000E+00
         0.00000E+00
         0.00000E+00
         0.00000E+00
         0.00000E+00
         0.00000E+00
         0.00000E+00
         0.00000E+00
         0.00000E+00
         0.00000E+00
         0.00000E+00
         0.00000E+00
         0.00000E+00
         0.00000E+00
         0.00000E+00
         0.00000E+00
         0.00000E+00
         0.00000E+00
         0.00000E+00
         0.00000E+00
         0.00000E+00
         0.00000E+00
         0.00000E+00
         0.00000E+00
         0.00000E+00
         0.00000E+00
         0.00000E+00
         0.00000E+00
         0.00000E+00
         0.00000E+00
         0.00000E+00
         0.00000E+00
         0.00000E+00
         0.00000E+00
         0.00000E+00
         0.00000E+00
         0.00000E+00
         0.00000E+00
         0.00000E+00
         0.00000E+00
         0.00000E+00
         0.00000E+00
         0.00000E+00
         0.00000E+00
         0.00000E+00
         0.00000E+00
         0.00000E+00
         0.00000E+00
         0.00000E+00
         0.00000E+00
         0.00000E+00
         0.00000E+00
         0.00000E+00
         0.00000E+00
         0.00000E+00
         0.00000E+00
         0.00000E+00
         0.00000E+00
         0.00000E+00
         0.00000E+00
         0.00000E+00
         0.00000E+00
         0.00000E+00
         0.00000E+00
         0.00000E+00
         0.00000E+00
         0.00000E+00
         0.00000E+00
         0.00000E+00
         0.00000E+00
         0.00000E+00
         0.00000E+00
         0.00000E+00
         0.00000E+00
         0.00000E+00
         0.00000E+00
         0.00000E+00
         0.00000E+00
         0.00000E+00
         0.00000E+00
         0.00000E+00
         0.00000E+00
         0.00000E+00
         0.00000E+00
         0.00000E+00
         0.00000E+00
         0.00000E+00
         0.00000E+00
         0.00000E+00
         0.00000E+00
         0.00000E+00
         0.00000E+00
         0.00000E+00
         0.00000E+00
         0.00000E+00
         0.00000E+00
         0.00000E+00
         0.00000E+00
         0.00000E+00
         0.00000E+00
         0.00000E+00
         0.00000E+00
         0.00000E+00
         0.00000E+00
         0.00000E+00
         0.00000E+00
         0.00000E+00
         0.00000E+00
         0.00000E+00
         0.00000E+00
         0.00000E+00
         0.00000E+00
         0.00000E+00
         0.00000E+00
         0.00000E+00
         0.00000E+00
         0.00000E+00
         0.00000E+00
         0.00000E+00
         0.00000E+00
         0.00000E+00
         0.00000E+00
         0.00000E+00
         0.00000E+00
         0.00000E+00
         0.00000E+00
         0.00000E+00
         0.00000E+00
         0.00000E+00
         0.00000E+00
         0.00000E+00
         0.00000E+00
         0.00000E+00
         0.00000E+00
         0.00000E+00
         0.00000E+00
         0.00000E+00
         0.00000E+00
         0.00000E+00
         0.00000E+00
         0.00000E+00
         0.00000E+00
         0.00000E+00
         0.00000E+00
         0.00000E+00
         0.00000E+00
         0.00000E+00
         0.00000E+00
         0.00000E+00
         0.00000E+00
         0.00000E+00
         0.00000E+00
         0.00000E+00
         0.00000E+00
         0.00000E+00
         0.00000E+00
         0.00000E+00
         0.00000E+00
         0.00000E+00
         0.00000E+00
         0.00000E+00
         0.00000E+00
         0.00000E+00
         0.00000E+00
         0.00000E+00
         0.00000E+00
         0.00000E+00
         0.00000E+00
         0.00000E+00
         0.00000E+00
         0.00000E+00
         0.00000E+00
         0.00000E+00
         0.00000E+00
         0.00000E+00
         0.00000E+00
         0.00000E+00
         0.00000E+00
         0.00000E+00
         0.00000E+00
         0.00000E+00
         0.00000E+00
         0.00000E+00
         0.00000E+00
         0.00000E+00
         0.00000E+00
         0.00000E+00
         0.00000E+00
         0.00000E+00
         0.00000E+00
         0.00000E+00
         0.00000E+00
         0.00000E+00
         0.00000E+00
         0.00000E+00
         0.00000E+00
         0.00000E+00
         0.00000E+00
         0.00000E+00
         0.00000E+00
         0.00000E+00
         0.00000E+00
         0.00000E+00
         0.00000E+00
         0.00000E+00
         0.00000E+00
         0.00000E+00
         0.00000E+00
         0.00000E+00
         0.00000E+00
         0.00000E+00
         0.00000E+00
         0.00000E+00
         0.00000E+00
         0.00000E+00
         0.00000E+00
         0.00000E+00
         0.00000E+00
         0.00000E+00
         0.00000E+00
         0.00000E+00
         0.00000E+00
         0.00000E+00
         0.00000E+00
         0.00000E+00
         0.00000E+00
         0.00000E+00
         0.00000E+00
         0.00000E+00
         0.00000E+00
         0.00000E+00
         0.00000E+00
         0.00000E+00
         0.00000E+00
         0.00000E+00
         0.00000E+00
         0.00000E+00
         0.00000E+00
         0.00000E+00
         0.00000E+00
         0.00000E+00
         0.00000E+00
         0.00000E+00
         0.00000E+00
         0.00000E+00
         0.00000E+00
         0.00000E+00
         0.00000E+00
         0.00000E+00
         0.00000E+00
         0.00000E+00
         0.00000E+00
         0.00000E+00
         0.00000E+00
         0.00000E+00
         0.00000E+00
         0.00000E+00
         0.00000E+00
         0.00000E+00
         0.00000E+00
         0.00000E+00
         0.00000E+00
         0.00000E+00
         0.00000E+00
         0.00000E+00
         0.00000E+00
         0.00000E+00
         0.00000E+00
         0.00000E+00
         0.00000E+00
         0.00000E+00
         0.00000E+00
         0.00000E+00
         0.00000E+00
         0.00000E+00
         0.00000E+00
         0.00000E+00
         0.00000E+00
         0.00000E+00
         0.00000E+00
         0.00000E+00
         0.00000E+00
         0.00000E+00
         0.00000E+00
         0.00000E+00
         0.00000E+00
         0.00000E+00
         0.00000E+00
         0.00000E+00
         0.00000E+00
         0.00000E+00
         0.00000E+00
         0.00000E+00
         0.00000E+00
         0.00000E+00
         0.00000E+00
         0.00000E+00
         0.00000E+00
         0.00000E+00
         0.00000E+00
         0.00000E+00
         0.00000E+00
         0.00000E+00
         0.00000E+00
         0.00000E+00
         0.00000E+00
         0.00000E+00
         0.00000E+00
         0.00000E+00
         0.00000E+00
         0.00000E+00
         0.00000E+00
         0.00000E+00
         0.00000E+00
         0.00000E+00
         0.00000E+00
         0.00000E+00
         0.00000E+00
         0.00000E+00
         0.00000E+00
         0.00000E+00
         0.00000E+00
         0.00000E+00
         0.00000E+00
         0.00000E+00
         0.00000E+00
         0.00000E+00
         0.00000E+00
         0.00000E+00
         0.00000E+00
         0.00000E+00
         0.00000E+00
         0.00000E+00
         0.00000E+00
         0.00000E+00
         0.00000E+00
         0.00000E+00
         0.00000E+00
         0.00000E+00
         0.00000E+00
         0.00000E+00
         0.00000E+00
         0.00000E+00
         0.00000E+00
         0.00000E+00
         0.00000E+00
         0.00000E+00
         0.00000E+00
         0.00000E+00
         0.00000E+00
         0.00000E+00
         0.00000E+00
         0.00000E+00
         0.00000E+00
         0.00000E+00
         0.00000E+00
         0.00000E+00
         0.00000E+00
         0.00000E+00
         0.00000E+00
         0.00000E+00
         0.00000E+00
         0.00000E+00
         0.00000E+00
         0.00000E+00
         0.00000E+00
         0.00000E+00
         0.00000E+00
         0.00000E+00
         0.00000E+00
         0.00000E+00
         0.00000E+00
         0.00000E+00
         0.00000E+00
         0.00000E+00
         0.00000E+00
         0.00000E+00
         0.00000E+00
         0.00000E+00
         0.00000E+00
         0.00000E+00
         0.00000E+00
         0.00000E+00
         0.00000E+00
         0.00000E+00
         0.00000E+00
         0.00000E+00
         0.00000E+00
         0.00000E+00
         0.00000E+00
         0.00000E+00
         0.00000E+00
         0.00000E+00
         0.00000E+00
         0.00000E+00
         0.00000E+00
         0.00000E+00
         0.00000E+00
         0.00000E+00
         0.00000E+00
         0.00000E+00
         0.00000E+00
         0.00000E+00
         0.00000E+00
         0.00000E+00
         0.00000E+00
         0.00000E+00
         0.00000E+00
         0.00000E+00
         0.00000E+00
         0.00000E+00
         0.00000E+00
         0.00000E+00
         0.00000E+00
         0.00000E+00
         0.00000E+00
         0.00000E+00
         0.00000E+00
         0.00000E+00
         0.00000E+00
         0.00000E+00
         0.00000E+00
         0.00000E+00
         0.00000E+00
         0.00000E+00
         0.00000E+00
         0.00000E+00
         0.00000E+00
         0.00000E+00
         0.00000E+00
         0.00000E+00
         0.00000E+00
         0.00000E+00
         0.00000E+00
         0.00000E+00
         0.00000E+00
         0.00000E+00
         0.00000E+00
         0.00000E+00
         0.00000E+00
         0.00000E+00
         0.00000E+00
         0.00000E+00
         0.00000E+00
         0.00000E+00
         0.00000E+00
         0.00000E+00
         0.00000E+00
         0.00000E+00
         0.00000E+00
         0.00000E+00
         0.00000E+00
         0.00000E+00
         0.00000E+00
         0.00000E+00
         0.00000E+00
         0.00000E+00
         0.00000E+00
         0.00000E+00
         0.00000E+00
         0.00000E+00
         0.00000E+00
         0.00000E+00
         0.00000E+00
         0.00000E+00
         0.00000E+00
         0.00000E+00
         0.00000E+00
         0.00000E+00
         0.00000E+00
         0.00000E+00
         0.00000E+00
         0.00000E+00
         0.00000E+00
         0.00000E+00
         0.00000E+00
         0.00000E+00
         0.00000E+00
         0.00000E+00
         0.00000E+00
         0.00000E+00
         0.00000E+00
         0.00000E+00
         0.00000E+00
         0.00000E+00
         0.00000E+00
         0.00000E+00
         0.00000E+00
         0.00000E+00
         0.00000E+00
         0.00000E+00
         0.00000E+00
         0.00000E+00
         0.00000E+00
         0.00000E+00
         0.00000E+00
         0.00000E+00
         0.00000E+00
         0.00000E+00
         0.00000E+00
         0.00000E+00
         0.00000E+00
         0.00000E+00
         0.00000E+00
         0.00000E+00
         0.00000E+00
         0.00000E+00
         0.00000E+00
         0.00000E+00
         0.00000E+00
         0.00000E+00
         0.00000E+00
         0.00000E+00
         0.00000E+00
         0.00000E+00
         0.00000E+00
         0.00000E+00
         0.00000E+00
         0.00000E+00
         0.00000E+00
         0.00000E+00
         0.00000E+00
         0.00000E+00
         0.00000E+00
         0.00000E+00
         0.00000E+00
         0.00000E+00
         0.00000E+00
         0.00000E+00
         0.00000E+00
         0.00000E+00
         0.00000E+00
         0.00000E+00
         0.00000E+00
         0.00000E+00
         0.00000E+00
         0.00000E+00
         0.00000E+00
         0.00000E+00
         0.00000E+00
         0.00000E+00
         0.00000E+00
         0.00000E+00
         0.00000E+00
         0.00000E+00
         0.00000E+00
         0.00000E+00
         0.00000E+00
         0.00000E+00
         0.00000E+00
         0.00000E+00
         0.00000E+00
         0.00000E+00
         0.00000E+00
         0.00000E+00
         0.00000E+00
         0.00000E+00
         0.00000E+00
         0.00000E+00
         0.00000E+00
         0.00000E+00
         0.00000E+00
         0.00000E+00
         0.00000E+00
         0.00000E+00
         0.00000E+00
         0.00000E+00
         0.00000E+00
         0.00000E+00
         0.00000E+00
         0.00000E+00
         0.00000E+00
         0.00000E+00
         0.00000E+00
         0.00000E+00
         0.00000E+00
         0.00000E+00
         0.00000E+00
         0.00000E+00
         0.00000E+00
         0.00000E+00
         0.00000E+00
         0.00000E+00
         0.00000E+00
         0.00000E+00
         0.00000E+00
         0.00000E+00
         0.00000E+00
         0.00000E+00
         0.00000E+00
         0.00000E+00
         0.00000E+00
         0.00000E+00
         0.00000E+00
         0.00000E+00
         0.00000E+00
         0.00000E+00
         0.00000E+00
         0.00000E+00
         0.00000E+00
         0.00000E+00
         0.00000E+00
         0.00000E+00
         0.00000E+00
         0.00000E+00
         0.00000E+00
         0.00000E+00
         0.00000E+00
         0.00000E+00
         0.00000E+00
         0.00000E+00
         0.00000E+00
         0.00000E+00
         0.00000E+00
         0.00000E+00
         0.00000E+00
         0.00000E+00
         0.00000E+00
         0.00000E+00
         0.00000E+00
         0.00000E+00
         0.00000E+00
         0.00000E+00
         0.00000E+00
         0.00000E+00
         0.00000E+00
         0.00000E+00
         0.00000E+00
         0.00000E+00
         0.00000E+00
         0.00000E+00
         0.00000E+00
         0.00000E+00
         0.00000E+00
         0.00000E+00
         0.00000E+00
         0.00000E+00
         0.00000E+00
         0.00000E+00
         0.00000E+00
         0.00000E+00
         0.00000E+00
         0.00000E+00
         0.00000E+00
         0.00000E+00
         0.00000E+00
         0.00000E+00
         0.00000E+00
         0.00000E+00
         0.00000E+00
         0.00000E+00
         0.00000E+00
         0.00000E+00
         0.00000E+00
         0.00000E+00
         0.00000E+00
         0.00000E+00
         0.00000E+00
         0.00000E+00
         0.00000E+00
         0.00000E+00
         0.00000E+00
         0.00000E+00
         0.00000E+00
         0.00000E+00
         0.00000E+00
         0.00000E+00
         0.00000E+00
         0.00000E+00
         0.00000E+00
         0.00000E+00
         0.00000E+00
         0.00000E+00
         0.00000E+00
         0.00000E+00
         0.00000E+00
         0.00000E+00
         0.00000E+00
         0.00000E+00
         0.00000E+00
         0.00000E+00
         0.00000E+00
         0.00000E+00
         0.00000E+00
         0.00000E+00
         0.00000E+00
         0.00000E+00
         0.00000E+00
         0.00000E+00
         0.00000E+00
         0.00000E+00
         0.00000E+00
         0.00000E+00
         0.00000E+00
         0.00000E+00
         0.00000E+00
         0.00000E+00
         0.00000E+00
         0.00000E+00
         0.00000E+00
         0.00000E+00
         0.00000E+00
         0.00000E+00
         0.00000E+00
         0.00000E+00
         0.00000E+00
         0.00000E+00
         0.00000E+00
         0.00000E+00
         0.00000E+00
         0.00000E+00
         0.00000E+00
         0.00000E+00
         0.00000E+00
         0.00000E+00
         0.00000E+00
         0.00000E+00
         0.00000E+00
         0.00000E+00
         0.00000E+00
         0.00000E+00
         0.00000E+00
         0.00000E+00
         0.00000E+00
         0.00000E+00
         0.00000E+00
         0.00000E+00
         0.00000E+00
         0.00000E+00
         0.00000E+00
         0.00000E+00
         0.00000E+00
         0.00000E+00
         0.00000E+00
         0.00000E+00
         0.00000E+00
         0.00000E+00
         0.00000E+00
         0.00000E+00
         0.00000E+00
         0.00000E+00
         0.00000E+00
         0.00000E+00
         0.00000E+00
         0.00000E+00
         0.00000E+00
         0.00000E+00
         0.00000E+00
         0.00000E+00
         0.00000E+00
         0.00000E+00
         0.00000E+00
         0.00000E+00
         0.00000E+00
         0.00000E+00
         0.00000E+00
         0.00000E+00
         0.00000E+00
         0.00000E+00
         0.00000E+00
         0.00000E+00
         0.00000E+00
         0.00000E+00
         0.00000E+00
         0.00000E+00
         0.00000E+00
         0.00000E+00
         0.00000E+00
         0.00000E+00
         0.00000E+00
         0.00000E+00
         0.00000E+00
         0.00000E+00
         0.00000E+00
         0.00000E+00
         0.00000E+00
         0.00000E+00
         0.00000E+00
         0.00000E+00
         0.00000E+00
         0.00000E+00
         0.00000E+00
         0.00000E+00
         0.00000E+00
         0.00000E+00
         0.00000E+00
         0.00000E+00
         0.00000E+00
         0.00000E+00
         0.00000E+00
         0.00000E+00
         0.00000E+00
         0.00000E+00
         0.00000E+00
         0.00000E+00
         0.00000E+00
         0.00000E+00
         0.00000E+00
         0.00000E+00
         0.00000E+00
         0.00000E+00
         0.00000E+00
         0.00000E+00
         0.00000E+00
         0.00000E+00
         0.00000E+00
         0.00000E+00
         0.00000E+00
         0.00000E+00
         0.00000E+00
         0.00000E+00
         0.00000E+00
         0.00000E+00
         0.00000E+00
         0.00000E+00
         0.00000E+00
         0.00000E+00
         0.00000E+00
         0.00000E+00
         0.00000E+00
         0.00000E+00
         0.00000E+00
         0.00000E+00
         0.00000E+00
         0.00000E+00
         0.00000E+00
         0.00000E+00
         0.00000E+00
         0.00000E+00
         0.00000E+00
         0.00000E+00
         0.00000E+00
         0.00000E+00
         0.00000E+00
         0.00000E+00
         0.00000E+00
         0.00000E+00
         0.00000E+00
         0.00000E+00
         0.00000E+00
         0.00000E+00
         0.00000E+00
         0.00000E+00
         0.00000E+00
         0.00000E+00
         0.00000E+00
         0.00000E+00
         0.00000E+00
         0.00000E+00
         0.00000E+00
         0.00000E+00
         0.00000E+00
         0.00000E+00
         0.00000E+00
         0.00000E+00
         0.00000E+00
         0.00000E+00
         0.00000E+00
         0.00000E+00
         0.00000E+00
         0.00000E+00
         0.00000E+00
         0.00000E+00
         0.00000E+00
         0.00000E+00
         0.00000E+00
         0.00000E+00
         0.00000E+00
         0.00000E+00
         0.00000E+00
         0.00000E+00
         0.00000E+00
         0.00000E+00
         0.00000E+00
         0.00000E+00
         0.00000E+00
         0.00000E+00
         0.00000E+00
         0.00000E+00
         0.00000E+00
         0.00000E+00
         0.00000E+00
         0.00000E+00
         0.00000E+00
         0.00000E+00
         0.00000E+00
         0.00000E+00
         0.00000E+00
         0.00000E+00
         0.00000E+00
         0.00000E+00
         0.00000E+00
         0.00000E+00
         0.00000E+00
         0.00000E+00
         0.00000E+00
         0.00000E+00
         0.00000E+00
         0.00000E+00
         0.00000E+00
         0.00000E+00
         0.00000E+00
         0.00000E+00
         0.00000E+00
         0.00000E+00
         0.00000E+00
         0.00000E+00
         0.00000E+00
         0.00000E+00
         0.00000E+00
         0.00000E+00
         0.00000E+00
         0.00000E+00
         0.00000E+00
         0.00000E+00
         0.00000E+00
         0.00000E+00
         0.00000E+00
         0.00000E+00
         0.00000E+00
         0.00000E+00
         0.00000E+00
         0.00000E+00
         0.00000E+00
         0.00000E+00
         0.00000E+00
         0.00000E+00
         0.00000E+00
         0.00000E+00
         0.00000E+00
         0.00000E+00
         0.00000E+00
         0.00000E+00
         0.00000E+00
         0.00000E+00
         0.00000E+00
         0.00000E+00
         0.00000E+00
         0.00000E+00
         0.00000E+00
         0.00000E+00
         0.00000E+00
         0.00000E+00
         0.00000E+00
         0.00000E+00
         0.00000E+00
         0.00000E+00
         0.00000E+00
         0.00000E+00
         0.00000E+00
         0.00000E+00
         0.00000E+00
         0.00000E+00
         0.00000E+00
         0.00000E+00
         0.00000E+00
         0.00000E+00
         0.00000E+00
         0.00000E+00
         0.00000E+00
         0.00000E+00
         0.00000E+00
         0.00000E+00
         0.00000E+00
         0.00000E+00
         0.00000E+00
         0.00000E+00
         0.00000E+00
         0.00000E+00
         0.00000E+00
         0.00000E+00
         0.00000E+00
         0.00000E+00
         0.00000E+00
         0.00000E+00
         0.00000E+00
         0.00000E+00
         0.00000E+00
         0.00000E+00
         0.00000E+00
         0.00000E+00
         0.00000E+00
         0.00000E+00
         0.00000E+00
         0.00000E+00
         0.00000E+00
         0.00000E+00
         0.00000E+00
         0.00000E+00
         0.00000E+00
         0.00000E+00
         0.00000E+00
         0.00000E+00
         0.00000E+00
         0.00000E+00
         0.00000E+00
         0.00000E+00
         0.00000E+00
         0.00000E+00
         0.00000E+00
         0.00000E+00
         0.00000E+00
         0.00000E+00
         0.00000E+00
         0.00000E+00
         0.00000E+00
         0.00000E+00
         0.00000E+00
         0.00000E+00
         0.00000E+00
         0.00000E+00
         0.00000E+00
         0.00000E+00
         0.00000E+00
         0.00000E+00
         0.00000E+00
         0.00000E+00
         0.00000E+00
         0.00000E+00
         0.00000E+00
         0.00000E+00
         0.00000E+00
         0.00000E+00
         0.00000E+00
         0.00000E+00
         0.00000E+00
         0.00000E+00
         0.00000E+00
         0.00000E+00
         0.00000E+00
         0.00000E+00
         0.00000E+00
         0.00000E+00
         0.00000E+00
         0.00000E+00
         0.00000E+00
         0.00000E+00
         0.00000E+00
         0.00000E+00
         0.00000E+00
         0.00000E+00
         0.00000E+00
         0.00000E+00
         0.00000E+00
         0.00000E+00
         0.00000E+00
         0.00000E+00
         0.00000E+00
         0.00000E+00
         0.00000E+00
         0.00000E+00
         0.00000E+00
         0.00000E+00
         0.00000E+00
         0.00000E+00
         0.00000E+00
         0.00000E+00
         0.00000E+00
         0.00000E+00
         0.00000E+00
         0.00000E+00
         0.00000E+00
         0.00000E+00
         0.00000E+00
         0.00000E+00
         0.00000E+00
         0.00000E+00
         0.00000E+00
         0.00000E+00
         0.00000E+00
         0.00000E+00
         0.00000E+00
         0.00000E+00
         0.00000E+00
         0.00000E+00
         0.00000E+00
         0.00000E+00
         0.00000E+00
         0.00000E+00
         0.00000E+00
         0.00000E+00
         0.00000E+00
         0.00000E+00
         0.00000E+00
         0.00000E+00
         0.00000E+00
         0.00000E+00
         0.00000E+00
         0.00000E+00
         0.00000E+00
         0.00000E+00
         0.00000E+00
         0.00000E+00
         0.00000E+00
         0.00000E+00
         0.00000E+00
         0.00000E+00
         0.00000E+00
         0.00000E+00
         0.00000E+00
         0.00000E+00
         0.00000E+00
         0.00000E+00
         0.00000E+00
         0.00000E+00
         0.00000E+00
         0.00000E+00
         0.00000E+00
         0.00000E+00
         0.00000E+00
         0.00000E+00
         0.00000E+00
         0.00000E+00
         0.00000E+00
         0.00000E+00
         0.00000E+00
         0.00000E+00
         0.00000E+00
         0.00000E+00
         0.00000E+00
         0.00000E+00
         0.00000E+00
         0.00000E+00
         0.00000E+00
         0.00000E+00
         0.00000E+00
         0.00000E+00
         0.00000E+00
         0.00000E+00
         0.00000E+00
         0.00000E+00
         0.00000E+00
         0.00000E+00
         0.00000E+00
         0.00000E+00
         0.00000E+00
         0.00000E+00
         0.00000E+00
         0.00000E+00
         0.00000E+00
         0.00000E+00
         0.00000E+00
         0.00000E+00
         0.00000E+00
         0.00000E+00
         0.00000E+00
         0.00000E+00
         0.00000E+00
         0.00000E+00
         0.00000E+00
         0.00000E+00
         0.00000E+00
         0.00000E+00
         0.00000E+00
         0.00000E+00
         0.00000E+00
         0.00000E+00
         0.00000E+00
         0.00000E+00
         0.00000E+00
         0.00000E+00
         0.00000E+00
         0.00000E+00
         0.00000E+00
         0.00000E+00
         0.00000E+00
         0.00000E+00
         0.00000E+00
         0.00000E+00
         0.00000E+00
         0.00000E+00
         0.00000E+00
         0.00000E+00
         0.00000E+00
         0.00000E+00
         0.00000E+00
         0.00000E+00
         0.00000E+00
         0.00000E+00
         0.00000E+00
         0.00000E+00
         0.00000E+00
         0.00000E+00
         0.00000E+00
         0.00000E+00
         0.00000E+00
         0.00000E+00
         0.00000E+00
         0.00000E+00
         0.00000E+00
         0.00000E+00
         0.00000E+00
         0.00000E+00
         0.00000E+00
         0.00000E+00
         0.00000E+00
         0.00000E+00
         0.00000E+00
         0.00000E+00
         0.00000E+00
         0.00000E+00
         0.00000E+00
         0.00000E+00
         0.00000E+00
         0.00000E+00
         0.00000E+00
         0.00000E+00
         0.00000E+00
         0.00000E+00
         0.00000E+00
         0.00000E+00
         0.00000E+00
         0.00000E+00
         0.00000E+00
         0.00000E+00
         0.00000E+00
         0.00000E+00
         0.00000E+00
         0.00000E+00
         0.00000E+00
         0.00000E+00
         0.00000E+00
         0.00000E+00
         0.00000E+00
         0.00000E+00
         0.00000E+00
         0.00000E+00
         0.00000E+00
         0.00000E+00
         0.00000E+00
         0.00000E+00
         0.00000E+00
         0.00000E+00
         0.00000E+00
         0.00000E+00
         0.00000E+00
         0.00000E+00
         0.00000E+00
         0.00000E+00
         0.00000E+00
         0.00000E+00
         0.00000E+00
         0.00000E+00
         0.00000E+00
         0.00000E+00
         0.00000E+00
         0.00000E+00
         0.00000E+00
         0.00000E+00
         0.00000E+00
         0.00000E+00
         0.00000E+00
         0.00000E+00
         0.00000E+00
         0.00000E+00
         0.00000E+00
         0.00000E+00
         0.00000E+00
         0.00000E+00
         0.00000E+00
         0.00000E+00
         0.00000E+00
         0.00000E+00
         0.00000E+00
         0.00000E+00
         0.00000E+00
         0.00000E+00
         0.00000E+00
         0.00000E+00
         0.00000E+00
         0.00000E+00
         0.00000E+00
         0.00000E+00
         0.00000E+00
         0.00000E+00
         0.00000E+00
         0.00000E+00
         0.00000E+00
         0.00000E+00
         0.00000E+00
         0.00000E+00
         0.00000E+00
         0.00000E+00
         0.00000E+00
         0.00000E+00
         0.00000E+00
         0.00000E+00
         0.00000E+00
         0.00000E+00
         0.00000E+00
         0.00000E+00
         0.00000E+00
         0.00000E+00
         0.00000E+00
         0.00000E+00
         0.00000E+00
         0.00000E+00
         0.00000E+00
         0.00000E+00
         0.00000E+00
         0.00000E+00
         0.00000E+00
         0.00000E+00
         0.00000E+00
         0.00000E+00
         0.00000E+00
         0.00000E+00
         0.00000E+00
         0.00000E+00
         0.00000E+00
         0.00000E+00
         0.00000E+00
         0.00000E+00
         0.00000E+00
         0.00000E+00
         0.00000E+00
         0.00000E+00
         0.00000E+00
         0.00000E+00
         0.00000E+00
         0.00000E+00
         0.00000E+00
         0.00000E+00
         0.00000E+00
         0.00000E+00
         0.00000E+00
         0.00000E+00
         0.00000E+00
         0.00000E+00
         0.00000E+00
         0.00000E+00
         0.00000E+00
         0.00000E+00
         0.00000E+00
         0.00000E+00
         0.00000E+00
         0.00000E+00
         0.00000E+00
         0.00000E+00
         0.00000E+00
         0.00000E+00
         0.00000E+00
         0.00000E+00
         0.00000E+00
         0.00000E+00
         0.00000E+00
         0.00000E+00
         0.00000E+00
         0.00000E+00
         0.00000E+00
         0.00000E+00
         0.00000E+00
         0.00000E+00
         0.00000E+00
         0.00000E+00
         0.00000E+00
         0.00000E+00
         0.00000E+00
         0.00000E+00
         0.00000E+00
         0.00000E+00
         0.00000E+00
         0.00000E+00
         0.00000E+00
         0.00000E+00
         0.00000E+00
         0.00000E+00
         0.00000E+00
         0.00000E+00
         0.00000E+00
         0.00000E+00
         0.00000E+00
         0.00000E+00
         0.00000E+00
         0.00000E+00
         0.00000E+00
         0.00000E+00
         0.00000E+00
         0.00000E+00
         0.00000E+00
         0.00000E+00
         0.00000E+00
         0.00000E+00
         0.00000E+00
         0.00000E+00
         0.00000E+00
         0.00000E+00
         0.00000E+00
         0.00000E+00
         0.00000E+00
         0.00000E+00
         0.00000E+00
         0.00000E+00
         0.00000E+00
         0.00000E+00
         0.00000E+00
         0.00000E+00
         0.00000E+00
         0.00000E+00
         0.00000E+00
         0.00000E+00
         0.00000E+00
         0.00000E+00
         0.00000E+00
         0.00000E+00
         0.00000E+00
         0.00000E+00
         0.00000E+00
         0.00000E+00
         0.00000E+00
         0.00000E+00
         0.00000E+00
         0.00000E+00
         0.00000E+00
         0.00000E+00
         0.00000E+00
         0.00000E+00
         0.00000E+00
         0.00000E+00
         0.00000E+00
         0.00000E+00
         0.00000E+00
         0.00000E+00
         0.00000E+00
         0.00000E+00
         0.00000E+00
         0.00000E+00
         0.00000E+00
         0.00000E+00
         0.00000E+00
         0.00000E+00
         0.00000E+00
         0.00000E+00
         0.00000E+00
         0.00000E+00
         0.00000E+00
         0.00000E+00
         0.00000E+00
         0.00000E+00
         0.00000E+00
         0.00000E+00
         0.00000E+00
         0.00000E+00
         0.00000E+00
         0.00000E+00
         0.00000E+00
         0.00000E+00
         0.00000E+00
         0.00000E+00
         0.00000E+00
         0.00000E+00
         0.00000E+00
         0.00000E+00
         0.00000E+00
         0.00000E+00
         0.00000E+00
         0.00000E+00
         0.00000E+00
         0.00000E+00
         0.00000E+00
         0.00000E+00
         0.00000E+00
         0.00000E+00
         0.00000E+00
         0.00000E+00
         0.00000E+00
         0.00000E+00
         0.00000E+00
         0.00000E+00
         0.00000E+00
         0.00000E+00
         0.00000E+00
         0.00000E+00
         0.00000E+00
         0.00000E+00
         0.00000E+00
         0.00000E+00
         0.00000E+00
         0.00000E+00
         0.00000E+00
         0.00000E+00
         0.00000E+00
         0.00000E+00
         0.00000E+00
         0.00000E+00
         0.00000E+00
         0.00000E+00
         0.00000E+00
         0.00000E+00
         0.00000E+00
         0.00000E+00
         0.00000E+00
         0.00000E+00
         0.00000E+00
         0.00000E+00
         0.00000E+00
         0.00000E+00
         0.00000E+00
         0.00000E+00
         0.00000E+00
         0.00000E+00
         0.00000E+00
         0.00000E+00
         0.00000E+00
         0.00000E+00
         0.00000E+00
         0.00000E+00
         0.00000E+00
         0.00000E+00
         0.00000E+00
         0.00000E+00
         0.00000E+00
         0.00000E+00
         0.00000E+00
         0.00000E+00
         0.00000E+00
         0.00000E+00
         0.00000E+00
         0.00000E+00
         0.00000E+00
         0.00000E+00
         0.00000E+00
         0.00000E+00
         0.00000E+00
         0.00000E+00
         0.00000E+00
         0.00000E+00
         0.00000E+00
         0.00000E+00
         0.00000E+00
         0.00000E+00
         0.00000E+00
         0.00000E+00
         0.00000E+00
         0.00000E+00
         0.00000E+00
         0.00000E+00
         0.00000E+00
         0.00000E+00
         0.00000E+00
         0.00000E+00
         0.00000E+00
         0.00000E+00
         0.00000E+00
         0.00000E+00
         0.00000E+00
         0.00000E+00
         0.00000E+00
         0.00000E+00
         0.00000E+00
         0.00000E+00
         0.00000E+00
         0.00000E+00
         0.00000E+00
         0.00000E+00
         0.00000E+00
         0.00000E+00
         0.00000E+00
         0.00000E+00
         0.00000E+00
         0.00000E+00
         0.00000E+00
         0.00000E+00
         0.00000E+00
         0.00000E+00
         0.00000E+00
         0.00000E+00
         0.00000E+00
         0.00000E+00
         0.00000E+00
         0.00000E+00
         0.00000E+00
         0.00000E+00
         0.00000E+00
         0.00000E+00
         0.00000E+00
         0.00000E+00
         0.00000E+00
         0.00000E+00
         0.00000E+00
         0.00000E+00
         0.00000E+00
         0.00000E+00
         0.00000E+00
         0.00000E+00
         0.00000E+00
         0.00000E+00
         0.00000E+00
         0.00000E+00
         0.00000E+00
         0.00000E+00
         0.00000E+00
         0.00000E+00
         0.00000E+00
         0.00000E+00
         0.00000E+00
         0.00000E+00
         0.00000E+00
         0.00000E+00
         0.00000E+00
         0.00000E+00
         0.00000E+00
         0.00000E+00
         0.00000E+00
         0.00000E+00
         0.00000E+00
         0.00000E+00
         0.00000E+00
         0.00000E+00
         0.00000E+00
         0.00000E+00
         0.00000E+00
         0.00000E+00
         0.00000E+00
         0.00000E+00
         0.00000E+00
         0.00000E+00
         0.00000E+00
         0.00000E+00
         0.00000E+00
         0.00000E+00
         0.00000E+00
         0.00000E+00
         0.00000E+00
         0.00000E+00
         0.00000E+00
         0.00000E+00
         0.00000E+00
         0.00000E+00
         0.00000E+00
         0.00000E+00
         0.00000E+00
         0.00000E+00
         0.00000E+00
         0.00000E+00
         0.00000E+00
         0.00000E+00
         0.00000E+00
         0.00000E+00
         0.00000E+00
         0.00000E+00
         0.00000E+00
         0.00000E+00
         0.00000E+00
         0.00000E+00
         0.00000E+00
         0.00000E+00
         0.00000E+00
         0.00000E+00
         0.00000E+00
         0.00000E+00
         0.00000E+00
         0.00000E+00
         0.00000E+00
         0.00000E+00
         0.00000E+00
         0.00000E+00
         0.00000E+00
         0.00000E+00
         0.00000E+00
         0.00000E+00
         0.00000E+00
         0.00000E+00
         0.00000E+00
         0.00000E+00
         0.00000E+00
         0.00000E+00
         0.00000E+00
         0.00000E+00
         0.00000E+00
         0.00000E+00
         0.00000E+00
         0.00000E+00
         0.00000E+00
         0.00000E+00
         0.00000E+00
         0.00000E+00
         0.00000E+00
         0.00000E+00
         0.00000E+00
         0.00000E+00
         0.00000E+00
         0.00000E+00
  
SCALARS                   max_wave_vel  double 1
LOOKUP_TABLE default
         0.00000E+00
         0.00000E+00
         0.00000E+00
         0.00000E+00
         0.00000E+00
         0.00000E+00
         0.00000E+00
         0.00000E+00
         0.00000E+00
         0.00000E+00
         0.00000E+00
         0.00000E+00
         0.00000E+00
         0.00000E+00
         0.00000E+00
         0.00000E+00
         0.00000E+00
         0.00000E+00
         0.00000E+00
         0.00000E+00
         0.00000E+00
         0.00000E+00
         0.00000E+00
         0.00000E+00
         0.00000E+00
         0.00000E+00
         0.00000E+00
         0.00000E+00
         0.00000E+00
         0.00000E+00
         0.00000E+00
         0.00000E+00
         0.00000E+00
         0.00000E+00
         0.00000E+00
         0.00000E+00
         0.00000E+00
         0.00000E+00
         0.00000E+00
         0.00000E+00
         0.00000E+00
         0.00000E+00
         0.00000E+00
         0.00000E+00
         0.00000E+00
         0.00000E+00
         0.00000E+00
         0.00000E+00
         0.00000E+00
         0.00000E+00
         0.00000E+00
         0.00000E+00
         0.00000E+00
         0.00000E+00
         0.00000E+00
         0.00000E+00
         0.00000E+00
         0.00000E+00
         0.00000E+00
         0.00000E+00
         0.00000E+00
         0.00000E+00
         0.00000E+00
         0.00000E+00
         0.00000E+00
         0.00000E+00
         0.00000E+00
         0.00000E+00
         0.00000E+00
         0.00000E+00
         0.00000E+00
         0.00000E+00
         0.00000E+00
         0.00000E+00
         0.00000E+00
         0.00000E+00
         0.00000E+00
         0.00000E+00
         0.00000E+00
         0.00000E+00
         0.00000E+00
         0.00000E+00
         0.00000E+00
         0.00000E+00
         0.00000E+00
         0.00000E+00
         0.00000E+00
         0.00000E+00
         0.00000E+00
         0.00000E+00
         0.00000E+00
         0.00000E+00
         0.00000E+00
         0.00000E+00
         0.00000E+00
         0.00000E+00
         0.00000E+00
         0.00000E+00
         0.00000E+00
         0.00000E+00
         0.00000E+00
         0.00000E+00
         0.00000E+00
         0.00000E+00
         0.00000E+00
         0.00000E+00
         0.00000E+00
         0.00000E+00
         0.00000E+00
         0.00000E+00
         0.00000E+00
         0.00000E+00
         0.00000E+00
         0.00000E+00
         0.00000E+00
         0.00000E+00
         0.00000E+00
         0.00000E+00
         0.00000E+00
         0.00000E+00
         0.00000E+00
         0.00000E+00
         0.00000E+00
         0.00000E+00
         0.00000E+00
         0.00000E+00
         0.00000E+00
         0.00000E+00
         0.00000E+00
         0.00000E+00
         0.00000E+00
         0.00000E+00
         0.00000E+00
         0.00000E+00
         0.00000E+00
         0.00000E+00
         0.00000E+00
         0.00000E+00
         0.00000E+00
         0.00000E+00
         0.00000E+00
         0.00000E+00
         0.00000E+00
         0.00000E+00
         0.00000E+00
         0.00000E+00
         0.00000E+00
         0.00000E+00
         0.00000E+00
         0.00000E+00
         0.00000E+00
         0.00000E+00
         0.00000E+00
         0.00000E+00
         0.00000E+00
         0.00000E+00
         0.00000E+00
         0.00000E+00
         0.00000E+00
         0.00000E+00
         0.00000E+00
         0.00000E+00
         0.00000E+00
         0.00000E+00
         0.00000E+00
         0.00000E+00
         0.00000E+00
         0.00000E+00
         0.00000E+00
         0.00000E+00
         0.00000E+00
         0.00000E+00
         0.00000E+00
         0.00000E+00
         0.00000E+00
         0.00000E+00
         0.00000E+00
         0.00000E+00
         0.00000E+00
         0.00000E+00
         0.00000E+00
         0.00000E+00
         0.00000E+00
         0.00000E+00
         0.00000E+00
         0.00000E+00
         0.00000E+00
         0.00000E+00
         0.00000E+00
         0.00000E+00
         0.00000E+00
         0.00000E+00
         0.00000E+00
         0.00000E+00
         0.00000E+00
         0.00000E+00
         0.00000E+00
         0.00000E+00
         0.00000E+00
         0.00000E+00
         0.00000E+00
         0.00000E+00
         0.00000E+00
         0.00000E+00
         0.00000E+00
         0.00000E+00
         0.00000E+00
         0.00000E+00
         0.00000E+00
         0.00000E+00
         0.00000E+00
         0.00000E+00
         0.00000E+00
         0.00000E+00
         0.00000E+00
         0.00000E+00
         0.00000E+00
         0.00000E+00
         0.00000E+00
         0.00000E+00
         0.00000E+00
         0.00000E+00
         0.00000E+00
         0.00000E+00
         0.00000E+00
         0.00000E+00
         0.00000E+00
         0.00000E+00
         0.00000E+00
         0.00000E+00
         0.00000E+00
         0.00000E+00
         0.00000E+00
         0.00000E+00
         0.00000E+00
         0.00000E+00
         0.00000E+00
         0.00000E+00
         0.00000E+00
         0.00000E+00
         0.00000E+00
         0.00000E+00
         0.00000E+00
         0.00000E+00
         0.00000E+00
         0.00000E+00
         0.00000E+00
         0.00000E+00
         0.00000E+00
         0.00000E+00
         0.00000E+00
         0.00000E+00
         0.00000E+00
         0.00000E+00
         0.00000E+00
         0.00000E+00
         0.00000E+00
         0.00000E+00
         0.00000E+00
         0.00000E+00
         0.00000E+00
         0.00000E+00
         0.00000E+00
         0.00000E+00
         0.00000E+00
         0.00000E+00
         0.00000E+00
         0.00000E+00
         0.00000E+00
         0.00000E+00
         0.00000E+00
         0.00000E+00
         0.00000E+00
         0.00000E+00
         0.00000E+00
         0.00000E+00
         0.00000E+00
         0.00000E+00
         0.00000E+00
         0.00000E+00
         0.00000E+00
         0.00000E+00
         0.00000E+00
         0.00000E+00
         0.00000E+00
         0.00000E+00
         0.00000E+00
         0.00000E+00
         0.00000E+00
         0.00000E+00
         0.00000E+00
         0.00000E+00
         0.00000E+00
         0.00000E+00
         0.00000E+00
         0.00000E+00
         0.00000E+00
         0.00000E+00
         0.00000E+00
         0.00000E+00
         0.00000E+00
         0.00000E+00
         0.00000E+00
         0.00000E+00
         0.00000E+00
         0.00000E+00
         0.00000E+00
         0.00000E+00
         0.00000E+00
         0.00000E+00
         0.00000E+00
         0.00000E+00
         0.00000E+00
         0.00000E+00
         0.00000E+00
         0.00000E+00
         0.00000E+00
         0.00000E+00
         0.00000E+00
         0.00000E+00
         0.00000E+00
         0.00000E+00
         0.00000E+00
         0.00000E+00
         0.00000E+00
         0.00000E+00
         0.00000E+00
         0.00000E+00
         0.00000E+00
         0.00000E+00
         0.00000E+00
         0.00000E+00
         0.00000E+00
         0.00000E+00
         0.00000E+00
         0.00000E+00
         0.00000E+00
         0.00000E+00
         0.00000E+00
         0.00000E+00
         0.00000E+00
         0.00000E+00
         0.00000E+00
         0.00000E+00
         0.00000E+00
         0.00000E+00
         0.00000E+00
         0.00000E+00
         0.00000E+00
         0.00000E+00
         0.00000E+00
         0.00000E+00
         0.00000E+00
         0.00000E+00
         0.00000E+00
         0.00000E+00
         0.00000E+00
         0.00000E+00
         0.00000E+00
         0.00000E+00
         0.00000E+00
         0.00000E+00
         0.00000E+00
         0.00000E+00
         0.00000E+00
         0.00000E+00
         0.00000E+00
         0.00000E+00
         0.00000E+00
         0.00000E+00
         0.00000E+00
         0.00000E+00
         0.00000E+00
         0.00000E+00
         0.00000E+00
         0.00000E+00
         0.00000E+00
         0.00000E+00
         0.00000E+00
         0.00000E+00
         0.00000E+00
         0.00000E+00
         0.00000E+00
         0.00000E+00
         0.00000E+00
         0.00000E+00
         0.00000E+00
         0.00000E+00
         0.00000E+00
         0.00000E+00
         0.00000E+00
         0.00000E+00
         0.00000E+00
         0.00000E+00
         0.00000E+00
         0.00000E+00
         0.00000E+00
         0.00000E+00
         0.00000E+00
         0.00000E+00
         0.00000E+00
         0.00000E+00
         0.00000E+00
         0.00000E+00
         0.00000E+00
         0.00000E+00
         0.00000E+00
         0.00000E+00
         0.00000E+00
         0.00000E+00
         0.00000E+00
         0.00000E+00
         0.00000E+00
         0.00000E+00
         0.00000E+00
         0.00000E+00
         0.00000E+00
         0.00000E+00
         0.00000E+00
         0.00000E+00
         0.00000E+00
         0.00000E+00
         0.00000E+00
         0.00000E+00
         0.00000E+00
         0.00000E+00
         0.00000E+00
         0.00000E+00
         0.00000E+00
         0.00000E+00
         0.00000E+00
         0.00000E+00
         0.00000E+00
         0.00000E+00
         0.00000E+00
         0.00000E+00
         0.00000E+00
         0.00000E+00
         0.00000E+00
         0.00000E+00
         0.00000E+00
         0.00000E+00
         0.00000E+00
         0.00000E+00
         0.00000E+00
         0.00000E+00
         0.00000E+00
         0.00000E+00
         0.00000E+00
         0.00000E+00
         0.00000E+00
         0.00000E+00
         0.00000E+00
         0.00000E+00
         0.00000E+00
         0.00000E+00
         0.00000E+00
         0.00000E+00
         0.00000E+00
         0.00000E+00
         0.00000E+00
         0.00000E+00
         0.00000E+00
         0.00000E+00
         0.00000E+00
         0.00000E+00
         0.00000E+00
         0.00000E+00
         0.00000E+00
         0.00000E+00
         0.00000E+00
         0.00000E+00
         0.00000E+00
         0.00000E+00
         0.00000E+00
         0.00000E+00
         0.00000E+00
         0.00000E+00
         0.00000E+00
         0.00000E+00
         0.00000E+00
         0.00000E+00
         0.00000E+00
         0.00000E+00
         0.00000E+00
         0.00000E+00
         0.00000E+00
         0.00000E+00
         0.00000E+00
         0.00000E+00
         0.00000E+00
         0.00000E+00
         0.00000E+00
         0.00000E+00
         0.00000E+00
         0.00000E+00
         0.00000E+00
         0.00000E+00
         0.00000E+00
         0.00000E+00
         0.00000E+00
         0.00000E+00
         0.00000E+00
         0.00000E+00
         0.00000E+00
         0.00000E+00
         0.00000E+00
         0.00000E+00
         0.00000E+00
         0.00000E+00
         0.00000E+00
         0.00000E+00
         0.00000E+00
         0.00000E+00
         0.00000E+00
         0.00000E+00
         0.00000E+00
         0.00000E+00
         0.00000E+00
         0.00000E+00
         0.00000E+00
         0.00000E+00
         0.00000E+00
         0.00000E+00
         0.00000E+00
         0.00000E+00
         0.00000E+00
         0.00000E+00
         0.00000E+00
         0.00000E+00
         0.00000E+00
         0.00000E+00
         0.00000E+00
         0.00000E+00
         0.00000E+00
         0.00000E+00
         0.00000E+00
         0.00000E+00
         0.00000E+00
         0.00000E+00
         0.00000E+00
         0.00000E+00
         0.00000E+00
         0.00000E+00
         0.00000E+00
         0.00000E+00
         0.00000E+00
         0.00000E+00
         0.00000E+00
         0.00000E+00
         0.00000E+00
         0.00000E+00
         0.00000E+00
         0.00000E+00
         0.00000E+00
         0.00000E+00
         0.00000E+00
         0.00000E+00
         0.00000E+00
         0.00000E+00
         0.00000E+00
         0.00000E+00
         0.00000E+00
         0.00000E+00
         0.00000E+00
         0.00000E+00
         0.00000E+00
         0.00000E+00
         0.00000E+00
         0.00000E+00
         0.00000E+00
         0.00000E+00
         0.00000E+00
         0.00000E+00
         0.00000E+00
         0.00000E+00
         0.00000E+00
         0.00000E+00
         0.00000E+00
         0.00000E+00
         0.00000E+00
         0.00000E+00
         0.00000E+00
         0.00000E+00
         0.00000E+00
         0.00000E+00
         0.00000E+00
         0.00000E+00
         0.00000E+00
         0.00000E+00
         0.00000E+00
         0.00000E+00
         0.00000E+00
         0.00000E+00
         0.00000E+00
         0.00000E+00
         0.00000E+00
         0.00000E+00
         0.00000E+00
         0.00000E+00
         0.00000E+00
         0.00000E+00
         0.00000E+00
         0.00000E+00
         0.00000E+00
         0.00000E+00
         0.00000E+00
         0.00000E+00
         0.00000E+00
         0.00000E+00
         0.00000E+00
         0.00000E+00
         0.00000E+00
         0.00000E+00
         0.00000E+00
         0.00000E+00
         0.00000E+00
         0.00000E+00
         0.00000E+00
         0.00000E+00
         0.00000E+00
         0.00000E+00
         0.00000E+00
         0.00000E+00
         0.00000E+00
         0.00000E+00
         0.00000E+00
         0.00000E+00
         0.00000E+00
         0.00000E+00
         0.00000E+00
         0.00000E+00
         0.00000E+00
         0.00000E+00
         0.00000E+00
         0.00000E+00
         0.00000E+00
         0.00000E+00
         0.00000E+00
         0.00000E+00
         0.00000E+00
         0.00000E+00
         0.00000E+00
         0.00000E+00
         0.00000E+00
         0.00000E+00
         0.00000E+00
         0.00000E+00
         0.00000E+00
         0.00000E+00
         0.00000E+00
         0.00000E+00
         0.00000E+00
         0.00000E+00
         0.00000E+00
         0.00000E+00
         0.00000E+00
         0.00000E+00
         0.00000E+00
         0.00000E+00
         0.00000E+00
         0.00000E+00
         0.00000E+00
         0.00000E+00
         0.00000E+00
         0.00000E+00
         0.00000E+00
         0.00000E+00
         0.00000E+00
         0.00000E+00
         0.00000E+00
         0.00000E+00
         0.00000E+00
         0.00000E+00
         0.00000E+00
         0.00000E+00
         0.00000E+00
         0.00000E+00
         0.00000E+00
         0.00000E+00
         0.00000E+00
         0.00000E+00
         0.00000E+00
         0.00000E+00
         0.00000E+00
         0.00000E+00
         0.00000E+00
         0.00000E+00
         0.00000E+00
         0.00000E+00
         0.00000E+00
         0.00000E+00
         0.00000E+00
         0.00000E+00
         0.00000E+00
         0.00000E+00
         0.00000E+00
         0.00000E+00
         0.00000E+00
         0.00000E+00
         0.00000E+00
         0.00000E+00
         0.00000E+00
         0.00000E+00
         0.00000E+00
         0.00000E+00
         0.00000E+00
         0.00000E+00
         0.00000E+00
         0.00000E+00
         0.00000E+00
         0.00000E+00
         0.00000E+00
         0.00000E+00
         0.00000E+00
         0.00000E+00
         0.00000E+00
         0.00000E+00
         0.00000E+00
         0.00000E+00
         0.00000E+00
         0.00000E+00
         0.00000E+00
         0.00000E+00
         0.00000E+00
         0.00000E+00
         0.00000E+00
         0.00000E+00
         0.00000E+00
         0.00000E+00
         0.00000E+00
         0.00000E+00
         0.00000E+00
         0.00000E+00
         0.00000E+00
         0.00000E+00
         0.00000E+00
         0.00000E+00
         0.00000E+00
         0.00000E+00
         0.00000E+00
         0.00000E+00
         0.00000E+00
         0.00000E+00
         0.00000E+00
         0.00000E+00
         0.00000E+00
         0.00000E+00
         0.00000E+00
         0.00000E+00
         0.00000E+00
         0.00000E+00
         0.00000E+00
         0.00000E+00
         0.00000E+00
         0.00000E+00
         0.00000E+00
         0.00000E+00
         0.00000E+00
         0.00000E+00
         0.00000E+00
         0.00000E+00
         0.00000E+00
         0.00000E+00
         0.00000E+00
         0.00000E+00
         0.00000E+00
         0.00000E+00
         0.00000E+00
         0.00000E+00
         0.00000E+00
         0.00000E+00
         0.00000E+00
         0.00000E+00
         0.00000E+00
         0.00000E+00
         0.00000E+00
         0.00000E+00
         0.00000E+00
         0.00000E+00
         0.00000E+00
         0.00000E+00
         0.00000E+00
         0.00000E+00
         0.00000E+00
         0.00000E+00
         0.00000E+00
         0.00000E+00
         0.00000E+00
         0.00000E+00
         0.00000E+00
         0.00000E+00
         0.00000E+00
         0.00000E+00
         0.00000E+00
         0.00000E+00
         0.00000E+00
         0.00000E+00
         0.00000E+00
         0.00000E+00
         0.00000E+00
         0.00000E+00
         0.00000E+00
         0.00000E+00
         0.00000E+00
         0.00000E+00
         0.00000E+00
         0.00000E+00
         0.00000E+00
         0.00000E+00
         0.00000E+00
         0.00000E+00
         0.00000E+00
         0.00000E+00
         0.00000E+00
         0.00000E+00
         0.00000E+00
         0.00000E+00
         0.00000E+00
         0.00000E+00
         0.00000E+00
         0.00000E+00
         0.00000E+00
         0.00000E+00
         0.00000E+00
         0.00000E+00
         0.00000E+00
         0.00000E+00
         0.00000E+00
         0.00000E+00
         0.00000E+00
         0.00000E+00
         0.00000E+00
         0.00000E+00
         0.00000E+00
         0.00000E+00
         0.00000E+00
         0.00000E+00
         0.00000E+00
         0.00000E+00
         0.00000E+00
         0.00000E+00
         0.00000E+00
         0.00000E+00
         0.00000E+00
         0.00000E+00
         0.00000E+00
         0.00000E+00
         0.00000E+00
         0.00000E+00
         0.00000E+00
         0.00000E+00
         0.00000E+00
         0.00000E+00
         0.00000E+00
         0.00000E+00
         0.00000E+00
         0.00000E+00
         0.00000E+00
         0.00000E+00
         0.00000E+00
         0.00000E+00
         0.00000E+00
         0.00000E+00
         0.00000E+00
         0.00000E+00
         0.00000E+00
         0.00000E+00
         0.00000E+00
         0.00000E+00
         0.00000E+00
         0.00000E+00
         0.00000E+00
         0.00000E+00
         0.00000E+00
         0.00000E+00
         0.00000E+00
         0.00000E+00
         0.00000E+00
         0.00000E+00
         0.00000E+00
         0.00000E+00
         0.00000E+00
         0.00000E+00
         0.00000E+00
         0.00000E+00
         0.00000E+00
         0.00000E+00
         0.00000E+00
         0.00000E+00
         0.00000E+00
         0.00000E+00
         0.00000E+00
         0.00000E+00
         0.00000E+00
         0.00000E+00
         0.00000E+00
         0.00000E+00
         0.00000E+00
         0.00000E+00
         0.00000E+00
         0.00000E+00
         0.00000E+00
         0.00000E+00
         0.00000E+00
         0.00000E+00
         0.00000E+00
         0.00000E+00
         0.00000E+00
         0.00000E+00
         0.00000E+00
         0.00000E+00
         0.00000E+00
         0.00000E+00
         0.00000E+00
         0.00000E+00
         0.00000E+00
         0.00000E+00
         0.00000E+00
         0.00000E+00
         0.00000E+00
         0.00000E+00
         0.00000E+00
         0.00000E+00
         0.00000E+00
         0.00000E+00
         0.00000E+00
         0.00000E+00
         0.00000E+00
         0.00000E+00
         0.00000E+00
         0.00000E+00
         0.00000E+00
         0.00000E+00
         0.00000E+00
         0.00000E+00
         0.00000E+00
         0.00000E+00
         0.00000E+00
         0.00000E+00
         0.00000E+00
         0.00000E+00
         0.00000E+00
         0.00000E+00
         0.00000E+00
         0.00000E+00
         0.00000E+00
         0.00000E+00
         0.00000E+00
         0.00000E+00
         0.00000E+00
         0.00000E+00
         0.00000E+00
         0.00000E+00
         0.00000E+00
         0.00000E+00
         0.00000E+00
         0.00000E+00
         0.00000E+00
         0.00000E+00
         0.00000E+00
         0.00000E+00
         0.00000E+00
         0.00000E+00
         0.00000E+00
         0.00000E+00
         0.00000E+00
         0.00000E+00
         0.00000E+00
         0.00000E+00
         0.00000E+00
         0.00000E+00
         0.00000E+00
         0.00000E+00
         0.00000E+00
         0.00000E+00
         0.00000E+00
         0.00000E+00
         0.00000E+00
         0.00000E+00
         0.00000E+00
         0.00000E+00
         0.00000E+00
         0.00000E+00
         0.00000E+00
         0.00000E+00
         0.00000E+00
         0.00000E+00
         0.00000E+00
         0.00000E+00
         0.00000E+00
         0.00000E+00
         0.00000E+00
         0.00000E+00
         0.00000E+00
         0.00000E+00
         0.00000E+00
         0.00000E+00
         0.00000E+00
         0.00000E+00
         0.00000E+00
         0.00000E+00
         0.00000E+00
         0.00000E+00
         0.00000E+00
         0.00000E+00
         0.00000E+00
         0.00000E+00
         0.00000E+00
         0.00000E+00
         0.00000E+00
         0.00000E+00
         0.00000E+00
         0.00000E+00
         0.00000E+00
         0.00000E+00
         0.00000E+00
         0.00000E+00
         0.00000E+00
         0.00000E+00
         0.00000E+00
         0.00000E+00
         0.00000E+00
         0.00000E+00
         0.00000E+00
         0.00000E+00
         0.00000E+00
         0.00000E+00
         0.00000E+00
         0.00000E+00
         0.00000E+00
         0.00000E+00
         0.00000E+00
         0.00000E+00
         0.00000E+00
         0.00000E+00
         0.00000E+00
         0.00000E+00
         0.00000E+00
         0.00000E+00
         0.00000E+00
         0.00000E+00
         0.00000E+00
         0.00000E+00
         0.00000E+00
         0.00000E+00
         0.00000E+00
         0.00000E+00
         0.00000E+00
         0.00000E+00
         0.00000E+00
         0.00000E+00
         0.00000E+00
         0.00000E+00
         0.00000E+00
         0.00000E+00
         0.00000E+00
         0.00000E+00
         0.00000E+00
         0.00000E+00
         0.00000E+00
         0.00000E+00
         0.00000E+00
         0.00000E+00
         0.00000E+00
         0.00000E+00
         0.00000E+00
         0.00000E+00
         0.00000E+00
         0.00000E+00
         0.00000E+00
         0.00000E+00
         0.00000E+00
         0.00000E+00
         0.00000E+00
         0.00000E+00
         0.00000E+00
         0.00000E+00
         0.00000E+00
         0.00000E+00
         0.00000E+00
         0.00000E+00
         0.00000E+00
         0.00000E+00
         0.00000E+00
         0.00000E+00
         0.00000E+00
         0.00000E+00
         0.00000E+00
         0.00000E+00
         0.00000E+00
         0.00000E+00
         0.00000E+00
         0.00000E+00
         0.00000E+00
         0.00000E+00
         0.00000E+00
         0.00000E+00
         0.00000E+00
         0.00000E+00
         0.00000E+00
         0.00000E+00
         0.00000E+00
         0.00000E+00
         0.00000E+00
         0.00000E+00
         0.00000E+00
         0.00000E+00
         0.00000E+00
         0.00000E+00
         0.00000E+00
         0.00000E+00
         0.00000E+00
         0.00000E+00
         0.00000E+00
         0.00000E+00
         0.00000E+00
         0.00000E+00
         0.00000E+00
         0.00000E+00
         0.00000E+00
         0.00000E+00
         0.00000E+00
         0.00000E+00
         0.00000E+00
         0.00000E+00
         0.00000E+00
         0.00000E+00
         0.00000E+00
         0.00000E+00
         0.00000E+00
         0.00000E+00
         0.00000E+00
         0.00000E+00
         0.00000E+00
         0.00000E+00
         0.00000E+00
         0.00000E+00
         0.00000E+00
         0.00000E+00
         0.00000E+00
         0.00000E+00
         0.00000E+00
         0.00000E+00
         0.00000E+00
         0.00000E+00
         0.00000E+00
         0.00000E+00
         0.00000E+00
         0.00000E+00
         0.00000E+00
         0.00000E+00
         0.00000E+00
         0.00000E+00
         0.00000E+00
         0.00000E+00
         0.00000E+00
         0.00000E+00
         0.00000E+00
         0.00000E+00
         0.00000E+00
         0.00000E+00
         0.00000E+00
         0.00000E+00
         0.00000E+00
         0.00000E+00
         0.00000E+00
         0.00000E+00
         0.00000E+00
         0.00000E+00
         0.00000E+00
         0.00000E+00
         0.00000E+00
         0.00000E+00
         0.00000E+00
         0.00000E+00
         0.00000E+00
         0.00000E+00
         0.00000E+00
         0.00000E+00
         0.00000E+00
         0.00000E+00
         0.00000E+00
         0.00000E+00
         0.00000E+00
         0.00000E+00
         0.00000E+00
         0.00000E+00
         0.00000E+00
         0.00000E+00
         0.00000E+00
         0.00000E+00
         0.00000E+00
         0.00000E+00
         0.00000E+00
         0.00000E+00
         0.00000E+00
         0.00000E+00
         0.00000E+00
         0.00000E+00
         0.00000E+00
         0.00000E+00
         0.00000E+00
         0.00000E+00
         0.00000E+00
         0.00000E+00
         0.00000E+00
         0.00000E+00
         0.00000E+00
         0.00000E+00
         0.00000E+00
         0.00000E+00
         0.00000E+00
         0.00000E+00
         0.00000E+00
         0.00000E+00
         0.00000E+00
         0.00000E+00
         0.00000E+00
         0.00000E+00
         0.00000E+00
         0.00000E+00
         0.00000E+00
         0.00000E+00
         0.00000E+00
         0.00000E+00
         0.00000E+00
         0.00000E+00
         0.00000E+00
         0.00000E+00
         0.00000E+00
         0.00000E+00
         0.00000E+00
         0.00000E+00
         0.00000E+00
         0.00000E+00
         0.00000E+00
         0.00000E+00
         0.00000E+00
         0.00000E+00
         0.00000E+00
         0.00000E+00
         0.00000E+00
         0.00000E+00
         0.00000E+00
         0.00000E+00
         0.00000E+00
         0.00000E+00
         0.00000E+00
         0.00000E+00
         0.00000E+00
         0.00000E+00
         0.00000E+00
         0.00000E+00
         0.00000E+00
         0.00000E+00
         0.00000E+00
         0.00000E+00
         0.00000E+00
         0.00000E+00
         0.00000E+00
         0.00000E+00
         0.00000E+00
         0.00000E+00
         0.00000E+00
         0.00000E+00
         0.00000E+00
         0.00000E+00
         0.00000E+00
         0.00000E+00
         0.00000E+00
         0.00000E+00
         0.00000E+00
         0.00000E+00
         0.00000E+00
         0.00000E+00
         0.00000E+00
         0.00000E+00
         0.00000E+00
         0.00000E+00
         0.00000E+00
         0.00000E+00
         0.00000E+00
         0.00000E+00
         0.00000E+00
         0.00000E+00
         0.00000E+00
         0.00000E+00
         0.00000E+00
         0.00000E+00
         0.00000E+00
         0.00000E+00
         0.00000E+00
         0.00000E+00
         0.00000E+00
         0.00000E+00
         0.00000E+00
         0.00000E+00
         0.00000E+00
         0.00000E+00
         0.00000E+00
         0.00000E+00
         0.00000E+00
         0.00000E+00
         0.00000E+00
         0.00000E+00
         0.00000E+00
         0.00000E+00
         0.00000E+00
         0.00000E+00
         0.00000E+00
         0.00000E+00
         0.00000E+00
         0.00000E+00
         0.00000E+00
         0.00000E+00
         0.00000E+00
         0.00000E+00
         0.00000E+00
         0.00000E+00
         0.00000E+00
         0.00000E+00
         0.00000E+00
         0.00000E+00
         0.00000E+00
         0.00000E+00
         0.00000E+00
         0.00000E+00
         0.00000E+00
         0.00000E+00
         0.00000E+00
         0.00000E+00
         0.00000E+00
         0.00000E+00
         0.00000E+00
         0.00000E+00
         0.00000E+00
         0.00000E+00
         0.00000E+00
         0.00000E+00
         0.00000E+00
         0.00000E+00
         0.00000E+00
         0.00000E+00
         0.00000E+00
         0.00000E+00
         0.00000E+00
         0.00000E+00
         0.00000E+00
         0.00000E+00
         0.00000E+00
         0.00000E+00
         0.00000E+00
         0.00000E+00
         0.00000E+00
         0.00000E+00
         0.00000E+00
         0.00000E+00
         0.00000E+00
         0.00000E+00
         0.00000E+00
         0.00000E+00
         0.00000E+00
         0.00000E+00
         0.00000E+00
         0.00000E+00
         0.00000E+00
         0.00000E+00
         0.00000E+00
         0.00000E+00
         0.00000E+00
         0.00000E+00
         0.00000E+00
         0.00000E+00
         0.00000E+00
         0.00000E+00
         0.00000E+00
         0.00000E+00
         0.00000E+00
         0.00000E+00
         0.00000E+00
         0.00000E+00
         0.00000E+00
         0.00000E+00
         0.00000E+00
         0.00000E+00
         0.00000E+00
         0.00000E+00
         0.00000E+00
         0.00000E+00
         0.00000E+00
         0.00000E+00
         0.00000E+00
         0.00000E+00
         0.00000E+00
         0.00000E+00
         0.00000E+00
         0.00000E+00
         0.00000E+00
         0.00000E+00
         0.00000E+00
         0.00000E+00
         0.00000E+00
         0.00000E+00
         0.00000E+00
         0.00000E+00
         0.00000E+00
         0.00000E+00
         0.00000E+00
         0.00000E+00
         0.00000E+00
         0.00000E+00
         0.00000E+00
         0.00000E+00
         0.00000E+00
         0.00000E+00
         0.00000E+00
         0.00000E+00
         0.00000E+00
         0.00000E+00
         0.00000E+00
         0.00000E+00
         0.00000E+00
         0.00000E+00
         0.00000E+00
         0.00000E+00
         0.00000E+00
         0.00000E+00
         0.00000E+00
         0.00000E+00
         0.00000E+00
         0.00000E+00
         0.00000E+00
         0.00000E+00
         0.00000E+00
         0.00000E+00
         0.00000E+00
         0.00000E+00
         0.00000E+00
         0.00000E+00
         0.00000E+00
         0.00000E+00
         0.00000E+00
         0.00000E+00
         0.00000E+00
         0.00000E+00
         0.00000E+00
         0.00000E+00
         0.00000E+00
         0.00000E+00
         0.00000E+00
         0.00000E+00
         0.00000E+00
         0.00000E+00
         0.00000E+00
         0.00000E+00
         0.00000E+00
         0.00000E+00
         0.00000E+00
         0.00000E+00
         0.00000E+00
         0.00000E+00
         0.00000E+00
         0.00000E+00
         0.00000E+00
         0.00000E+00
         0.00000E+00
         0.00000E+00
         0.00000E+00
         0.00000E+00
         0.00000E+00
         0.00000E+00
         0.00000E+00
         0.00000E+00
         0.00000E+00
         0.00000E+00
         0.00000E+00
         0.00000E+00
         0.00000E+00
         0.00000E+00
         0.00000E+00
         0.00000E+00
         0.00000E+00
         0.00000E+00
         0.00000E+00
         0.00000E+00
         0.00000E+00
         0.00000E+00
         0.00000E+00
         0.00000E+00
         0.00000E+00
         0.00000E+00
         0.00000E+00
         0.00000E+00
         0.00000E+00
         0.00000E+00
         0.00000E+00
         0.00000E+00
         0.00000E+00
         0.00000E+00
         0.00000E+00
         0.00000E+00
         0.00000E+00
         0.00000E+00
         0.00000E+00
         0.00000E+00
         0.00000E+00
         0.00000E+00
         0.00000E+00
         0.00000E+00
         0.00000E+00
         0.00000E+00
         0.00000E+00
         0.00000E+00
         0.00000E+00
         0.00000E+00
         0.00000E+00
         0.00000E+00
         0.00000E+00
         0.00000E+00
         0.00000E+00
         0.00000E+00
         0.00000E+00
         0.00000E+00
         0.00000E+00
         0.00000E+00
         0.00000E+00
         0.00000E+00
         0.00000E+00
         0.00000E+00
         0.00000E+00
         0.00000E+00
         0.00000E+00
         0.00000E+00
         0.00000E+00
         0.00000E+00
         0.00000E+00
         0.00000E+00
         0.00000E+00
         0.00000E+00
         0.00000E+00
         0.00000E+00
         0.00000E+00
         0.00000E+00
         0.00000E+00
         0.00000E+00
         0.00000E+00
         0.00000E+00
         0.00000E+00
         0.00000E+00
         0.00000E+00
         0.00000E+00
         0.00000E+00
         0.00000E+00
         0.00000E+00
         0.00000E+00
         0.00000E+00
         0.00000E+00
         0.00000E+00
         0.00000E+00
         0.00000E+00
         0.00000E+00
         0.00000E+00
         0.00000E+00
         0.00000E+00
         0.00000E+00
         0.00000E+00
         0.00000E+00
         0.00000E+00
         0.00000E+00
         0.00000E+00
         0.00000E+00
         0.00000E+00
         0.00000E+00
         0.00000E+00
         0.00000E+00
         0.00000E+00
         0.00000E+00
         0.00000E+00
         0.00000E+00
         0.00000E+00
         0.00000E+00
         0.00000E+00
         0.00000E+00
         0.00000E+00
         0.00000E+00
         0.00000E+00
         0.00000E+00
         0.00000E+00
         0.00000E+00
         0.00000E+00
         0.00000E+00
         0.00000E+00
         0.00000E+00
         0.00000E+00
         0.00000E+00
         0.00000E+00
         0.00000E+00
         0.00000E+00
         0.00000E+00
         0.00000E+00
         0.00000E+00
         0.00000E+00
         0.00000E+00
         0.00000E+00
         0.00000E+00
         0.00000E+00
         0.00000E+00
         0.00000E+00
         0.00000E+00
         0.00000E+00
         0.00000E+00
         0.00000E+00
         0.00000E+00
         0.00000E+00
         0.00000E+00
         0.00000E+00
         0.00000E+00
         0.00000E+00
         0.00000E+00
         0.00000E+00
         0.00000E+00
         0.00000E+00
         0.00000E+00
         0.00000E+00
         0.00000E+00
         0.00000E+00
         0.00000E+00
         0.00000E+00
         0.00000E+00
         0.00000E+00
         0.00000E+00
         0.00000E+00
         0.00000E+00
         0.00000E+00
         0.00000E+00
         0.00000E+00
         0.00000E+00
         0.00000E+00
         0.00000E+00
         0.00000E+00
         0.00000E+00
         0.00000E+00
         0.00000E+00
         0.00000E+00
         0.00000E+00
         0.00000E+00
         0.00000E+00
         0.00000E+00
         0.00000E+00
         0.00000E+00
         0.00000E+00
         0.00000E+00
         0.00000E+00
         0.00000E+00
         0.00000E+00
         0.00000E+00
         0.00000E+00
         0.00000E+00
         0.00000E+00
         0.00000E+00
         0.00000E+00
         0.00000E+00
         0.00000E+00
         0.00000E+00
         0.00000E+00
         0.00000E+00
         0.00000E+00
         0.00000E+00
         0.00000E+00
         0.00000E+00
         0.00000E+00
         0.00000E+00
         0.00000E+00
         0.00000E+00
         0.00000E+00
         0.00000E+00
         0.00000E+00
         0.00000E+00
         0.00000E+00
         0.00000E+00
         0.00000E+00
         0.00000E+00
         0.00000E+00
         0.00000E+00
         0.00000E+00
         0.00000E+00
         0.00000E+00
         0.00000E+00
         0.00000E+00
         0.00000E+00
         0.00000E+00
         0.00000E+00
         0.00000E+00
         0.00000E+00
         0.00000E+00
         0.00000E+00
         0.00000E+00
         0.00000E+00
         0.00000E+00
         0.00000E+00
         0.00000E+00
         0.00000E+00
         0.00000E+00
         0.00000E+00
         0.00000E+00
         0.00000E+00
         0.00000E+00
         0.00000E+00
         0.00000E+00
         0.00000E+00
         0.00000E+00
         0.00000E+00
         0.00000E+00
         0.00000E+00
         0.00000E+00
         0.00000E+00
         0.00000E+00
         0.00000E+00
         0.00000E+00
         0.00000E+00
         0.00000E+00
         0.00000E+00
         0.00000E+00
         0.00000E+00
         0.00000E+00
         0.00000E+00
         0.00000E+00
         0.00000E+00
         0.00000E+00
         0.00000E+00
         0.00000E+00
         0.00000E+00
         0.00000E+00
         0.00000E+00
         0.00000E+00
         0.00000E+00
         0.00000E+00
         0.00000E+00
         0.00000E+00
         0.00000E+00
         0.00000E+00
         0.00000E+00
         0.00000E+00
         0.00000E+00
         0.00000E+00
         0.00000E+00
         0.00000E+00
         0.00000E+00
         0.00000E+00
         0.00000E+00
         0.00000E+00
         0.00000E+00
         0.00000E+00
         0.00000E+00
         0.00000E+00
         0.00000E+00
         0.00000E+00
         0.00000E+00
         0.00000E+00
         0.00000E+00
         0.00000E+00
         0.00000E+00
         0.00000E+00
         0.00000E+00
         0.00000E+00
         0.00000E+00
         0.00000E+00
         0.00000E+00
         0.00000E+00
         0.00000E+00
         0.00000E+00
         0.00000E+00
         0.00000E+00
         0.00000E+00
         0.00000E+00
         0.00000E+00
         0.00000E+00
         0.00000E+00
         0.00000E+00
         0.00000E+00
         0.00000E+00
         0.00000E+00
         0.00000E+00
         0.00000E+00
         0.00000E+00
         0.00000E+00
         0.00000E+00
         0.00000E+00
         0.00000E+00
         0.00000E+00
         0.00000E+00
         0.00000E+00
         0.00000E+00
         0.00000E+00
         0.00000E+00
         0.00000E+00
         0.00000E+00
         0.00000E+00
         0.00000E+00
         0.00000E+00
         0.00000E+00
         0.00000E+00
         0.00000E+00
         0.00000E+00
         0.00000E+00
         0.00000E+00
         0.00000E+00
         0.00000E+00
         0.00000E+00
         0.00000E+00
         0.00000E+00
         0.00000E+00
         0.00000E+00
         0.00000E+00
         0.00000E+00
         0.00000E+00
         0.00000E+00
         0.00000E+00
         0.00000E+00
         0.00000E+00
         0.00000E+00
         0.00000E+00
         0.00000E+00
         0.00000E+00
         0.00000E+00
         0.00000E+00
         0.00000E+00
         0.00000E+00
         0.00000E+00
         0.00000E+00
         0.00000E+00
         0.00000E+00
         0.00000E+00
         0.00000E+00
         0.00000E+00
         0.00000E+00
         0.00000E+00
         0.00000E+00
         0.00000E+00
         0.00000E+00
         0.00000E+00
         0.00000E+00
         0.00000E+00
         0.00000E+00
         0.00000E+00
         0.00000E+00
         0.00000E+00
         0.00000E+00
         0.00000E+00
         0.00000E+00
         0.00000E+00
         0.00000E+00
         0.00000E+00
         0.00000E+00
         0.00000E+00
         0.00000E+00
         0.00000E+00
         0.00000E+00
         0.00000E+00
         0.00000E+00
         0.00000E+00
         0.00000E+00
         0.00000E+00
         0.00000E+00
         0.00000E+00
         0.00000E+00
         0.00000E+00
         0.00000E+00
         0.00000E+00
         0.00000E+00
         0.00000E+00
         0.00000E+00
         0.00000E+00
         0.00000E+00
         0.00000E+00
         0.00000E+00
         0.00000E+00
         0.00000E+00
         0.00000E+00
         0.00000E+00
         0.00000E+00
         0.00000E+00
         0.00000E+00
         0.00000E+00
         0.00000E+00
         0.00000E+00
         0.00000E+00
         0.00000E+00
         0.00000E+00
         0.00000E+00
         0.00000E+00
         0.00000E+00
         0.00000E+00
         0.00000E+00
         0.00000E+00
         0.00000E+00
         0.00000E+00
         0.00000E+00
         0.00000E+00
         0.00000E+00
         0.00000E+00
         0.00000E+00
         0.00000E+00
         0.00000E+00
         0.00000E+00
         0.00000E+00
         0.00000E+00
         0.00000E+00
         0.00000E+00
         0.00000E+00
         0.00000E+00
         0.00000E+00
         0.00000E+00
         0.00000E+00
         0.00000E+00
         0.00000E+00
         0.00000E+00
         0.00000E+00
         0.00000E+00
         0.00000E+00
         0.00000E+00
         0.00000E+00
         0.00000E+00
         0.00000E+00
         0.00000E+00
         0.00000E+00
         0.00000E+00
         0.00000E+00
         0.00000E+00
         0.00000E+00
         0.00000E+00
         0.00000E+00
         0.00000E+00
         0.00000E+00
         0.00000E+00
         0.00000E+00
         0.00000E+00
         0.00000E+00
         0.00000E+00
         0.00000E+00
         0.00000E+00
         0.00000E+00
         0.00000E+00
         0.00000E+00
         0.00000E+00
         0.00000E+00
         0.00000E+00
         0.00000E+00
         0.00000E+00
  
SCALARS                      eps_shear  double 1
LOOKUP_TABLE default
         0.00000E+00
         0.00000E+00
         0.00000E+00
         0.00000E+00
         0.00000E+00
         0.00000E+00
         0.00000E+00
         0.00000E+00
         0.00000E+00
         0.00000E+00
         0.00000E+00
         0.00000E+00
         0.00000E+00
         0.00000E+00
         0.00000E+00
         0.00000E+00
         0.00000E+00
         0.00000E+00
         0.00000E+00
         0.00000E+00
         0.00000E+00
         0.00000E+00
         0.00000E+00
         0.00000E+00
         0.00000E+00
         0.00000E+00
         0.00000E+00
         0.00000E+00
         0.00000E+00
         0.00000E+00
         0.00000E+00
         0.00000E+00
         0.00000E+00
         0.00000E+00
         0.00000E+00
         0.00000E+00
         0.00000E+00
         0.00000E+00
         0.00000E+00
         0.00000E+00
         0.00000E+00
         0.00000E+00
         0.00000E+00
         0.00000E+00
         0.00000E+00
         0.00000E+00
         0.00000E+00
         0.00000E+00
         0.00000E+00
         0.00000E+00
         0.00000E+00
         0.00000E+00
         0.00000E+00
         0.00000E+00
         0.00000E+00
         0.00000E+00
         0.00000E+00
         0.00000E+00
         0.00000E+00
         0.00000E+00
         0.00000E+00
         0.00000E+00
         0.00000E+00
         0.00000E+00
         0.00000E+00
         0.00000E+00
         0.00000E+00
         0.00000E+00
         0.00000E+00
         0.00000E+00
         0.00000E+00
         0.00000E+00
         0.00000E+00
         0.00000E+00
         0.00000E+00
         0.00000E+00
         0.00000E+00
         0.00000E+00
         0.00000E+00
         0.00000E+00
         0.00000E+00
         0.00000E+00
         0.00000E+00
         0.00000E+00
         0.00000E+00
         0.00000E+00
         0.00000E+00
         0.00000E+00
         0.00000E+00
         0.00000E+00
         0.00000E+00
         0.00000E+00
         0.00000E+00
         0.00000E+00
         0.00000E+00
         0.00000E+00
         0.00000E+00
         0.00000E+00
         0.00000E+00
         0.00000E+00
         0.00000E+00
         0.00000E+00
         0.00000E+00
         0.00000E+00
         0.00000E+00
         0.00000E+00
         0.00000E+00
         0.00000E+00
         0.00000E+00
         0.00000E+00
         0.00000E+00
         0.00000E+00
         0.00000E+00
         0.00000E+00
         0.00000E+00
         0.00000E+00
         0.00000E+00
         0.00000E+00
         0.00000E+00
         0.00000E+00
         0.00000E+00
         0.00000E+00
         0.00000E+00
         0.00000E+00
         0.00000E+00
         0.00000E+00
         0.00000E+00
         0.00000E+00
         0.00000E+00
         0.00000E+00
         0.00000E+00
         0.00000E+00
         0.00000E+00
         0.00000E+00
         0.00000E+00
         0.00000E+00
         0.00000E+00
         0.00000E+00
         0.00000E+00
         0.00000E+00
         0.00000E+00
         0.00000E+00
         0.00000E+00
         0.00000E+00
         0.00000E+00
         0.00000E+00
         0.00000E+00
         0.00000E+00
         0.00000E+00
         0.00000E+00
         0.00000E+00
         0.00000E+00
         0.00000E+00
         0.00000E+00
         0.00000E+00
         0.00000E+00
         0.00000E+00
         0.00000E+00
         0.00000E+00
         0.00000E+00
         0.00000E+00
         0.00000E+00
         0.00000E+00
         0.00000E+00
         0.00000E+00
         0.00000E+00
         0.00000E+00
         0.00000E+00
         0.00000E+00
         0.00000E+00
         0.00000E+00
         0.00000E+00
         0.00000E+00
         0.00000E+00
         0.00000E+00
         0.00000E+00
         0.00000E+00
         0.00000E+00
         0.00000E+00
         0.00000E+00
         0.00000E+00
         0.00000E+00
         0.00000E+00
         0.00000E+00
         0.00000E+00
         0.00000E+00
         0.00000E+00
         0.00000E+00
         0.00000E+00
         0.00000E+00
         0.00000E+00
         0.00000E+00
         0.00000E+00
         0.00000E+00
         0.00000E+00
         0.00000E+00
         0.00000E+00
         0.00000E+00
         0.00000E+00
         0.00000E+00
         0.00000E+00
         0.00000E+00
         0.00000E+00
         0.00000E+00
         0.00000E+00
         0.00000E+00
         0.00000E+00
         0.00000E+00
         0.00000E+00
         0.00000E+00
         0.00000E+00
         0.00000E+00
         0.00000E+00
         0.00000E+00
         0.00000E+00
         0.00000E+00
         0.00000E+00
         0.00000E+00
         0.00000E+00
         0.00000E+00
         0.00000E+00
         0.00000E+00
         0.00000E+00
         0.00000E+00
         0.00000E+00
         0.00000E+00
         0.00000E+00
         0.00000E+00
         0.00000E+00
         0.00000E+00
         0.00000E+00
         0.00000E+00
         0.00000E+00
         0.00000E+00
         0.00000E+00
         0.00000E+00
         0.00000E+00
         0.00000E+00
         0.00000E+00
         0.00000E+00
         0.00000E+00
         0.00000E+00
         0.00000E+00
         0.00000E+00
         0.00000E+00
         0.00000E+00
         0.00000E+00
         0.00000E+00
         0.00000E+00
         0.00000E+00
         0.00000E+00
         0.00000E+00
         0.00000E+00
         0.00000E+00
         0.00000E+00
         0.00000E+00
         0.00000E+00
         0.00000E+00
         0.00000E+00
         0.00000E+00
         0.00000E+00
         0.00000E+00
         0.00000E+00
         0.00000E+00
         0.00000E+00
         0.00000E+00
         0.00000E+00
         0.00000E+00
         0.00000E+00
         0.00000E+00
         0.00000E+00
         0.00000E+00
         0.00000E+00
         0.00000E+00
         0.00000E+00
         0.00000E+00
         0.00000E+00
         0.00000E+00
         0.00000E+00
         0.00000E+00
         0.00000E+00
         0.00000E+00
         0.00000E+00
         0.00000E+00
         0.00000E+00
         0.00000E+00
         0.00000E+00
         0.00000E+00
         0.00000E+00
         0.00000E+00
         0.00000E+00
         0.00000E+00
         0.00000E+00
         0.00000E+00
         0.00000E+00
         0.00000E+00
         0.00000E+00
         0.00000E+00
         0.00000E+00
         0.00000E+00
         0.00000E+00
         0.00000E+00
         0.00000E+00
         0.00000E+00
         0.00000E+00
         0.00000E+00
         0.00000E+00
         0.00000E+00
         0.00000E+00
         0.00000E+00
         0.00000E+00
         0.00000E+00
         0.00000E+00
         0.00000E+00
         0.00000E+00
         0.00000E+00
         0.00000E+00
         0.00000E+00
         0.00000E+00
         0.00000E+00
         0.00000E+00
         0.00000E+00
         0.00000E+00
         0.00000E+00
         0.00000E+00
         0.00000E+00
         0.00000E+00
         0.00000E+00
         0.00000E+00
         0.00000E+00
         0.00000E+00
         0.00000E+00
         0.00000E+00
         0.00000E+00
         0.00000E+00
         0.00000E+00
         0.00000E+00
         0.00000E+00
         0.00000E+00
         0.00000E+00
         0.00000E+00
         0.00000E+00
         0.00000E+00
         0.00000E+00
         0.00000E+00
         0.00000E+00
         0.00000E+00
         0.00000E+00
         0.00000E+00
         0.00000E+00
         0.00000E+00
         0.00000E+00
         0.00000E+00
         0.00000E+00
         0.00000E+00
         0.00000E+00
         0.00000E+00
         0.00000E+00
         0.00000E+00
         0.00000E+00
         0.00000E+00
         0.00000E+00
         0.00000E+00
         0.00000E+00
         0.00000E+00
         0.00000E+00
         0.00000E+00
         0.00000E+00
         0.00000E+00
         0.00000E+00
         0.00000E+00
         0.00000E+00
         0.00000E+00
         0.00000E+00
         0.00000E+00
         0.00000E+00
         0.00000E+00
         0.00000E+00
         0.00000E+00
         0.00000E+00
         0.00000E+00
         0.00000E+00
         0.00000E+00
         0.00000E+00
         0.00000E+00
         0.00000E+00
         0.00000E+00
         0.00000E+00
         0.00000E+00
         0.00000E+00
         0.00000E+00
         0.00000E+00
         0.00000E+00
         0.00000E+00
         0.00000E+00
         0.00000E+00
         0.00000E+00
         0.00000E+00
         0.00000E+00
         0.00000E+00
         0.00000E+00
         0.00000E+00
         0.00000E+00
         0.00000E+00
         0.00000E+00
         0.00000E+00
         0.00000E+00
         0.00000E+00
         0.00000E+00
         0.00000E+00
         0.00000E+00
         0.00000E+00
         0.00000E+00
         0.00000E+00
         0.00000E+00
         0.00000E+00
         0.00000E+00
         0.00000E+00
         0.00000E+00
         0.00000E+00
         0.00000E+00
         0.00000E+00
         0.00000E+00
         0.00000E+00
         0.00000E+00
         0.00000E+00
         0.00000E+00
         0.00000E+00
         0.00000E+00
         0.00000E+00
         0.00000E+00
         0.00000E+00
         0.00000E+00
         0.00000E+00
         0.00000E+00
         0.00000E+00
         0.00000E+00
         0.00000E+00
         0.00000E+00
         0.00000E+00
         0.00000E+00
         0.00000E+00
         0.00000E+00
         0.00000E+00
         0.00000E+00
         0.00000E+00
         0.00000E+00
         0.00000E+00
         0.00000E+00
         0.00000E+00
         0.00000E+00
         0.00000E+00
         0.00000E+00
         0.00000E+00
         0.00000E+00
         0.00000E+00
         0.00000E+00
         0.00000E+00
         0.00000E+00
         0.00000E+00
         0.00000E+00
         0.00000E+00
         0.00000E+00
         0.00000E+00
         0.00000E+00
         0.00000E+00
         0.00000E+00
         0.00000E+00
         0.00000E+00
         0.00000E+00
         0.00000E+00
         0.00000E+00
         0.00000E+00
         0.00000E+00
         0.00000E+00
         0.00000E+00
         0.00000E+00
         0.00000E+00
         0.00000E+00
         0.00000E+00
         0.00000E+00
         0.00000E+00
         0.00000E+00
         0.00000E+00
         0.00000E+00
         0.00000E+00
         0.00000E+00
         0.00000E+00
         0.00000E+00
         0.00000E+00
         0.00000E+00
         0.00000E+00
         0.00000E+00
         0.00000E+00
         0.00000E+00
         0.00000E+00
         0.00000E+00
         0.00000E+00
         0.00000E+00
         0.00000E+00
         0.00000E+00
         0.00000E+00
         0.00000E+00
         0.00000E+00
         0.00000E+00
         0.00000E+00
         0.00000E+00
         0.00000E+00
         0.00000E+00
         0.00000E+00
         0.00000E+00
         0.00000E+00
         0.00000E+00
         0.00000E+00
         0.00000E+00
         0.00000E+00
         0.00000E+00
         0.00000E+00
         0.00000E+00
         0.00000E+00
         0.00000E+00
         0.00000E+00
         0.00000E+00
         0.00000E+00
         0.00000E+00
         0.00000E+00
         0.00000E+00
         0.00000E+00
         0.00000E+00
         0.00000E+00
         0.00000E+00
         0.00000E+00
         0.00000E+00
         0.00000E+00
         0.00000E+00
         0.00000E+00
         0.00000E+00
         0.00000E+00
         0.00000E+00
         0.00000E+00
         0.00000E+00
         0.00000E+00
         0.00000E+00
         0.00000E+00
         0.00000E+00
         0.00000E+00
         0.00000E+00
         0.00000E+00
         0.00000E+00
         0.00000E+00
         0.00000E+00
         0.00000E+00
         0.00000E+00
         0.00000E+00
         0.00000E+00
         0.00000E+00
         0.00000E+00
         0.00000E+00
         0.00000E+00
         0.00000E+00
         0.00000E+00
         0.00000E+00
         0.00000E+00
         0.00000E+00
         0.00000E+00
         0.00000E+00
         0.00000E+00
         0.00000E+00
         0.00000E+00
         0.00000E+00
         0.00000E+00
         0.00000E+00
         0.00000E+00
         0.00000E+00
         0.00000E+00
         0.00000E+00
         0.00000E+00
         0.00000E+00
         0.00000E+00
         0.00000E+00
         0.00000E+00
         0.00000E+00
         0.00000E+00
         0.00000E+00
         0.00000E+00
         0.00000E+00
         0.00000E+00
         0.00000E+00
         0.00000E+00
         0.00000E+00
         0.00000E+00
         0.00000E+00
         0.00000E+00
         0.00000E+00
         0.00000E+00
         0.00000E+00
         0.00000E+00
         0.00000E+00
         0.00000E+00
         0.00000E+00
         0.00000E+00
         0.00000E+00
         0.00000E+00
         0.00000E+00
         0.00000E+00
         0.00000E+00
         0.00000E+00
         0.00000E+00
         0.00000E+00
         0.00000E+00
         0.00000E+00
         0.00000E+00
         0.00000E+00
         0.00000E+00
         0.00000E+00
         0.00000E+00
         0.00000E+00
         0.00000E+00
         0.00000E+00
         0.00000E+00
         0.00000E+00
         0.00000E+00
         0.00000E+00
         0.00000E+00
         0.00000E+00
         0.00000E+00
         0.00000E+00
         0.00000E+00
         0.00000E+00
         0.00000E+00
         0.00000E+00
         0.00000E+00
         0.00000E+00
         0.00000E+00
         0.00000E+00
         0.00000E+00
         0.00000E+00
         0.00000E+00
         0.00000E+00
         0.00000E+00
         0.00000E+00
         0.00000E+00
         0.00000E+00
         0.00000E+00
         0.00000E+00
         0.00000E+00
         0.00000E+00
         0.00000E+00
         0.00000E+00
         0.00000E+00
         0.00000E+00
         0.00000E+00
         0.00000E+00
         0.00000E+00
         0.00000E+00
         0.00000E+00
         0.00000E+00
         0.00000E+00
         0.00000E+00
         0.00000E+00
         0.00000E+00
         0.00000E+00
         0.00000E+00
         0.00000E+00
         0.00000E+00
         0.00000E+00
         0.00000E+00
         0.00000E+00
         0.00000E+00
         0.00000E+00
         0.00000E+00
         0.00000E+00
         0.00000E+00
         0.00000E+00
         0.00000E+00
         0.00000E+00
         0.00000E+00
         0.00000E+00
         0.00000E+00
         0.00000E+00
         0.00000E+00
         0.00000E+00
         0.00000E+00
         0.00000E+00
         0.00000E+00
         0.00000E+00
         0.00000E+00
         0.00000E+00
         0.00000E+00
         0.00000E+00
         0.00000E+00
         0.00000E+00
         0.00000E+00
         0.00000E+00
         0.00000E+00
         0.00000E+00
         0.00000E+00
         0.00000E+00
         0.00000E+00
         0.00000E+00
         0.00000E+00
         0.00000E+00
         0.00000E+00
         0.00000E+00
         0.00000E+00
         0.00000E+00
         0.00000E+00
         0.00000E+00
         0.00000E+00
         0.00000E+00
         0.00000E+00
         0.00000E+00
         0.00000E+00
         0.00000E+00
         0.00000E+00
         0.00000E+00
         0.00000E+00
         0.00000E+00
         0.00000E+00
         0.00000E+00
         0.00000E+00
         0.00000E+00
         0.00000E+00
         0.00000E+00
         0.00000E+00
         0.00000E+00
         0.00000E+00
         0.00000E+00
         0.00000E+00
         0.00000E+00
         0.00000E+00
         0.00000E+00
         0.00000E+00
         0.00000E+00
         0.00000E+00
         0.00000E+00
         0.00000E+00
         0.00000E+00
         0.00000E+00
         0.00000E+00
         0.00000E+00
         0.00000E+00
         0.00000E+00
         0.00000E+00
         0.00000E+00
         0.00000E+00
         0.00000E+00
         0.00000E+00
         0.00000E+00
         0.00000E+00
         0.00000E+00
         0.00000E+00
         0.00000E+00
         0.00000E+00
         0.00000E+00
         0.00000E+00
         0.00000E+00
         0.00000E+00
         0.00000E+00
         0.00000E+00
         0.00000E+00
         0.00000E+00
         0.00000E+00
         0.00000E+00
         0.00000E+00
         0.00000E+00
         0.00000E+00
         0.00000E+00
         0.00000E+00
         0.00000E+00
         0.00000E+00
         0.00000E+00
         0.00000E+00
         0.00000E+00
         0.00000E+00
         0.00000E+00
         0.00000E+00
         0.00000E+00
         0.00000E+00
         0.00000E+00
         0.00000E+00
         0.00000E+00
         0.00000E+00
         0.00000E+00
         0.00000E+00
         0.00000E+00
         0.00000E+00
         0.00000E+00
         0.00000E+00
         0.00000E+00
         0.00000E+00
         0.00000E+00
         0.00000E+00
         0.00000E+00
         0.00000E+00
         0.00000E+00
         0.00000E+00
         0.00000E+00
         0.00000E+00
         0.00000E+00
         0.00000E+00
         0.00000E+00
         0.00000E+00
         0.00000E+00
         0.00000E+00
         0.00000E+00
         0.00000E+00
         0.00000E+00
         0.00000E+00
         0.00000E+00
         0.00000E+00
         0.00000E+00
         0.00000E+00
         0.00000E+00
         0.00000E+00
         0.00000E+00
         0.00000E+00
         0.00000E+00
         0.00000E+00
         0.00000E+00
         0.00000E+00
         0.00000E+00
         0.00000E+00
         0.00000E+00
         0.00000E+00
         0.00000E+00
         0.00000E+00
         0.00000E+00
         0.00000E+00
         0.00000E+00
         0.00000E+00
         0.00000E+00
         0.00000E+00
         0.00000E+00
         0.00000E+00
         0.00000E+00
         0.00000E+00
         0.00000E+00
         0.00000E+00
         0.00000E+00
         0.00000E+00
         0.00000E+00
         0.00000E+00
         0.00000E+00
         0.00000E+00
         0.00000E+00
         0.00000E+00
         0.00000E+00
         0.00000E+00
         0.00000E+00
         0.00000E+00
         0.00000E+00
         0.00000E+00
         0.00000E+00
         0.00000E+00
         0.00000E+00
         0.00000E+00
         0.00000E+00
         0.00000E+00
         0.00000E+00
         0.00000E+00
         0.00000E+00
         0.00000E+00
         0.00000E+00
         0.00000E+00
         0.00000E+00
         0.00000E+00
         0.00000E+00
         0.00000E+00
         0.00000E+00
         0.00000E+00
         0.00000E+00
         0.00000E+00
         0.00000E+00
         0.00000E+00
         0.00000E+00
         0.00000E+00
         0.00000E+00
         0.00000E+00
         0.00000E+00
         0.00000E+00
         0.00000E+00
         0.00000E+00
         0.00000E+00
         0.00000E+00
         0.00000E+00
         0.00000E+00
         0.00000E+00
         0.00000E+00
         0.00000E+00
         0.00000E+00
         0.00000E+00
         0.00000E+00
         0.00000E+00
         0.00000E+00
         0.00000E+00
         0.00000E+00
         0.00000E+00
         0.00000E+00
         0.00000E+00
         0.00000E+00
         0.00000E+00
         0.00000E+00
         0.00000E+00
         0.00000E+00
         0.00000E+00
         0.00000E+00
         0.00000E+00
         0.00000E+00
         0.00000E+00
         0.00000E+00
         0.00000E+00
         0.00000E+00
         0.00000E+00
         0.00000E+00
         0.00000E+00
         0.00000E+00
         0.00000E+00
         0.00000E+00
         0.00000E+00
         0.00000E+00
         0.00000E+00
         0.00000E+00
         0.00000E+00
         0.00000E+00
         0.00000E+00
         0.00000E+00
         0.00000E+00
         0.00000E+00
         0.00000E+00
         0.00000E+00
         0.00000E+00
         0.00000E+00
         0.00000E+00
         0.00000E+00
         0.00000E+00
         0.00000E+00
         0.00000E+00
         0.00000E+00
         0.00000E+00
         0.00000E+00
         0.00000E+00
         0.00000E+00
         0.00000E+00
         0.00000E+00
         0.00000E+00
         0.00000E+00
         0.00000E+00
         0.00000E+00
         0.00000E+00
         0.00000E+00
         0.00000E+00
         0.00000E+00
         0.00000E+00
         0.00000E+00
         0.00000E+00
         0.00000E+00
         0.00000E+00
         0.00000E+00
         0.00000E+00
         0.00000E+00
         0.00000E+00
         0.00000E+00
         0.00000E+00
         0.00000E+00
         0.00000E+00
         0.00000E+00
         0.00000E+00
         0.00000E+00
         0.00000E+00
         0.00000E+00
         0.00000E+00
         0.00000E+00
         0.00000E+00
         0.00000E+00
         0.00000E+00
         0.00000E+00
         0.00000E+00
         0.00000E+00
         0.00000E+00
         0.00000E+00
         0.00000E+00
         0.00000E+00
         0.00000E+00
         0.00000E+00
         0.00000E+00
         0.00000E+00
         0.00000E+00
         0.00000E+00
         0.00000E+00
         0.00000E+00
         0.00000E+00
         0.00000E+00
         0.00000E+00
         0.00000E+00
         0.00000E+00
         0.00000E+00
         0.00000E+00
         0.00000E+00
         0.00000E+00
         0.00000E+00
         0.00000E+00
         0.00000E+00
         0.00000E+00
         0.00000E+00
         0.00000E+00
         0.00000E+00
         0.00000E+00
         0.00000E+00
         0.00000E+00
         0.00000E+00
         0.00000E+00
         0.00000E+00
         0.00000E+00
         0.00000E+00
         0.00000E+00
         0.00000E+00
         0.00000E+00
         0.00000E+00
         0.00000E+00
         0.00000E+00
         0.00000E+00
         0.00000E+00
         0.00000E+00
         0.00000E+00
         0.00000E+00
         0.00000E+00
         0.00000E+00
         0.00000E+00
         0.00000E+00
         0.00000E+00
         0.00000E+00
         0.00000E+00
         0.00000E+00
         0.00000E+00
         0.00000E+00
         0.00000E+00
         0.00000E+00
         0.00000E+00
         0.00000E+00
         0.00000E+00
         0.00000E+00
         0.00000E+00
         0.00000E+00
         0.00000E+00
         0.00000E+00
         0.00000E+00
         0.00000E+00
         0.00000E+00
         0.00000E+00
         0.00000E+00
         0.00000E+00
         0.00000E+00
         0.00000E+00
         0.00000E+00
         0.00000E+00
         0.00000E+00
         0.00000E+00
         0.00000E+00
         0.00000E+00
         0.00000E+00
         0.00000E+00
         0.00000E+00
         0.00000E+00
         0.00000E+00
         0.00000E+00
         0.00000E+00
         0.00000E+00
         0.00000E+00
         0.00000E+00
         0.00000E+00
         0.00000E+00
         0.00000E+00
         0.00000E+00
         0.00000E+00
         0.00000E+00
         0.00000E+00
         0.00000E+00
         0.00000E+00
         0.00000E+00
         0.00000E+00
         0.00000E+00
         0.00000E+00
         0.00000E+00
         0.00000E+00
         0.00000E+00
         0.00000E+00
         0.00000E+00
         0.00000E+00
         0.00000E+00
         0.00000E+00
         0.00000E+00
         0.00000E+00
         0.00000E+00
         0.00000E+00
         0.00000E+00
         0.00000E+00
         0.00000E+00
         0.00000E+00
         0.00000E+00
         0.00000E+00
         0.00000E+00
         0.00000E+00
         0.00000E+00
         0.00000E+00
         0.00000E+00
         0.00000E+00
         0.00000E+00
         0.00000E+00
         0.00000E+00
         0.00000E+00
         0.00000E+00
         0.00000E+00
         0.00000E+00
         0.00000E+00
         0.00000E+00
         0.00000E+00
         0.00000E+00
         0.00000E+00
         0.00000E+00
         0.00000E+00
         0.00000E+00
         0.00000E+00
         0.00000E+00
         0.00000E+00
         0.00000E+00
         0.00000E+00
         0.00000E+00
         0.00000E+00
         0.00000E+00
         0.00000E+00
         0.00000E+00
         0.00000E+00
         0.00000E+00
         0.00000E+00
         0.00000E+00
         0.00000E+00
         0.00000E+00
         0.00000E+00
         0.00000E+00
         0.00000E+00
         0.00000E+00
         0.00000E+00
         0.00000E+00
         0.00000E+00
         0.00000E+00
         0.00000E+00
         0.00000E+00
         0.00000E+00
         0.00000E+00
         0.00000E+00
         0.00000E+00
         0.00000E+00
         0.00000E+00
         0.00000E+00
         0.00000E+00
         0.00000E+00
         0.00000E+00
         0.00000E+00
         0.00000E+00
         0.00000E+00
         0.00000E+00
         0.00000E+00
         0.00000E+00
         0.00000E+00
         0.00000E+00
         0.00000E+00
         0.00000E+00
         0.00000E+00
         0.00000E+00
         0.00000E+00
         0.00000E+00
         0.00000E+00
         0.00000E+00
         0.00000E+00
         0.00000E+00
         0.00000E+00
         0.00000E+00
         0.00000E+00
         0.00000E+00
         0.00000E+00
         0.00000E+00
         0.00000E+00
         0.00000E+00
         0.00000E+00
         0.00000E+00
         0.00000E+00
         0.00000E+00
         0.00000E+00
         0.00000E+00
         0.00000E+00
         0.00000E+00
         0.00000E+00
         0.00000E+00
         0.00000E+00
         0.00000E+00
         0.00000E+00
         0.00000E+00
         0.00000E+00
         0.00000E+00
         0.00000E+00
         0.00000E+00
         0.00000E+00
         0.00000E+00
         0.00000E+00
         0.00000E+00
         0.00000E+00
         0.00000E+00
         0.00000E+00
         0.00000E+00
         0.00000E+00
         0.00000E+00
         0.00000E+00
         0.00000E+00
         0.00000E+00
         0.00000E+00
         0.00000E+00
         0.00000E+00
         0.00000E+00
         0.00000E+00
         0.00000E+00
         0.00000E+00
         0.00000E+00
         0.00000E+00
         0.00000E+00
         0.00000E+00
         0.00000E+00
         0.00000E+00
         0.00000E+00
         0.00000E+00
         0.00000E+00
         0.00000E+00
         0.00000E+00
         0.00000E+00
         0.00000E+00
         0.00000E+00
         0.00000E+00
         0.00000E+00
         0.00000E+00
         0.00000E+00
         0.00000E+00
         0.00000E+00
         0.00000E+00
         0.00000E+00
         0.00000E+00
         0.00000E+00
         0.00000E+00
         0.00000E+00
         0.00000E+00
         0.00000E+00
         0.00000E+00
         0.00000E+00
         0.00000E+00
         0.00000E+00
         0.00000E+00
         0.00000E+00
         0.00000E+00
         0.00000E+00
         0.00000E+00
         0.00000E+00
         0.00000E+00
         0.00000E+00
         0.00000E+00
         0.00000E+00
         0.00000E+00
         0.00000E+00
         0.00000E+00
         0.00000E+00
         0.00000E+00
         0.00000E+00
         0.00000E+00
         0.00000E+00
         0.00000E+00
         0.00000E+00
         0.00000E+00
         0.00000E+00
         0.00000E+00
         0.00000E+00
         0.00000E+00
         0.00000E+00
         0.00000E+00
         0.00000E+00
         0.00000E+00
         0.00000E+00
         0.00000E+00
         0.00000E+00
         0.00000E+00
         0.00000E+00
         0.00000E+00
         0.00000E+00
         0.00000E+00
         0.00000E+00
         0.00000E+00
         0.00000E+00
         0.00000E+00
         0.00000E+00
         0.00000E+00
         0.00000E+00
         0.00000E+00
         0.00000E+00
         0.00000E+00
         0.00000E+00
         0.00000E+00
         0.00000E+00
         0.00000E+00
         0.00000E+00
         0.00000E+00
         0.00000E+00
         0.00000E+00
         0.00000E+00
         0.00000E+00
         0.00000E+00
         0.00000E+00
         0.00000E+00
         0.00000E+00
         0.00000E+00
         0.00000E+00
         0.00000E+00
         0.00000E+00
         0.00000E+00
         0.00000E+00
         0.00000E+00
         0.00000E+00
         0.00000E+00
         0.00000E+00
         0.00000E+00
         0.00000E+00
         0.00000E+00
         0.00000E+00
         0.00000E+00
         0.00000E+00
         0.00000E+00
         0.00000E+00
         0.00000E+00
         0.00000E+00
         0.00000E+00
         0.00000E+00
         0.00000E+00
         0.00000E+00
         0.00000E+00
         0.00000E+00
         0.00000E+00
         0.00000E+00
         0.00000E+00
         0.00000E+00
         0.00000E+00
         0.00000E+00
         0.00000E+00
         0.00000E+00
         0.00000E+00
         0.00000E+00
         0.00000E+00
         0.00000E+00
         0.00000E+00
         0.00000E+00
         0.00000E+00
         0.00000E+00
         0.00000E+00
         0.00000E+00
         0.00000E+00
         0.00000E+00
         0.00000E+00
         0.00000E+00
         0.00000E+00
         0.00000E+00
         0.00000E+00
         0.00000E+00
         0.00000E+00
         0.00000E+00
         0.00000E+00
         0.00000E+00
         0.00000E+00
         0.00000E+00
         0.00000E+00
         0.00000E+00
         0.00000E+00
         0.00000E+00
         0.00000E+00
         0.00000E+00
         0.00000E+00
         0.00000E+00
         0.00000E+00
         0.00000E+00
         0.00000E+00
         0.00000E+00
         0.00000E+00
         0.00000E+00
         0.00000E+00
         0.00000E+00
         0.00000E+00
         0.00000E+00
         0.00000E+00
         0.00000E+00
         0.00000E+00
         0.00000E+00
         0.00000E+00
         0.00000E+00
         0.00000E+00
         0.00000E+00
         0.00000E+00
         0.00000E+00
         0.00000E+00
         0.00000E+00
         0.00000E+00
         0.00000E+00
         0.00000E+00
         0.00000E+00
         0.00000E+00
         0.00000E+00
         0.00000E+00
         0.00000E+00
         0.00000E+00
         0.00000E+00
         0.00000E+00
         0.00000E+00
         0.00000E+00
         0.00000E+00
         0.00000E+00
         0.00000E+00
         0.00000E+00
         0.00000E+00
         0.00000E+00
         0.00000E+00
         0.00000E+00
         0.00000E+00
         0.00000E+00
         0.00000E+00
         0.00000E+00
         0.00000E+00
         0.00000E+00
         0.00000E+00
         0.00000E+00
         0.00000E+00
         0.00000E+00
         0.00000E+00
         0.00000E+00
         0.00000E+00
         0.00000E+00
         0.00000E+00
         0.00000E+00
         0.00000E+00
         0.00000E+00
         0.00000E+00
         0.00000E+00
         0.00000E+00
         0.00000E+00
         0.00000E+00
         0.00000E+00
         0.00000E+00
         0.00000E+00
         0.00000E+00
         0.00000E+00
         0.00000E+00
         0.00000E+00
         0.00000E+00
         0.00000E+00
         0.00000E+00
         0.00000E+00
         0.00000E+00
         0.00000E+00
         0.00000E+00
         0.00000E+00
         0.00000E+00
         0.00000E+00
         0.00000E+00
         0.00000E+00
         0.00000E+00
         0.00000E+00
         0.00000E+00
         0.00000E+00
         0.00000E+00
         0.00000E+00
         0.00000E+00
         0.00000E+00
         0.00000E+00
         0.00000E+00
         0.00000E+00
         0.00000E+00
         0.00000E+00
         0.00000E+00
         0.00000E+00
         0.00000E+00
         0.00000E+00
         0.00000E+00
         0.00000E+00
         0.00000E+00
         0.00000E+00
         0.00000E+00
         0.00000E+00
         0.00000E+00
         0.00000E+00
         0.00000E+00
         0.00000E+00
         0.00000E+00
         0.00000E+00
         0.00000E+00
         0.00000E+00
         0.00000E+00
         0.00000E+00
         0.00000E+00
         0.00000E+00
         0.00000E+00
         0.00000E+00
         0.00000E+00
         0.00000E+00
         0.00000E+00
         0.00000E+00
         0.00000E+00
         0.00000E+00
         0.00000E+00
         0.00000E+00
         0.00000E+00
         0.00000E+00
         0.00000E+00
         0.00000E+00
         0.00000E+00
         0.00000E+00
         0.00000E+00
         0.00000E+00
         0.00000E+00
         0.00000E+00
         0.00000E+00
         0.00000E+00
         0.00000E+00
         0.00000E+00
         0.00000E+00
         0.00000E+00
         0.00000E+00
         0.00000E+00
         0.00000E+00
         0.00000E+00
         0.00000E+00
         0.00000E+00
         0.00000E+00
         0.00000E+00
         0.00000E+00
         0.00000E+00
         0.00000E+00
         0.00000E+00
         0.00000E+00
         0.00000E+00
         0.00000E+00
         0.00000E+00
         0.00000E+00
         0.00000E+00
         0.00000E+00
         0.00000E+00
         0.00000E+00
         0.00000E+00
         0.00000E+00
         0.00000E+00
         0.00000E+00
         0.00000E+00
         0.00000E+00
         0.00000E+00
         0.00000E+00
         0.00000E+00
         0.00000E+00
         0.00000E+00
         0.00000E+00
         0.00000E+00
         0.00000E+00
         0.00000E+00
         0.00000E+00
         0.00000E+00
         0.00000E+00
         0.00000E+00
         0.00000E+00
         0.00000E+00
         0.00000E+00
         0.00000E+00
         0.00000E+00
         0.00000E+00
         0.00000E+00
         0.00000E+00
         0.00000E+00
         0.00000E+00
         0.00000E+00
         0.00000E+00
         0.00000E+00
         0.00000E+00
         0.00000E+00
         0.00000E+00
         0.00000E+00
         0.00000E+00
         0.00000E+00
         0.00000E+00
         0.00000E+00
         0.00000E+00
         0.00000E+00
         0.00000E+00
         0.00000E+00
         0.00000E+00
         0.00000E+00
         0.00000E+00
         0.00000E+00
         0.00000E+00
         0.00000E+00
         0.00000E+00
         0.00000E+00
         0.00000E+00
         0.00000E+00
         0.00000E+00
         0.00000E+00
         0.00000E+00
         0.00000E+00
         0.00000E+00
         0.00000E+00
         0.00000E+00
         0.00000E+00
         0.00000E+00
         0.00000E+00
         0.00000E+00
         0.00000E+00
         0.00000E+00
         0.00000E+00
         0.00000E+00
         0.00000E+00
         0.00000E+00
         0.00000E+00
         0.00000E+00
         0.00000E+00
         0.00000E+00
         0.00000E+00
         0.00000E+00
         0.00000E+00
         0.00000E+00
         0.00000E+00
         0.00000E+00
         0.00000E+00
         0.00000E+00
         0.00000E+00
         0.00000E+00
         0.00000E+00
         0.00000E+00
         0.00000E+00
         0.00000E+00
         0.00000E+00
         0.00000E+00
         0.00000E+00
         0.00000E+00
         0.00000E+00
         0.00000E+00
         0.00000E+00
         0.00000E+00
         0.00000E+00
         0.00000E+00
         0.00000E+00
         0.00000E+00
         0.00000E+00
         0.00000E+00
         0.00000E+00
         0.00000E+00
         0.00000E+00
         0.00000E+00
         0.00000E+00
         0.00000E+00
         0.00000E+00
         0.00000E+00
         0.00000E+00
         0.00000E+00
         0.00000E+00
         0.00000E+00
         0.00000E+00
         0.00000E+00
         0.00000E+00
         0.00000E+00
         0.00000E+00
         0.00000E+00
         0.00000E+00
         0.00000E+00
         0.00000E+00
         0.00000E+00
         0.00000E+00
         0.00000E+00
         0.00000E+00
         0.00000E+00
         0.00000E+00
         0.00000E+00
         0.00000E+00
         0.00000E+00
         0.00000E+00
         0.00000E+00
         0.00000E+00
         0.00000E+00
         0.00000E+00
         0.00000E+00
         0.00000E+00
         0.00000E+00
         0.00000E+00
         0.00000E+00
         0.00000E+00
         0.00000E+00
         0.00000E+00
         0.00000E+00
         0.00000E+00
         0.00000E+00
         0.00000E+00
         0.00000E+00
         0.00000E+00
         0.00000E+00
         0.00000E+00
         0.00000E+00
         0.00000E+00
         0.00000E+00
         0.00000E+00
         0.00000E+00
         0.00000E+00
         0.00000E+00
         0.00000E+00
         0.00000E+00
         0.00000E+00
         0.00000E+00
         0.00000E+00
         0.00000E+00
         0.00000E+00
         0.00000E+00
         0.00000E+00
         0.00000E+00
         0.00000E+00
         0.00000E+00
         0.00000E+00
         0.00000E+00
         0.00000E+00
         0.00000E+00
         0.00000E+00
         0.00000E+00
         0.00000E+00
         0.00000E+00
         0.00000E+00
         0.00000E+00
         0.00000E+00
         0.00000E+00
         0.00000E+00
         0.00000E+00
         0.00000E+00
         0.00000E+00
         0.00000E+00
         0.00000E+00
         0.00000E+00
         0.00000E+00
         0.00000E+00
         0.00000E+00
         0.00000E+00
         0.00000E+00
         0.00000E+00
         0.00000E+00
         0.00000E+00
         0.00000E+00
         0.00000E+00
         0.00000E+00
         0.00000E+00
         0.00000E+00
         0.00000E+00
         0.00000E+00
         0.00000E+00
         0.00000E+00
         0.00000E+00
         0.00000E+00
         0.00000E+00
         0.00000E+00
         0.00000E+00
         0.00000E+00
         0.00000E+00
         0.00000E+00
         0.00000E+00
         0.00000E+00
         0.00000E+00
         0.00000E+00
         0.00000E+00
         0.00000E+00
         0.00000E+00
         0.00000E+00
         0.00000E+00
         0.00000E+00
         0.00000E+00
         0.00000E+00
         0.00000E+00
         0.00000E+00
         0.00000E+00
         0.00000E+00
         0.00000E+00
         0.00000E+00
         0.00000E+00
         0.00000E+00
         0.00000E+00
         0.00000E+00
         0.00000E+00
         0.00000E+00
         0.00000E+00
         0.00000E+00
         0.00000E+00
         0.00000E+00
         0.00000E+00
         0.00000E+00
         0.00000E+00
         0.00000E+00
         0.00000E+00
         0.00000E+00
         0.00000E+00
         0.00000E+00
         0.00000E+00
         0.00000E+00
         0.00000E+00
         0.00000E+00
         0.00000E+00
         0.00000E+00
         0.00000E+00
         0.00000E+00
         0.00000E+00
         0.00000E+00
         0.00000E+00
         0.00000E+00
         0.00000E+00
         0.00000E+00
         0.00000E+00
         0.00000E+00
         0.00000E+00
         0.00000E+00
         0.00000E+00
         0.00000E+00
         0.00000E+00
         0.00000E+00
         0.00000E+00
         0.00000E+00
         0.00000E+00
         0.00000E+00
         0.00000E+00
         0.00000E+00
         0.00000E+00
         0.00000E+00
         0.00000E+00
         0.00000E+00
         0.00000E+00
         0.00000E+00
         0.00000E+00
         0.00000E+00
         0.00000E+00
         0.00000E+00
         0.00000E+00
         0.00000E+00
         0.00000E+00
         0.00000E+00
         0.00000E+00
         0.00000E+00
         0.00000E+00
         0.00000E+00
         0.00000E+00
         0.00000E+00
         0.00000E+00
         0.00000E+00
         0.00000E+00
         0.00000E+00
         0.00000E+00
         0.00000E+00
         0.00000E+00
         0.00000E+00
         0.00000E+00
         0.00000E+00
         0.00000E+00
         0.00000E+00
         0.00000E+00
         0.00000E+00
         0.00000E+00
         0.00000E+00
         0.00000E+00
         0.00000E+00
         0.00000E+00
         0.00000E+00
         0.00000E+00
         0.00000E+00
         0.00000E+00
         0.00000E+00
         0.00000E+00
         0.00000E+00
         0.00000E+00
         0.00000E+00
         0.00000E+00
         0.00000E+00
         0.00000E+00
         0.00000E+00
         0.00000E+00
         0.00000E+00
         0.00000E+00
         0.00000E+00
         0.00000E+00
         0.00000E+00
         0.00000E+00
         0.00000E+00
         0.00000E+00
         0.00000E+00
         0.00000E+00
         0.00000E+00
         0.00000E+00
         0.00000E+00
         0.00000E+00
         0.00000E+00
         0.00000E+00
         0.00000E+00
         0.00000E+00
         0.00000E+00
         0.00000E+00
         0.00000E+00
         0.00000E+00
         0.00000E+00
         0.00000E+00
         0.00000E+00
         0.00000E+00
         0.00000E+00
         0.00000E+00
         0.00000E+00
         0.00000E+00
         0.00000E+00
         0.00000E+00
         0.00000E+00
         0.00000E+00
         0.00000E+00
         0.00000E+00
         0.00000E+00
         0.00000E+00
         0.00000E+00
         0.00000E+00
         0.00000E+00
         0.00000E+00
         0.00000E+00
         0.00000E+00
         0.00000E+00
         0.00000E+00
         0.00000E+00
         0.00000E+00
         0.00000E+00
         0.00000E+00
         0.00000E+00
         0.00000E+00
         0.00000E+00
         0.00000E+00
         0.00000E+00
         0.00000E+00
         0.00000E+00
         0.00000E+00
         0.00000E+00
         0.00000E+00
         0.00000E+00
         0.00000E+00
         0.00000E+00
         0.00000E+00
         0.00000E+00
         0.00000E+00
         0.00000E+00
         0.00000E+00
  
SCALARS                        eps_vol  double 1
LOOKUP_TABLE default
         0.00000E+00
         0.00000E+00
         0.00000E+00
         0.00000E+00
         0.00000E+00
         0.00000E+00
         0.00000E+00
         0.00000E+00
         0.00000E+00
         0.00000E+00
         0.00000E+00
         0.00000E+00
         0.00000E+00
         0.00000E+00
         0.00000E+00
         0.00000E+00
         0.00000E+00
         0.00000E+00
         0.00000E+00
         0.00000E+00
         0.00000E+00
         0.00000E+00
         0.00000E+00
         0.00000E+00
         0.00000E+00
         0.00000E+00
         0.00000E+00
         0.00000E+00
         0.00000E+00
         0.00000E+00
         0.00000E+00
         0.00000E+00
         0.00000E+00
         0.00000E+00
         0.00000E+00
         0.00000E+00
         0.00000E+00
         0.00000E+00
         0.00000E+00
         0.00000E+00
         0.00000E+00
         0.00000E+00
         0.00000E+00
         0.00000E+00
         0.00000E+00
         0.00000E+00
         0.00000E+00
         0.00000E+00
         0.00000E+00
         0.00000E+00
         0.00000E+00
         0.00000E+00
         0.00000E+00
         0.00000E+00
         0.00000E+00
         0.00000E+00
         0.00000E+00
         0.00000E+00
         0.00000E+00
         0.00000E+00
         0.00000E+00
         0.00000E+00
         0.00000E+00
         0.00000E+00
         0.00000E+00
         0.00000E+00
         0.00000E+00
         0.00000E+00
         0.00000E+00
         0.00000E+00
         0.00000E+00
         0.00000E+00
         0.00000E+00
         0.00000E+00
         0.00000E+00
         0.00000E+00
         0.00000E+00
         0.00000E+00
         0.00000E+00
         0.00000E+00
         0.00000E+00
         0.00000E+00
         0.00000E+00
         0.00000E+00
         0.00000E+00
         0.00000E+00
         0.00000E+00
         0.00000E+00
         0.00000E+00
         0.00000E+00
         0.00000E+00
         0.00000E+00
         0.00000E+00
         0.00000E+00
         0.00000E+00
         0.00000E+00
         0.00000E+00
         0.00000E+00
         0.00000E+00
         0.00000E+00
         0.00000E+00
         0.00000E+00
         0.00000E+00
         0.00000E+00
         0.00000E+00
         0.00000E+00
         0.00000E+00
         0.00000E+00
         0.00000E+00
         0.00000E+00
         0.00000E+00
         0.00000E+00
         0.00000E+00
         0.00000E+00
         0.00000E+00
         0.00000E+00
         0.00000E+00
         0.00000E+00
         0.00000E+00
         0.00000E+00
         0.00000E+00
         0.00000E+00
         0.00000E+00
         0.00000E+00
         0.00000E+00
         0.00000E+00
         0.00000E+00
         0.00000E+00
         0.00000E+00
         0.00000E+00
         0.00000E+00
         0.00000E+00
         0.00000E+00
         0.00000E+00
         0.00000E+00
         0.00000E+00
         0.00000E+00
         0.00000E+00
         0.00000E+00
         0.00000E+00
         0.00000E+00
         0.00000E+00
         0.00000E+00
         0.00000E+00
         0.00000E+00
         0.00000E+00
         0.00000E+00
         0.00000E+00
         0.00000E+00
         0.00000E+00
         0.00000E+00
         0.00000E+00
         0.00000E+00
         0.00000E+00
         0.00000E+00
         0.00000E+00
         0.00000E+00
         0.00000E+00
         0.00000E+00
         0.00000E+00
         0.00000E+00
         0.00000E+00
         0.00000E+00
         0.00000E+00
         0.00000E+00
         0.00000E+00
         0.00000E+00
         0.00000E+00
         0.00000E+00
         0.00000E+00
         0.00000E+00
         0.00000E+00
         0.00000E+00
         0.00000E+00
         0.00000E+00
         0.00000E+00
         0.00000E+00
         0.00000E+00
         0.00000E+00
         0.00000E+00
         0.00000E+00
         0.00000E+00
         0.00000E+00
         0.00000E+00
         0.00000E+00
         0.00000E+00
         0.00000E+00
         0.00000E+00
         0.00000E+00
         0.00000E+00
         0.00000E+00
         0.00000E+00
         0.00000E+00
         0.00000E+00
         0.00000E+00
         0.00000E+00
         0.00000E+00
         0.00000E+00
         0.00000E+00
         0.00000E+00
         0.00000E+00
         0.00000E+00
         0.00000E+00
         0.00000E+00
         0.00000E+00
         0.00000E+00
         0.00000E+00
         0.00000E+00
         0.00000E+00
         0.00000E+00
         0.00000E+00
         0.00000E+00
         0.00000E+00
         0.00000E+00
         0.00000E+00
         0.00000E+00
         0.00000E+00
         0.00000E+00
         0.00000E+00
         0.00000E+00
         0.00000E+00
         0.00000E+00
         0.00000E+00
         0.00000E+00
         0.00000E+00
         0.00000E+00
         0.00000E+00
         0.00000E+00
         0.00000E+00
         0.00000E+00
         0.00000E+00
         0.00000E+00
         0.00000E+00
         0.00000E+00
         0.00000E+00
         0.00000E+00
         0.00000E+00
         0.00000E+00
         0.00000E+00
         0.00000E+00
         0.00000E+00
         0.00000E+00
         0.00000E+00
         0.00000E+00
         0.00000E+00
         0.00000E+00
         0.00000E+00
         0.00000E+00
         0.00000E+00
         0.00000E+00
         0.00000E+00
         0.00000E+00
         0.00000E+00
         0.00000E+00
         0.00000E+00
         0.00000E+00
         0.00000E+00
         0.00000E+00
         0.00000E+00
         0.00000E+00
         0.00000E+00
         0.00000E+00
         0.00000E+00
         0.00000E+00
         0.00000E+00
         0.00000E+00
         0.00000E+00
         0.00000E+00
         0.00000E+00
         0.00000E+00
         0.00000E+00
         0.00000E+00
         0.00000E+00
         0.00000E+00
         0.00000E+00
         0.00000E+00
         0.00000E+00
         0.00000E+00
         0.00000E+00
         0.00000E+00
         0.00000E+00
         0.00000E+00
         0.00000E+00
         0.00000E+00
         0.00000E+00
         0.00000E+00
         0.00000E+00
         0.00000E+00
         0.00000E+00
         0.00000E+00
         0.00000E+00
         0.00000E+00
         0.00000E+00
         0.00000E+00
         0.00000E+00
         0.00000E+00
         0.00000E+00
         0.00000E+00
         0.00000E+00
         0.00000E+00
         0.00000E+00
         0.00000E+00
         0.00000E+00
         0.00000E+00
         0.00000E+00
         0.00000E+00
         0.00000E+00
         0.00000E+00
         0.00000E+00
         0.00000E+00
         0.00000E+00
         0.00000E+00
         0.00000E+00
         0.00000E+00
         0.00000E+00
         0.00000E+00
         0.00000E+00
         0.00000E+00
         0.00000E+00
         0.00000E+00
         0.00000E+00
         0.00000E+00
         0.00000E+00
         0.00000E+00
         0.00000E+00
         0.00000E+00
         0.00000E+00
         0.00000E+00
         0.00000E+00
         0.00000E+00
         0.00000E+00
         0.00000E+00
         0.00000E+00
         0.00000E+00
         0.00000E+00
         0.00000E+00
         0.00000E+00
         0.00000E+00
         0.00000E+00
         0.00000E+00
         0.00000E+00
         0.00000E+00
         0.00000E+00
         0.00000E+00
         0.00000E+00
         0.00000E+00
         0.00000E+00
         0.00000E+00
         0.00000E+00
         0.00000E+00
         0.00000E+00
         0.00000E+00
         0.00000E+00
         0.00000E+00
         0.00000E+00
         0.00000E+00
         0.00000E+00
         0.00000E+00
         0.00000E+00
         0.00000E+00
         0.00000E+00
         0.00000E+00
         0.00000E+00
         0.00000E+00
         0.00000E+00
         0.00000E+00
         0.00000E+00
         0.00000E+00
         0.00000E+00
         0.00000E+00
         0.00000E+00
         0.00000E+00
         0.00000E+00
         0.00000E+00
         0.00000E+00
         0.00000E+00
         0.00000E+00
         0.00000E+00
         0.00000E+00
         0.00000E+00
         0.00000E+00
         0.00000E+00
         0.00000E+00
         0.00000E+00
         0.00000E+00
         0.00000E+00
         0.00000E+00
         0.00000E+00
         0.00000E+00
         0.00000E+00
         0.00000E+00
         0.00000E+00
         0.00000E+00
         0.00000E+00
         0.00000E+00
         0.00000E+00
         0.00000E+00
         0.00000E+00
         0.00000E+00
         0.00000E+00
         0.00000E+00
         0.00000E+00
         0.00000E+00
         0.00000E+00
         0.00000E+00
         0.00000E+00
         0.00000E+00
         0.00000E+00
         0.00000E+00
         0.00000E+00
         0.00000E+00
         0.00000E+00
         0.00000E+00
         0.00000E+00
         0.00000E+00
         0.00000E+00
         0.00000E+00
         0.00000E+00
         0.00000E+00
         0.00000E+00
         0.00000E+00
         0.00000E+00
         0.00000E+00
         0.00000E+00
         0.00000E+00
         0.00000E+00
         0.00000E+00
         0.00000E+00
         0.00000E+00
         0.00000E+00
         0.00000E+00
         0.00000E+00
         0.00000E+00
         0.00000E+00
         0.00000E+00
         0.00000E+00
         0.00000E+00
         0.00000E+00
         0.00000E+00
         0.00000E+00
         0.00000E+00
         0.00000E+00
         0.00000E+00
         0.00000E+00
         0.00000E+00
         0.00000E+00
         0.00000E+00
         0.00000E+00
         0.00000E+00
         0.00000E+00
         0.00000E+00
         0.00000E+00
         0.00000E+00
         0.00000E+00
         0.00000E+00
         0.00000E+00
         0.00000E+00
         0.00000E+00
         0.00000E+00
         0.00000E+00
         0.00000E+00
         0.00000E+00
         0.00000E+00
         0.00000E+00
         0.00000E+00
         0.00000E+00
         0.00000E+00
         0.00000E+00
         0.00000E+00
         0.00000E+00
         0.00000E+00
         0.00000E+00
         0.00000E+00
         0.00000E+00
         0.00000E+00
         0.00000E+00
         0.00000E+00
         0.00000E+00
         0.00000E+00
         0.00000E+00
         0.00000E+00
         0.00000E+00
         0.00000E+00
         0.00000E+00
         0.00000E+00
         0.00000E+00
         0.00000E+00
         0.00000E+00
         0.00000E+00
         0.00000E+00
         0.00000E+00
         0.00000E+00
         0.00000E+00
         0.00000E+00
         0.00000E+00
         0.00000E+00
         0.00000E+00
         0.00000E+00
         0.00000E+00
         0.00000E+00
         0.00000E+00
         0.00000E+00
         0.00000E+00
         0.00000E+00
         0.00000E+00
         0.00000E+00
         0.00000E+00
         0.00000E+00
         0.00000E+00
         0.00000E+00
         0.00000E+00
         0.00000E+00
         0.00000E+00
         0.00000E+00
         0.00000E+00
         0.00000E+00
         0.00000E+00
         0.00000E+00
         0.00000E+00
         0.00000E+00
         0.00000E+00
         0.00000E+00
         0.00000E+00
         0.00000E+00
         0.00000E+00
         0.00000E+00
         0.00000E+00
         0.00000E+00
         0.00000E+00
         0.00000E+00
         0.00000E+00
         0.00000E+00
         0.00000E+00
         0.00000E+00
         0.00000E+00
         0.00000E+00
         0.00000E+00
         0.00000E+00
         0.00000E+00
         0.00000E+00
         0.00000E+00
         0.00000E+00
         0.00000E+00
         0.00000E+00
         0.00000E+00
         0.00000E+00
         0.00000E+00
         0.00000E+00
         0.00000E+00
         0.00000E+00
         0.00000E+00
         0.00000E+00
         0.00000E+00
         0.00000E+00
         0.00000E+00
         0.00000E+00
         0.00000E+00
         0.00000E+00
         0.00000E+00
         0.00000E+00
         0.00000E+00
         0.00000E+00
         0.00000E+00
         0.00000E+00
         0.00000E+00
         0.00000E+00
         0.00000E+00
         0.00000E+00
         0.00000E+00
         0.00000E+00
         0.00000E+00
         0.00000E+00
         0.00000E+00
         0.00000E+00
         0.00000E+00
         0.00000E+00
         0.00000E+00
         0.00000E+00
         0.00000E+00
         0.00000E+00
         0.00000E+00
         0.00000E+00
         0.00000E+00
         0.00000E+00
         0.00000E+00
         0.00000E+00
         0.00000E+00
         0.00000E+00
         0.00000E+00
         0.00000E+00
         0.00000E+00
         0.00000E+00
         0.00000E+00
         0.00000E+00
         0.00000E+00
         0.00000E+00
         0.00000E+00
         0.00000E+00
         0.00000E+00
         0.00000E+00
         0.00000E+00
         0.00000E+00
         0.00000E+00
         0.00000E+00
         0.00000E+00
         0.00000E+00
         0.00000E+00
         0.00000E+00
         0.00000E+00
         0.00000E+00
         0.00000E+00
         0.00000E+00
         0.00000E+00
         0.00000E+00
         0.00000E+00
         0.00000E+00
         0.00000E+00
         0.00000E+00
         0.00000E+00
         0.00000E+00
         0.00000E+00
         0.00000E+00
         0.00000E+00
         0.00000E+00
         0.00000E+00
         0.00000E+00
         0.00000E+00
         0.00000E+00
         0.00000E+00
         0.00000E+00
         0.00000E+00
         0.00000E+00
         0.00000E+00
         0.00000E+00
         0.00000E+00
         0.00000E+00
         0.00000E+00
         0.00000E+00
         0.00000E+00
         0.00000E+00
         0.00000E+00
         0.00000E+00
         0.00000E+00
         0.00000E+00
         0.00000E+00
         0.00000E+00
         0.00000E+00
         0.00000E+00
         0.00000E+00
         0.00000E+00
         0.00000E+00
         0.00000E+00
         0.00000E+00
         0.00000E+00
         0.00000E+00
         0.00000E+00
         0.00000E+00
         0.00000E+00
         0.00000E+00
         0.00000E+00
         0.00000E+00
         0.00000E+00
         0.00000E+00
         0.00000E+00
         0.00000E+00
         0.00000E+00
         0.00000E+00
         0.00000E+00
         0.00000E+00
         0.00000E+00
         0.00000E+00
         0.00000E+00
         0.00000E+00
         0.00000E+00
         0.00000E+00
         0.00000E+00
         0.00000E+00
         0.00000E+00
         0.00000E+00
         0.00000E+00
         0.00000E+00
         0.00000E+00
         0.00000E+00
         0.00000E+00
         0.00000E+00
         0.00000E+00
         0.00000E+00
         0.00000E+00
         0.00000E+00
         0.00000E+00
         0.00000E+00
         0.00000E+00
         0.00000E+00
         0.00000E+00
         0.00000E+00
         0.00000E+00
         0.00000E+00
         0.00000E+00
         0.00000E+00
         0.00000E+00
         0.00000E+00
         0.00000E+00
         0.00000E+00
         0.00000E+00
         0.00000E+00
         0.00000E+00
         0.00000E+00
         0.00000E+00
         0.00000E+00
         0.00000E+00
         0.00000E+00
         0.00000E+00
         0.00000E+00
         0.00000E+00
         0.00000E+00
         0.00000E+00
         0.00000E+00
         0.00000E+00
         0.00000E+00
         0.00000E+00
         0.00000E+00
         0.00000E+00
         0.00000E+00
         0.00000E+00
         0.00000E+00
         0.00000E+00
         0.00000E+00
         0.00000E+00
         0.00000E+00
         0.00000E+00
         0.00000E+00
         0.00000E+00
         0.00000E+00
         0.00000E+00
         0.00000E+00
         0.00000E+00
         0.00000E+00
         0.00000E+00
         0.00000E+00
         0.00000E+00
         0.00000E+00
         0.00000E+00
         0.00000E+00
         0.00000E+00
         0.00000E+00
         0.00000E+00
         0.00000E+00
         0.00000E+00
         0.00000E+00
         0.00000E+00
         0.00000E+00
         0.00000E+00
         0.00000E+00
         0.00000E+00
         0.00000E+00
         0.00000E+00
         0.00000E+00
         0.00000E+00
         0.00000E+00
         0.00000E+00
         0.00000E+00
         0.00000E+00
         0.00000E+00
         0.00000E+00
         0.00000E+00
         0.00000E+00
         0.00000E+00
         0.00000E+00
         0.00000E+00
         0.00000E+00
         0.00000E+00
         0.00000E+00
         0.00000E+00
         0.00000E+00
         0.00000E+00
         0.00000E+00
         0.00000E+00
         0.00000E+00
         0.00000E+00
         0.00000E+00
         0.00000E+00
         0.00000E+00
         0.00000E+00
         0.00000E+00
         0.00000E+00
         0.00000E+00
         0.00000E+00
         0.00000E+00
         0.00000E+00
         0.00000E+00
         0.00000E+00
         0.00000E+00
         0.00000E+00
         0.00000E+00
         0.00000E+00
         0.00000E+00
         0.00000E+00
         0.00000E+00
         0.00000E+00
         0.00000E+00
         0.00000E+00
         0.00000E+00
         0.00000E+00
         0.00000E+00
         0.00000E+00
         0.00000E+00
         0.00000E+00
         0.00000E+00
         0.00000E+00
         0.00000E+00
         0.00000E+00
         0.00000E+00
         0.00000E+00
         0.00000E+00
         0.00000E+00
         0.00000E+00
         0.00000E+00
         0.00000E+00
         0.00000E+00
         0.00000E+00
         0.00000E+00
         0.00000E+00
         0.00000E+00
         0.00000E+00
         0.00000E+00
         0.00000E+00
         0.00000E+00
         0.00000E+00
         0.00000E+00
         0.00000E+00
         0.00000E+00
         0.00000E+00
         0.00000E+00
         0.00000E+00
         0.00000E+00
         0.00000E+00
         0.00000E+00
         0.00000E+00
         0.00000E+00
         0.00000E+00
         0.00000E+00
         0.00000E+00
         0.00000E+00
         0.00000E+00
         0.00000E+00
         0.00000E+00
         0.00000E+00
         0.00000E+00
         0.00000E+00
         0.00000E+00
         0.00000E+00
         0.00000E+00
         0.00000E+00
         0.00000E+00
         0.00000E+00
         0.00000E+00
         0.00000E+00
         0.00000E+00
         0.00000E+00
         0.00000E+00
         0.00000E+00
         0.00000E+00
         0.00000E+00
         0.00000E+00
         0.00000E+00
         0.00000E+00
         0.00000E+00
         0.00000E+00
         0.00000E+00
         0.00000E+00
         0.00000E+00
         0.00000E+00
         0.00000E+00
         0.00000E+00
         0.00000E+00
         0.00000E+00
         0.00000E+00
         0.00000E+00
         0.00000E+00
         0.00000E+00
         0.00000E+00
         0.00000E+00
         0.00000E+00
         0.00000E+00
         0.00000E+00
         0.00000E+00
         0.00000E+00
         0.00000E+00
         0.00000E+00
         0.00000E+00
         0.00000E+00
         0.00000E+00
         0.00000E+00
         0.00000E+00
         0.00000E+00
         0.00000E+00
         0.00000E+00
         0.00000E+00
         0.00000E+00
         0.00000E+00
         0.00000E+00
         0.00000E+00
         0.00000E+00
         0.00000E+00
         0.00000E+00
         0.00000E+00
         0.00000E+00
         0.00000E+00
         0.00000E+00
         0.00000E+00
         0.00000E+00
         0.00000E+00
         0.00000E+00
         0.00000E+00
         0.00000E+00
         0.00000E+00
         0.00000E+00
         0.00000E+00
         0.00000E+00
         0.00000E+00
         0.00000E+00
         0.00000E+00
         0.00000E+00
         0.00000E+00
         0.00000E+00
         0.00000E+00
         0.00000E+00
         0.00000E+00
         0.00000E+00
         0.00000E+00
         0.00000E+00
         0.00000E+00
         0.00000E+00
         0.00000E+00
         0.00000E+00
         0.00000E+00
         0.00000E+00
         0.00000E+00
         0.00000E+00
         0.00000E+00
         0.00000E+00
         0.00000E+00
         0.00000E+00
         0.00000E+00
         0.00000E+00
         0.00000E+00
         0.00000E+00
         0.00000E+00
         0.00000E+00
         0.00000E+00
         0.00000E+00
         0.00000E+00
         0.00000E+00
         0.00000E+00
         0.00000E+00
         0.00000E+00
         0.00000E+00
         0.00000E+00
         0.00000E+00
         0.00000E+00
         0.00000E+00
         0.00000E+00
         0.00000E+00
         0.00000E+00
         0.00000E+00
         0.00000E+00
         0.00000E+00
         0.00000E+00
         0.00000E+00
         0.00000E+00
         0.00000E+00
         0.00000E+00
         0.00000E+00
         0.00000E+00
         0.00000E+00
         0.00000E+00
         0.00000E+00
         0.00000E+00
         0.00000E+00
         0.00000E+00
         0.00000E+00
         0.00000E+00
         0.00000E+00
         0.00000E+00
         0.00000E+00
         0.00000E+00
         0.00000E+00
         0.00000E+00
         0.00000E+00
         0.00000E+00
         0.00000E+00
         0.00000E+00
         0.00000E+00
         0.00000E+00
         0.00000E+00
         0.00000E+00
         0.00000E+00
         0.00000E+00
         0.00000E+00
         0.00000E+00
         0.00000E+00
         0.00000E+00
         0.00000E+00
         0.00000E+00
         0.00000E+00
         0.00000E+00
         0.00000E+00
         0.00000E+00
         0.00000E+00
         0.00000E+00
         0.00000E+00
         0.00000E+00
         0.00000E+00
         0.00000E+00
         0.00000E+00
         0.00000E+00
         0.00000E+00
         0.00000E+00
         0.00000E+00
         0.00000E+00
         0.00000E+00
         0.00000E+00
         0.00000E+00
         0.00000E+00
         0.00000E+00
         0.00000E+00
         0.00000E+00
         0.00000E+00
         0.00000E+00
         0.00000E+00
         0.00000E+00
         0.00000E+00
         0.00000E+00
         0.00000E+00
         0.00000E+00
         0.00000E+00
         0.00000E+00
         0.00000E+00
         0.00000E+00
         0.00000E+00
         0.00000E+00
         0.00000E+00
         0.00000E+00
         0.00000E+00
         0.00000E+00
         0.00000E+00
         0.00000E+00
         0.00000E+00
         0.00000E+00
         0.00000E+00
         0.00000E+00
         0.00000E+00
         0.00000E+00
         0.00000E+00
         0.00000E+00
         0.00000E+00
         0.00000E+00
         0.00000E+00
         0.00000E+00
         0.00000E+00
         0.00000E+00
         0.00000E+00
         0.00000E+00
         0.00000E+00
         0.00000E+00
         0.00000E+00
         0.00000E+00
         0.00000E+00
         0.00000E+00
         0.00000E+00
         0.00000E+00
         0.00000E+00
         0.00000E+00
         0.00000E+00
         0.00000E+00
         0.00000E+00
         0.00000E+00
         0.00000E+00
         0.00000E+00
         0.00000E+00
         0.00000E+00
         0.00000E+00
         0.00000E+00
         0.00000E+00
         0.00000E+00
         0.00000E+00
         0.00000E+00
         0.00000E+00
         0.00000E+00
         0.00000E+00
         0.00000E+00
         0.00000E+00
         0.00000E+00
         0.00000E+00
         0.00000E+00
         0.00000E+00
         0.00000E+00
         0.00000E+00
         0.00000E+00
         0.00000E+00
         0.00000E+00
         0.00000E+00
         0.00000E+00
         0.00000E+00
         0.00000E+00
         0.00000E+00
         0.00000E+00
         0.00000E+00
         0.00000E+00
         0.00000E+00
         0.00000E+00
         0.00000E+00
         0.00000E+00
         0.00000E+00
         0.00000E+00
         0.00000E+00
         0.00000E+00
         0.00000E+00
         0.00000E+00
         0.00000E+00
         0.00000E+00
         0.00000E+00
         0.00000E+00
         0.00000E+00
         0.00000E+00
         0.00000E+00
         0.00000E+00
         0.00000E+00
         0.00000E+00
         0.00000E+00
         0.00000E+00
         0.00000E+00
         0.00000E+00
         0.00000E+00
         0.00000E+00
         0.00000E+00
         0.00000E+00
         0.00000E+00
         0.00000E+00
         0.00000E+00
         0.00000E+00
         0.00000E+00
         0.00000E+00
         0.00000E+00
         0.00000E+00
         0.00000E+00
         0.00000E+00
         0.00000E+00
         0.00000E+00
         0.00000E+00
         0.00000E+00
         0.00000E+00
         0.00000E+00
         0.00000E+00
         0.00000E+00
         0.00000E+00
         0.00000E+00
         0.00000E+00
         0.00000E+00
         0.00000E+00
         0.00000E+00
         0.00000E+00
         0.00000E+00
         0.00000E+00
         0.00000E+00
         0.00000E+00
         0.00000E+00
         0.00000E+00
         0.00000E+00
         0.00000E+00
         0.00000E+00
         0.00000E+00
         0.00000E+00
         0.00000E+00
         0.00000E+00
         0.00000E+00
         0.00000E+00
         0.00000E+00
         0.00000E+00
         0.00000E+00
         0.00000E+00
         0.00000E+00
         0.00000E+00
         0.00000E+00
         0.00000E+00
         0.00000E+00
         0.00000E+00
         0.00000E+00
         0.00000E+00
         0.00000E+00
         0.00000E+00
         0.00000E+00
         0.00000E+00
         0.00000E+00
         0.00000E+00
         0.00000E+00
         0.00000E+00
         0.00000E+00
         0.00000E+00
         0.00000E+00
         0.00000E+00
         0.00000E+00
         0.00000E+00
         0.00000E+00
         0.00000E+00
         0.00000E+00
         0.00000E+00
         0.00000E+00
         0.00000E+00
         0.00000E+00
         0.00000E+00
         0.00000E+00
         0.00000E+00
         0.00000E+00
         0.00000E+00
         0.00000E+00
         0.00000E+00
         0.00000E+00
         0.00000E+00
         0.00000E+00
         0.00000E+00
         0.00000E+00
         0.00000E+00
         0.00000E+00
         0.00000E+00
         0.00000E+00
         0.00000E+00
         0.00000E+00
         0.00000E+00
         0.00000E+00
         0.00000E+00
         0.00000E+00
         0.00000E+00
         0.00000E+00
         0.00000E+00
         0.00000E+00
         0.00000E+00
         0.00000E+00
         0.00000E+00
         0.00000E+00
         0.00000E+00
         0.00000E+00
         0.00000E+00
         0.00000E+00
         0.00000E+00
         0.00000E+00
         0.00000E+00
         0.00000E+00
         0.00000E+00
         0.00000E+00
         0.00000E+00
         0.00000E+00
         0.00000E+00
         0.00000E+00
         0.00000E+00
         0.00000E+00
         0.00000E+00
         0.00000E+00
         0.00000E+00
         0.00000E+00
         0.00000E+00
         0.00000E+00
         0.00000E+00
         0.00000E+00
         0.00000E+00
         0.00000E+00
         0.00000E+00
         0.00000E+00
         0.00000E+00
         0.00000E+00
         0.00000E+00
         0.00000E+00
         0.00000E+00
         0.00000E+00
         0.00000E+00
         0.00000E+00
         0.00000E+00
         0.00000E+00
         0.00000E+00
         0.00000E+00
         0.00000E+00
         0.00000E+00
         0.00000E+00
         0.00000E+00
         0.00000E+00
         0.00000E+00
         0.00000E+00
         0.00000E+00
         0.00000E+00
         0.00000E+00
         0.00000E+00
         0.00000E+00
         0.00000E+00
         0.00000E+00
         0.00000E+00
         0.00000E+00
         0.00000E+00
         0.00000E+00
         0.00000E+00
         0.00000E+00
         0.00000E+00
         0.00000E+00
         0.00000E+00
         0.00000E+00
         0.00000E+00
         0.00000E+00
         0.00000E+00
         0.00000E+00
         0.00000E+00
         0.00000E+00
         0.00000E+00
         0.00000E+00
         0.00000E+00
         0.00000E+00
         0.00000E+00
         0.00000E+00
         0.00000E+00
         0.00000E+00
         0.00000E+00
         0.00000E+00
         0.00000E+00
         0.00000E+00
         0.00000E+00
         0.00000E+00
         0.00000E+00
         0.00000E+00
         0.00000E+00
         0.00000E+00
         0.00000E+00
         0.00000E+00
         0.00000E+00
         0.00000E+00
         0.00000E+00
         0.00000E+00
         0.00000E+00
         0.00000E+00
         0.00000E+00
         0.00000E+00
         0.00000E+00
         0.00000E+00
         0.00000E+00
         0.00000E+00
         0.00000E+00
         0.00000E+00
         0.00000E+00
         0.00000E+00
         0.00000E+00
         0.00000E+00
         0.00000E+00
         0.00000E+00
         0.00000E+00
         0.00000E+00
         0.00000E+00
         0.00000E+00
         0.00000E+00
         0.00000E+00
         0.00000E+00
         0.00000E+00
         0.00000E+00
         0.00000E+00
         0.00000E+00
         0.00000E+00
         0.00000E+00
         0.00000E+00
         0.00000E+00
         0.00000E+00
         0.00000E+00
         0.00000E+00
         0.00000E+00
         0.00000E+00
         0.00000E+00
         0.00000E+00
         0.00000E+00
         0.00000E+00
         0.00000E+00
         0.00000E+00
         0.00000E+00
         0.00000E+00
         0.00000E+00
         0.00000E+00
         0.00000E+00
         0.00000E+00
         0.00000E+00
         0.00000E+00
         0.00000E+00
         0.00000E+00
         0.00000E+00
         0.00000E+00
         0.00000E+00
         0.00000E+00
         0.00000E+00
         0.00000E+00
         0.00000E+00
         0.00000E+00
         0.00000E+00
         0.00000E+00
         0.00000E+00
         0.00000E+00
         0.00000E+00
         0.00000E+00
         0.00000E+00
         0.00000E+00
         0.00000E+00
         0.00000E+00
         0.00000E+00
         0.00000E+00
         0.00000E+00
         0.00000E+00
         0.00000E+00
         0.00000E+00
         0.00000E+00
         0.00000E+00
         0.00000E+00
         0.00000E+00
         0.00000E+00
         0.00000E+00
         0.00000E+00
         0.00000E+00
         0.00000E+00
         0.00000E+00
         0.00000E+00
         0.00000E+00
         0.00000E+00
         0.00000E+00
         0.00000E+00
         0.00000E+00
         0.00000E+00
         0.00000E+00
         0.00000E+00
         0.00000E+00
         0.00000E+00
         0.00000E+00
         0.00000E+00
         0.00000E+00
         0.00000E+00
         0.00000E+00
         0.00000E+00
         0.00000E+00
         0.00000E+00
         0.00000E+00
         0.00000E+00
         0.00000E+00
         0.00000E+00
         0.00000E+00
         0.00000E+00
         0.00000E+00
         0.00000E+00
         0.00000E+00
         0.00000E+00
         0.00000E+00
         0.00000E+00
         0.00000E+00
         0.00000E+00
         0.00000E+00
         0.00000E+00
         0.00000E+00
         0.00000E+00
         0.00000E+00
         0.00000E+00
         0.00000E+00
         0.00000E+00
         0.00000E+00
         0.00000E+00
         0.00000E+00
         0.00000E+00
         0.00000E+00
         0.00000E+00
         0.00000E+00
         0.00000E+00
         0.00000E+00
         0.00000E+00
         0.00000E+00
         0.00000E+00
         0.00000E+00
         0.00000E+00
         0.00000E+00
         0.00000E+00
         0.00000E+00
         0.00000E+00
         0.00000E+00
         0.00000E+00
         0.00000E+00
         0.00000E+00
         0.00000E+00
         0.00000E+00
         0.00000E+00
         0.00000E+00
         0.00000E+00
         0.00000E+00
         0.00000E+00
         0.00000E+00
         0.00000E+00
         0.00000E+00
         0.00000E+00
         0.00000E+00
         0.00000E+00
         0.00000E+00
         0.00000E+00
         0.00000E+00
         0.00000E+00
         0.00000E+00
         0.00000E+00
         0.00000E+00
         0.00000E+00
         0.00000E+00
         0.00000E+00
         0.00000E+00
         0.00000E+00
         0.00000E+00
         0.00000E+00
         0.00000E+00
         0.00000E+00
         0.00000E+00
         0.00000E+00
         0.00000E+00
         0.00000E+00
         0.00000E+00
         0.00000E+00
         0.00000E+00
         0.00000E+00
         0.00000E+00
         0.00000E+00
         0.00000E+00
         0.00000E+00
         0.00000E+00
         0.00000E+00
         0.00000E+00
         0.00000E+00
         0.00000E+00
         0.00000E+00
         0.00000E+00
         0.00000E+00
         0.00000E+00
         0.00000E+00
         0.00000E+00
         0.00000E+00
         0.00000E+00
         0.00000E+00
         0.00000E+00
         0.00000E+00
         0.00000E+00
         0.00000E+00
         0.00000E+00
         0.00000E+00
         0.00000E+00
         0.00000E+00
         0.00000E+00
         0.00000E+00
         0.00000E+00
         0.00000E+00
         0.00000E+00
         0.00000E+00
         0.00000E+00
         0.00000E+00
         0.00000E+00
         0.00000E+00
         0.00000E+00
         0.00000E+00
         0.00000E+00
         0.00000E+00
         0.00000E+00
         0.00000E+00
         0.00000E+00
         0.00000E+00
         0.00000E+00
         0.00000E+00
         0.00000E+00
         0.00000E+00
         0.00000E+00
         0.00000E+00
         0.00000E+00
         0.00000E+00
         0.00000E+00
         0.00000E+00
         0.00000E+00
         0.00000E+00
         0.00000E+00
         0.00000E+00
         0.00000E+00
         0.00000E+00
         0.00000E+00
         0.00000E+00
         0.00000E+00
         0.00000E+00
         0.00000E+00
         0.00000E+00
         0.00000E+00
         0.00000E+00
         0.00000E+00
         0.00000E+00
         0.00000E+00
         0.00000E+00
         0.00000E+00
         0.00000E+00
         0.00000E+00
         0.00000E+00
         0.00000E+00
         0.00000E+00
         0.00000E+00
         0.00000E+00
         0.00000E+00
         0.00000E+00
         0.00000E+00
         0.00000E+00
         0.00000E+00
         0.00000E+00
         0.00000E+00
         0.00000E+00
         0.00000E+00
         0.00000E+00
         0.00000E+00
         0.00000E+00
         0.00000E+00
         0.00000E+00
         0.00000E+00
         0.00000E+00
         0.00000E+00
         0.00000E+00
         0.00000E+00
         0.00000E+00
         0.00000E+00
         0.00000E+00
         0.00000E+00
         0.00000E+00
         0.00000E+00
         0.00000E+00
         0.00000E+00
         0.00000E+00
         0.00000E+00
         0.00000E+00
         0.00000E+00
         0.00000E+00
         0.00000E+00
         0.00000E+00
         0.00000E+00
         0.00000E+00
         0.00000E+00
         0.00000E+00
         0.00000E+00
         0.00000E+00
         0.00000E+00
         0.00000E+00
         0.00000E+00
         0.00000E+00
         0.00000E+00
         0.00000E+00
         0.00000E+00
         0.00000E+00
         0.00000E+00
         0.00000E+00
         0.00000E+00
         0.00000E+00
         0.00000E+00
         0.00000E+00
         0.00000E+00
         0.00000E+00
         0.00000E+00
         0.00000E+00
         0.00000E+00
         0.00000E+00
         0.00000E+00
         0.00000E+00
         0.00000E+00
         0.00000E+00
         0.00000E+00
         0.00000E+00
         0.00000E+00
         0.00000E+00
         0.00000E+00
         0.00000E+00
         0.00000E+00
         0.00000E+00
         0.00000E+00
         0.00000E+00
         0.00000E+00
         0.00000E+00
         0.00000E+00
         0.00000E+00
         0.00000E+00
         0.00000E+00
         0.00000E+00
         0.00000E+00
         0.00000E+00
         0.00000E+00
         0.00000E+00
         0.00000E+00
         0.00000E+00
         0.00000E+00
         0.00000E+00
         0.00000E+00
         0.00000E+00
         0.00000E+00
         0.00000E+00
         0.00000E+00
         0.00000E+00
         0.00000E+00
         0.00000E+00
         0.00000E+00
         0.00000E+00
         0.00000E+00
         0.00000E+00
         0.00000E+00
         0.00000E+00
         0.00000E+00
         0.00000E+00
         0.00000E+00
         0.00000E+00
         0.00000E+00
         0.00000E+00
         0.00000E+00
         0.00000E+00
         0.00000E+00
         0.00000E+00
         0.00000E+00
         0.00000E+00
         0.00000E+00
         0.00000E+00
         0.00000E+00
         0.00000E+00
         0.00000E+00
         0.00000E+00
         0.00000E+00
         0.00000E+00
         0.00000E+00
         0.00000E+00
         0.00000E+00
         0.00000E+00
         0.00000E+00
         0.00000E+00
         0.00000E+00
         0.00000E+00
         0.00000E+00
         0.00000E+00
         0.00000E+00
         0.00000E+00
         0.00000E+00
         0.00000E+00
         0.00000E+00
         0.00000E+00
         0.00000E+00
         0.00000E+00
         0.00000E+00
         0.00000E+00
         0.00000E+00
         0.00000E+00
         0.00000E+00
         0.00000E+00
         0.00000E+00
         0.00000E+00
         0.00000E+00
         0.00000E+00
         0.00000E+00
         0.00000E+00
         0.00000E+00
         0.00000E+00
         0.00000E+00
         0.00000E+00
         0.00000E+00
         0.00000E+00
         0.00000E+00
         0.00000E+00
         0.00000E+00
         0.00000E+00
         0.00000E+00
         0.00000E+00
         0.00000E+00
         0.00000E+00
         0.00000E+00
         0.00000E+00
         0.00000E+00
         0.00000E+00
         0.00000E+00
         0.00000E+00
         0.00000E+00
         0.00000E+00
         0.00000E+00
         0.00000E+00
         0.00000E+00
         0.00000E+00
         0.00000E+00
         0.00000E+00
         0.00000E+00
         0.00000E+00
         0.00000E+00
         0.00000E+00
         0.00000E+00
         0.00000E+00
         0.00000E+00
         0.00000E+00
         0.00000E+00
         0.00000E+00
         0.00000E+00
         0.00000E+00
         0.00000E+00
         0.00000E+00
         0.00000E+00
         0.00000E+00
         0.00000E+00
         0.00000E+00
         0.00000E+00
         0.00000E+00
         0.00000E+00
         0.00000E+00
         0.00000E+00
         0.00000E+00
         0.00000E+00
         0.00000E+00
         0.00000E+00
         0.00000E+00
         0.00000E+00
         0.00000E+00
         0.00000E+00
         0.00000E+00
         0.00000E+00
         0.00000E+00
         0.00000E+00
         0.00000E+00
         0.00000E+00
         0.00000E+00
         0.00000E+00
         0.00000E+00
         0.00000E+00
         0.00000E+00
         0.00000E+00
         0.00000E+00
         0.00000E+00
         0.00000E+00
         0.00000E+00
         0.00000E+00
         0.00000E+00
         0.00000E+00
         0.00000E+00
         0.00000E+00
         0.00000E+00
         0.00000E+00
         0.00000E+00
         0.00000E+00
         0.00000E+00
         0.00000E+00
         0.00000E+00
         0.00000E+00
         0.00000E+00
         0.00000E+00
         0.00000E+00
         0.00000E+00
         0.00000E+00
         0.00000E+00
         0.00000E+00
         0.00000E+00
         0.00000E+00
         0.00000E+00
         0.00000E+00
         0.00000E+00
         0.00000E+00
         0.00000E+00
         0.00000E+00
         0.00000E+00
         0.00000E+00
         0.00000E+00
         0.00000E+00
         0.00000E+00
         0.00000E+00
         0.00000E+00
         0.00000E+00
         0.00000E+00
         0.00000E+00
         0.00000E+00
         0.00000E+00
         0.00000E+00
         0.00000E+00
         0.00000E+00
         0.00000E+00
         0.00000E+00
         0.00000E+00
         0.00000E+00
         0.00000E+00
         0.00000E+00
         0.00000E+00
         0.00000E+00
         0.00000E+00
         0.00000E+00
         0.00000E+00
         0.00000E+00
         0.00000E+00
         0.00000E+00
         0.00000E+00
         0.00000E+00
         0.00000E+00
         0.00000E+00
         0.00000E+00
         0.00000E+00
         0.00000E+00
         0.00000E+00
         0.00000E+00
         0.00000E+00
         0.00000E+00
         0.00000E+00
         0.00000E+00
         0.00000E+00
         0.00000E+00
         0.00000E+00
         0.00000E+00
         0.00000E+00
         0.00000E+00
         0.00000E+00
         0.00000E+00
         0.00000E+00
         0.00000E+00
         0.00000E+00
         0.00000E+00
         0.00000E+00
         0.00000E+00
         0.00000E+00
         0.00000E+00
         0.00000E+00
         0.00000E+00
         0.00000E+00
         0.00000E+00
         0.00000E+00
         0.00000E+00
         0.00000E+00
         0.00000E+00
         0.00000E+00
         0.00000E+00
         0.00000E+00
         0.00000E+00
         0.00000E+00
         0.00000E+00
         0.00000E+00
         0.00000E+00
         0.00000E+00
         0.00000E+00
         0.00000E+00
         0.00000E+00
         0.00000E+00
         0.00000E+00
         0.00000E+00
         0.00000E+00
         0.00000E+00
         0.00000E+00
         0.00000E+00
         0.00000E+00
         0.00000E+00
         0.00000E+00
         0.00000E+00
         0.00000E+00
         0.00000E+00
         0.00000E+00
         0.00000E+00
         0.00000E+00
  
SCALARS                            eps  double 1
LOOKUP_TABLE default
         0.58737E+00
         0.58139E+00
         0.58518E+00
         0.59204E+00
         0.00000E+00
         0.00000E+00
         0.00000E+00
         0.00000E+00
         0.58123E+00
         0.58323E+00
         0.00000E+00
         0.00000E+00
         0.57274E+00
         0.57242E+00
         0.00000E+00
         0.00000E+00
         0.59103E+00
         0.57289E+00
         0.00000E+00
         0.00000E+00
         0.56628E+00
         0.56120E+00
         0.56931E+00
         0.00000E+00
         0.00000E+00
         0.00000E+00
         0.56138E+00
         0.55393E+00
         0.00000E+00
         0.00000E+00
         0.59070E+00
         0.58278E+00
         0.59841E+00
         0.00000E+00
         0.00000E+00
         0.00000E+00
         0.58610E+00
         0.57608E+00
         0.00000E+00
         0.00000E+00
         0.58214E+00
         0.57441E+00
         0.00000E+00
         0.00000E+00
         0.58871E+00
         0.59164E+00
         0.00000E+00
         0.00000E+00
         0.56820E+00
         0.00000E+00
         0.59107E+00
         0.00000E+00
         0.55922E+00
         0.00000E+00
         0.55687E+00
         0.00000E+00
         0.55692E+00
         0.56525E+00
         0.00000E+00
         0.00000E+00
         0.59054E+00
         0.58748E+00
         0.00000E+00
         0.00000E+00
         0.59245E+00
         0.00000E+00
         0.58881E+00
         0.00000E+00
         0.57941E+00
         0.57842E+00
         0.00000E+00
         0.00000E+00
         0.57626E+00
         0.00000E+00
         0.55133E+00
         0.00000E+00
         0.55004E+00
         0.00000E+00
         0.55071E+00
         0.00000E+00
         0.55432E+00
         0.55802E+00
         0.00000E+00
         0.00000E+00
         0.56554E+00
         0.00000E+00
         0.58857E+00
         0.00000E+00
         0.58497E+00
         0.00000E+00
         0.58208E+00
         0.58040E+00
         0.00000E+00
         0.00000E+00
         0.58237E+00
         0.00000E+00
         0.58379E+00
         0.00000E+00
         0.58252E+00
         0.00000E+00
         0.58211E+00
         0.58338E+00
         0.00000E+00
         0.00000E+00
         0.57519E+00
         0.57866E+00
         0.00000E+00
         0.00000E+00
         0.57461E+00
         0.00000E+00
         0.57861E+00
         0.00000E+00
         0.57470E+00
         0.00000E+00
         0.56618E+00
         0.00000E+00
         0.55801E+00
         0.00000E+00
         0.55311E+00
         0.00000E+00
         0.55261E+00
         0.00000E+00
         0.55275E+00
         0.00000E+00
         0.55805E+00
         0.00000E+00
         0.56812E+00
         0.00000E+00
         0.57923E+00
         0.00000E+00
         0.58567E+00
         0.00000E+00
         0.59213E+00
         0.00000E+00
         0.59640E+00
         0.00000E+00
         0.59627E+00
         0.00000E+00
         0.58578E+00
         0.00000E+00
         0.57852E+00
         0.00000E+00
         0.57615E+00
         0.00000E+00
         0.58006E+00
         0.00000E+00
         0.58203E+00
         0.00000E+00
         0.57858E+00
         0.00000E+00
         0.57856E+00
         0.00000E+00
         0.58117E+00
         0.00000E+00
         0.58455E+00
         0.00000E+00
         0.19090E+00
         0.19387E+00
         0.19347E+00
         0.18959E+00
         0.19672E+00
         0.19315E+00
         0.19753E+00
         0.19526E+00
         0.19021E+00
         0.19338E+00
         0.19993E+00
         0.20073E+00
         0.19876E+00
         0.19858E+00
         0.19991E+00
         0.18978E+00
         0.19051E+00
         0.18845E+00
         0.19419E+00
         0.19316E+00
         0.19467E+00
         0.19371E+00
         0.19549E+00
         0.19499E+00
         0.19325E+00
         0.19337E+00
         0.19632E+00
         0.19606E+00
         0.19822E+00
         0.19495E+00
         0.19014E+00
         0.19391E+00
         0.19016E+00
         0.19265E+00
         0.20122E+00
         0.19851E+00
         0.19723E+00
         0.19877E+00
         0.19895E+00
         0.20139E+00
         0.20318E+00
         0.19885E+00
         0.19462E+00
         0.19519E+00
         0.19736E+00
         0.20113E+00
         0.19790E+00
         0.19440E+00
         0.19465E+00
         0.19736E+00
         0.20011E+00
         0.19641E+00
         0.20783E+00
         0.20479E+00
         0.20536E+00
         0.20467E+00
         0.20494E+00
         0.20674E+00
         0.20841E+00
         0.20882E+00
         0.20854E+00
         0.20876E+00
         0.20944E+00
         0.20504E+00
         0.20318E+00
         0.20246E+00
         0.20139E+00
         0.20059E+00
         0.20068E+00
         0.20219E+00
         0.20687E+00
         0.20582E+00
         0.20413E+00
         0.20409E+00
         0.20438E+00
         0.20589E+00
         0.20364E+00
         0.20281E+00
         0.00000E+00
         0.00000E+00
         0.00000E+00
         0.00000E+00
         0.10625E-03
         0.00000E+00
         0.00000E+00
         0.00000E+00
         0.00000E+00
         0.00000E+00
         0.00000E+00
         0.29178E-02
         0.14648E-02
         0.00000E+00
         0.32043E-02
         0.00000E+00
         0.00000E+00
         0.00000E+00
         0.00000E+00
         0.00000E+00
         0.16277E-02
         0.13348E-02
         0.12186E-02
         0.00000E+00
         0.00000E+00
         0.00000E+00
         0.00000E+00
         0.00000E+00
         0.00000E+00
         0.00000E+00
         0.00000E+00
         0.00000E+00
         0.00000E+00
         0.00000E+00
         0.10439E-02
         0.00000E+00
         0.11045E-03
         0.20363E-02
         0.84877E-03
         0.57534E-03
         0.21232E-02
         0.16334E-02
         0.16650E-02
         0.58763E-03
         0.19368E-03
         0.14057E-02
         0.00000E+00
         0.00000E+00
         0.00000E+00
         0.00000E+00
         0.89836E-03
         0.00000E+00
         0.14645E-01
         0.15074E-01
         0.15906E-01
         0.15767E-01
         0.17026E-01
         0.18526E-01
         0.17643E-01
         0.15320E-01
         0.14846E-01
         0.16120E-01
         0.15733E-01
         0.15474E-01
         0.12222E-01
         0.11458E-01
         0.12909E-01
         0.14060E-01
         0.14715E-01
         0.16374E-01
         0.15624E-01
         0.16137E-01
         0.14202E-01
         0.13318E-01
         0.14422E-01
         0.14025E-01
         0.14528E-01
         0.14377E-01
         0.00000E+00
         0.00000E+00
         0.00000E+00
         0.00000E+00
         0.10482E-03
         0.00000E+00
         0.00000E+00
         0.00000E+00
         0.00000E+00
         0.00000E+00
         0.00000E+00
         0.29176E-02
         0.14666E-02
         0.00000E+00
         0.32109E-02
         0.00000E+00
         0.00000E+00
         0.00000E+00
         0.00000E+00
         0.00000E+00
         0.16281E-02
         0.13345E-02
         0.12183E-02
         0.00000E+00
         0.00000E+00
         0.00000E+00
         0.00000E+00
         0.00000E+00
         0.00000E+00
         0.00000E+00
         0.00000E+00
         0.00000E+00
         0.00000E+00
         0.00000E+00
         0.10457E-02
         0.00000E+00
         0.10973E-03
         0.20443E-02
         0.85763E-03
         0.58043E-03
         0.21267E-02
         0.16358E-02
         0.16655E-02
         0.58755E-03
         0.19302E-03
         0.14055E-02
         0.00000E+00
         0.00000E+00
         0.00000E+00
         0.00000E+00
         0.89612E-03
         0.00000E+00
         0.14638E-01
         0.15069E-01
         0.15906E-01
         0.15767E-01
         0.17023E-01
         0.18519E-01
         0.17634E-01
         0.15315E-01
         0.14841E-01
         0.16114E-01
         0.15729E-01
         0.15474E-01
         0.12221E-01
         0.11457E-01
         0.12911E-01
         0.14064E-01
         0.14720E-01
         0.16378E-01
         0.15623E-01
         0.16136E-01
         0.14200E-01
         0.13317E-01
         0.14416E-01
         0.14013E-01
         0.14518E-01
         0.14368E-01
         0.00000E+00
         0.00000E+00
         0.00000E+00
         0.00000E+00
         0.10334E-03
         0.00000E+00
         0.00000E+00
         0.00000E+00
         0.00000E+00
         0.00000E+00
         0.00000E+00
         0.29174E-02
         0.14684E-02
         0.00000E+00
         0.32174E-02
         0.00000E+00
         0.00000E+00
         0.00000E+00
         0.00000E+00
         0.00000E+00
         0.16286E-02
         0.13342E-02
         0.12181E-02
         0.00000E+00
         0.00000E+00
         0.00000E+00
         0.00000E+00
         0.00000E+00
         0.00000E+00
         0.00000E+00
         0.00000E+00
         0.00000E+00
         0.00000E+00
         0.00000E+00
         0.10476E-02
         0.00000E+00
         0.10896E-03
         0.20524E-02
         0.86653E-03
         0.58556E-03
         0.21302E-02
         0.16384E-02
         0.16662E-02
         0.58765E-03
         0.19249E-03
         0.14054E-02
         0.00000E+00
         0.00000E+00
         0.00000E+00
         0.00000E+00
         0.89396E-03
         0.00000E+00
         0.14632E-01
         0.15065E-01
         0.15906E-01
         0.15767E-01
         0.17019E-01
         0.18511E-01
         0.17625E-01
         0.15310E-01
         0.14836E-01
         0.16109E-01
         0.15726E-01
         0.15475E-01
         0.12219E-01
         0.11457E-01
         0.12913E-01
         0.14069E-01
         0.14725E-01
         0.16383E-01
         0.15622E-01
         0.16135E-01
         0.14198E-01
         0.13316E-01
         0.14410E-01
         0.14002E-01
         0.14508E-01
         0.14359E-01
         0.00000E+00
         0.00000E+00
         0.00000E+00
         0.00000E+00
         0.10188E-03
         0.00000E+00
         0.00000E+00
         0.00000E+00
         0.00000E+00
         0.00000E+00
         0.00000E+00
         0.29172E-02
         0.14702E-02
         0.00000E+00
         0.32240E-02
         0.00000E+00
         0.00000E+00
         0.00000E+00
         0.00000E+00
         0.00000E+00
         0.16292E-02
         0.13340E-02
         0.12182E-02
         0.00000E+00
         0.00000E+00
         0.00000E+00
         0.00000E+00
         0.00000E+00
         0.00000E+00
         0.00000E+00
         0.00000E+00
         0.00000E+00
         0.00000E+00
         0.00000E+00
         0.10494E-02
         0.00000E+00
         0.10820E-03
         0.20604E-02
         0.87559E-03
         0.59097E-03
         0.21340E-02
         0.16410E-02
         0.16671E-02
         0.58806E-03
         0.19211E-03
         0.14053E-02
         0.00000E+00
         0.00000E+00
         0.00000E+00
         0.00000E+00
         0.89167E-03
         0.00000E+00
         0.14625E-01
         0.15060E-01
         0.15906E-01
         0.15767E-01
         0.17016E-01
         0.18504E-01
         0.17616E-01
         0.15305E-01
         0.14832E-01
         0.16103E-01
         0.15723E-01
         0.15476E-01
         0.12218E-01
         0.11456E-01
         0.12915E-01
         0.14074E-01
         0.14730E-01
         0.16387E-01
         0.15621E-01
         0.16133E-01
         0.14196E-01
         0.13315E-01
         0.14404E-01
         0.13991E-01
         0.14498E-01
         0.14349E-01
         0.00000E+00
         0.00000E+00
         0.00000E+00
         0.00000E+00
         0.10046E-03
         0.00000E+00
         0.00000E+00
         0.00000E+00
         0.00000E+00
         0.00000E+00
         0.00000E+00
         0.29170E-02
         0.14721E-02
         0.00000E+00
         0.32306E-02
         0.00000E+00
         0.00000E+00
         0.00000E+00
         0.00000E+00
         0.00000E+00
         0.16299E-02
         0.13339E-02
         0.12184E-02
         0.00000E+00
         0.00000E+00
         0.00000E+00
         0.00000E+00
         0.00000E+00
         0.00000E+00
         0.00000E+00
         0.00000E+00
         0.00000E+00
         0.00000E+00
         0.00000E+00
         0.10512E-02
         0.00000E+00
         0.10749E-03
         0.20685E-02
         0.88479E-03
         0.59661E-03
         0.21380E-02
         0.16437E-02
         0.16681E-02
         0.58884E-03
         0.19197E-03
         0.14055E-02
         0.00000E+00
         0.00000E+00
         0.00000E+00
         0.00000E+00
         0.88951E-03
         0.00000E+00
         0.14619E-01
         0.15056E-01
         0.15906E-01
         0.15767E-01
         0.17013E-01
         0.18497E-01
         0.17608E-01
         0.15300E-01
         0.14827E-01
         0.16097E-01
         0.15720E-01
         0.15477E-01
         0.12218E-01
         0.11456E-01
         0.12917E-01
         0.14079E-01
         0.14736E-01
         0.16392E-01
         0.15620E-01
         0.16132E-01
         0.14194E-01
         0.13314E-01
         0.14397E-01
         0.13979E-01
         0.14488E-01
         0.14340E-01
         0.00000E+00
         0.00000E+00
         0.00000E+00
         0.00000E+00
         0.99016E-04
         0.00000E+00
         0.00000E+00
         0.00000E+00
         0.00000E+00
         0.00000E+00
         0.00000E+00
         0.29169E-02
         0.14739E-02
         0.00000E+00
         0.32371E-02
         0.00000E+00
         0.00000E+00
         0.00000E+00
         0.00000E+00
         0.00000E+00
         0.16307E-02
         0.13339E-02
         0.12189E-02
         0.00000E+00
         0.00000E+00
         0.00000E+00
         0.00000E+00
         0.00000E+00
         0.00000E+00
         0.00000E+00
         0.00000E+00
         0.00000E+00
         0.00000E+00
         0.00000E+00
         0.10531E-02
         0.00000E+00
         0.10685E-03
         0.20767E-02
         0.89412E-03
         0.60243E-03
         0.21421E-02
         0.16465E-02
         0.16693E-02
         0.58974E-03
         0.19207E-03
         0.14059E-02
         0.00000E+00
         0.00000E+00
         0.00000E+00
         0.00000E+00
         0.88736E-03
         0.00000E+00
         0.14612E-01
         0.15052E-01
         0.15906E-01
         0.15767E-01
         0.17009E-01
         0.18489E-01
         0.17599E-01
         0.15295E-01
         0.14823E-01
         0.16091E-01
         0.15717E-01
         0.15478E-01
         0.12217E-01
         0.11455E-01
         0.12920E-01
         0.14085E-01
         0.14742E-01
         0.16397E-01
         0.15619E-01
         0.16131E-01
         0.14192E-01
         0.13313E-01
         0.14391E-01
         0.13968E-01
         0.14478E-01
         0.14330E-01
         0.12932E-05
         0.00000E+00
         0.00000E+00
         0.00000E+00
         0.97630E-04
         0.00000E+00
         0.00000E+00
         0.00000E+00
         0.00000E+00
         0.00000E+00
         0.00000E+00
         0.29169E-02
         0.14760E-02
         0.00000E+00
         0.32437E-02
         0.00000E+00
         0.00000E+00
         0.00000E+00
         0.00000E+00
         0.00000E+00
         0.16315E-02
         0.13339E-02
         0.12194E-02
         0.00000E+00
         0.00000E+00
         0.00000E+00
         0.00000E+00
         0.00000E+00
         0.00000E+00
         0.00000E+00
         0.00000E+00
         0.00000E+00
         0.00000E+00
         0.00000E+00
         0.10551E-02
         0.00000E+00
         0.10631E-03
         0.20849E-02
         0.90353E-03
         0.60825E-03
         0.21463E-02
         0.16494E-02
         0.16706E-02
         0.59068E-03
         0.19229E-03
         0.14065E-02
         0.00000E+00
         0.00000E+00
         0.00000E+00
         0.00000E+00
         0.88539E-03
         0.00000E+00
         0.14606E-01
         0.15047E-01
         0.15906E-01
         0.15767E-01
         0.17006E-01
         0.18482E-01
         0.17590E-01
         0.15290E-01
         0.14818E-01
         0.16085E-01
         0.15714E-01
         0.15480E-01
         0.12217E-01
         0.11455E-01
         0.12922E-01
         0.14091E-01
         0.14748E-01
         0.16401E-01
         0.15618E-01
         0.16130E-01
         0.14191E-01
         0.13312E-01
         0.14385E-01
         0.13957E-01
         0.14468E-01
         0.14321E-01
         0.32326E-05
         0.00000E+00
         0.00000E+00
         0.00000E+00
         0.96316E-04
         0.00000E+00
         0.00000E+00
         0.00000E+00
         0.00000E+00
         0.00000E+00
         0.00000E+00
         0.29170E-02
         0.14780E-02
         0.00000E+00
         0.32504E-02
         0.00000E+00
         0.00000E+00
         0.00000E+00
         0.00000E+00
         0.00000E+00
         0.16324E-02
         0.13339E-02
         0.12198E-02
         0.00000E+00
         0.00000E+00
         0.00000E+00
         0.00000E+00
         0.00000E+00
         0.00000E+00
         0.00000E+00
         0.00000E+00
         0.00000E+00
         0.00000E+00
         0.00000E+00
         0.10571E-02
         0.00000E+00
         0.10589E-03
         0.20932E-02
         0.91295E-03
         0.61413E-03
         0.21505E-02
         0.16523E-02
         0.16718E-02
         0.59172E-03
         0.19259E-03
         0.14072E-02
         0.00000E+00
         0.00000E+00
         0.00000E+00
         0.00000E+00
         0.88347E-03
         0.00000E+00
         0.14599E-01
         0.15043E-01
         0.15905E-01
         0.15768E-01
         0.17003E-01
         0.18474E-01
         0.17581E-01
         0.15285E-01
         0.14813E-01
         0.16079E-01
         0.15711E-01
         0.15481E-01
         0.12216E-01
         0.11455E-01
         0.12925E-01
         0.14097E-01
         0.14755E-01
         0.16406E-01
         0.15617E-01
         0.16129E-01
         0.14189E-01
         0.13312E-01
         0.14379E-01
         0.13946E-01
         0.14458E-01
         0.14312E-01
         0.51574E-05
         0.00000E+00
         0.00000E+00
         0.00000E+00
         0.94946E-04
         0.00000E+00
         0.00000E+00
         0.00000E+00
         0.00000E+00
         0.00000E+00
         0.00000E+00
         0.29170E-02
         0.14801E-02
         0.00000E+00
         0.32571E-02
         0.00000E+00
         0.00000E+00
         0.00000E+00
         0.00000E+00
         0.00000E+00
         0.16331E-02
         0.13339E-02
         0.12203E-02
         0.00000E+00
         0.00000E+00
         0.00000E+00
         0.00000E+00
         0.00000E+00
         0.00000E+00
         0.00000E+00
         0.00000E+00
         0.00000E+00
         0.00000E+00
         0.00000E+00
         0.10592E-02
         0.00000E+00
         0.10544E-03
         0.21015E-02
         0.92244E-03
         0.61992E-03
         0.21547E-02
         0.16552E-02
         0.16731E-02
         0.59280E-03
         0.19296E-03
         0.14080E-02
         0.00000E+00
         0.00000E+00
         0.00000E+00
         0.00000E+00
         0.88165E-03
         0.00000E+00
         0.14593E-01
         0.15039E-01
         0.15905E-01
         0.15768E-01
         0.16999E-01
         0.18467E-01
         0.17572E-01
         0.15280E-01
         0.14809E-01
         0.16073E-01
         0.15708E-01
         0.15482E-01
         0.12215E-01
         0.11455E-01
         0.12927E-01
         0.14102E-01
         0.14761E-01
         0.16411E-01
         0.15615E-01
         0.16128E-01
         0.14187E-01
         0.13311E-01
         0.14373E-01
         0.13934E-01
         0.14448E-01
         0.14302E-01
         0.70559E-05
         0.00000E+00
         0.00000E+00
         0.00000E+00
         0.93579E-04
         0.00000E+00
         0.00000E+00
         0.00000E+00
         0.00000E+00
         0.00000E+00
         0.00000E+00
         0.29170E-02
         0.14822E-02
         0.00000E+00
         0.32637E-02
         0.00000E+00
         0.00000E+00
         0.00000E+00
         0.00000E+00
         0.00000E+00
         0.16340E-02
         0.13339E-02
         0.12207E-02
         0.00000E+00
         0.00000E+00
         0.00000E+00
         0.00000E+00
         0.00000E+00
         0.00000E+00
         0.00000E+00
         0.00000E+00
         0.00000E+00
         0.00000E+00
         0.00000E+00
         0.10612E-02
         0.00000E+00
         0.10502E-03
         0.21098E-02
         0.93190E-03
         0.62580E-03
         0.21588E-02
         0.16581E-02
         0.16743E-02
         0.59384E-03
         0.19328E-03
         0.14087E-02
         0.00000E+00
         0.00000E+00
         0.00000E+00
         0.00000E+00
         0.87969E-03
         0.00000E+00
         0.14586E-01
         0.15034E-01
         0.15905E-01
         0.15768E-01
         0.16996E-01
         0.18460E-01
         0.17563E-01
         0.15275E-01
         0.14804E-01
         0.16067E-01
         0.15705E-01
         0.15483E-01
         0.12215E-01
         0.11454E-01
         0.12930E-01
         0.14108E-01
         0.14767E-01
         0.16415E-01
         0.15614E-01
         0.16126E-01
         0.14186E-01
         0.13310E-01
         0.14367E-01
         0.13923E-01
         0.14438E-01
         0.14293E-01
         0.89552E-05
         0.00000E+00
         0.00000E+00
         0.00000E+00
         0.92262E-04
         0.00000E+00
         0.00000E+00
         0.00000E+00
         0.00000E+00
         0.00000E+00
         0.00000E+00
         0.29170E-02
         0.14843E-02
         0.00000E+00
         0.32704E-02
         0.00000E+00
         0.00000E+00
         0.00000E+00
         0.00000E+00
         0.00000E+00
         0.16348E-02
         0.13339E-02
         0.12212E-02
         0.00000E+00
         0.00000E+00
         0.00000E+00
         0.00000E+00
         0.00000E+00
         0.00000E+00
         0.00000E+00
         0.00000E+00
         0.00000E+00
         0.00000E+00
         0.00000E+00
         0.10632E-02
         0.00000E+00
         0.10460E-03
         0.21181E-02
         0.94139E-03
         0.63157E-03
         0.21630E-02
         0.16610E-02
         0.16755E-02
         0.59482E-03
         0.19361E-03
         0.14094E-02
         0.00000E+00
         0.00000E+00
         0.00000E+00
         0.00000E+00
         0.87787E-03
         0.00000E+00
         0.14580E-01
         0.15030E-01
         0.15905E-01
         0.15768E-01
         0.16993E-01
         0.18452E-01
         0.17554E-01
         0.15270E-01
         0.14800E-01
         0.16061E-01
         0.15701E-01
         0.15484E-01
         0.12214E-01
         0.11454E-01
         0.12932E-01
         0.14114E-01
         0.14773E-01
         0.16420E-01
         0.15613E-01
         0.16125E-01
         0.14184E-01
         0.13309E-01
         0.14361E-01
         0.13912E-01
         0.14428E-01
         0.14284E-01
         0.10859E-04
         0.00000E+00
         0.00000E+00
         0.00000E+00
         0.90904E-04
         0.00000E+00
         0.00000E+00
         0.00000E+00
         0.00000E+00
         0.00000E+00
         0.00000E+00
         0.29171E-02
         0.14863E-02
         0.00000E+00
         0.32771E-02
         0.00000E+00
         0.00000E+00
         0.00000E+00
         0.00000E+00
         0.00000E+00
         0.16356E-02
         0.13339E-02
         0.12217E-02
         0.00000E+00
         0.00000E+00
         0.00000E+00
         0.00000E+00
         0.00000E+00
         0.00000E+00
         0.00000E+00
         0.00000E+00
         0.00000E+00
         0.00000E+00
         0.00000E+00
         0.10653E-02
         0.00000E+00
         0.10414E-03
         0.21264E-02
         0.95087E-03
         0.63743E-03
         0.21672E-02
         0.16639E-02
         0.16768E-02
         0.59587E-03
         0.19394E-03
         0.14102E-02
         0.00000E+00
         0.00000E+00
         0.00000E+00
         0.00000E+00
         0.87597E-03
         0.00000E+00
         0.14573E-01
         0.15026E-01
         0.15904E-01
         0.15768E-01
         0.16989E-01
         0.18445E-01
         0.17546E-01
         0.15265E-01
         0.14795E-01
         0.16055E-01
         0.15698E-01
         0.15486E-01
         0.12214E-01
         0.11454E-01
         0.12934E-01
         0.14120E-01
         0.14779E-01
         0.16424E-01
         0.15612E-01
         0.16124E-01
         0.14183E-01
         0.13308E-01
         0.14355E-01
         0.13901E-01
         0.14418E-01
         0.14274E-01
         0.12761E-04
         0.00000E+00
         0.00000E+00
         0.00000E+00
         0.89555E-04
         0.00000E+00
         0.00000E+00
         0.00000E+00
         0.00000E+00
         0.00000E+00
         0.00000E+00
         0.29171E-02
         0.14885E-02
         0.00000E+00
         0.32838E-02
         0.00000E+00
         0.00000E+00
         0.00000E+00
         0.00000E+00
         0.00000E+00
         0.16364E-02
         0.13339E-02
         0.12221E-02
         0.00000E+00
         0.00000E+00
         0.00000E+00
         0.00000E+00
         0.00000E+00
         0.00000E+00
         0.00000E+00
         0.00000E+00
         0.00000E+00
         0.00000E+00
         0.00000E+00
         0.10673E-02
         0.00000E+00
         0.10373E-03
         0.21346E-02
         0.96039E-03
         0.64325E-03
         0.21715E-02
         0.16667E-02
         0.16780E-02
         0.59695E-03
         0.19433E-03
         0.14108E-02
         0.00000E+00
         0.00000E+00
         0.00000E+00
         0.00000E+00
         0.87401E-03
         0.00000E+00
         0.14566E-01
         0.15021E-01
         0.15904E-01
         0.15768E-01
         0.16986E-01
         0.18437E-01
         0.17537E-01
         0.15260E-01
         0.14791E-01
         0.16049E-01
         0.15695E-01
         0.15487E-01
         0.12213E-01
         0.11454E-01
         0.12937E-01
         0.14126E-01
         0.14786E-01
         0.16429E-01
         0.15610E-01
         0.16123E-01
         0.14181E-01
         0.13308E-01
         0.14349E-01
         0.13889E-01
         0.14408E-01
         0.14265E-01
         0.14654E-04
         0.00000E+00
         0.00000E+00
         0.00000E+00
         0.88254E-04
         0.00000E+00
         0.00000E+00
         0.00000E+00
         0.00000E+00
         0.00000E+00
         0.00000E+00
         0.29171E-02
         0.14905E-02
         0.00000E+00
         0.32905E-02
         0.00000E+00
         0.00000E+00
         0.00000E+00
         0.00000E+00
         0.00000E+00
         0.16372E-02
         0.13339E-02
         0.12226E-02
         0.00000E+00
         0.00000E+00
         0.00000E+00
         0.00000E+00
         0.00000E+00
         0.00000E+00
         0.00000E+00
         0.00000E+00
         0.00000E+00
         0.00000E+00
         0.00000E+00
         0.10694E-02
         0.00000E+00
         0.10328E-03
         0.21430E-02
         0.96991E-03
         0.64903E-03
         0.21756E-02
         0.16696E-02
         0.16793E-02
         0.59798E-03
         0.19466E-03
         0.14115E-02
         0.00000E+00
         0.00000E+00
         0.00000E+00
         0.00000E+00
         0.87218E-03
         0.00000E+00
         0.14560E-01
         0.15017E-01
         0.15904E-01
         0.15768E-01
         0.16983E-01
         0.18430E-01
         0.17528E-01
         0.15255E-01
         0.14786E-01
         0.16043E-01
         0.15692E-01
         0.15488E-01
         0.12212E-01
         0.11453E-01
         0.12939E-01
         0.14131E-01
         0.14792E-01
         0.16433E-01
         0.15609E-01
         0.16122E-01
         0.14180E-01
         0.13307E-01
         0.14342E-01
         0.13878E-01
         0.14398E-01
         0.14256E-01
         0.16540E-04
         0.00000E+00
         0.00000E+00
         0.00000E+00
         0.86899E-04
         0.00000E+00
         0.00000E+00
         0.00000E+00
         0.00000E+00
         0.00000E+00
         0.00000E+00
         0.29172E-02
         0.14926E-02
         0.00000E+00
         0.32972E-02
         0.00000E+00
         0.00000E+00
         0.00000E+00
         0.00000E+00
         0.00000E+00
         0.16380E-02
         0.13339E-02
         0.12230E-02
         0.00000E+00
         0.00000E+00
         0.00000E+00
         0.00000E+00
         0.00000E+00
         0.00000E+00
         0.00000E+00
         0.00000E+00
         0.00000E+00
         0.00000E+00
         0.00000E+00
         0.10714E-02
         0.00000E+00
         0.10287E-03
         0.21513E-02
         0.97944E-03
         0.65483E-03
         0.21798E-02
         0.16725E-02
         0.16805E-02
         0.59901E-03
         0.19499E-03
         0.14123E-02
         0.00000E+00
         0.00000E+00
         0.00000E+00
         0.00000E+00
         0.87027E-03
         0.00000E+00
         0.14553E-01
         0.15013E-01
         0.15903E-01
         0.15768E-01
         0.16979E-01
         0.18422E-01
         0.17519E-01
         0.15250E-01
         0.14782E-01
         0.16037E-01
         0.15689E-01
         0.15489E-01
         0.12212E-01
         0.11453E-01
         0.12942E-01
         0.14137E-01
         0.14798E-01
         0.16438E-01
         0.15608E-01
         0.16120E-01
         0.14178E-01
         0.13306E-01
         0.14336E-01
         0.13867E-01
         0.14389E-01
         0.14246E-01
         0.18414E-04
         0.00000E+00
         0.00000E+00
         0.00000E+00
         0.85544E-04
         0.00000E+00
         0.00000E+00
         0.00000E+00
         0.00000E+00
         0.00000E+00
         0.00000E+00
         0.29172E-02
         0.14947E-02
         0.00000E+00
         0.33038E-02
         0.00000E+00
         0.00000E+00
         0.00000E+00
         0.00000E+00
         0.00000E+00
         0.16388E-02
         0.13338E-02
         0.12235E-02
         0.00000E+00
         0.00000E+00
         0.00000E+00
         0.00000E+00
         0.00000E+00
         0.00000E+00
         0.00000E+00
         0.00000E+00
         0.00000E+00
         0.00000E+00
         0.00000E+00
         0.10735E-02
         0.00000E+00
         0.10244E-03
         0.21596E-02
         0.98895E-03
         0.66054E-03
         0.21840E-02
         0.16753E-02
         0.16817E-02
         0.59998E-03
         0.19538E-03
         0.14130E-02
         0.00000E+00
         0.00000E+00
         0.00000E+00
         0.00000E+00
         0.86839E-03
         0.00000E+00
         0.14547E-01
         0.15009E-01
         0.15903E-01
         0.15768E-01
         0.16976E-01
         0.18415E-01
         0.17509E-01
         0.15245E-01
         0.14777E-01
         0.16030E-01
         0.15686E-01
         0.15491E-01
         0.12211E-01
         0.11453E-01
         0.12944E-01
         0.14143E-01
         0.14804E-01
         0.16443E-01
         0.15607E-01
         0.16119E-01
         0.14177E-01
         0.13305E-01
         0.14330E-01
         0.13856E-01
         0.14379E-01
         0.14237E-01
         0.20286E-04
         0.00000E+00
         0.00000E+00
         0.00000E+00
         0.84252E-04
         0.00000E+00
         0.00000E+00
         0.00000E+00
         0.00000E+00
         0.00000E+00
         0.00000E+00
         0.29173E-02
         0.14968E-02
         0.00000E+00
         0.33105E-02
         0.00000E+00
         0.00000E+00
         0.00000E+00
         0.00000E+00
         0.00000E+00
         0.16396E-02
         0.13338E-02
         0.12240E-02
         0.00000E+00
         0.00000E+00
         0.00000E+00
         0.00000E+00
         0.00000E+00
         0.00000E+00
         0.00000E+00
         0.00000E+00
         0.00000E+00
         0.00000E+00
         0.00000E+00
         0.10756E-02
         0.00000E+00
         0.10198E-03
         0.21680E-02
         0.99847E-03
         0.66629E-03
         0.21880E-02
         0.16782E-02
         0.16829E-02
         0.60107E-03
         0.19572E-03
         0.14138E-02
         0.00000E+00
         0.00000E+00
         0.00000E+00
         0.00000E+00
         0.86649E-03
         0.00000E+00
         0.14540E-01
         0.15004E-01
         0.15903E-01
         0.15768E-01
         0.16972E-01
         0.18407E-01
         0.17500E-01
         0.15240E-01
         0.14773E-01
         0.16024E-01
         0.15683E-01
         0.15492E-01
         0.12211E-01
         0.11452E-01
         0.12947E-01
         0.14149E-01
         0.14811E-01
         0.16447E-01
         0.15605E-01
         0.16118E-01
         0.14175E-01
         0.13305E-01
         0.14324E-01
         0.13844E-01
         0.14369E-01
         0.14228E-01
         0.22165E-04
         0.00000E+00
         0.00000E+00
         0.00000E+00
         0.82913E-04
         0.00000E+00
         0.00000E+00
         0.00000E+00
         0.00000E+00
         0.00000E+00
         0.00000E+00
         0.29173E-02
         0.14988E-02
         0.00000E+00
         0.33171E-02
         0.00000E+00
         0.00000E+00
         0.00000E+00
         0.00000E+00
         0.00000E+00
         0.16405E-02
         0.13338E-02
         0.12245E-02
         0.00000E+00
         0.00000E+00
         0.00000E+00
         0.00000E+00
         0.00000E+00
         0.00000E+00
         0.00000E+00
         0.00000E+00
         0.00000E+00
         0.00000E+00
         0.00000E+00
         0.10776E-02
         0.00000E+00
         0.10158E-03
         0.21764E-02
         0.10080E-02
         0.67176E-03
         0.21919E-02
         0.16807E-02
         0.16840E-02
         0.60212E-03
         0.19607E-03
         0.14145E-02
         0.00000E+00
         0.00000E+00
         0.00000E+00
         0.00000E+00
         0.86467E-03
         0.00000E+00
         0.14534E-01
         0.15000E-01
         0.15902E-01
         0.15768E-01
         0.16969E-01
         0.18400E-01
         0.17491E-01
         0.15235E-01
         0.14768E-01
         0.16018E-01
         0.15680E-01
         0.15494E-01
         0.12210E-01
         0.11452E-01
         0.12949E-01
         0.14154E-01
         0.14817E-01
         0.16452E-01
         0.15604E-01
         0.16117E-01
         0.14173E-01
         0.13304E-01
         0.14318E-01
         0.13833E-01
         0.14359E-01
         0.14218E-01
         0.24037E-04
         0.00000E+00
         0.00000E+00
         0.00000E+00
         0.81559E-04
         0.00000E+00
         0.00000E+00
         0.00000E+00
         0.00000E+00
         0.00000E+00
         0.00000E+00
         0.29174E-02
         0.15010E-02
         0.00000E+00
         0.33238E-02
         0.00000E+00
         0.00000E+00
         0.00000E+00
         0.00000E+00
         0.00000E+00
         0.16413E-02
         0.13336E-02
         0.12250E-02
         0.00000E+00
         0.00000E+00
         0.00000E+00
         0.00000E+00
         0.00000E+00
         0.00000E+00
         0.00000E+00
         0.00000E+00
         0.00000E+00
         0.00000E+00
         0.00000E+00
         0.10797E-02
         0.00000E+00
         0.10116E-03
         0.21848E-02
         0.10174E-02
         0.67716E-03
         0.21956E-02
         0.16830E-02
         0.16850E-02
         0.60315E-03
         0.19647E-03
         0.14153E-02
         0.00000E+00
         0.00000E+00
         0.00000E+00
         0.00000E+00
         0.86271E-03
         0.00000E+00
         0.14527E-01
         0.14996E-01
         0.15902E-01
         0.15768E-01
         0.16966E-01
         0.18392E-01
         0.17482E-01
         0.15230E-01
         0.14764E-01
         0.16011E-01
         0.15677E-01
         0.15496E-01
         0.12211E-01
         0.11452E-01
         0.12952E-01
         0.14160E-01
         0.14823E-01
         0.16456E-01
         0.15603E-01
         0.16115E-01
         0.14172E-01
         0.13303E-01
         0.14311E-01
         0.13822E-01
         0.14349E-01
         0.14209E-01
         0.25930E-04
         0.00000E+00
         0.00000E+00
         0.00000E+00
         0.80300E-04
         0.00000E+00
         0.00000E+00
         0.00000E+00
         0.00000E+00
         0.00000E+00
         0.00000E+00
         0.29174E-02
         0.15030E-02
         0.00000E+00
         0.33305E-02
         0.00000E+00
         0.00000E+00
         0.00000E+00
         0.00000E+00
         0.00000E+00
         0.16421E-02
         0.13335E-02
         0.12254E-02
         0.00000E+00
         0.00000E+00
         0.00000E+00
         0.00000E+00
         0.00000E+00
         0.00000E+00
         0.00000E+00
         0.00000E+00
         0.00000E+00
         0.00000E+00
         0.00000E+00
         0.10819E-02
         0.00000E+00
         0.10069E-03
         0.21932E-02
         0.10269E-02
         0.68234E-03
         0.21991E-02
         0.16852E-02
         0.16859E-02
         0.60419E-03
         0.19678E-03
         0.14160E-02
         0.00000E+00
         0.00000E+00
         0.00000E+00
         0.00000E+00
         0.86091E-03
         0.00000E+00
         0.14521E-01
         0.14991E-01
         0.15902E-01
         0.15769E-01
         0.16962E-01
         0.18385E-01
         0.17473E-01
         0.15225E-01
         0.14759E-01
         0.16004E-01
         0.15674E-01
         0.15499E-01
         0.12211E-01
         0.11452E-01
         0.12954E-01
         0.14166E-01
         0.14829E-01
         0.16461E-01
         0.15602E-01
         0.16114E-01
         0.14170E-01
         0.13302E-01
         0.14305E-01
         0.13811E-01
         0.14340E-01
         0.14200E-01
         0.16585E-03
         0.00000E+00
         0.00000E+00
         0.00000E+00
         0.26701E-03
         0.00000E+00
         0.00000E+00
         0.15796E-03
         0.00000E+00
         0.90330E-04
         0.00000E+00
         0.30778E-02
         0.16668E-02
         0.00000E+00
         0.34975E-02
         0.00000E+00
         0.00000E+00
         0.00000E+00
         0.00000E+00
         0.00000E+00
         0.17787E-02
         0.14792E-02
         0.13605E-02
         0.00000E+00
         0.00000E+00
         0.00000E+00
         0.00000E+00
         0.00000E+00
         0.00000E+00
         0.00000E+00
         0.00000E+00
         0.00000E+00
         0.00000E+00
         0.00000E+00
         0.12651E-02
         0.00000E+00
         0.28557E-03
         0.23697E-02
         0.12270E-02
         0.88741E-03
         0.23648E-02
         0.18458E-02
         0.18309E-02
         0.74906E-03
         0.36828E-03
         0.15879E-02
         0.68540E-04
         0.00000E+00
         0.00000E+00
         0.00000E+00
         0.10338E-02
         0.00000E+00
         0.14694E-01
         0.15160E-01
         0.16076E-01
         0.15935E-01
         0.17131E-01
         0.18558E-01
         0.17649E-01
         0.15410E-01
         0.14949E-01
         0.16194E-01
         0.15860E-01
         0.15674E-01
         0.12367E-01
         0.11599E-01
         0.13099E-01
         0.14314E-01
         0.14978E-01
         0.16623E-01
         0.15778E-01
         0.16291E-01
         0.14332E-01
         0.13459E-01
         0.14461E-01
         0.13962E-01
         0.14488E-01
         0.14349E-01
         0.76408E-02
         0.73982E-02
         0.72241E-02
         0.62257E-02
         0.89651E-02
         0.78819E-02
         0.79331E-02
         0.88164E-02
         0.68160E-02
         0.87675E-02
         0.90336E-02
         0.12729E-01
         0.10719E-01
         0.95974E-02
         0.13461E-01
         0.67948E-02
         0.70215E-02
         0.56986E-02
         0.74191E-02
         0.77542E-02
         0.99550E-02
         0.99756E-02
         0.92848E-02
         0.69357E-02
         0.84147E-02
         0.65024E-02
         0.95576E-02
         0.89584E-02
         0.90711E-02
         0.88065E-02
         0.67278E-02
         0.68693E-02
         0.62840E-02
         0.66553E-02
         0.10445E-01
         0.86753E-02
         0.90712E-02
         0.12338E-01
         0.11299E-01
         0.10957E-01
         0.12126E-01
         0.11220E-01
         0.10647E-01
         0.86597E-02
         0.87785E-02
         0.10631E-01
         0.89741E-02
         0.81578E-02
         0.77534E-02
         0.82552E-02
         0.98880E-02
         0.84070E-02
         0.26048E-01
         0.26164E-01
         0.27298E-01
         0.26864E-01
         0.28358E-01
         0.30401E-01
         0.29906E-01
         0.27824E-01
         0.27433E-01
         0.28817E-01
         0.28147E-01
         0.27201E-01
         0.22930E-01
         0.21640E-01
         0.22955E-01
         0.24100E-01
         0.24806E-01
         0.27147E-01
         0.27049E-01
         0.27615E-01
         0.25028E-01
         0.23915E-01
         0.25181E-01
         0.24672E-01
         0.25016E-01
         0.24786E-01
  
SCALARS                            dam  double 1
LOOKUP_TABLE default
         0.00000E+00
         0.00000E+00
         0.00000E+00
         0.00000E+00
         0.00000E+00
         0.00000E+00
         0.00000E+00
         0.00000E+00
         0.00000E+00
         0.00000E+00
         0.00000E+00
         0.00000E+00
         0.00000E+00
         0.00000E+00
         0.00000E+00
         0.00000E+00
         0.00000E+00
         0.00000E+00
         0.00000E+00
         0.00000E+00
         0.00000E+00
         0.00000E+00
         0.00000E+00
         0.00000E+00
         0.00000E+00
         0.00000E+00
         0.00000E+00
         0.00000E+00
         0.00000E+00
         0.00000E+00
         0.00000E+00
         0.00000E+00
         0.00000E+00
         0.00000E+00
         0.00000E+00
         0.00000E+00
         0.00000E+00
         0.00000E+00
         0.00000E+00
         0.00000E+00
         0.00000E+00
         0.00000E+00
         0.00000E+00
         0.00000E+00
         0.00000E+00
         0.00000E+00
         0.00000E+00
         0.00000E+00
         0.00000E+00
         0.00000E+00
         0.00000E+00
         0.00000E+00
         0.00000E+00
         0.00000E+00
         0.00000E+00
         0.00000E+00
         0.00000E+00
         0.00000E+00
         0.00000E+00
         0.00000E+00
         0.00000E+00
         0.00000E+00
         0.00000E+00
         0.00000E+00
         0.00000E+00
         0.00000E+00
         0.00000E+00
         0.00000E+00
         0.00000E+00
         0.00000E+00
         0.00000E+00
         0.00000E+00
         0.00000E+00
         0.00000E+00
         0.00000E+00
         0.00000E+00
         0.00000E+00
         0.00000E+00
         0.00000E+00
         0.00000E+00
         0.00000E+00
         0.00000E+00
         0.00000E+00
         0.00000E+00
         0.00000E+00
         0.00000E+00
         0.00000E+00
         0.00000E+00
         0.00000E+00
         0.00000E+00
         0.00000E+00
         0.00000E+00
         0.00000E+00
         0.00000E+00
         0.00000E+00
         0.00000E+00
         0.00000E+00
         0.00000E+00
         0.00000E+00
         0.00000E+00
         0.00000E+00
         0.00000E+00
         0.00000E+00
         0.00000E+00
         0.00000E+00
         0.00000E+00
         0.00000E+00
         0.00000E+00
         0.00000E+00
         0.00000E+00
         0.00000E+00
         0.00000E+00
         0.00000E+00
         0.00000E+00
         0.00000E+00
         0.00000E+00
         0.00000E+00
         0.00000E+00
         0.00000E+00
         0.00000E+00
         0.00000E+00
         0.00000E+00
         0.00000E+00
         0.00000E+00
         0.00000E+00
         0.00000E+00
         0.00000E+00
         0.00000E+00
         0.00000E+00
         0.00000E+00
         0.00000E+00
         0.00000E+00
         0.00000E+00
         0.00000E+00
         0.00000E+00
         0.00000E+00
         0.00000E+00
         0.00000E+00
         0.00000E+00
         0.00000E+00
         0.00000E+00
         0.00000E+00
         0.00000E+00
         0.00000E+00
         0.00000E+00
         0.00000E+00
         0.00000E+00
         0.00000E+00
         0.00000E+00
         0.00000E+00
         0.00000E+00
         0.00000E+00
         0.00000E+00
         0.00000E+00
         0.00000E+00
         0.00000E+00
         0.00000E+00
         0.00000E+00
         0.00000E+00
         0.00000E+00
         0.00000E+00
         0.00000E+00
         0.00000E+00
         0.00000E+00
         0.00000E+00
         0.00000E+00
         0.00000E+00
         0.00000E+00
         0.00000E+00
         0.00000E+00
         0.00000E+00
         0.00000E+00
         0.00000E+00
         0.00000E+00
         0.00000E+00
         0.00000E+00
         0.00000E+00
         0.00000E+00
         0.00000E+00
         0.00000E+00
         0.00000E+00
         0.00000E+00
         0.00000E+00
         0.00000E+00
         0.00000E+00
         0.00000E+00
         0.00000E+00
         0.00000E+00
         0.00000E+00
         0.00000E+00
         0.00000E+00
         0.00000E+00
         0.00000E+00
         0.00000E+00
         0.00000E+00
         0.00000E+00
         0.00000E+00
         0.00000E+00
         0.00000E+00
         0.00000E+00
         0.00000E+00
         0.00000E+00
         0.00000E+00
         0.00000E+00
         0.00000E+00
         0.00000E+00
         0.00000E+00
         0.00000E+00
         0.00000E+00
         0.00000E+00
         0.00000E+00
         0.00000E+00
         0.00000E+00
         0.00000E+00
         0.00000E+00
         0.00000E+00
         0.00000E+00
         0.00000E+00
         0.00000E+00
         0.00000E+00
         0.00000E+00
         0.00000E+00
         0.00000E+00
         0.00000E+00
         0.00000E+00
         0.00000E+00
         0.00000E+00
         0.00000E+00
         0.00000E+00
         0.00000E+00
         0.00000E+00
         0.00000E+00
         0.00000E+00
         0.00000E+00
         0.00000E+00
         0.00000E+00
         0.00000E+00
         0.00000E+00
         0.00000E+00
         0.00000E+00
         0.00000E+00
         0.00000E+00
         0.00000E+00
         0.00000E+00
         0.00000E+00
         0.00000E+00
         0.00000E+00
         0.00000E+00
         0.00000E+00
         0.00000E+00
         0.00000E+00
         0.00000E+00
         0.00000E+00
         0.00000E+00
         0.00000E+00
         0.00000E+00
         0.00000E+00
         0.00000E+00
         0.00000E+00
         0.00000E+00
         0.00000E+00
         0.00000E+00
         0.00000E+00
         0.00000E+00
         0.00000E+00
         0.00000E+00
         0.00000E+00
         0.00000E+00
         0.00000E+00
         0.00000E+00
         0.00000E+00
         0.00000E+00
         0.00000E+00
         0.00000E+00
         0.00000E+00
         0.00000E+00
         0.00000E+00
         0.00000E+00
         0.00000E+00
         0.00000E+00
         0.00000E+00
         0.00000E+00
         0.00000E+00
         0.00000E+00
         0.00000E+00
         0.00000E+00
         0.00000E+00
         0.00000E+00
         0.00000E+00
         0.00000E+00
         0.00000E+00
         0.00000E+00
         0.00000E+00
         0.00000E+00
         0.00000E+00
         0.00000E+00
         0.00000E+00
         0.00000E+00
         0.00000E+00
         0.00000E+00
         0.00000E+00
         0.00000E+00
         0.00000E+00
         0.00000E+00
         0.00000E+00
         0.00000E+00
         0.00000E+00
         0.00000E+00
         0.00000E+00
         0.00000E+00
         0.00000E+00
         0.00000E+00
         0.00000E+00
         0.00000E+00
         0.00000E+00
         0.00000E+00
         0.00000E+00
         0.00000E+00
         0.00000E+00
         0.00000E+00
         0.00000E+00
         0.00000E+00
         0.00000E+00
         0.00000E+00
         0.00000E+00
         0.00000E+00
         0.00000E+00
         0.00000E+00
         0.00000E+00
         0.00000E+00
         0.00000E+00
         0.00000E+00
         0.00000E+00
         0.00000E+00
         0.00000E+00
         0.00000E+00
         0.00000E+00
         0.00000E+00
         0.00000E+00
         0.00000E+00
         0.00000E+00
         0.00000E+00
         0.00000E+00
         0.00000E+00
         0.00000E+00
         0.00000E+00
         0.00000E+00
         0.00000E+00
         0.00000E+00
         0.00000E+00
         0.00000E+00
         0.00000E+00
         0.00000E+00
         0.00000E+00
         0.00000E+00
         0.00000E+00
         0.00000E+00
         0.00000E+00
         0.00000E+00
         0.00000E+00
         0.00000E+00
         0.00000E+00
         0.00000E+00
         0.00000E+00
         0.00000E+00
         0.00000E+00
         0.00000E+00
         0.00000E+00
         0.00000E+00
         0.00000E+00
         0.00000E+00
         0.00000E+00
         0.00000E+00
         0.00000E+00
         0.00000E+00
         0.00000E+00
         0.00000E+00
         0.00000E+00
         0.00000E+00
         0.00000E+00
         0.00000E+00
         0.00000E+00
         0.00000E+00
         0.00000E+00
         0.00000E+00
         0.00000E+00
         0.00000E+00
         0.00000E+00
         0.00000E+00
         0.00000E+00
         0.00000E+00
         0.00000E+00
         0.00000E+00
         0.00000E+00
         0.00000E+00
         0.00000E+00
         0.00000E+00
         0.00000E+00
         0.00000E+00
         0.00000E+00
         0.00000E+00
         0.00000E+00
         0.00000E+00
         0.00000E+00
         0.00000E+00
         0.00000E+00
         0.00000E+00
         0.00000E+00
         0.00000E+00
         0.00000E+00
         0.00000E+00
         0.00000E+00
         0.00000E+00
         0.00000E+00
         0.00000E+00
         0.00000E+00
         0.00000E+00
         0.00000E+00
         0.00000E+00
         0.00000E+00
         0.00000E+00
         0.00000E+00
         0.00000E+00
         0.00000E+00
         0.00000E+00
         0.00000E+00
         0.00000E+00
         0.00000E+00
         0.00000E+00
         0.00000E+00
         0.00000E+00
         0.00000E+00
         0.00000E+00
         0.00000E+00
         0.00000E+00
         0.00000E+00
         0.00000E+00
         0.00000E+00
         0.00000E+00
         0.00000E+00
         0.00000E+00
         0.00000E+00
         0.00000E+00
         0.00000E+00
         0.00000E+00
         0.00000E+00
         0.00000E+00
         0.00000E+00
         0.00000E+00
         0.00000E+00
         0.00000E+00
         0.00000E+00
         0.00000E+00
         0.00000E+00
         0.00000E+00
         0.00000E+00
         0.00000E+00
         0.00000E+00
         0.00000E+00
         0.00000E+00
         0.00000E+00
         0.00000E+00
         0.00000E+00
         0.00000E+00
         0.00000E+00
         0.00000E+00
         0.00000E+00
         0.00000E+00
         0.00000E+00
         0.00000E+00
         0.00000E+00
         0.00000E+00
         0.00000E+00
         0.00000E+00
         0.00000E+00
         0.00000E+00
         0.00000E+00
         0.00000E+00
         0.00000E+00
         0.00000E+00
         0.00000E+00
         0.00000E+00
         0.00000E+00
         0.00000E+00
         0.00000E+00
         0.00000E+00
         0.00000E+00
         0.00000E+00
         0.00000E+00
         0.00000E+00
         0.00000E+00
         0.00000E+00
         0.00000E+00
         0.00000E+00
         0.00000E+00
         0.00000E+00
         0.00000E+00
         0.00000E+00
         0.00000E+00
         0.00000E+00
         0.00000E+00
         0.00000E+00
         0.00000E+00
         0.00000E+00
         0.00000E+00
         0.00000E+00
         0.00000E+00
         0.00000E+00
         0.00000E+00
         0.00000E+00
         0.00000E+00
         0.00000E+00
         0.00000E+00
         0.00000E+00
         0.00000E+00
         0.00000E+00
         0.00000E+00
         0.00000E+00
         0.00000E+00
         0.00000E+00
         0.00000E+00
         0.00000E+00
         0.00000E+00
         0.00000E+00
         0.00000E+00
         0.00000E+00
         0.00000E+00
         0.00000E+00
         0.00000E+00
         0.00000E+00
         0.00000E+00
         0.00000E+00
         0.00000E+00
         0.00000E+00
         0.00000E+00
         0.00000E+00
         0.00000E+00
         0.00000E+00
         0.00000E+00
         0.00000E+00
         0.00000E+00
         0.00000E+00
         0.00000E+00
         0.00000E+00
         0.00000E+00
         0.00000E+00
         0.00000E+00
         0.00000E+00
         0.00000E+00
         0.00000E+00
         0.00000E+00
         0.00000E+00
         0.00000E+00
         0.00000E+00
         0.00000E+00
         0.00000E+00
         0.00000E+00
         0.00000E+00
         0.00000E+00
         0.00000E+00
         0.00000E+00
         0.00000E+00
         0.00000E+00
         0.00000E+00
         0.00000E+00
         0.00000E+00
         0.00000E+00
         0.00000E+00
         0.00000E+00
         0.00000E+00
         0.00000E+00
         0.00000E+00
         0.00000E+00
         0.00000E+00
         0.00000E+00
         0.00000E+00
         0.00000E+00
         0.00000E+00
         0.00000E+00
         0.00000E+00
         0.00000E+00
         0.00000E+00
         0.00000E+00
         0.00000E+00
         0.00000E+00
         0.00000E+00
         0.00000E+00
         0.00000E+00
         0.00000E+00
         0.00000E+00
         0.00000E+00
         0.00000E+00
         0.00000E+00
         0.00000E+00
         0.00000E+00
         0.00000E+00
         0.00000E+00
         0.00000E+00
         0.00000E+00
         0.00000E+00
         0.00000E+00
         0.00000E+00
         0.00000E+00
         0.00000E+00
         0.00000E+00
         0.00000E+00
         0.00000E+00
         0.00000E+00
         0.00000E+00
         0.00000E+00
         0.00000E+00
         0.00000E+00
         0.00000E+00
         0.00000E+00
         0.00000E+00
         0.00000E+00
         0.00000E+00
         0.00000E+00
         0.00000E+00
         0.00000E+00
         0.00000E+00
         0.00000E+00
         0.00000E+00
         0.00000E+00
         0.00000E+00
         0.00000E+00
         0.00000E+00
         0.00000E+00
         0.00000E+00
         0.00000E+00
         0.00000E+00
         0.00000E+00
         0.00000E+00
         0.00000E+00
         0.00000E+00
         0.00000E+00
         0.00000E+00
         0.00000E+00
         0.00000E+00
         0.00000E+00
         0.00000E+00
         0.00000E+00
         0.00000E+00
         0.00000E+00
         0.00000E+00
         0.00000E+00
         0.00000E+00
         0.00000E+00
         0.00000E+00
         0.00000E+00
         0.00000E+00
         0.00000E+00
         0.00000E+00
         0.00000E+00
         0.00000E+00
         0.00000E+00
         0.00000E+00
         0.00000E+00
         0.00000E+00
         0.00000E+00
         0.00000E+00
         0.00000E+00
         0.00000E+00
         0.00000E+00
         0.00000E+00
         0.00000E+00
         0.00000E+00
         0.00000E+00
         0.00000E+00
         0.00000E+00
         0.00000E+00
         0.00000E+00
         0.00000E+00
         0.00000E+00
         0.00000E+00
         0.00000E+00
         0.00000E+00
         0.00000E+00
         0.00000E+00
         0.00000E+00
         0.00000E+00
         0.00000E+00
         0.00000E+00
         0.00000E+00
         0.00000E+00
         0.00000E+00
         0.00000E+00
         0.00000E+00
         0.00000E+00
         0.00000E+00
         0.00000E+00
         0.00000E+00
         0.00000E+00
         0.00000E+00
         0.00000E+00
         0.00000E+00
         0.00000E+00
         0.00000E+00
         0.00000E+00
         0.00000E+00
         0.00000E+00
         0.00000E+00
         0.00000E+00
         0.00000E+00
         0.00000E+00
         0.00000E+00
         0.00000E+00
         0.00000E+00
         0.00000E+00
         0.00000E+00
         0.00000E+00
         0.00000E+00
         0.00000E+00
         0.00000E+00
         0.00000E+00
         0.00000E+00
         0.00000E+00
         0.00000E+00
         0.00000E+00
         0.00000E+00
         0.00000E+00
         0.00000E+00
         0.00000E+00
         0.00000E+00
         0.00000E+00
         0.00000E+00
         0.00000E+00
         0.00000E+00
         0.00000E+00
         0.00000E+00
         0.00000E+00
         0.00000E+00
         0.00000E+00
         0.00000E+00
         0.00000E+00
         0.00000E+00
         0.00000E+00
         0.00000E+00
         0.00000E+00
         0.00000E+00
         0.00000E+00
         0.00000E+00
         0.00000E+00
         0.00000E+00
         0.00000E+00
         0.00000E+00
         0.00000E+00
         0.00000E+00
         0.00000E+00
         0.00000E+00
         0.00000E+00
         0.00000E+00
         0.00000E+00
         0.00000E+00
         0.00000E+00
         0.00000E+00
         0.00000E+00
         0.00000E+00
         0.00000E+00
         0.00000E+00
         0.00000E+00
         0.00000E+00
         0.00000E+00
         0.00000E+00
         0.00000E+00
         0.00000E+00
         0.00000E+00
         0.00000E+00
         0.00000E+00
         0.00000E+00
         0.00000E+00
         0.00000E+00
         0.00000E+00
         0.00000E+00
         0.00000E+00
         0.00000E+00
         0.00000E+00
         0.00000E+00
         0.00000E+00
         0.00000E+00
         0.00000E+00
         0.00000E+00
         0.00000E+00
         0.00000E+00
         0.00000E+00
         0.00000E+00
         0.00000E+00
         0.00000E+00
         0.00000E+00
         0.00000E+00
         0.00000E+00
         0.00000E+00
         0.00000E+00
         0.00000E+00
         0.00000E+00
         0.00000E+00
         0.00000E+00
         0.00000E+00
         0.00000E+00
         0.00000E+00
         0.00000E+00
         0.00000E+00
         0.00000E+00
         0.00000E+00
         0.00000E+00
         0.00000E+00
         0.00000E+00
         0.00000E+00
         0.00000E+00
         0.00000E+00
         0.00000E+00
         0.00000E+00
         0.00000E+00
         0.00000E+00
         0.00000E+00
         0.00000E+00
         0.00000E+00
         0.00000E+00
         0.00000E+00
         0.00000E+00
         0.00000E+00
         0.00000E+00
         0.00000E+00
         0.00000E+00
         0.00000E+00
         0.00000E+00
         0.00000E+00
         0.00000E+00
         0.00000E+00
         0.00000E+00
         0.00000E+00
         0.00000E+00
         0.00000E+00
         0.00000E+00
         0.00000E+00
         0.00000E+00
         0.00000E+00
         0.00000E+00
         0.00000E+00
         0.00000E+00
         0.00000E+00
         0.00000E+00
         0.00000E+00
         0.00000E+00
         0.00000E+00
         0.00000E+00
         0.00000E+00
         0.00000E+00
         0.00000E+00
         0.00000E+00
         0.00000E+00
         0.00000E+00
         0.00000E+00
         0.00000E+00
         0.00000E+00
         0.00000E+00
         0.00000E+00
         0.00000E+00
         0.00000E+00
         0.00000E+00
         0.00000E+00
         0.00000E+00
         0.00000E+00
         0.00000E+00
         0.00000E+00
         0.00000E+00
         0.00000E+00
         0.00000E+00
         0.00000E+00
         0.00000E+00
         0.00000E+00
         0.00000E+00
         0.00000E+00
         0.00000E+00
         0.00000E+00
         0.00000E+00
         0.00000E+00
         0.00000E+00
         0.00000E+00
         0.00000E+00
         0.00000E+00
         0.00000E+00
         0.00000E+00
         0.00000E+00
         0.00000E+00
         0.00000E+00
         0.00000E+00
         0.00000E+00
         0.00000E+00
         0.00000E+00
         0.00000E+00
         0.00000E+00
         0.00000E+00
         0.00000E+00
         0.00000E+00
         0.00000E+00
         0.00000E+00
         0.00000E+00
         0.00000E+00
         0.00000E+00
         0.00000E+00
         0.00000E+00
         0.00000E+00
         0.00000E+00
         0.00000E+00
         0.00000E+00
         0.00000E+00
         0.00000E+00
         0.00000E+00
         0.00000E+00
         0.00000E+00
         0.00000E+00
         0.00000E+00
         0.00000E+00
         0.00000E+00
         0.00000E+00
         0.00000E+00
         0.00000E+00
         0.00000E+00
         0.00000E+00
         0.00000E+00
         0.00000E+00
         0.00000E+00
         0.00000E+00
         0.00000E+00
         0.00000E+00
         0.00000E+00
         0.00000E+00
         0.00000E+00
         0.00000E+00
         0.00000E+00
         0.00000E+00
         0.00000E+00
         0.00000E+00
         0.00000E+00
         0.00000E+00
         0.00000E+00
         0.00000E+00
         0.00000E+00
         0.00000E+00
         0.00000E+00
         0.00000E+00
         0.00000E+00
         0.00000E+00
         0.00000E+00
         0.00000E+00
         0.00000E+00
         0.00000E+00
         0.00000E+00
         0.00000E+00
         0.00000E+00
         0.00000E+00
         0.00000E+00
         0.00000E+00
         0.00000E+00
         0.00000E+00
         0.00000E+00
         0.00000E+00
         0.00000E+00
         0.00000E+00
         0.00000E+00
         0.00000E+00
         0.00000E+00
         0.00000E+00
         0.00000E+00
         0.00000E+00
         0.00000E+00
         0.00000E+00
         0.00000E+00
         0.00000E+00
         0.00000E+00
         0.00000E+00
         0.00000E+00
         0.00000E+00
         0.00000E+00
         0.00000E+00
         0.00000E+00
         0.00000E+00
         0.00000E+00
         0.00000E+00
         0.00000E+00
         0.00000E+00
         0.00000E+00
         0.00000E+00
         0.00000E+00
         0.00000E+00
         0.00000E+00
         0.00000E+00
         0.00000E+00
         0.00000E+00
         0.00000E+00
         0.00000E+00
         0.00000E+00
         0.00000E+00
         0.00000E+00
         0.00000E+00
         0.00000E+00
         0.00000E+00
         0.00000E+00
         0.00000E+00
         0.00000E+00
         0.00000E+00
         0.00000E+00
         0.00000E+00
         0.00000E+00
         0.00000E+00
         0.00000E+00
         0.00000E+00
         0.00000E+00
         0.00000E+00
         0.00000E+00
         0.00000E+00
         0.00000E+00
         0.00000E+00
         0.00000E+00
         0.00000E+00
         0.00000E+00
         0.00000E+00
         0.00000E+00
         0.00000E+00
         0.00000E+00
         0.00000E+00
         0.00000E+00
         0.00000E+00
         0.00000E+00
         0.00000E+00
         0.00000E+00
         0.00000E+00
         0.00000E+00
         0.00000E+00
         0.00000E+00
         0.00000E+00
         0.00000E+00
         0.00000E+00
         0.00000E+00
         0.00000E+00
         0.00000E+00
         0.00000E+00
         0.00000E+00
         0.00000E+00
         0.00000E+00
         0.00000E+00
         0.00000E+00
         0.00000E+00
         0.00000E+00
         0.00000E+00
         0.00000E+00
         0.00000E+00
         0.00000E+00
         0.00000E+00
         0.00000E+00
         0.00000E+00
         0.00000E+00
         0.00000E+00
         0.00000E+00
         0.00000E+00
         0.00000E+00
         0.00000E+00
         0.00000E+00
         0.00000E+00
         0.00000E+00
         0.00000E+00
         0.00000E+00
         0.00000E+00
         0.00000E+00
         0.00000E+00
         0.00000E+00
         0.00000E+00
         0.00000E+00
         0.00000E+00
         0.00000E+00
         0.00000E+00
         0.00000E+00
         0.00000E+00
         0.00000E+00
         0.00000E+00
         0.00000E+00
         0.00000E+00
         0.00000E+00
         0.00000E+00
         0.00000E+00
         0.00000E+00
         0.00000E+00
         0.00000E+00
         0.00000E+00
         0.00000E+00
         0.00000E+00
         0.00000E+00
         0.00000E+00
         0.00000E+00
         0.00000E+00
         0.00000E+00
         0.00000E+00
         0.00000E+00
         0.00000E+00
         0.00000E+00
         0.00000E+00
         0.00000E+00
         0.00000E+00
         0.00000E+00
         0.00000E+00
         0.00000E+00
         0.00000E+00
         0.00000E+00
         0.00000E+00
         0.00000E+00
         0.00000E+00
         0.00000E+00
         0.00000E+00
         0.00000E+00
         0.00000E+00
         0.00000E+00
         0.00000E+00
         0.00000E+00
         0.00000E+00
         0.00000E+00
         0.00000E+00
         0.00000E+00
         0.00000E+00
         0.00000E+00
         0.00000E+00
         0.00000E+00
         0.00000E+00
         0.00000E+00
         0.00000E+00
         0.00000E+00
         0.00000E+00
         0.00000E+00
         0.00000E+00
         0.00000E+00
         0.00000E+00
         0.00000E+00
         0.00000E+00
         0.00000E+00
         0.00000E+00
         0.00000E+00
         0.00000E+00
         0.00000E+00
         0.00000E+00
         0.00000E+00
         0.00000E+00
         0.00000E+00
         0.00000E+00
         0.00000E+00
         0.00000E+00
         0.00000E+00
         0.00000E+00
         0.00000E+00
         0.00000E+00
         0.00000E+00
         0.00000E+00
         0.00000E+00
         0.00000E+00
         0.00000E+00
         0.00000E+00
         0.00000E+00
         0.00000E+00
         0.00000E+00
         0.00000E+00
         0.00000E+00
         0.00000E+00
         0.00000E+00
         0.00000E+00
         0.00000E+00
         0.00000E+00
         0.00000E+00
         0.00000E+00
         0.00000E+00
         0.00000E+00
         0.00000E+00
         0.00000E+00
         0.00000E+00
         0.00000E+00
         0.00000E+00
         0.00000E+00
         0.00000E+00
         0.00000E+00
         0.00000E+00
         0.00000E+00
         0.00000E+00
         0.00000E+00
         0.00000E+00
         0.00000E+00
         0.00000E+00
         0.00000E+00
         0.00000E+00
         0.00000E+00
         0.00000E+00
         0.00000E+00
         0.00000E+00
         0.00000E+00
         0.00000E+00
         0.00000E+00
         0.00000E+00
         0.00000E+00
         0.00000E+00
         0.00000E+00
         0.00000E+00
         0.00000E+00
         0.00000E+00
         0.00000E+00
         0.00000E+00
         0.00000E+00
         0.00000E+00
         0.00000E+00
         0.00000E+00
         0.00000E+00
         0.00000E+00
         0.00000E+00
         0.00000E+00
         0.00000E+00
         0.00000E+00
         0.00000E+00
         0.00000E+00
         0.00000E+00
         0.00000E+00
         0.00000E+00
         0.00000E+00
         0.00000E+00
         0.00000E+00
         0.00000E+00
         0.00000E+00
         0.00000E+00
         0.00000E+00
         0.00000E+00
         0.00000E+00
         0.00000E+00
         0.00000E+00
         0.00000E+00
         0.00000E+00
         0.00000E+00
         0.00000E+00
         0.00000E+00
         0.00000E+00
         0.00000E+00
         0.00000E+00
         0.00000E+00
         0.00000E+00
         0.00000E+00
         0.00000E+00
         0.00000E+00
         0.00000E+00
         0.00000E+00
         0.00000E+00
         0.00000E+00
         0.00000E+00
         0.00000E+00
         0.00000E+00
         0.00000E+00
         0.00000E+00
         0.00000E+00
         0.00000E+00
         0.00000E+00
         0.00000E+00
         0.00000E+00
         0.00000E+00
         0.00000E+00
         0.00000E+00
         0.00000E+00
         0.00000E+00
         0.00000E+00
         0.00000E+00
         0.00000E+00
         0.00000E+00
         0.00000E+00
         0.00000E+00
         0.00000E+00
         0.00000E+00
         0.00000E+00
         0.00000E+00
         0.00000E+00
         0.00000E+00
         0.00000E+00
         0.00000E+00
         0.00000E+00
         0.00000E+00
         0.00000E+00
         0.00000E+00
         0.00000E+00
         0.00000E+00
         0.00000E+00
         0.00000E+00
         0.00000E+00
         0.00000E+00
         0.00000E+00
         0.00000E+00
         0.00000E+00
         0.00000E+00
         0.00000E+00
         0.00000E+00
         0.00000E+00
         0.00000E+00
         0.00000E+00
         0.00000E+00
         0.00000E+00
         0.00000E+00
         0.00000E+00
         0.00000E+00
         0.00000E+00
         0.00000E+00
         0.00000E+00
         0.00000E+00
         0.00000E+00
         0.00000E+00
         0.00000E+00
         0.00000E+00
         0.00000E+00
         0.00000E+00
         0.00000E+00
         0.00000E+00
         0.00000E+00
         0.00000E+00
         0.00000E+00
         0.00000E+00
         0.00000E+00
         0.00000E+00
         0.00000E+00
         0.00000E+00
         0.00000E+00
         0.00000E+00
         0.00000E+00
         0.00000E+00
         0.00000E+00
         0.00000E+00
         0.00000E+00
         0.00000E+00
         0.00000E+00
         0.00000E+00
         0.00000E+00
         0.00000E+00
         0.00000E+00
         0.00000E+00
         0.00000E+00
         0.00000E+00
         0.00000E+00
         0.00000E+00
         0.00000E+00
         0.00000E+00
         0.00000E+00
         0.00000E+00
         0.00000E+00
         0.00000E+00
         0.00000E+00
         0.00000E+00
         0.00000E+00
         0.00000E+00
         0.00000E+00
         0.00000E+00
         0.00000E+00
         0.00000E+00
         0.00000E+00
         0.00000E+00
         0.00000E+00
         0.00000E+00
         0.00000E+00
         0.00000E+00
         0.00000E+00
         0.00000E+00
         0.00000E+00
         0.00000E+00
         0.00000E+00
         0.00000E+00
         0.00000E+00
         0.00000E+00
         0.00000E+00
         0.00000E+00
         0.00000E+00
         0.00000E+00
         0.00000E+00
         0.00000E+00
         0.00000E+00
         0.00000E+00
         0.00000E+00
         0.00000E+00
         0.00000E+00
         0.00000E+00
         0.00000E+00
         0.00000E+00
         0.00000E+00
         0.00000E+00
         0.00000E+00
         0.00000E+00
         0.00000E+00
         0.00000E+00
         0.00000E+00
         0.00000E+00
         0.00000E+00
         0.00000E+00
         0.00000E+00
         0.00000E+00
         0.00000E+00
         0.00000E+00
         0.00000E+00
         0.00000E+00
         0.00000E+00
         0.00000E+00
         0.00000E+00
         0.00000E+00
         0.00000E+00
         0.00000E+00
         0.00000E+00
         0.00000E+00
         0.00000E+00
         0.00000E+00
         0.00000E+00
         0.00000E+00
         0.00000E+00
         0.00000E+00
         0.00000E+00
         0.00000E+00
         0.00000E+00
         0.00000E+00
         0.00000E+00
         0.00000E+00
         0.00000E+00
         0.00000E+00
         0.00000E+00
         0.00000E+00
         0.00000E+00
         0.00000E+00
         0.00000E+00
         0.00000E+00
         0.00000E+00
         0.00000E+00
         0.00000E+00
         0.00000E+00
         0.00000E+00
         0.00000E+00
         0.00000E+00
         0.00000E+00
         0.00000E+00
         0.00000E+00
         0.00000E+00
         0.00000E+00
         0.00000E+00
         0.00000E+00
         0.00000E+00
         0.00000E+00
         0.00000E+00
         0.00000E+00
         0.00000E+00
         0.00000E+00
         0.00000E+00
         0.00000E+00
         0.00000E+00
         0.00000E+00
         0.00000E+00
         0.00000E+00
         0.00000E+00
         0.00000E+00
         0.00000E+00
         0.00000E+00
         0.00000E+00
         0.00000E+00
         0.00000E+00
         0.00000E+00
         0.00000E+00
         0.00000E+00
         0.00000E+00
         0.00000E+00
         0.00000E+00
         0.00000E+00
         0.00000E+00
         0.00000E+00
         0.00000E+00
         0.00000E+00
         0.00000E+00
         0.00000E+00
         0.00000E+00
         0.00000E+00
         0.00000E+00
         0.00000E+00
         0.00000E+00
         0.00000E+00
         0.00000E+00
         0.00000E+00
         0.00000E+00
         0.00000E+00
         0.00000E+00
         0.00000E+00
         0.00000E+00
         0.00000E+00
         0.00000E+00
         0.00000E+00
         0.00000E+00
         0.00000E+00
         0.00000E+00
         0.00000E+00
         0.00000E+00
         0.00000E+00
         0.00000E+00
         0.00000E+00
         0.00000E+00
         0.00000E+00
         0.00000E+00
         0.00000E+00
         0.00000E+00
         0.00000E+00
         0.00000E+00
         0.00000E+00
         0.00000E+00
         0.00000E+00
         0.00000E+00
         0.00000E+00
         0.00000E+00
         0.00000E+00
         0.00000E+00
         0.00000E+00
         0.00000E+00
         0.00000E+00
         0.00000E+00
         0.00000E+00
         0.00000E+00
         0.00000E+00
         0.00000E+00
         0.00000E+00
         0.00000E+00
         0.00000E+00
         0.00000E+00
         0.00000E+00
         0.00000E+00
         0.00000E+00
         0.00000E+00
         0.00000E+00
         0.00000E+00
         0.00000E+00
         0.00000E+00
         0.00000E+00
         0.00000E+00
         0.00000E+00
         0.00000E+00
         0.00000E+00
         0.00000E+00
         0.00000E+00
         0.00000E+00
         0.00000E+00
         0.00000E+00
         0.00000E+00
         0.00000E+00
         0.00000E+00
         0.00000E+00
         0.00000E+00
         0.00000E+00
         0.00000E+00
         0.00000E+00
         0.00000E+00
         0.00000E+00
         0.00000E+00
         0.00000E+00
         0.00000E+00
         0.00000E+00
         0.00000E+00
         0.00000E+00
         0.00000E+00
         0.00000E+00
         0.00000E+00
         0.00000E+00
         0.00000E+00
         0.00000E+00
         0.00000E+00
         0.00000E+00
         0.00000E+00
         0.00000E+00
         0.00000E+00
         0.00000E+00
         0.00000E+00
         0.00000E+00
         0.00000E+00
         0.00000E+00
         0.00000E+00
         0.00000E+00
         0.00000E+00
         0.00000E+00
         0.00000E+00
         0.00000E+00
         0.00000E+00
         0.00000E+00
         0.00000E+00
         0.00000E+00
         0.00000E+00
         0.00000E+00
         0.00000E+00
         0.00000E+00
         0.00000E+00
         0.00000E+00
         0.00000E+00
         0.00000E+00
         0.00000E+00
         0.00000E+00
         0.00000E+00
         0.00000E+00
         0.00000E+00
         0.00000E+00
         0.00000E+00
         0.00000E+00
         0.00000E+00
         0.00000E+00
         0.00000E+00
         0.00000E+00
         0.00000E+00
         0.00000E+00
         0.00000E+00
         0.00000E+00
         0.00000E+00
         0.00000E+00
         0.00000E+00
         0.00000E+00
         0.00000E+00
         0.00000E+00
         0.00000E+00
         0.00000E+00
         0.00000E+00
         0.00000E+00
         0.00000E+00
         0.00000E+00
         0.00000E+00
         0.00000E+00
         0.00000E+00
         0.00000E+00
         0.00000E+00
         0.00000E+00
         0.00000E+00
         0.00000E+00
         0.00000E+00
         0.00000E+00
         0.00000E+00
         0.00000E+00
         0.00000E+00
         0.00000E+00
         0.00000E+00
         0.00000E+00
         0.00000E+00
         0.00000E+00
         0.00000E+00
         0.00000E+00
         0.00000E+00
         0.00000E+00
         0.00000E+00
         0.00000E+00
         0.00000E+00
         0.00000E+00
         0.00000E+00
         0.00000E+00
         0.00000E+00
         0.00000E+00
         0.00000E+00
         0.00000E+00
         0.00000E+00
         0.00000E+00
         0.00000E+00
         0.00000E+00
         0.00000E+00
         0.00000E+00
         0.00000E+00
         0.00000E+00
         0.00000E+00
         0.00000E+00
         0.00000E+00
         0.00000E+00
         0.00000E+00
         0.00000E+00
         0.00000E+00
         0.00000E+00
         0.00000E+00
         0.00000E+00
         0.00000E+00
         0.00000E+00
         0.00000E+00
         0.00000E+00
         0.00000E+00
         0.00000E+00
         0.00000E+00
         0.00000E+00
         0.00000E+00
         0.00000E+00
         0.00000E+00
         0.00000E+00
         0.00000E+00
         0.00000E+00
         0.00000E+00
         0.00000E+00
         0.00000E+00
         0.00000E+00
         0.00000E+00
         0.00000E+00
         0.00000E+00
         0.00000E+00
         0.00000E+00
         0.00000E+00
         0.00000E+00
         0.00000E+00
         0.00000E+00
         0.00000E+00
         0.00000E+00
         0.00000E+00
         0.00000E+00
         0.00000E+00
         0.00000E+00
         0.00000E+00
         0.00000E+00
         0.00000E+00
         0.00000E+00
         0.00000E+00
         0.00000E+00
         0.00000E+00
         0.00000E+00
         0.00000E+00
         0.00000E+00
         0.00000E+00
         0.00000E+00
         0.00000E+00
         0.00000E+00
         0.00000E+00
         0.00000E+00
         0.00000E+00
         0.00000E+00
         0.00000E+00
         0.00000E+00
         0.00000E+00
         0.00000E+00
         0.00000E+00
         0.00000E+00
         0.00000E+00
         0.00000E+00
         0.00000E+00
         0.00000E+00
         0.00000E+00
         0.00000E+00
         0.00000E+00
         0.00000E+00
         0.00000E+00
         0.00000E+00
         0.00000E+00
         0.00000E+00
         0.00000E+00
         0.00000E+00
         0.00000E+00
         0.00000E+00
         0.00000E+00
         0.00000E+00
         0.00000E+00
         0.00000E+00
         0.00000E+00
         0.00000E+00
         0.00000E+00
         0.00000E+00
         0.00000E+00
         0.00000E+00
         0.00000E+00
         0.00000E+00
         0.00000E+00
         0.00000E+00
         0.00000E+00
         0.00000E+00
         0.00000E+00
         0.00000E+00
         0.00000E+00
         0.00000E+00
         0.00000E+00
         0.00000E+00
         0.00000E+00
         0.00000E+00
         0.00000E+00
         0.00000E+00
         0.00000E+00
         0.00000E+00
         0.00000E+00
         0.00000E+00
         0.00000E+00
         0.00000E+00
         0.00000E+00
         0.00000E+00
         0.00000E+00
         0.00000E+00
         0.00000E+00
         0.00000E+00
         0.00000E+00
         0.00000E+00
         0.00000E+00
         0.00000E+00
         0.00000E+00
         0.00000E+00
         0.00000E+00
         0.00000E+00
         0.00000E+00
         0.00000E+00
         0.00000E+00
         0.00000E+00
         0.00000E+00
         0.00000E+00
         0.00000E+00
         0.00000E+00
         0.00000E+00
         0.00000E+00
         0.00000E+00
         0.00000E+00
         0.00000E+00
         0.00000E+00
         0.00000E+00
         0.00000E+00
         0.00000E+00
         0.00000E+00
         0.00000E+00
         0.00000E+00
         0.00000E+00
         0.00000E+00
         0.00000E+00
         0.00000E+00
         0.00000E+00
         0.00000E+00
         0.00000E+00
         0.00000E+00
         0.00000E+00
         0.00000E+00
         0.00000E+00
         0.00000E+00
         0.00000E+00
         0.00000E+00
         0.00000E+00
         0.00000E+00
         0.00000E+00
         0.00000E+00
         0.00000E+00
         0.00000E+00
         0.00000E+00
         0.00000E+00
         0.00000E+00
         0.00000E+00
         0.00000E+00
         0.00000E+00
         0.00000E+00
         0.00000E+00
         0.00000E+00
         0.00000E+00
         0.00000E+00
         0.00000E+00
         0.00000E+00
         0.00000E+00
         0.00000E+00
         0.00000E+00
         0.00000E+00
         0.00000E+00
         0.00000E+00
         0.00000E+00
         0.00000E+00
         0.00000E+00
         0.00000E+00
         0.00000E+00
         0.00000E+00
         0.00000E+00
         0.00000E+00
         0.00000E+00
         0.00000E+00
         0.00000E+00
         0.00000E+00
         0.00000E+00
         0.00000E+00
         0.00000E+00
         0.00000E+00
         0.00000E+00
         0.00000E+00
         0.00000E+00
         0.00000E+00
         0.00000E+00
         0.00000E+00
         0.00000E+00
         0.00000E+00
         0.00000E+00
         0.00000E+00
         0.00000E+00
         0.00000E+00
         0.00000E+00
         0.00000E+00
         0.00000E+00
         0.00000E+00
         0.00000E+00
         0.00000E+00
         0.00000E+00
         0.00000E+00
         0.00000E+00
         0.00000E+00
         0.00000E+00
         0.00000E+00
         0.00000E+00
         0.00000E+00
         0.00000E+00
         0.00000E+00
         0.00000E+00
         0.00000E+00
         0.00000E+00
         0.00000E+00
         0.00000E+00
         0.00000E+00
         0.00000E+00
         0.00000E+00
         0.00000E+00
         0.00000E+00
         0.00000E+00
         0.00000E+00
         0.00000E+00
         0.00000E+00
         0.00000E+00
         0.00000E+00
         0.00000E+00
         0.00000E+00
         0.00000E+00
         0.00000E+00
         0.00000E+00
         0.00000E+00
         0.00000E+00
         0.00000E+00
         0.00000E+00
         0.00000E+00
         0.00000E+00
         0.00000E+00
         0.00000E+00
         0.00000E+00
         0.00000E+00
         0.00000E+00
         0.00000E+00
         0.00000E+00
         0.00000E+00
         0.00000E+00
         0.00000E+00
         0.00000E+00
         0.00000E+00
         0.00000E+00
         0.00000E+00
         0.00000E+00
         0.00000E+00
         0.00000E+00
         0.00000E+00
         0.00000E+00
         0.00000E+00
         0.00000E+00
         0.00000E+00
         0.00000E+00
         0.00000E+00
         0.00000E+00
         0.00000E+00
         0.00000E+00
         0.00000E+00
         0.00000E+00
         0.00000E+00
         0.00000E+00
         0.00000E+00
         0.00000E+00
         0.00000E+00
         0.00000E+00
         0.00000E+00
  
SCALARS           initial_coordinate_x  double 1
LOOKUP_TABLE default
         0.10378E-02
         0.17452E-02
         0.23177E-02
         0.16698E-02
         0.10379E-02
         0.17453E-02
         0.23178E-02
         0.16700E-02
         0.30377E-02
         0.27791E-02
         0.30377E-02
         0.27788E-02
         0.12850E-02
         0.65139E-03
         0.12851E-02
         0.65164E-03
         0.12757E-03
        -0.12822E-03
         0.12783E-03
        -0.12804E-03
         0.94500E-03
         0.11327E-02
         0.17490E-02
         0.94533E-03
         0.11330E-02
         0.17494E-02
         0.40588E-03
         0.39779E-03
         0.40594E-03
         0.39781E-03
        -0.76303E-03
        -0.86604E-03
         0.46119E-03
        -0.76268E-03
        -0.86593E-03
         0.46164E-03
        -0.18300E-02
        -0.18440E-02
        -0.18297E-02
        -0.18441E-02
        -0.27238E-02
        -0.28028E-02
        -0.27238E-02
        -0.28031E-02
        -0.25365E-02
        -0.19287E-02
        -0.25363E-02
        -0.19283E-02
        -0.99363E-03
        -0.99377E-03
        -0.14380E-02
        -0.14377E-02
        -0.31574E-03
        -0.31594E-03
        -0.11068E-02
        -0.11071E-02
        -0.18845E-02
        -0.18713E-02
        -0.18846E-02
        -0.18714E-02
        -0.15871E-03
        -0.94089E-03
        -0.15844E-03
        -0.94029E-03
         0.78856E-03
         0.78922E-03
         0.17211E-02
         0.17211E-02
         0.32050E-02
         0.28046E-02
         0.32047E-02
         0.28047E-02
         0.23059E-02
         0.23060E-02
        -0.40614E-03
        -0.40627E-03
        -0.12092E-02
        -0.12092E-02
        -0.19448E-02
        -0.19448E-02
        -0.25029E-02
        -0.26371E-02
        -0.25029E-02
        -0.26372E-02
        -0.27671E-02
        -0.27674E-02
        -0.21123E-02
        -0.21122E-02
        -0.16087E-02
        -0.16087E-02
        -0.11939E-02
        -0.58641E-03
        -0.11937E-02
        -0.58606E-03
         0.20912E-03
         0.20952E-03
         0.10586E-02
         0.10589E-02
         0.18413E-02
         0.18413E-02
         0.24544E-02
         0.26022E-02
         0.24543E-02
         0.26021E-02
         0.37964E-02
         0.39100E-02
         0.37964E-02
         0.39100E-02
         0.34621E-02
         0.34621E-02
         0.29267E-02
         0.29267E-02
         0.22211E-02
         0.22211E-02
         0.13865E-02
         0.13865E-02
         0.47130E-03
         0.47130E-03
        -0.47130E-03
        -0.47130E-03
        -0.13865E-02
        -0.13865E-02
        -0.22211E-02
        -0.22211E-02
        -0.29267E-02
        -0.29267E-02
        -0.34621E-02
        -0.34621E-02
        -0.37964E-02
        -0.37964E-02
        -0.39100E-02
        -0.39100E-02
        -0.37964E-02
        -0.37964E-02
        -0.34621E-02
        -0.34621E-02
        -0.29267E-02
        -0.29267E-02
        -0.22211E-02
        -0.22211E-02
        -0.13865E-02
        -0.13865E-02
        -0.47130E-03
        -0.47130E-03
         0.47130E-03
         0.47130E-03
         0.13865E-02
         0.13865E-02
         0.22211E-02
         0.22211E-02
         0.29267E-02
         0.29267E-02
         0.34621E-02
         0.34621E-02
         0.37964E-02
         0.37964E-02
         0.10376E-02
         0.17450E-02
         0.23175E-02
         0.16696E-02
         0.30377E-02
         0.27795E-02
         0.12849E-02
         0.65115E-03
         0.12731E-03
        -0.12841E-03
         0.94467E-03
         0.11323E-02
         0.17487E-02
         0.40583E-03
         0.39777E-03
        -0.76338E-03
        -0.86615E-03
         0.46074E-03
        -0.18303E-02
        -0.18439E-02
        -0.27238E-02
        -0.28025E-02
        -0.25366E-02
        -0.19292E-02
        -0.99349E-03
        -0.14384E-02
        -0.31554E-03
        -0.11064E-02
        -0.18845E-02
        -0.18712E-02
        -0.15899E-03
        -0.94149E-03
         0.78790E-03
         0.17210E-02
         0.32053E-02
         0.28046E-02
         0.23058E-02
        -0.40600E-03
        -0.12092E-02
        -0.19447E-02
        -0.25028E-02
        -0.26370E-02
        -0.27668E-02
        -0.21125E-02
        -0.16088E-02
        -0.11940E-02
        -0.58676E-03
         0.20871E-03
         0.10583E-02
         0.18413E-02
         0.24545E-02
         0.26022E-02
         0.37964E-02
         0.39100E-02
         0.34621E-02
         0.29267E-02
         0.22211E-02
         0.13865E-02
         0.47130E-03
        -0.47130E-03
        -0.13865E-02
        -0.22211E-02
        -0.29267E-02
        -0.34621E-02
        -0.37964E-02
        -0.39100E-02
        -0.37964E-02
        -0.34621E-02
        -0.29267E-02
        -0.22211E-02
        -0.13865E-02
        -0.47130E-03
         0.47130E-03
         0.13865E-02
         0.22211E-02
         0.29267E-02
         0.34621E-02
         0.37964E-02
         0.10375E-02
         0.17448E-02
         0.23174E-02
         0.16694E-02
         0.30377E-02
         0.27798E-02
         0.12848E-02
         0.65090E-03
         0.12705E-03
        -0.12859E-03
         0.94434E-03
         0.11320E-02
         0.17483E-02
         0.40577E-03
         0.39776E-03
        -0.76374E-03
        -0.86626E-03
         0.46029E-03
        -0.18306E-02
        -0.18438E-02
        -0.27238E-02
        -0.28022E-02
        -0.25368E-02
        -0.19296E-02
        -0.99334E-03
        -0.14387E-02
        -0.31534E-03
        -0.11061E-02
        -0.18844E-02
        -0.18710E-02
        -0.15926E-03
        -0.94209E-03
         0.78724E-03
         0.17210E-02
         0.32056E-02
         0.28046E-02
         0.23057E-02
        -0.40586E-03
        -0.12092E-02
        -0.19447E-02
        -0.25028E-02
        -0.26369E-02
        -0.27665E-02
        -0.21126E-02
        -0.16088E-02
        -0.11941E-02
        -0.58711E-03
         0.20830E-03
         0.10580E-02
         0.18414E-02
         0.24546E-02
         0.26023E-02
         0.37964E-02
         0.39100E-02
         0.34621E-02
         0.29267E-02
         0.22211E-02
         0.13865E-02
         0.47130E-03
        -0.47130E-03
        -0.13865E-02
        -0.22211E-02
        -0.29267E-02
        -0.34621E-02
        -0.37964E-02
        -0.39100E-02
        -0.37964E-02
        -0.34621E-02
        -0.29267E-02
        -0.22211E-02
        -0.13865E-02
        -0.47130E-03
         0.47130E-03
         0.13865E-02
         0.22211E-02
         0.29267E-02
         0.34621E-02
         0.37964E-02
         0.10374E-02
         0.17446E-02
         0.23173E-02
         0.16692E-02
         0.30376E-02
         0.27801E-02
         0.12847E-02
         0.65065E-03
         0.12678E-03
        -0.12878E-03
         0.94401E-03
         0.11316E-02
         0.17479E-02
         0.40572E-03
         0.39774E-03
        -0.76409E-03
        -0.86637E-03
         0.45985E-03
        -0.18309E-02
        -0.18437E-02
        -0.27237E-02
        -0.28020E-02
        -0.25369E-02
        -0.19300E-02
        -0.99320E-03
        -0.14391E-02
        -0.31514E-03
        -0.11057E-02
        -0.18844E-02
        -0.18709E-02
        -0.15954E-03
        -0.94269E-03
         0.78658E-03
         0.17209E-02
         0.32060E-02
         0.28046E-02
         0.23056E-02
        -0.40572E-03
        -0.12092E-02
        -0.19446E-02
        -0.25028E-02
        -0.26368E-02
        -0.27662E-02
        -0.21128E-02
        -0.16088E-02
        -0.11942E-02
        -0.58746E-03
         0.20790E-03
         0.10577E-02
         0.18414E-02
         0.24548E-02
         0.26024E-02
         0.37964E-02
         0.39100E-02
         0.34621E-02
         0.29267E-02
         0.22211E-02
         0.13865E-02
         0.47130E-03
        -0.47130E-03
        -0.13865E-02
        -0.22211E-02
        -0.29267E-02
        -0.34621E-02
        -0.37964E-02
        -0.39100E-02
        -0.37964E-02
        -0.34621E-02
        -0.29267E-02
        -0.22211E-02
        -0.13865E-02
        -0.47130E-03
         0.47130E-03
         0.13865E-02
         0.22211E-02
         0.29267E-02
         0.34621E-02
         0.37964E-02
         0.10373E-02
         0.17445E-02
         0.23172E-02
         0.16689E-02
         0.30376E-02
         0.27805E-02
         0.12846E-02
         0.65041E-03
         0.12652E-03
        -0.12896E-03
         0.94367E-03
         0.11313E-02
         0.17475E-02
         0.40566E-03
         0.39772E-03
        -0.76444E-03
        -0.86648E-03
         0.45940E-03
        -0.18312E-02
        -0.18436E-02
        -0.27237E-02
        -0.28017E-02
        -0.25371E-02
        -0.19305E-02
        -0.99305E-03
        -0.14394E-02
        -0.31494E-03
        -0.11054E-02
        -0.18843E-02
        -0.18708E-02
        -0.15981E-03
        -0.94328E-03
         0.78592E-03
         0.17209E-02
         0.32063E-02
         0.28045E-02
         0.23055E-02
        -0.40558E-03
        -0.12092E-02
        -0.19446E-02
        -0.25027E-02
        -0.26367E-02
        -0.27658E-02
        -0.21129E-02
        -0.16089E-02
        -0.11943E-02
        -0.58781E-03
         0.20749E-03
         0.10574E-02
         0.18415E-02
         0.24549E-02
         0.26025E-02
         0.37964E-02
         0.39100E-02
         0.34621E-02
         0.29267E-02
         0.22211E-02
         0.13865E-02
         0.47130E-03
        -0.47130E-03
        -0.13865E-02
        -0.22211E-02
        -0.29267E-02
        -0.34621E-02
        -0.37964E-02
        -0.39100E-02
        -0.37964E-02
        -0.34621E-02
        -0.29267E-02
        -0.22211E-02
        -0.13865E-02
        -0.47130E-03
         0.47130E-03
         0.13865E-02
         0.22211E-02
         0.29267E-02
         0.34621E-02
         0.37964E-02
         0.10372E-02
         0.17443E-02
         0.23171E-02
         0.16687E-02
         0.30376E-02
         0.27808E-02
         0.12845E-02
         0.65016E-03
         0.12626E-03
        -0.12915E-03
         0.94334E-03
         0.11310E-02
         0.17471E-02
         0.40561E-03
         0.39770E-03
        -0.76480E-03
        -0.86659E-03
         0.45895E-03
        -0.18315E-02
        -0.18435E-02
        -0.27237E-02
        -0.28014E-02
        -0.25372E-02
        -0.19309E-02
        -0.99291E-03
        -0.14398E-02
        -0.31474E-03
        -0.11051E-02
        -0.18843E-02
        -0.18706E-02
        -0.16009E-03
        -0.94388E-03
         0.78526E-03
         0.17208E-02
         0.32066E-02
         0.28045E-02
         0.23053E-02
        -0.40545E-03
        -0.12092E-02
        -0.19446E-02
        -0.25027E-02
        -0.26366E-02
        -0.27655E-02
        -0.21130E-02
        -0.16089E-02
        -0.11944E-02
        -0.58816E-03
         0.20709E-03
         0.10571E-02
         0.18415E-02
         0.24550E-02
         0.26025E-02
         0.37964E-02
         0.39100E-02
         0.34621E-02
         0.29267E-02
         0.22211E-02
         0.13865E-02
         0.47130E-03
        -0.47130E-03
        -0.13865E-02
        -0.22211E-02
        -0.29267E-02
        -0.34621E-02
        -0.37964E-02
        -0.39100E-02
        -0.37964E-02
        -0.34621E-02
        -0.29267E-02
        -0.22211E-02
        -0.13865E-02
        -0.47130E-03
         0.47130E-03
         0.13865E-02
         0.22211E-02
         0.29267E-02
         0.34621E-02
         0.37964E-02
         0.10371E-02
         0.17441E-02
         0.23169E-02
         0.16685E-02
         0.30376E-02
         0.27812E-02
         0.12844E-02
         0.64992E-03
         0.12600E-03
        -0.12933E-03
         0.94301E-03
         0.11306E-02
         0.17467E-02
         0.40556E-03
         0.39769E-03
        -0.76515E-03
        -0.86670E-03
         0.45850E-03
        -0.18318E-02
        -0.18434E-02
        -0.27236E-02
        -0.28011E-02
        -0.25374E-02
        -0.19313E-02
        -0.99277E-03
        -0.14401E-02
        -0.31454E-03
        -0.11047E-02
        -0.18842E-02
        -0.18705E-02
        -0.16036E-03
        -0.94448E-03
         0.78460E-03
         0.17208E-02
         0.32070E-02
         0.28045E-02
         0.23052E-02
        -0.40531E-03
        -0.12092E-02
        -0.19445E-02
        -0.25027E-02
        -0.26366E-02
        -0.27652E-02
        -0.21132E-02
        -0.16090E-02
        -0.11946E-02
        -0.58851E-03
         0.20668E-03
         0.10567E-02
         0.18416E-02
         0.24551E-02
         0.26026E-02
         0.37964E-02
         0.39100E-02
         0.34621E-02
         0.29267E-02
         0.22211E-02
         0.13865E-02
         0.47130E-03
        -0.47130E-03
        -0.13865E-02
        -0.22211E-02
        -0.29267E-02
        -0.34621E-02
        -0.37964E-02
        -0.39100E-02
        -0.37964E-02
        -0.34621E-02
        -0.29267E-02
        -0.22211E-02
        -0.13865E-02
        -0.47130E-03
         0.47130E-03
         0.13865E-02
         0.22211E-02
         0.29267E-02
         0.34621E-02
         0.37964E-02
         0.10370E-02
         0.17439E-02
         0.23168E-02
         0.16683E-02
         0.30375E-02
         0.27815E-02
         0.12843E-02
         0.64967E-03
         0.12573E-03
        -0.12952E-03
         0.94268E-03
         0.11303E-02
         0.17463E-02
         0.40550E-03
         0.39767E-03
        -0.76551E-03
        -0.86680E-03
         0.45806E-03
        -0.18321E-02
        -0.18433E-02
        -0.27236E-02
        -0.28009E-02
        -0.25375E-02
        -0.19317E-02
        -0.99262E-03
        -0.14405E-02
        -0.31434E-03
        -0.11044E-02
        -0.18842E-02
        -0.18704E-02
        -0.16064E-03
        -0.94508E-03
         0.78394E-03
         0.17208E-02
         0.32073E-02
         0.28045E-02
         0.23051E-02
        -0.40517E-03
        -0.12092E-02
        -0.19445E-02
        -0.25026E-02
        -0.26365E-02
        -0.27649E-02
        -0.21133E-02
        -0.16090E-02
        -0.11947E-02
        -0.58886E-03
         0.20627E-03
         0.10564E-02
         0.18416E-02
         0.24553E-02
         0.26027E-02
         0.37964E-02
         0.39100E-02
         0.34621E-02
         0.29267E-02
         0.22211E-02
         0.13865E-02
         0.47130E-03
        -0.47130E-03
        -0.13865E-02
        -0.22211E-02
        -0.29267E-02
        -0.34621E-02
        -0.37964E-02
        -0.39100E-02
        -0.37964E-02
        -0.34621E-02
        -0.29267E-02
        -0.22211E-02
        -0.13865E-02
        -0.47130E-03
         0.47130E-03
         0.13865E-02
         0.22211E-02
         0.29267E-02
         0.34621E-02
         0.37964E-02
         0.10368E-02
         0.17438E-02
         0.23167E-02
         0.16681E-02
         0.30375E-02
         0.27819E-02
         0.12842E-02
         0.64943E-03
         0.12547E-03
        -0.12970E-03
         0.94235E-03
         0.11300E-02
         0.17459E-02
         0.40545E-03
         0.39766E-03
        -0.76586E-03
        -0.86691E-03
         0.45761E-03
        -0.18324E-02
        -0.18432E-02
        -0.27236E-02
        -0.28006E-02
        -0.25377E-02
        -0.19322E-02
        -0.99248E-03
        -0.14408E-02
        -0.31414E-03
        -0.11040E-02
        -0.18841E-02
        -0.18703E-02
        -0.16091E-03
        -0.94568E-03
         0.78328E-03
         0.17207E-02
         0.32076E-02
         0.28044E-02
         0.23050E-02
        -0.40503E-03
        -0.12092E-02
        -0.19445E-02
        -0.25026E-02
        -0.26364E-02
        -0.27646E-02
        -0.21134E-02
        -0.16091E-02
        -0.11948E-02
        -0.58921E-03
         0.20587E-03
         0.10561E-02
         0.18416E-02
         0.24554E-02
         0.26027E-02
         0.37964E-02
         0.39100E-02
         0.34621E-02
         0.29267E-02
         0.22211E-02
         0.13865E-02
         0.47130E-03
        -0.47130E-03
        -0.13865E-02
        -0.22211E-02
        -0.29267E-02
        -0.34621E-02
        -0.37964E-02
        -0.39100E-02
        -0.37964E-02
        -0.34621E-02
        -0.29267E-02
        -0.22211E-02
        -0.13865E-02
        -0.47130E-03
         0.47130E-03
         0.13865E-02
         0.22211E-02
         0.29267E-02
         0.34621E-02
         0.37964E-02
         0.10367E-02
         0.17436E-02
         0.23166E-02
         0.16679E-02
         0.30375E-02
         0.27822E-02
         0.12841E-02
         0.64918E-03
         0.12521E-03
        -0.12989E-03
         0.94202E-03
         0.11296E-02
         0.17455E-02
         0.40539E-03
         0.39764E-03
        -0.76621E-03
        -0.86702E-03
         0.45716E-03
        -0.18326E-02
        -0.18431E-02
        -0.27235E-02
        -0.28003E-02
        -0.25379E-02
        -0.19326E-02
        -0.99233E-03
        -0.14412E-02
        -0.31394E-03
        -0.11037E-02
        -0.18841E-02
        -0.18701E-02
        -0.16119E-03
        -0.94628E-03
         0.78262E-03
         0.17207E-02
         0.32079E-02
         0.28044E-02
         0.23049E-02
        -0.40490E-03
        -0.12093E-02
        -0.19444E-02
        -0.25026E-02
        -0.26363E-02
        -0.27643E-02
        -0.21136E-02
        -0.16091E-02
        -0.11949E-02
        -0.58956E-03
         0.20546E-03
         0.10558E-02
         0.18417E-02
         0.24555E-02
         0.26028E-02
         0.37964E-02
         0.39100E-02
         0.34621E-02
         0.29267E-02
         0.22211E-02
         0.13865E-02
         0.47130E-03
        -0.47130E-03
        -0.13865E-02
        -0.22211E-02
        -0.29267E-02
        -0.34621E-02
        -0.37964E-02
        -0.39100E-02
        -0.37964E-02
        -0.34621E-02
        -0.29267E-02
        -0.22211E-02
        -0.13865E-02
        -0.47130E-03
         0.47130E-03
         0.13865E-02
         0.22211E-02
         0.29267E-02
         0.34621E-02
         0.37964E-02
         0.10366E-02
         0.17434E-02
         0.23164E-02
         0.16677E-02
         0.30375E-02
         0.27825E-02
         0.12840E-02
         0.64894E-03
         0.12495E-03
        -0.13007E-03
         0.94169E-03
         0.11293E-02
         0.17451E-02
         0.40534E-03
         0.39762E-03
        -0.76657E-03
        -0.86713E-03
         0.45671E-03
        -0.18329E-02
        -0.18430E-02
        -0.27235E-02
        -0.28001E-02
        -0.25380E-02
        -0.19330E-02
        -0.99219E-03
        -0.14415E-02
        -0.31374E-03
        -0.11033E-02
        -0.18840E-02
        -0.18700E-02
        -0.16146E-03
        -0.94687E-03
         0.78195E-03
         0.17207E-02
         0.32083E-02
         0.28044E-02
         0.23048E-02
        -0.40476E-03
        -0.12093E-02
        -0.19444E-02
        -0.25026E-02
        -0.26362E-02
        -0.27640E-02
        -0.21137E-02
        -0.16091E-02
        -0.11950E-02
        -0.58991E-03
         0.20505E-03
         0.10555E-02
         0.18417E-02
         0.24556E-02
         0.26029E-02
         0.37964E-02
         0.39100E-02
         0.34621E-02
         0.29267E-02
         0.22211E-02
         0.13865E-02
         0.47130E-03
        -0.47130E-03
        -0.13865E-02
        -0.22211E-02
        -0.29267E-02
        -0.34621E-02
        -0.37964E-02
        -0.39100E-02
        -0.37964E-02
        -0.34621E-02
        -0.29267E-02
        -0.22211E-02
        -0.13865E-02
        -0.47130E-03
         0.47130E-03
         0.13865E-02
         0.22211E-02
         0.29267E-02
         0.34621E-02
         0.37964E-02
         0.10365E-02
         0.17432E-02
         0.23163E-02
         0.16675E-02
         0.30374E-02
         0.27829E-02
         0.12839E-02
         0.64869E-03
         0.12468E-03
        -0.13026E-03
         0.94135E-03
         0.11289E-02
         0.17447E-02
         0.40528E-03
         0.39760E-03
        -0.76692E-03
        -0.86724E-03
         0.45626E-03
        -0.18332E-02
        -0.18430E-02
        -0.27235E-02
        -0.27998E-02
        -0.25382E-02
        -0.19334E-02
        -0.99205E-03
        -0.14419E-02
        -0.31354E-03
        -0.11030E-02
        -0.18840E-02
        -0.18699E-02
        -0.16174E-03
        -0.94747E-03
         0.78129E-03
         0.17206E-02
         0.32086E-02
         0.28044E-02
         0.23047E-02
        -0.40462E-03
        -0.12093E-02
        -0.19444E-02
        -0.25025E-02
        -0.26361E-02
        -0.27637E-02
        -0.21139E-02
        -0.16092E-02
        -0.11951E-02
        -0.59025E-03
         0.20465E-03
         0.10552E-02
         0.18418E-02
         0.24558E-02
         0.26030E-02
         0.37964E-02
         0.39100E-02
         0.34621E-02
         0.29267E-02
         0.22211E-02
         0.13865E-02
         0.47130E-03
        -0.47130E-03
        -0.13865E-02
        -0.22211E-02
        -0.29267E-02
        -0.34621E-02
        -0.37964E-02
        -0.39100E-02
        -0.37964E-02
        -0.34621E-02
        -0.29267E-02
        -0.22211E-02
        -0.13865E-02
        -0.47130E-03
         0.47130E-03
         0.13865E-02
         0.22211E-02
         0.29267E-02
         0.34621E-02
         0.37964E-02
         0.10364E-02
         0.17430E-02
         0.23162E-02
         0.16672E-02
         0.30374E-02
         0.27832E-02
         0.12838E-02
         0.64845E-03
         0.12442E-03
        -0.13044E-03
         0.94102E-03
         0.11286E-02
         0.17443E-02
         0.40523E-03
         0.39759E-03
        -0.76727E-03
        -0.86735E-03
         0.45582E-03
        -0.18335E-02
        -0.18429E-02
        -0.27235E-02
        -0.27995E-02
        -0.25383E-02
        -0.19339E-02
        -0.99190E-03
        -0.14422E-02
        -0.31334E-03
        -0.11026E-02
        -0.18839E-02
        -0.18697E-02
        -0.16201E-03
        -0.94807E-03
         0.78063E-03
         0.17206E-02
         0.32089E-02
         0.28043E-02
         0.23046E-02
        -0.40448E-03
        -0.12093E-02
        -0.19443E-02
        -0.25025E-02
        -0.26360E-02
        -0.27633E-02
        -0.21140E-02
        -0.16092E-02
        -0.11953E-02
        -0.59060E-03
         0.20424E-03
         0.10549E-02
         0.18418E-02
         0.24559E-02
         0.26030E-02
         0.37964E-02
         0.39100E-02
         0.34621E-02
         0.29267E-02
         0.22211E-02
         0.13865E-02
         0.47130E-03
        -0.47130E-03
        -0.13865E-02
        -0.22211E-02
        -0.29267E-02
        -0.34621E-02
        -0.37964E-02
        -0.39100E-02
        -0.37964E-02
        -0.34621E-02
        -0.29267E-02
        -0.22211E-02
        -0.13865E-02
        -0.47130E-03
         0.47130E-03
         0.13865E-02
         0.22211E-02
         0.29267E-02
         0.34621E-02
         0.37964E-02
         0.10363E-02
         0.17429E-02
         0.23161E-02
         0.16670E-02
         0.30374E-02
         0.27836E-02
         0.12837E-02
         0.64820E-03
         0.12416E-03
        -0.13063E-03
         0.94069E-03
         0.11282E-02
         0.17439E-02
         0.40518E-03
         0.39757E-03
        -0.76763E-03
        -0.86746E-03
         0.45537E-03
        -0.18338E-02
        -0.18428E-02
        -0.27234E-02
        -0.27992E-02
        -0.25385E-02
        -0.19343E-02
        -0.99176E-03
        -0.14425E-02
        -0.31314E-03
        -0.11023E-02
        -0.18839E-02
        -0.18696E-02
        -0.16229E-03
        -0.94867E-03
         0.77997E-03
         0.17205E-02
         0.32092E-02
         0.28043E-02
         0.23044E-02
        -0.40434E-03
        -0.12093E-02
        -0.19443E-02
        -0.25025E-02
        -0.26359E-02
        -0.27630E-02
        -0.21141E-02
        -0.16093E-02
        -0.11954E-02
        -0.59095E-03
         0.20384E-03
         0.10546E-02
         0.18419E-02
         0.24560E-02
         0.26031E-02
         0.37964E-02
         0.39100E-02
         0.34621E-02
         0.29267E-02
         0.22211E-02
         0.13865E-02
         0.47130E-03
        -0.47130E-03
        -0.13865E-02
        -0.22211E-02
        -0.29267E-02
        -0.34621E-02
        -0.37964E-02
        -0.39100E-02
        -0.37964E-02
        -0.34621E-02
        -0.29267E-02
        -0.22211E-02
        -0.13865E-02
        -0.47130E-03
         0.47130E-03
         0.13865E-02
         0.22211E-02
         0.29267E-02
         0.34621E-02
         0.37964E-02
         0.10362E-02
         0.17427E-02
         0.23160E-02
         0.16668E-02
         0.30373E-02
         0.27839E-02
         0.12836E-02
         0.64796E-03
         0.12390E-03
        -0.13082E-03
         0.94036E-03
         0.11279E-02
         0.17435E-02
         0.40512E-03
         0.39755E-03
        -0.76798E-03
        -0.86756E-03
         0.45492E-03
        -0.18341E-02
        -0.18427E-02
        -0.27234E-02
        -0.27990E-02
        -0.25386E-02
        -0.19347E-02
        -0.99161E-03
        -0.14429E-02
        -0.31294E-03
        -0.11019E-02
        -0.18838E-02
        -0.18695E-02
        -0.16256E-03
        -0.94927E-03
         0.77931E-03
         0.17205E-02
         0.32096E-02
         0.28043E-02
         0.23043E-02
        -0.40420E-03
        -0.12093E-02
        -0.19443E-02
        -0.25024E-02
        -0.26358E-02
        -0.27627E-02
        -0.21143E-02
        -0.16093E-02
        -0.11955E-02
        -0.59130E-03
         0.20343E-03
         0.10543E-02
         0.18419E-02
         0.24561E-02
         0.26032E-02
         0.37964E-02
         0.39100E-02
         0.34621E-02
         0.29267E-02
         0.22211E-02
         0.13865E-02
         0.47130E-03
        -0.47130E-03
        -0.13865E-02
        -0.22211E-02
        -0.29267E-02
        -0.34621E-02
        -0.37964E-02
        -0.39100E-02
        -0.37964E-02
        -0.34621E-02
        -0.29267E-02
        -0.22211E-02
        -0.13865E-02
        -0.47130E-03
         0.47130E-03
         0.13865E-02
         0.22211E-02
         0.29267E-02
         0.34621E-02
         0.37964E-02
         0.10360E-02
         0.17425E-02
         0.23158E-02
         0.16666E-02
         0.30373E-02
         0.27842E-02
         0.12835E-02
         0.64771E-03
         0.12363E-03
        -0.13100E-03
         0.94003E-03
         0.11276E-02
         0.17432E-02
         0.40507E-03
         0.39754E-03
        -0.76834E-03
        -0.86767E-03
         0.45447E-03
        -0.18344E-02
        -0.18426E-02
        -0.27234E-02
        -0.27987E-02
        -0.25388E-02
        -0.19352E-02
        -0.99147E-03
        -0.14433E-02
        -0.31274E-03
        -0.11016E-02
        -0.18838E-02
        -0.18694E-02
        -0.16284E-03
        -0.94986E-03
         0.77865E-03
         0.17205E-02
         0.32099E-02
         0.28042E-02
         0.23042E-02
        -0.40407E-03
        -0.12093E-02
        -0.19442E-02
        -0.25024E-02
        -0.26358E-02
        -0.27624E-02
        -0.21144E-02
        -0.16094E-02
        -0.11956E-02
        -0.59165E-03
         0.20302E-03
         0.10540E-02
         0.18419E-02
         0.24563E-02
         0.26033E-02
         0.37964E-02
         0.39100E-02
         0.34621E-02
         0.29267E-02
         0.22211E-02
         0.13865E-02
         0.47130E-03
        -0.47130E-03
        -0.13865E-02
        -0.22211E-02
        -0.29267E-02
        -0.34621E-02
        -0.37964E-02
        -0.39100E-02
        -0.37964E-02
        -0.34621E-02
        -0.29267E-02
        -0.22211E-02
        -0.13865E-02
        -0.47130E-03
         0.47130E-03
         0.13865E-02
         0.22211E-02
         0.29267E-02
         0.34621E-02
         0.37964E-02
         0.10359E-02
         0.17423E-02
         0.23157E-02
         0.16664E-02
         0.30373E-02
         0.27846E-02
         0.12834E-02
         0.64747E-03
         0.12337E-03
        -0.13118E-03
         0.93970E-03
         0.11272E-02
         0.17428E-02
         0.40501E-03
         0.39752E-03
        -0.76869E-03
        -0.86778E-03
         0.45402E-03
        -0.18347E-02
        -0.18425E-02
        -0.27234E-02
        -0.27984E-02
        -0.25389E-02
        -0.19356E-02
        -0.99133E-03
        -0.14436E-02
        -0.31254E-03
        -0.11013E-02
        -0.18837E-02
        -0.18692E-02
        -0.16311E-03
        -0.95046E-03
         0.77799E-03
         0.17204E-02
         0.32102E-02
         0.28042E-02
         0.23041E-02
        -0.40393E-03
        -0.12093E-02
        -0.19442E-02
        -0.25024E-02
        -0.26357E-02
        -0.27621E-02
        -0.21146E-02
        -0.16094E-02
        -0.11957E-02
        -0.59200E-03
         0.20262E-03
         0.10536E-02
         0.18420E-02
         0.24564E-02
         0.26033E-02
         0.37964E-02
         0.39100E-02
         0.34621E-02
         0.29267E-02
         0.22211E-02
         0.13865E-02
         0.47130E-03
        -0.47130E-03
        -0.13865E-02
        -0.22211E-02
        -0.29267E-02
        -0.34621E-02
        -0.37964E-02
        -0.39100E-02
        -0.37964E-02
        -0.34621E-02
        -0.29267E-02
        -0.22211E-02
        -0.13865E-02
        -0.47130E-03
         0.47130E-03
         0.13865E-02
         0.22211E-02
         0.29267E-02
         0.34621E-02
         0.37964E-02
         0.10358E-02
         0.17422E-02
         0.23156E-02
         0.16662E-02
         0.30373E-02
         0.27849E-02
         0.12833E-02
         0.64722E-03
         0.12311E-03
        -0.13137E-03
         0.93937E-03
         0.11269E-02
         0.17424E-02
         0.40496E-03
         0.39750E-03
        -0.76904E-03
        -0.86789E-03
         0.45358E-03
        -0.18350E-02
        -0.18424E-02
        -0.27233E-02
        -0.27981E-02
        -0.25391E-02
        -0.19360E-02
        -0.99118E-03
        -0.14440E-02
        -0.31234E-03
        -0.11009E-02
        -0.18836E-02
        -0.18691E-02
        -0.16339E-03
        -0.95106E-03
         0.77733E-03
         0.17204E-02
         0.32105E-02
         0.28042E-02
         0.23040E-02
        -0.40379E-03
        -0.12093E-02
        -0.19441E-02
        -0.25023E-02
        -0.26356E-02
        -0.27618E-02
        -0.21147E-02
        -0.16094E-02
        -0.11958E-02
        -0.59235E-03
         0.20221E-03
         0.10533E-02
         0.18420E-02
         0.24565E-02
         0.26034E-02
         0.37964E-02
         0.39100E-02
         0.34621E-02
         0.29267E-02
         0.22211E-02
         0.13865E-02
         0.47130E-03
        -0.47130E-03
        -0.13865E-02
        -0.22211E-02
        -0.29267E-02
        -0.34621E-02
        -0.37964E-02
        -0.39100E-02
        -0.37964E-02
        -0.34621E-02
        -0.29267E-02
        -0.22211E-02
        -0.13865E-02
        -0.47130E-03
         0.47130E-03
         0.13865E-02
         0.22211E-02
         0.29267E-02
         0.34621E-02
         0.37964E-02
         0.10357E-02
         0.17420E-02
         0.23155E-02
         0.16660E-02
         0.30372E-02
         0.27853E-02
         0.12832E-02
         0.64698E-03
         0.12285E-03
        -0.13155E-03
         0.93903E-03
         0.11266E-02
         0.17420E-02
         0.40490E-03
         0.39749E-03
        -0.76940E-03
        -0.86800E-03
         0.45313E-03
        -0.18353E-02
        -0.18423E-02
        -0.27233E-02
        -0.27979E-02
        -0.25393E-02
        -0.19365E-02
        -0.99104E-03
        -0.14443E-02
        -0.31214E-03
        -0.11006E-02
        -0.18836E-02
        -0.18690E-02
        -0.16366E-03
        -0.95166E-03
         0.77667E-03
         0.17203E-02
         0.32109E-02
         0.28042E-02
         0.23039E-02
        -0.40365E-03
        -0.12093E-02
        -0.19441E-02
        -0.25023E-02
        -0.26355E-02
        -0.27615E-02
        -0.21148E-02
        -0.16095E-02
        -0.11960E-02
        -0.59270E-03
         0.20180E-03
         0.10530E-02
         0.18421E-02
         0.24566E-02
         0.26035E-02
         0.37964E-02
         0.39100E-02
         0.34621E-02
         0.29267E-02
         0.22211E-02
         0.13865E-02
         0.47130E-03
        -0.47130E-03
        -0.13865E-02
        -0.22211E-02
        -0.29267E-02
        -0.34621E-02
        -0.37964E-02
        -0.39100E-02
        -0.37964E-02
        -0.34621E-02
        -0.29267E-02
        -0.22211E-02
        -0.13865E-02
        -0.47130E-03
         0.47130E-03
         0.13865E-02
         0.22211E-02
         0.29267E-02
         0.34621E-02
         0.37964E-02
         0.10356E-02
         0.17418E-02
         0.23153E-02
         0.16657E-02
         0.30372E-02
         0.27856E-02
         0.12830E-02
         0.64673E-03
         0.12259E-03
        -0.13174E-03
         0.93870E-03
         0.11262E-02
         0.17416E-02
         0.40485E-03
         0.39747E-03
        -0.76975E-03
        -0.86811E-03
         0.45268E-03
        -0.18356E-02
        -0.18422E-02
        -0.27233E-02
        -0.27976E-02
        -0.25394E-02
        -0.19369E-02
        -0.99090E-03
        -0.14446E-02
        -0.31194E-03
        -0.11002E-02
        -0.18835E-02
        -0.18689E-02
        -0.16394E-03
        -0.95226E-03
         0.77601E-03
         0.17203E-02
         0.32112E-02
         0.28042E-02
         0.23038E-02
        -0.40352E-03
        -0.12093E-02
        -0.19441E-02
        -0.25023E-02
        -0.26354E-02
        -0.27612E-02
        -0.21150E-02
        -0.16095E-02
        -0.11961E-02
        -0.59305E-03
         0.20140E-03
         0.10527E-02
         0.18421E-02
         0.24568E-02
         0.26036E-02
         0.37964E-02
         0.39100E-02
         0.34621E-02
         0.29267E-02
         0.22211E-02
         0.13865E-02
         0.47130E-03
        -0.47130E-03
        -0.13865E-02
        -0.22211E-02
        -0.29267E-02
        -0.34621E-02
        -0.37964E-02
        -0.39100E-02
        -0.37964E-02
        -0.34621E-02
        -0.29267E-02
        -0.22211E-02
        -0.13865E-02
        -0.47130E-03
         0.47130E-03
         0.13865E-02
         0.22211E-02
         0.29267E-02
         0.34621E-02
         0.37964E-02
         0.10355E-02
         0.17416E-02
         0.23152E-02
         0.16655E-02
         0.30372E-02
         0.27860E-02
         0.12829E-02
         0.64649E-03
         0.12232E-03
        -0.13193E-03
         0.93837E-03
         0.11259E-02
         0.17412E-02
         0.40480E-03
         0.39745E-03
        -0.77011E-03
        -0.86822E-03
         0.45223E-03
        -0.18359E-02
        -0.18421E-02
        -0.27232E-02
        -0.27973E-02
        -0.25396E-02
        -0.19373E-02
        -0.99075E-03
        -0.14450E-02
        -0.31173E-03
        -0.10999E-02
        -0.18835E-02
        -0.18687E-02
        -0.16421E-03
        -0.95285E-03
         0.77535E-03
         0.17202E-02
         0.32115E-02
         0.28041E-02
         0.23037E-02
        -0.40338E-03
        -0.12093E-02
        -0.19440E-02
        -0.25023E-02
        -0.26353E-02
        -0.27609E-02
        -0.21151E-02
        -0.16096E-02
        -0.11962E-02
        -0.59340E-03
         0.20099E-03
         0.10524E-02
         0.18422E-02
         0.24569E-02
         0.26036E-02
         0.37964E-02
         0.39100E-02
         0.34621E-02
         0.29267E-02
         0.22211E-02
         0.13865E-02
         0.47130E-03
        -0.47130E-03
        -0.13865E-02
        -0.22211E-02
        -0.29267E-02
        -0.34621E-02
        -0.37964E-02
        -0.39100E-02
        -0.37964E-02
        -0.34621E-02
        -0.29267E-02
        -0.22211E-02
        -0.13865E-02
        -0.47130E-03
         0.47130E-03
         0.13865E-02
         0.22211E-02
         0.29267E-02
         0.34621E-02
         0.37964E-02
         0.10354E-02
         0.17414E-02
         0.23151E-02
         0.16653E-02
         0.30372E-02
         0.27863E-02
         0.12829E-02
         0.64624E-03
         0.12206E-03
        -0.13211E-03
         0.93804E-03
         0.11255E-02
         0.17408E-02
         0.40474E-03
         0.39744E-03
        -0.77046E-03
        -0.86832E-03
         0.45179E-03
        -0.18362E-02
        -0.18420E-02
        -0.27232E-02
        -0.27970E-02
        -0.25397E-02
        -0.19377E-02
        -0.99061E-03
        -0.14453E-02
        -0.31153E-03
        -0.10995E-02
        -0.18834E-02
        -0.18686E-02
        -0.16449E-03
        -0.95345E-03
         0.77469E-03
         0.17202E-02
         0.32119E-02
         0.28041E-02
         0.23036E-02
        -0.40324E-03
        -0.12093E-02
        -0.19440E-02
        -0.25022E-02
        -0.26352E-02
        -0.27606E-02
        -0.21152E-02
        -0.16096E-02
        -0.11963E-02
        -0.59375E-03
         0.20059E-03
         0.10521E-02
         0.18422E-02
         0.24570E-02
         0.26037E-02
         0.37964E-02
         0.39100E-02
         0.34621E-02
         0.29267E-02
         0.22211E-02
         0.13865E-02
         0.47130E-03
        -0.47130E-03
        -0.13865E-02
        -0.22211E-02
        -0.29267E-02
        -0.34621E-02
        -0.37964E-02
        -0.39100E-02
        -0.37964E-02
        -0.34621E-02
        -0.29267E-02
        -0.22211E-02
        -0.13865E-02
        -0.47130E-03
         0.47130E-03
         0.13865E-02
         0.22211E-02
         0.29267E-02
         0.34621E-02
         0.37964E-02
         0.10352E-02
         0.17413E-02
         0.23150E-02
         0.16651E-02
         0.30371E-02
         0.27866E-02
         0.12827E-02
         0.64600E-03
         0.12180E-03
        -0.13230E-03
         0.93771E-03
         0.11252E-02
         0.17404E-02
         0.40469E-03
         0.39742E-03
        -0.77081E-03
        -0.86843E-03
         0.45134E-03
        -0.18365E-02
        -0.18419E-02
        -0.27232E-02
        -0.27968E-02
        -0.25399E-02
        -0.19382E-02
        -0.99046E-03
        -0.14457E-02
        -0.31133E-03
        -0.10992E-02
        -0.18834E-02
        -0.18685E-02
        -0.16476E-03
        -0.95405E-03
         0.77402E-03
         0.17202E-02
         0.32122E-02
         0.28041E-02
         0.23034E-02
        -0.40310E-03
        -0.12093E-02
        -0.19440E-02
        -0.25022E-02
        -0.26351E-02
        -0.27602E-02
        -0.21154E-02
        -0.16097E-02
        -0.11964E-02
        -0.59409E-03
         0.20018E-03
         0.10518E-02
         0.18422E-02
         0.24571E-02
         0.26038E-02
         0.37964E-02
         0.39100E-02
         0.34621E-02
         0.29267E-02
         0.22211E-02
         0.13865E-02
         0.47130E-03
        -0.47130E-03
        -0.13865E-02
        -0.22211E-02
        -0.29267E-02
        -0.34621E-02
        -0.37964E-02
        -0.39100E-02
        -0.37964E-02
        -0.34621E-02
        -0.29267E-02
        -0.22211E-02
        -0.13865E-02
        -0.47130E-03
         0.47130E-03
         0.13865E-02
         0.22211E-02
         0.29267E-02
         0.34621E-02
         0.37964E-02
         0.10351E-02
         0.17411E-02
         0.23149E-02
         0.16649E-02
         0.30371E-02
         0.27870E-02
         0.12826E-02
         0.64575E-03
         0.12154E-03
        -0.13248E-03
         0.93738E-03
         0.11249E-02
         0.17400E-02
         0.40463E-03
         0.39740E-03
        -0.77117E-03
        -0.86854E-03
         0.45089E-03
        -0.18368E-02
        -0.18418E-02
        -0.27232E-02
        -0.27965E-02
        -0.25400E-02
        -0.19386E-02
        -0.99032E-03
        -0.14460E-02
        -0.31113E-03
        -0.10988E-02
        -0.18833E-02
        -0.18683E-02
        -0.16504E-03
        -0.95465E-03
         0.77336E-03
         0.17201E-02
         0.32125E-02
         0.28041E-02
         0.23033E-02
        -0.40296E-03
        -0.12093E-02
        -0.19439E-02
        -0.25022E-02
        -0.26350E-02
        -0.27599E-02
        -0.21155E-02
        -0.16097E-02
        -0.11965E-02
        -0.59444E-03
         0.19977E-03
         0.10515E-02
         0.18423E-02
         0.24573E-02
         0.26039E-02
         0.37964E-02
         0.39100E-02
         0.34621E-02
         0.29267E-02
         0.22211E-02
         0.13865E-02
         0.47130E-03
        -0.47130E-03
        -0.13865E-02
        -0.22211E-02
        -0.29267E-02
        -0.34621E-02
        -0.37964E-02
        -0.39100E-02
        -0.37964E-02
        -0.34621E-02
        -0.29267E-02
        -0.22211E-02
        -0.13865E-02
        -0.47130E-03
         0.47130E-03
         0.13865E-02
         0.22211E-02
         0.29267E-02
         0.34621E-02
         0.37964E-02
  
SCALARS           initial_coordinate_y  double 1
LOOKUP_TABLE default
         0.67292E-03
         0.12308E-02
         0.59151E-03
        -0.33775E-03
         0.67237E-03
         0.12301E-02
         0.59098E-03
        -0.33851E-03
         0.14882E-03
        -0.67643E-03
         0.14846E-03
        -0.67692E-03
         0.18412E-02
         0.14576E-02
         0.18410E-02
         0.14566E-02
         0.29933E-03
         0.11672E-02
         0.29819E-03
         0.11655E-02
         0.22748E-02
         0.28286E-02
         0.24238E-02
         0.22746E-02
         0.28291E-02
         0.24236E-02
         0.21685E-02
         0.29366E-02
         0.21684E-02
         0.29369E-02
        -0.10033E-02
         0.78969E-04
        -0.70318E-03
        -0.10032E-02
         0.78160E-04
        -0.70391E-03
        -0.71196E-03
         0.82749E-04
        -0.71210E-03
         0.82626E-04
        -0.77865E-03
         0.40713E-04
        -0.77882E-03
         0.40439E-04
        -0.15195E-02
        -0.13230E-02
        -0.15195E-02
        -0.13231E-02
         0.98847E-03
         0.98712E-03
        -0.17325E-02
        -0.17325E-02
         0.20220E-02
         0.20217E-02
         0.18615E-02
         0.18616E-02
         0.17175E-02
         0.90940E-03
         0.17175E-02
         0.90916E-03
        -0.19800E-02
        -0.23489E-02
        -0.19800E-02
        -0.23489E-02
        -0.17074E-02
        -0.17074E-02
        -0.14894E-02
        -0.14892E-02
         0.76036E-03
         0.12477E-02
         0.75936E-03
         0.12473E-02
         0.18665E-02
         0.18664E-02
         0.29038E-02
         0.29049E-02
         0.27207E-02
         0.27212E-02
         0.24642E-02
         0.24645E-02
         0.22359E-02
         0.16503E-02
         0.22359E-02
         0.16503E-02
         0.87493E-03
         0.87466E-03
        -0.21373E-02
        -0.21373E-02
        -0.26931E-02
        -0.26931E-02
        -0.31291E-02
        -0.30382E-02
        -0.31291E-02
        -0.30382E-02
        -0.28748E-02
        -0.28748E-02
        -0.26423E-02
        -0.26420E-02
        -0.23707E-02
        -0.23705E-02
        -0.21445E-02
        -0.15105E-02
        -0.21439E-02
        -0.15106E-02
         0.93572E-03
         0.00000E+00
         0.93572E-03
         0.00000E+00
         0.18171E-02
         0.18171E-02
         0.25928E-02
         0.25928E-02
         0.32179E-02
         0.32179E-02
         0.36559E-02
         0.36559E-02
         0.38815E-02
         0.38815E-02
         0.38815E-02
         0.38815E-02
         0.36559E-02
         0.36559E-02
         0.32179E-02
         0.32179E-02
         0.25928E-02
         0.25928E-02
         0.18171E-02
         0.18171E-02
         0.93572E-03
         0.93572E-03
         0.22152E-17
        -0.47884E-18
        -0.93572E-03
        -0.93572E-03
        -0.18171E-02
        -0.18171E-02
        -0.25928E-02
        -0.25928E-02
        -0.32179E-02
        -0.32179E-02
        -0.36559E-02
        -0.36559E-02
        -0.38815E-02
        -0.38815E-02
        -0.38815E-02
        -0.38815E-02
        -0.36559E-02
        -0.36559E-02
        -0.32179E-02
        -0.32179E-02
        -0.25928E-02
        -0.25928E-02
        -0.18171E-02
        -0.18171E-02
        -0.93572E-03
        -0.93572E-03
         0.67348E-03
         0.12314E-02
         0.59203E-03
        -0.33700E-03
         0.14918E-03
        -0.67594E-03
         0.18414E-02
         0.14586E-02
         0.30048E-03
         0.11690E-02
         0.22749E-02
         0.28282E-02
         0.24239E-02
         0.21685E-02
         0.29364E-02
        -0.10035E-02
         0.79778E-04
        -0.70245E-03
        -0.71182E-03
         0.82873E-04
        -0.77848E-03
         0.40986E-04
        -0.15194E-02
        -0.13228E-02
         0.98983E-03
        -0.17324E-02
         0.20223E-02
         0.18614E-02
         0.17175E-02
         0.90964E-03
        -0.19800E-02
        -0.23489E-02
        -0.17074E-02
        -0.14896E-02
         0.76137E-03
         0.12481E-02
         0.18665E-02
         0.29027E-02
         0.27202E-02
         0.24640E-02
         0.22359E-02
         0.16503E-02
         0.87519E-03
        -0.21373E-02
        -0.26932E-02
        -0.31291E-02
        -0.30382E-02
        -0.28748E-02
        -0.26426E-02
        -0.23709E-02
        -0.21450E-02
        -0.15104E-02
         0.93572E-03
         0.00000E+00
         0.18171E-02
         0.25928E-02
         0.32179E-02
         0.36559E-02
         0.38815E-02
         0.38815E-02
         0.36559E-02
         0.32179E-02
         0.25928E-02
         0.18171E-02
         0.93572E-03
        -0.47884E-18
        -0.93572E-03
        -0.18171E-02
        -0.25928E-02
        -0.32179E-02
        -0.36559E-02
        -0.38815E-02
        -0.38815E-02
        -0.36559E-02
        -0.32179E-02
        -0.25928E-02
        -0.18171E-02
        -0.93572E-03
         0.67403E-03
         0.12321E-02
         0.59255E-03
        -0.33624E-03
         0.14955E-03
        -0.67544E-03
         0.18415E-02
         0.14596E-02
         0.30163E-03
         0.11707E-02
         0.22750E-02
         0.28277E-02
         0.24241E-02
         0.21685E-02
         0.29361E-02
        -0.10036E-02
         0.80588E-04
        -0.70173E-03
        -0.71168E-03
         0.82996E-04
        -0.77831E-03
         0.41259E-04
        -0.15194E-02
        -0.13227E-02
         0.99119E-03
        -0.17324E-02
         0.20226E-02
         0.18613E-02
         0.17175E-02
         0.90988E-03
        -0.19801E-02
        -0.23490E-02
        -0.17074E-02
        -0.14899E-02
         0.76237E-03
         0.12485E-02
         0.18666E-02
         0.29017E-02
         0.27198E-02
         0.24638E-02
         0.22359E-02
         0.16503E-02
         0.87545E-03
        -0.21374E-02
        -0.26932E-02
        -0.31291E-02
        -0.30382E-02
        -0.28748E-02
        -0.26428E-02
        -0.23711E-02
        -0.21456E-02
        -0.15103E-02
         0.93572E-03
         0.00000E+00
         0.18171E-02
         0.25928E-02
         0.32179E-02
         0.36559E-02
         0.38815E-02
         0.38815E-02
         0.36559E-02
         0.32179E-02
         0.25928E-02
         0.18171E-02
         0.93572E-03
         0.39516E-17
        -0.93572E-03
        -0.18171E-02
        -0.25928E-02
        -0.32179E-02
        -0.36559E-02
        -0.38815E-02
        -0.38815E-02
        -0.36559E-02
        -0.32179E-02
        -0.25928E-02
        -0.18171E-02
        -0.93572E-03
         0.67459E-03
         0.12328E-02
         0.59308E-03
        -0.33549E-03
         0.14991E-03
        -0.67495E-03
         0.18417E-02
         0.14606E-02
         0.30278E-03
         0.11725E-02
         0.22752E-02
         0.28273E-02
         0.24242E-02
         0.21686E-02
         0.29359E-02
        -0.10038E-02
         0.81397E-04
        -0.70100E-03
        -0.71154E-03
         0.83120E-04
        -0.77814E-03
         0.41533E-04
        -0.15193E-02
        -0.13227E-02
         0.99254E-03
        -0.17324E-02
         0.20228E-02
         0.18611E-02
         0.17175E-02
         0.91012E-03
        -0.19801E-02
        -0.23490E-02
        -0.17074E-02
        -0.14901E-02
         0.76338E-03
         0.12490E-02
         0.18666E-02
         0.29006E-02
         0.27193E-02
         0.24636E-02
         0.22359E-02
         0.16503E-02
         0.87571E-03
        -0.21374E-02
        -0.26932E-02
        -0.31291E-02
        -0.30382E-02
        -0.28748E-02
        -0.26431E-02
        -0.23713E-02
        -0.21461E-02
        -0.15102E-02
         0.93572E-03
         0.00000E+00
         0.18171E-02
         0.25928E-02
         0.32179E-02
         0.36559E-02
         0.38815E-02
         0.38815E-02
         0.36559E-02
         0.32179E-02
         0.25928E-02
         0.18171E-02
         0.93572E-03
        -0.47884E-18
        -0.93572E-03
        -0.18171E-02
        -0.25928E-02
        -0.32179E-02
        -0.36559E-02
        -0.38815E-02
        -0.38815E-02
        -0.36559E-02
        -0.32179E-02
        -0.25928E-02
        -0.18171E-02
        -0.93572E-03
         0.67514E-03
         0.12334E-02
         0.59360E-03
        -0.33474E-03
         0.15027E-03
        -0.67446E-03
         0.18419E-02
         0.14616E-02
         0.30393E-03
         0.11742E-02
         0.22753E-02
         0.28269E-02
         0.24244E-02
         0.21686E-02
         0.29356E-02
        -0.10039E-02
         0.82206E-04
        -0.70028E-03
        -0.71140E-03
         0.83243E-04
        -0.77797E-03
         0.41806E-04
        -0.15193E-02
        -0.13226E-02
         0.99390E-03
        -0.17323E-02
         0.20231E-02
         0.18610E-02
         0.17175E-02
         0.91036E-03
        -0.19801E-02
        -0.23490E-02
        -0.17074E-02
        -0.14904E-02
         0.76439E-03
         0.12494E-02
         0.18666E-02
         0.28995E-02
         0.27188E-02
         0.24633E-02
         0.22359E-02
         0.16503E-02
         0.87597E-03
        -0.21374E-02
        -0.26932E-02
        -0.31291E-02
        -0.30382E-02
        -0.28748E-02
        -0.26434E-02
        -0.23715E-02
        -0.21467E-02
        -0.15101E-02
         0.93572E-03
         0.00000E+00
         0.18171E-02
         0.25928E-02
         0.32179E-02
         0.36559E-02
         0.38815E-02
         0.38815E-02
         0.36559E-02
         0.32179E-02
         0.25928E-02
         0.18171E-02
         0.93572E-03
        -0.47884E-18
        -0.93572E-03
        -0.18171E-02
        -0.25928E-02
        -0.32179E-02
        -0.36559E-02
        -0.38815E-02
        -0.38815E-02
        -0.36559E-02
        -0.32179E-02
        -0.25928E-02
        -0.18171E-02
        -0.93572E-03
         0.67570E-03
         0.12341E-02
         0.59412E-03
        -0.33398E-03
         0.15064E-03
        -0.67396E-03
         0.18421E-02
         0.14626E-02
         0.30507E-03
         0.11760E-02
         0.22754E-02
         0.28264E-02
         0.24245E-02
         0.21686E-02
         0.29353E-02
        -0.10040E-02
         0.83015E-04
        -0.69955E-03
        -0.71126E-03
         0.83367E-04
        -0.77780E-03
         0.42080E-04
        -0.15192E-02
        -0.13224E-02
         0.99526E-03
        -0.17323E-02
         0.20234E-02
         0.18609E-02
         0.17175E-02
         0.91060E-03
        -0.19801E-02
        -0.23490E-02
        -0.17074E-02
        -0.14906E-02
         0.76539E-03
         0.12498E-02
         0.18667E-02
         0.28984E-02
         0.27184E-02
         0.24631E-02
         0.22359E-02
         0.16503E-02
         0.87623E-03
        -0.21374E-02
        -0.26932E-02
        -0.31291E-02
        -0.30382E-02
        -0.28748E-02
        -0.26436E-02
        -0.23717E-02
        -0.21472E-02
        -0.15100E-02
         0.93572E-03
         0.00000E+00
         0.18171E-02
         0.25928E-02
         0.32179E-02
         0.36559E-02
         0.38815E-02
         0.38815E-02
         0.36559E-02
         0.32179E-02
         0.25928E-02
         0.18171E-02
         0.93572E-03
        -0.47884E-18
        -0.93572E-03
        -0.18171E-02
        -0.25928E-02
        -0.32179E-02
        -0.36559E-02
        -0.38815E-02
        -0.38815E-02
        -0.36559E-02
        -0.32179E-02
        -0.25928E-02
        -0.18171E-02
        -0.93572E-03
         0.67625E-03
         0.12348E-02
         0.59465E-03
        -0.33323E-03
         0.15100E-03
        -0.67347E-03
         0.18423E-02
         0.14636E-02
         0.30622E-03
         0.11777E-02
         0.22755E-02
         0.28260E-02
         0.24247E-02
         0.21687E-02
         0.29351E-02
        -0.10042E-02
         0.83825E-04
        -0.69882E-03
        -0.71112E-03
         0.83490E-04
        -0.77763E-03
         0.42353E-04
        -0.15192E-02
        -0.13223E-02
         0.99661E-03
        -0.17322E-02
         0.20237E-02
         0.18607E-02
         0.17175E-02
         0.91084E-03
        -0.19801E-02
        -0.23491E-02
        -0.17074E-02
        -0.14909E-02
         0.76640E-03
         0.12503E-02
         0.18667E-02
         0.28974E-02
         0.27179E-02
         0.24629E-02
         0.22359E-02
         0.16503E-02
         0.87650E-03
        -0.21374E-02
        -0.26933E-02
        -0.31291E-02
        -0.30382E-02
        -0.28749E-02
        -0.26439E-02
        -0.23719E-02
        -0.21478E-02
        -0.15099E-02
         0.93572E-03
         0.00000E+00
         0.18171E-02
         0.25928E-02
         0.32179E-02
         0.36559E-02
         0.38815E-02
         0.38815E-02
         0.36559E-02
         0.32179E-02
         0.25928E-02
         0.18171E-02
         0.93572E-03
        -0.47884E-18
        -0.93572E-03
        -0.18171E-02
        -0.25928E-02
        -0.32179E-02
        -0.36559E-02
        -0.38815E-02
        -0.38815E-02
        -0.36559E-02
        -0.32179E-02
        -0.25928E-02
        -0.18171E-02
        -0.93572E-03
         0.67680E-03
         0.12354E-02
         0.59517E-03
        -0.33247E-03
         0.15136E-03
        -0.67298E-03
         0.18425E-02
         0.14646E-02
         0.30737E-03
         0.11795E-02
         0.22757E-02
         0.28255E-02
         0.24248E-02
         0.21687E-02
         0.29348E-02
        -0.10043E-02
         0.84634E-04
        -0.69810E-03
        -0.71098E-03
         0.83614E-04
        -0.77746E-03
         0.42626E-04
        -0.15191E-02
        -0.13223E-02
         0.99797E-03
        -0.17322E-02
         0.20240E-02
         0.18606E-02
         0.17175E-02
         0.91108E-03
        -0.19802E-02
        -0.23491E-02
        -0.17074E-02
        -0.14911E-02
         0.76740E-03
         0.12507E-02
         0.18668E-02
         0.28963E-02
         0.27174E-02
         0.24627E-02
         0.22358E-02
         0.16503E-02
         0.87676E-03
        -0.21374E-02
        -0.26933E-02
        -0.31291E-02
        -0.30382E-02
        -0.28749E-02
        -0.26442E-02
        -0.23721E-02
        -0.21483E-02
        -0.15097E-02
         0.93572E-03
         0.00000E+00
         0.18171E-02
         0.25928E-02
         0.32179E-02
         0.36559E-02
         0.38815E-02
         0.38815E-02
         0.36559E-02
         0.32179E-02
         0.25928E-02
         0.18171E-02
         0.93572E-03
        -0.47884E-18
        -0.93572E-03
        -0.18171E-02
        -0.25928E-02
        -0.32179E-02
        -0.36559E-02
        -0.38815E-02
        -0.38815E-02
        -0.36559E-02
        -0.32179E-02
        -0.25928E-02
        -0.18171E-02
        -0.93572E-03
         0.67736E-03
         0.12361E-02
         0.59570E-03
        -0.33172E-03
         0.15173E-03
        -0.67248E-03
         0.18427E-02
         0.14656E-02
         0.30852E-03
         0.11812E-02
         0.22758E-02
         0.28251E-02
         0.24249E-02
         0.21688E-02
         0.29345E-02
        -0.10044E-02
         0.85443E-04
        -0.69737E-03
        -0.71084E-03
         0.83737E-04
        -0.77729E-03
         0.42899E-04
        -0.15191E-02
        -0.13222E-02
         0.99932E-03
        -0.17322E-02
         0.20243E-02
         0.18605E-02
         0.17175E-02
         0.91132E-03
        -0.19802E-02
        -0.23491E-02
        -0.17074E-02
        -0.14914E-02
         0.76841E-03
         0.12511E-02
         0.18668E-02
         0.28952E-02
         0.27170E-02
         0.24624E-02
         0.22358E-02
         0.16503E-02
         0.87702E-03
        -0.21374E-02
        -0.26933E-02
        -0.31291E-02
        -0.30382E-02
        -0.28749E-02
        -0.26444E-02
        -0.23723E-02
        -0.21489E-02
        -0.15096E-02
         0.93572E-03
         0.00000E+00
         0.18171E-02
         0.25928E-02
         0.32179E-02
         0.36559E-02
         0.38815E-02
         0.38815E-02
         0.36559E-02
         0.32179E-02
         0.25928E-02
         0.18171E-02
         0.93572E-03
        -0.47884E-18
        -0.93572E-03
        -0.18171E-02
        -0.25928E-02
        -0.32179E-02
        -0.36559E-02
        -0.38815E-02
        -0.38815E-02
        -0.36559E-02
        -0.32179E-02
        -0.25928E-02
        -0.18171E-02
        -0.93572E-03
         0.67791E-03
         0.12368E-02
         0.59622E-03
        -0.33096E-03
         0.15209E-03
        -0.67199E-03
         0.18429E-02
         0.14666E-02
         0.30967E-03
         0.11830E-02
         0.22759E-02
         0.28247E-02
         0.24251E-02
         0.21688E-02
         0.29343E-02
        -0.10046E-02
         0.86253E-04
        -0.69665E-03
        -0.71070E-03
         0.83861E-04
        -0.77712E-03
         0.43173E-04
        -0.15190E-02
        -0.13220E-02
         0.10007E-02
        -0.17321E-02
         0.20245E-02
         0.18603E-02
         0.17175E-02
         0.91156E-03
        -0.19802E-02
        -0.23491E-02
        -0.17074E-02
        -0.14916E-02
         0.76941E-03
         0.12515E-02
         0.18668E-02
         0.28942E-02
         0.27165E-02
         0.24622E-02
         0.22358E-02
         0.16503E-02
         0.87728E-03
        -0.21374E-02
        -0.26933E-02
        -0.31291E-02
        -0.30382E-02
        -0.28749E-02
        -0.26447E-02
        -0.23725E-02
        -0.21494E-02
        -0.15095E-02
         0.93572E-03
         0.00000E+00
         0.18171E-02
         0.25928E-02
         0.32179E-02
         0.36559E-02
         0.38815E-02
         0.38815E-02
         0.36559E-02
         0.32179E-02
         0.25928E-02
         0.18171E-02
         0.93572E-03
        -0.47884E-18
        -0.93572E-03
        -0.18171E-02
        -0.25928E-02
        -0.32179E-02
        -0.36559E-02
        -0.38815E-02
        -0.38815E-02
        -0.36559E-02
        -0.32179E-02
        -0.25928E-02
        -0.18171E-02
        -0.93572E-03
         0.67847E-03
         0.12374E-02
         0.59674E-03
        -0.33021E-03
         0.15245E-03
        -0.67150E-03
         0.18430E-02
         0.14676E-02
         0.31081E-03
         0.11847E-02
         0.22761E-02
         0.28242E-02
         0.24252E-02
         0.21688E-02
         0.29340E-02
        -0.10047E-02
         0.87062E-04
        -0.69592E-03
        -0.71056E-03
         0.83985E-04
        -0.77695E-03
         0.43446E-04
        -0.15190E-02
        -0.13219E-02
         0.10020E-02
        -0.17321E-02
         0.20248E-02
         0.18602E-02
         0.17175E-02
         0.91180E-03
        -0.19803E-02
        -0.23491E-02
        -0.17073E-02
        -0.14919E-02
         0.77042E-03
         0.12520E-02
         0.18669E-02
         0.28931E-02
         0.27160E-02
         0.24620E-02
         0.22358E-02
         0.16503E-02
         0.87754E-03
        -0.21374E-02
        -0.26933E-02
        -0.31291E-02
        -0.30382E-02
        -0.28749E-02
        -0.26450E-02
        -0.23727E-02
        -0.21500E-02
        -0.15094E-02
         0.93572E-03
         0.00000E+00
         0.18171E-02
         0.25928E-02
         0.32179E-02
         0.36559E-02
         0.38815E-02
         0.38815E-02
         0.36559E-02
         0.32179E-02
         0.25928E-02
         0.18171E-02
         0.93572E-03
         0.39516E-17
        -0.93572E-03
        -0.18171E-02
        -0.25928E-02
        -0.32179E-02
        -0.36559E-02
        -0.38815E-02
        -0.38815E-02
        -0.36559E-02
        -0.32179E-02
        -0.25928E-02
        -0.18171E-02
        -0.93572E-03
         0.67902E-03
         0.12381E-02
         0.59727E-03
        -0.32945E-03
         0.15282E-03
        -0.67100E-03
         0.18432E-02
         0.14686E-02
         0.31196E-03
         0.11865E-02
         0.22762E-02
         0.28238E-02
         0.24254E-02
         0.21688E-02
         0.29337E-02
        -0.10049E-02
         0.87871E-04
        -0.69519E-03
        -0.71042E-03
         0.84108E-04
        -0.77678E-03
         0.43720E-04
        -0.15189E-02
        -0.13219E-02
         0.10034E-02
        -0.17320E-02
         0.20251E-02
         0.18601E-02
         0.17175E-02
         0.91204E-03
        -0.19803E-02
        -0.23492E-02
        -0.17073E-02
        -0.14921E-02
         0.77142E-03
         0.12524E-02
         0.18669E-02
         0.28920E-02
         0.27155E-02
         0.24618E-02
         0.22358E-02
         0.16503E-02
         0.87781E-03
        -0.21374E-02
        -0.26934E-02
        -0.31291E-02
        -0.30382E-02
        -0.28749E-02
        -0.26452E-02
        -0.23729E-02
        -0.21505E-02
        -0.15093E-02
         0.93572E-03
         0.00000E+00
         0.18171E-02
         0.25928E-02
         0.32179E-02
         0.36559E-02
         0.38815E-02
         0.38815E-02
         0.36559E-02
         0.32179E-02
         0.25928E-02
         0.18171E-02
         0.93572E-03
        -0.47884E-18
        -0.93572E-03
        -0.18171E-02
        -0.25928E-02
        -0.32179E-02
        -0.36559E-02
        -0.38815E-02
        -0.38815E-02
        -0.36559E-02
        -0.32179E-02
        -0.25928E-02
        -0.18171E-02
        -0.93572E-03
         0.67958E-03
         0.12387E-02
         0.59779E-03
        -0.32870E-03
         0.15318E-03
        -0.67051E-03
         0.18434E-02
         0.14696E-02
         0.31311E-03
         0.11882E-02
         0.22763E-02
         0.28233E-02
         0.24255E-02
         0.21689E-02
         0.29335E-02
        -0.10050E-02
         0.88681E-04
        -0.69447E-03
        -0.71028E-03
         0.84232E-04
        -0.77661E-03
         0.43993E-04
        -0.15189E-02
        -0.13218E-02
         0.10048E-02
        -0.17320E-02
         0.20254E-02
         0.18599E-02
         0.17175E-02
         0.91228E-03
        -0.19803E-02
        -0.23492E-02
        -0.17073E-02
        -0.14923E-02
         0.77243E-03
         0.12528E-02
         0.18670E-02
         0.28910E-02
         0.27151E-02
         0.24615E-02
         0.22358E-02
         0.16503E-02
         0.87807E-03
        -0.21374E-02
        -0.26934E-02
        -0.31291E-02
        -0.30382E-02
        -0.28749E-02
        -0.26455E-02
        -0.23732E-02
        -0.21511E-02
        -0.15092E-02
         0.93572E-03
         0.00000E+00
         0.18171E-02
         0.25928E-02
         0.32179E-02
         0.36559E-02
         0.38815E-02
         0.38815E-02
         0.36559E-02
         0.32179E-02
         0.25928E-02
         0.18171E-02
         0.93572E-03
         0.22152E-17
        -0.93572E-03
        -0.18171E-02
        -0.25928E-02
        -0.32179E-02
        -0.36559E-02
        -0.38815E-02
        -0.38815E-02
        -0.36559E-02
        -0.32179E-02
        -0.25928E-02
        -0.18171E-02
        -0.93572E-03
         0.68013E-03
         0.12394E-02
         0.59831E-03
        -0.32794E-03
         0.15354E-03
        -0.67002E-03
         0.18436E-02
         0.14706E-02
         0.31426E-03
         0.11900E-02
         0.22765E-02
         0.28229E-02
         0.24257E-02
         0.21689E-02
         0.29332E-02
        -0.10051E-02
         0.89490E-04
        -0.69374E-03
        -0.71013E-03
         0.84355E-04
        -0.77644E-03
         0.44266E-04
        -0.15188E-02
        -0.13216E-02
         0.10061E-02
        -0.17320E-02
         0.20257E-02
         0.18598E-02
         0.17175E-02
         0.91252E-03
        -0.19803E-02
        -0.23492E-02
        -0.17073E-02
        -0.14926E-02
         0.77343E-03
         0.12533E-02
         0.18670E-02
         0.28899E-02
         0.27146E-02
         0.24613E-02
         0.22358E-02
         0.16503E-02
         0.87833E-03
        -0.21374E-02
        -0.26934E-02
        -0.31291E-02
        -0.30382E-02
        -0.28750E-02
        -0.26458E-02
        -0.23734E-02
        -0.21516E-02
        -0.15091E-02
         0.93572E-03
         0.00000E+00
         0.18171E-02
         0.25928E-02
         0.32179E-02
         0.36559E-02
         0.38815E-02
         0.38815E-02
         0.36559E-02
         0.32179E-02
         0.25928E-02
         0.18171E-02
         0.93572E-03
        -0.47884E-18
        -0.93572E-03
        -0.18171E-02
        -0.25928E-02
        -0.32179E-02
        -0.36559E-02
        -0.38815E-02
        -0.38815E-02
        -0.36559E-02
        -0.32179E-02
        -0.25928E-02
        -0.18171E-02
        -0.93572E-03
         0.68068E-03
         0.12401E-02
         0.59884E-03
        -0.32719E-03
         0.15391E-03
        -0.66953E-03
         0.18438E-02
         0.14716E-02
         0.31541E-03
         0.11917E-02
         0.22766E-02
         0.28225E-02
         0.24258E-02
         0.21690E-02
         0.29330E-02
        -0.10053E-02
         0.90299E-04
        -0.69302E-03
        -0.70999E-03
         0.84479E-04
        -0.77627E-03
         0.44540E-04
        -0.15188E-02
        -0.13215E-02
         0.10075E-02
        -0.17319E-02
         0.20260E-02
         0.18597E-02
         0.17175E-02
         0.91276E-03
        -0.19804E-02
        -0.23493E-02
        -0.17073E-02
        -0.14928E-02
         0.77444E-03
         0.12537E-02
         0.18670E-02
         0.28888E-02
         0.27141E-02
         0.24611E-02
         0.22358E-02
         0.16503E-02
         0.87859E-03
        -0.21374E-02
        -0.26934E-02
        -0.31291E-02
        -0.30382E-02
        -0.28750E-02
        -0.26460E-02
        -0.23736E-02
        -0.21521E-02
        -0.15090E-02
         0.93572E-03
         0.00000E+00
         0.18171E-02
         0.25928E-02
         0.32179E-02
         0.36559E-02
         0.38815E-02
         0.38815E-02
         0.36559E-02
         0.32179E-02
         0.25928E-02
         0.18171E-02
         0.93572E-03
         0.22152E-17
        -0.93572E-03
        -0.18171E-02
        -0.25928E-02
        -0.32179E-02
        -0.36559E-02
        -0.38815E-02
        -0.38815E-02
        -0.36559E-02
        -0.32179E-02
        -0.25928E-02
        -0.18171E-02
        -0.93572E-03
         0.68124E-03
         0.12407E-02
         0.59936E-03
        -0.32643E-03
         0.15427E-03
        -0.66903E-03
         0.18440E-02
         0.14727E-02
         0.31656E-03
         0.11935E-02
         0.22767E-02
         0.28220E-02
         0.24260E-02
         0.21690E-02
         0.29327E-02
        -0.10054E-02
         0.91108E-04
        -0.69229E-03
        -0.70985E-03
         0.84602E-04
        -0.77610E-03
         0.44813E-04
        -0.15187E-02
        -0.13215E-02
         0.10088E-02
        -0.17319E-02
         0.20262E-02
         0.18595E-02
         0.17175E-02
         0.91300E-03
        -0.19804E-02
        -0.23493E-02
        -0.17073E-02
        -0.14931E-02
         0.77544E-03
         0.12541E-02
         0.18671E-02
         0.28877E-02
         0.27137E-02
         0.24609E-02
         0.22358E-02
         0.16503E-02
         0.87885E-03
        -0.21374E-02
        -0.26934E-02
        -0.31291E-02
        -0.30382E-02
        -0.28750E-02
        -0.26463E-02
        -0.23738E-02
        -0.21527E-02
        -0.15088E-02
         0.93572E-03
         0.00000E+00
         0.18171E-02
         0.25928E-02
         0.32179E-02
         0.36559E-02
         0.38815E-02
         0.38815E-02
         0.36559E-02
         0.32179E-02
         0.25928E-02
         0.18171E-02
         0.93572E-03
        -0.47884E-18
        -0.93572E-03
        -0.18171E-02
        -0.25928E-02
        -0.32179E-02
        -0.36559E-02
        -0.38815E-02
        -0.38815E-02
        -0.36559E-02
        -0.32179E-02
        -0.25928E-02
        -0.18171E-02
        -0.93572E-03
         0.68179E-03
         0.12414E-02
         0.59988E-03
        -0.32568E-03
         0.15463E-03
        -0.66854E-03
         0.18442E-02
         0.14736E-02
         0.31770E-03
         0.11952E-02
         0.22768E-02
         0.28216E-02
         0.24261E-02
         0.21690E-02
         0.29324E-02
        -0.10056E-02
         0.91918E-04
        -0.69156E-03
        -0.70971E-03
         0.84726E-04
        -0.77593E-03
         0.45086E-04
        -0.15187E-02
        -0.13213E-02
         0.10102E-02
        -0.17318E-02
         0.20265E-02
         0.18594E-02
         0.17175E-02
         0.91324E-03
        -0.19804E-02
        -0.23493E-02
        -0.17073E-02
        -0.14933E-02
         0.77645E-03
         0.12545E-02
         0.18671E-02
         0.28867E-02
         0.27132E-02
         0.24606E-02
         0.22358E-02
         0.16503E-02
         0.87912E-03
        -0.21374E-02
        -0.26935E-02
        -0.31291E-02
        -0.30381E-02
        -0.28750E-02
        -0.26466E-02
        -0.23740E-02
        -0.21533E-02
        -0.15087E-02
         0.93572E-03
         0.00000E+00
         0.18171E-02
         0.25928E-02
         0.32179E-02
         0.36559E-02
         0.38815E-02
         0.38815E-02
         0.36559E-02
         0.32179E-02
         0.25928E-02
         0.18171E-02
         0.93572E-03
        -0.47884E-18
        -0.93572E-03
        -0.18171E-02
        -0.25928E-02
        -0.32179E-02
        -0.36559E-02
        -0.38815E-02
        -0.38815E-02
        -0.36559E-02
        -0.32179E-02
        -0.25928E-02
        -0.18171E-02
        -0.93572E-03
         0.68235E-03
         0.12421E-02
         0.60041E-03
        -0.32493E-03
         0.15500E-03
        -0.66805E-03
         0.18444E-02
         0.14747E-02
         0.31885E-03
         0.11970E-02
         0.22770E-02
         0.28211E-02
         0.24262E-02
         0.21691E-02
         0.29322E-02
        -0.10057E-02
         0.92727E-04
        -0.69084E-03
        -0.70957E-03
         0.84849E-04
        -0.77576E-03
         0.45359E-04
        -0.15186E-02
        -0.13212E-02
         0.10115E-02
        -0.17318E-02
         0.20268E-02
         0.18593E-02
         0.17175E-02
         0.91347E-03
        -0.19804E-02
        -0.23493E-02
        -0.17073E-02
        -0.14936E-02
         0.77745E-03
         0.12550E-02
         0.18671E-02
         0.28856E-02
         0.27127E-02
         0.24604E-02
         0.22358E-02
         0.16503E-02
         0.87938E-03
        -0.21374E-02
        -0.26935E-02
        -0.31291E-02
        -0.30381E-02
        -0.28750E-02
        -0.26468E-02
        -0.23742E-02
        -0.21538E-02
        -0.15086E-02
         0.93572E-03
         0.00000E+00
         0.18171E-02
         0.25928E-02
         0.32179E-02
         0.36559E-02
         0.38815E-02
         0.38815E-02
         0.36559E-02
         0.32179E-02
         0.25928E-02
         0.18171E-02
         0.93572E-03
        -0.47884E-18
        -0.93572E-03
        -0.18171E-02
        -0.25928E-02
        -0.32179E-02
        -0.36559E-02
        -0.38815E-02
        -0.38815E-02
        -0.36559E-02
        -0.32179E-02
        -0.25928E-02
        -0.18171E-02
        -0.93572E-03
         0.68290E-03
         0.12427E-02
         0.60093E-03
        -0.32417E-03
         0.15536E-03
        -0.66755E-03
         0.18445E-02
         0.14757E-02
         0.32000E-03
         0.11987E-02
         0.22771E-02
         0.28207E-02
         0.24264E-02
         0.21691E-02
         0.29319E-02
        -0.10058E-02
         0.93536E-04
        -0.69011E-03
        -0.70943E-03
         0.84973E-04
        -0.77559E-03
         0.45633E-04
        -0.15186E-02
        -0.13212E-02
         0.10129E-02
        -0.17318E-02
         0.20271E-02
         0.18592E-02
         0.17175E-02
         0.91371E-03
        -0.19805E-02
        -0.23493E-02
        -0.17073E-02
        -0.14938E-02
         0.77846E-03
         0.12554E-02
         0.18672E-02
         0.28845E-02
         0.27122E-02
         0.24602E-02
         0.22358E-02
         0.16502E-02
         0.87964E-03
        -0.21374E-02
        -0.26935E-02
        -0.31291E-02
        -0.30381E-02
        -0.28750E-02
        -0.26471E-02
        -0.23744E-02
        -0.21543E-02
        -0.15085E-02
         0.93572E-03
         0.00000E+00
         0.18171E-02
         0.25928E-02
         0.32179E-02
         0.36559E-02
         0.38815E-02
         0.38815E-02
         0.36559E-02
         0.32179E-02
         0.25928E-02
         0.18171E-02
         0.93572E-03
        -0.47884E-18
        -0.93572E-03
        -0.18171E-02
        -0.25928E-02
        -0.32179E-02
        -0.36559E-02
        -0.38815E-02
        -0.38815E-02
        -0.36559E-02
        -0.32179E-02
        -0.25928E-02
        -0.18171E-02
        -0.93572E-03
         0.68346E-03
         0.12434E-02
         0.60145E-03
        -0.32342E-03
         0.15572E-03
        -0.66706E-03
         0.18447E-02
         0.14767E-02
         0.32115E-03
         0.12005E-02
         0.22772E-02
         0.28203E-02
         0.24265E-02
         0.21691E-02
         0.29316E-02
        -0.10060E-02
         0.94345E-04
        -0.68939E-03
        -0.70929E-03
         0.85096E-04
        -0.77542E-03
         0.45906E-04
        -0.15185E-02
        -0.13211E-02
         0.10142E-02
        -0.17317E-02
         0.20274E-02
         0.18590E-02
         0.17175E-02
         0.91395E-03
        -0.19805E-02
        -0.23494E-02
        -0.17073E-02
        -0.14941E-02
         0.77946E-03
         0.12558E-02
         0.18672E-02
         0.28835E-02
         0.27118E-02
         0.24600E-02
         0.22358E-02
         0.16502E-02
         0.87990E-03
        -0.21374E-02
        -0.26935E-02
        -0.31291E-02
        -0.30381E-02
        -0.28750E-02
        -0.26474E-02
        -0.23746E-02
        -0.21549E-02
        -0.15084E-02
         0.93572E-03
         0.00000E+00
         0.18171E-02
         0.25928E-02
         0.32179E-02
         0.36559E-02
         0.38815E-02
         0.38815E-02
         0.36559E-02
         0.32179E-02
         0.25928E-02
         0.18171E-02
         0.93572E-03
         0.22152E-17
        -0.93572E-03
        -0.18171E-02
        -0.25928E-02
        -0.32179E-02
        -0.36559E-02
        -0.38815E-02
        -0.38815E-02
        -0.36559E-02
        -0.32179E-02
        -0.25928E-02
        -0.18171E-02
        -0.93572E-03
         0.68401E-03
         0.12440E-02
         0.60198E-03
        -0.32266E-03
         0.15609E-03
        -0.66657E-03
         0.18449E-02
         0.14777E-02
         0.32230E-03
         0.12022E-02
         0.22774E-02
         0.28198E-02
         0.24267E-02
         0.21692E-02
         0.29314E-02
        -0.10061E-02
         0.95155E-04
        -0.68866E-03
        -0.70915E-03
         0.85220E-04
        -0.77525E-03
         0.46180E-04
        -0.15185E-02
        -0.13210E-02
         0.10156E-02
        -0.17317E-02
         0.20277E-02
         0.18589E-02
         0.17175E-02
         0.91419E-03
        -0.19805E-02
        -0.23494E-02
        -0.17073E-02
        -0.14943E-02
         0.78047E-03
         0.12563E-02
         0.18672E-02
         0.28824E-02
         0.27113E-02
         0.24597E-02
         0.22358E-02
         0.16502E-02
         0.88016E-03
        -0.21374E-02
        -0.26935E-02
        -0.31291E-02
        -0.30381E-02
        -0.28751E-02
        -0.26476E-02
        -0.23748E-02
        -0.21554E-02
        -0.15083E-02
         0.93572E-03
         0.00000E+00
         0.18171E-02
         0.25928E-02
         0.32179E-02
         0.36559E-02
         0.38815E-02
         0.38815E-02
         0.36559E-02
         0.32179E-02
         0.25928E-02
         0.18171E-02
         0.93572E-03
        -0.47884E-18
        -0.93572E-03
        -0.18171E-02
        -0.25928E-02
        -0.32179E-02
        -0.36559E-02
        -0.38815E-02
        -0.38815E-02
        -0.36559E-02
        -0.32179E-02
        -0.25928E-02
        -0.18171E-02
        -0.93572E-03
         0.68457E-03
         0.12447E-02
         0.60250E-03
        -0.32191E-03
         0.15645E-03
        -0.66607E-03
         0.18451E-02
         0.14787E-02
         0.32345E-03
         0.12040E-02
         0.22775E-02
         0.28194E-02
         0.24268E-02
         0.21692E-02
         0.29311E-02
        -0.10062E-02
         0.95964E-04
        -0.68793E-03
        -0.70901E-03
         0.85343E-04
        -0.77507E-03
         0.46453E-04
        -0.15184E-02
        -0.13209E-02
         0.10169E-02
        -0.17316E-02
         0.20280E-02
         0.18588E-02
         0.17175E-02
         0.91443E-03
        -0.19806E-02
        -0.23494E-02
        -0.17073E-02
        -0.14945E-02
         0.78148E-03
         0.12567E-02
         0.18673E-02
         0.28813E-02
         0.27108E-02
         0.24595E-02
         0.22358E-02
         0.16502E-02
         0.88043E-03
        -0.21374E-02
        -0.26936E-02
        -0.31291E-02
        -0.30381E-02
        -0.28751E-02
        -0.26479E-02
        -0.23750E-02
        -0.21560E-02
        -0.15082E-02
         0.93572E-03
         0.00000E+00
         0.18171E-02
         0.25928E-02
         0.32179E-02
         0.36559E-02
         0.38815E-02
         0.38815E-02
         0.36559E-02
         0.32179E-02
         0.25928E-02
         0.18171E-02
         0.93572E-03
        -0.47884E-18
        -0.93572E-03
        -0.18171E-02
        -0.25928E-02
        -0.32179E-02
        -0.36559E-02
        -0.38815E-02
        -0.38815E-02
        -0.36559E-02
        -0.32179E-02
        -0.25928E-02
        -0.18171E-02
        -0.93572E-03
         0.68512E-03
         0.12454E-02
         0.60302E-03
        -0.32115E-03
         0.15681E-03
        -0.66558E-03
         0.18453E-02
         0.14797E-02
         0.32459E-03
         0.12058E-02
         0.22776E-02
         0.28189E-02
         0.24270E-02
         0.21693E-02
         0.29308E-02
        -0.10064E-02
         0.96773E-04
        -0.68721E-03
        -0.70887E-03
         0.85467E-04
        -0.77490E-03
         0.46726E-04
        -0.15184E-02
        -0.13208E-02
         0.10183E-02
        -0.17316E-02
         0.20283E-02
         0.18586E-02
         0.17175E-02
         0.91467E-03
        -0.19806E-02
        -0.23494E-02
        -0.17073E-02
        -0.14948E-02
         0.78248E-03
         0.12571E-02
         0.18673E-02
         0.28802E-02
         0.27103E-02
         0.24593E-02
         0.22358E-02
         0.16502E-02
         0.88069E-03
        -0.21374E-02
        -0.26936E-02
        -0.31291E-02
        -0.30381E-02
        -0.28751E-02
        -0.26482E-02
        -0.23752E-02
        -0.21565E-02
        -0.15081E-02
         0.93572E-03
         0.00000E+00
         0.18171E-02
         0.25928E-02
         0.32179E-02
         0.36559E-02
         0.38815E-02
         0.38815E-02
         0.36559E-02
         0.32179E-02
         0.25928E-02
         0.18171E-02
         0.93572E-03
        -0.47884E-18
        -0.93572E-03
        -0.18171E-02
        -0.25928E-02
        -0.32179E-02
        -0.36559E-02
        -0.38815E-02
        -0.38815E-02
        -0.36559E-02
        -0.32179E-02
        -0.25928E-02
        -0.18171E-02
        -0.93572E-03
         0.68567E-03
         0.12460E-02
         0.60355E-03
        -0.32040E-03
         0.15718E-03
        -0.66509E-03
         0.18455E-02
         0.14807E-02
         0.32574E-03
         0.12075E-02
         0.22777E-02
         0.28185E-02
         0.24271E-02
         0.21693E-02
         0.29306E-02
        -0.10065E-02
         0.97583E-04
        -0.68648E-03
        -0.70873E-03
         0.85591E-04
        -0.77474E-03
         0.47000E-04
        -0.15183E-02
        -0.13207E-02
         0.10197E-02
        -0.17316E-02
         0.20285E-02
         0.18585E-02
         0.17175E-02
         0.91491E-03
        -0.19806E-02
        -0.23495E-02
        -0.17073E-02
        -0.14950E-02
         0.78348E-03
         0.12576E-02
         0.18674E-02
         0.28792E-02
         0.27099E-02
         0.24591E-02
         0.22358E-02
         0.16502E-02
         0.88095E-03
        -0.21374E-02
        -0.26936E-02
        -0.31290E-02
        -0.30381E-02
        -0.28751E-02
        -0.26484E-02
        -0.23754E-02
        -0.21571E-02
        -0.15080E-02
         0.93572E-03
         0.00000E+00
         0.18171E-02
         0.25928E-02
         0.32179E-02
         0.36559E-02
         0.38815E-02
         0.38815E-02
         0.36559E-02
         0.32179E-02
         0.25928E-02
         0.18171E-02
         0.93572E-03
         0.47884E-18
        -0.93572E-03
        -0.18171E-02
        -0.25928E-02
        -0.32179E-02
        -0.36559E-02
        -0.38815E-02
        -0.38815E-02
        -0.36559E-02
        -0.32179E-02
        -0.25928E-02
        -0.18171E-02
        -0.93572E-03
  
SCALARS           initial_coordinate_z  double 1
LOOKUP_TABLE default
        -0.10771E-01
        -0.10771E-01
        -0.10771E-01
        -0.10771E-01
        -0.11750E-01
        -0.11750E-01
        -0.11750E-01
        -0.11750E-01
        -0.10771E-01
        -0.10771E-01
        -0.11750E-01
        -0.11750E-01
        -0.10771E-01
        -0.10771E-01
        -0.11750E-01
        -0.11750E-01
        -0.10771E-01
        -0.10771E-01
        -0.11750E-01
        -0.11750E-01
        -0.10771E-01
        -0.10771E-01
        -0.10771E-01
        -0.11750E-01
        -0.11750E-01
        -0.11750E-01
        -0.10771E-01
        -0.10771E-01
        -0.11750E-01
        -0.11750E-01
        -0.10771E-01
        -0.10771E-01
        -0.10771E-01
        -0.11750E-01
        -0.11750E-01
        -0.11750E-01
        -0.10771E-01
        -0.10771E-01
        -0.11750E-01
        -0.11750E-01
        -0.10771E-01
        -0.10771E-01
        -0.11750E-01
        -0.11750E-01
        -0.10771E-01
        -0.10771E-01
        -0.11750E-01
        -0.11750E-01
        -0.10771E-01
        -0.11750E-01
        -0.10771E-01
        -0.11750E-01
        -0.10771E-01
        -0.11750E-01
        -0.10771E-01
        -0.11750E-01
        -0.10771E-01
        -0.10771E-01
        -0.11750E-01
        -0.11750E-01
        -0.10771E-01
        -0.10771E-01
        -0.11750E-01
        -0.11750E-01
        -0.10771E-01
        -0.11750E-01
        -0.10771E-01
        -0.11750E-01
        -0.10771E-01
        -0.10771E-01
        -0.11750E-01
        -0.11750E-01
        -0.10771E-01
        -0.11750E-01
        -0.10771E-01
        -0.11750E-01
        -0.10771E-01
        -0.11750E-01
        -0.10771E-01
        -0.11750E-01
        -0.10771E-01
        -0.10771E-01
        -0.11750E-01
        -0.11750E-01
        -0.10771E-01
        -0.11750E-01
        -0.10771E-01
        -0.11750E-01
        -0.10771E-01
        -0.11750E-01
        -0.10771E-01
        -0.10771E-01
        -0.11750E-01
        -0.11750E-01
        -0.10771E-01
        -0.11750E-01
        -0.10771E-01
        -0.11750E-01
        -0.10771E-01
        -0.11750E-01
        -0.10771E-01
        -0.10771E-01
        -0.11750E-01
        -0.11750E-01
        -0.10771E-01
        -0.10771E-01
        -0.11750E-01
        -0.11750E-01
        -0.10771E-01
        -0.11750E-01
        -0.10771E-01
        -0.11750E-01
        -0.10771E-01
        -0.11750E-01
        -0.10771E-01
        -0.11750E-01
        -0.10771E-01
        -0.11750E-01
        -0.10771E-01
        -0.11750E-01
        -0.10771E-01
        -0.11750E-01
        -0.10771E-01
        -0.11750E-01
        -0.10771E-01
        -0.11750E-01
        -0.10771E-01
        -0.11750E-01
        -0.10771E-01
        -0.11750E-01
        -0.10771E-01
        -0.11750E-01
        -0.10771E-01
        -0.11750E-01
        -0.10771E-01
        -0.11750E-01
        -0.10771E-01
        -0.11750E-01
        -0.10771E-01
        -0.11750E-01
        -0.10771E-01
        -0.11750E-01
        -0.10771E-01
        -0.11750E-01
        -0.10771E-01
        -0.11750E-01
        -0.10771E-01
        -0.11750E-01
        -0.10771E-01
        -0.11750E-01
        -0.10771E-01
        -0.11750E-01
        -0.10771E-01
        -0.11750E-01
        -0.10771E-01
        -0.11750E-01
        -0.97917E-02
        -0.97917E-02
        -0.97917E-02
        -0.97917E-02
        -0.97917E-02
        -0.97917E-02
        -0.97917E-02
        -0.97917E-02
        -0.97917E-02
        -0.97917E-02
        -0.97917E-02
        -0.97917E-02
        -0.97917E-02
        -0.97917E-02
        -0.97917E-02
        -0.97917E-02
        -0.97917E-02
        -0.97917E-02
        -0.97917E-02
        -0.97917E-02
        -0.97917E-02
        -0.97917E-02
        -0.97917E-02
        -0.97917E-02
        -0.97917E-02
        -0.97917E-02
        -0.97917E-02
        -0.97917E-02
        -0.97917E-02
        -0.97917E-02
        -0.97917E-02
        -0.97917E-02
        -0.97917E-02
        -0.97917E-02
        -0.97917E-02
        -0.97917E-02
        -0.97917E-02
        -0.97917E-02
        -0.97917E-02
        -0.97917E-02
        -0.97917E-02
        -0.97917E-02
        -0.97917E-02
        -0.97917E-02
        -0.97917E-02
        -0.97917E-02
        -0.97917E-02
        -0.97917E-02
        -0.97917E-02
        -0.97917E-02
        -0.97917E-02
        -0.97917E-02
        -0.97917E-02
        -0.97917E-02
        -0.97917E-02
        -0.97917E-02
        -0.97917E-02
        -0.97917E-02
        -0.97917E-02
        -0.97917E-02
        -0.97917E-02
        -0.97917E-02
        -0.97917E-02
        -0.97917E-02
        -0.97917E-02
        -0.97917E-02
        -0.97917E-02
        -0.97917E-02
        -0.97917E-02
        -0.97917E-02
        -0.97917E-02
        -0.97917E-02
        -0.97917E-02
        -0.97917E-02
        -0.97917E-02
        -0.97917E-02
        -0.97917E-02
        -0.97917E-02
        -0.88125E-02
        -0.88125E-02
        -0.88125E-02
        -0.88125E-02
        -0.88125E-02
        -0.88125E-02
        -0.88125E-02
        -0.88125E-02
        -0.88125E-02
        -0.88125E-02
        -0.88125E-02
        -0.88125E-02
        -0.88125E-02
        -0.88125E-02
        -0.88125E-02
        -0.88125E-02
        -0.88125E-02
        -0.88125E-02
        -0.88125E-02
        -0.88125E-02
        -0.88125E-02
        -0.88125E-02
        -0.88125E-02
        -0.88125E-02
        -0.88125E-02
        -0.88125E-02
        -0.88125E-02
        -0.88125E-02
        -0.88125E-02
        -0.88125E-02
        -0.88125E-02
        -0.88125E-02
        -0.88125E-02
        -0.88125E-02
        -0.88125E-02
        -0.88125E-02
        -0.88125E-02
        -0.88125E-02
        -0.88125E-02
        -0.88125E-02
        -0.88125E-02
        -0.88125E-02
        -0.88125E-02
        -0.88125E-02
        -0.88125E-02
        -0.88125E-02
        -0.88125E-02
        -0.88125E-02
        -0.88125E-02
        -0.88125E-02
        -0.88125E-02
        -0.88125E-02
        -0.88125E-02
        -0.88125E-02
        -0.88125E-02
        -0.88125E-02
        -0.88125E-02
        -0.88125E-02
        -0.88125E-02
        -0.88125E-02
        -0.88125E-02
        -0.88125E-02
        -0.88125E-02
        -0.88125E-02
        -0.88125E-02
        -0.88125E-02
        -0.88125E-02
        -0.88125E-02
        -0.88125E-02
        -0.88125E-02
        -0.88125E-02
        -0.88125E-02
        -0.88125E-02
        -0.88125E-02
        -0.88125E-02
        -0.88125E-02
        -0.88125E-02
        -0.88125E-02
        -0.78333E-02
        -0.78333E-02
        -0.78333E-02
        -0.78333E-02
        -0.78333E-02
        -0.78333E-02
        -0.78333E-02
        -0.78333E-02
        -0.78333E-02
        -0.78333E-02
        -0.78333E-02
        -0.78333E-02
        -0.78333E-02
        -0.78333E-02
        -0.78333E-02
        -0.78333E-02
        -0.78333E-02
        -0.78333E-02
        -0.78333E-02
        -0.78333E-02
        -0.78333E-02
        -0.78333E-02
        -0.78333E-02
        -0.78333E-02
        -0.78333E-02
        -0.78333E-02
        -0.78333E-02
        -0.78333E-02
        -0.78333E-02
        -0.78333E-02
        -0.78333E-02
        -0.78333E-02
        -0.78333E-02
        -0.78333E-02
        -0.78333E-02
        -0.78333E-02
        -0.78333E-02
        -0.78333E-02
        -0.78333E-02
        -0.78333E-02
        -0.78333E-02
        -0.78333E-02
        -0.78333E-02
        -0.78333E-02
        -0.78333E-02
        -0.78333E-02
        -0.78333E-02
        -0.78333E-02
        -0.78333E-02
        -0.78333E-02
        -0.78333E-02
        -0.78333E-02
        -0.78333E-02
        -0.78333E-02
        -0.78333E-02
        -0.78333E-02
        -0.78333E-02
        -0.78333E-02
        -0.78333E-02
        -0.78333E-02
        -0.78333E-02
        -0.78333E-02
        -0.78333E-02
        -0.78333E-02
        -0.78333E-02
        -0.78333E-02
        -0.78333E-02
        -0.78333E-02
        -0.78333E-02
        -0.78333E-02
        -0.78333E-02
        -0.78333E-02
        -0.78333E-02
        -0.78333E-02
        -0.78333E-02
        -0.78333E-02
        -0.78333E-02
        -0.78333E-02
        -0.68542E-02
        -0.68542E-02
        -0.68542E-02
        -0.68542E-02
        -0.68542E-02
        -0.68542E-02
        -0.68542E-02
        -0.68542E-02
        -0.68542E-02
        -0.68542E-02
        -0.68542E-02
        -0.68542E-02
        -0.68542E-02
        -0.68542E-02
        -0.68542E-02
        -0.68542E-02
        -0.68542E-02
        -0.68542E-02
        -0.68542E-02
        -0.68542E-02
        -0.68542E-02
        -0.68542E-02
        -0.68542E-02
        -0.68542E-02
        -0.68542E-02
        -0.68542E-02
        -0.68542E-02
        -0.68542E-02
        -0.68542E-02
        -0.68542E-02
        -0.68542E-02
        -0.68542E-02
        -0.68542E-02
        -0.68542E-02
        -0.68542E-02
        -0.68542E-02
        -0.68542E-02
        -0.68542E-02
        -0.68542E-02
        -0.68542E-02
        -0.68542E-02
        -0.68542E-02
        -0.68542E-02
        -0.68542E-02
        -0.68542E-02
        -0.68542E-02
        -0.68542E-02
        -0.68542E-02
        -0.68542E-02
        -0.68542E-02
        -0.68542E-02
        -0.68542E-02
        -0.68542E-02
        -0.68542E-02
        -0.68542E-02
        -0.68542E-02
        -0.68542E-02
        -0.68542E-02
        -0.68542E-02
        -0.68542E-02
        -0.68542E-02
        -0.68542E-02
        -0.68542E-02
        -0.68542E-02
        -0.68542E-02
        -0.68542E-02
        -0.68542E-02
        -0.68542E-02
        -0.68542E-02
        -0.68542E-02
        -0.68542E-02
        -0.68542E-02
        -0.68542E-02
        -0.68542E-02
        -0.68542E-02
        -0.68542E-02
        -0.68542E-02
        -0.68542E-02
        -0.58750E-02
        -0.58750E-02
        -0.58750E-02
        -0.58750E-02
        -0.58750E-02
        -0.58750E-02
        -0.58750E-02
        -0.58750E-02
        -0.58750E-02
        -0.58750E-02
        -0.58750E-02
        -0.58750E-02
        -0.58750E-02
        -0.58750E-02
        -0.58750E-02
        -0.58750E-02
        -0.58750E-02
        -0.58750E-02
        -0.58750E-02
        -0.58750E-02
        -0.58750E-02
        -0.58750E-02
        -0.58750E-02
        -0.58750E-02
        -0.58750E-02
        -0.58750E-02
        -0.58750E-02
        -0.58750E-02
        -0.58750E-02
        -0.58750E-02
        -0.58750E-02
        -0.58750E-02
        -0.58750E-02
        -0.58750E-02
        -0.58750E-02
        -0.58750E-02
        -0.58750E-02
        -0.58750E-02
        -0.58750E-02
        -0.58750E-02
        -0.58750E-02
        -0.58750E-02
        -0.58750E-02
        -0.58750E-02
        -0.58750E-02
        -0.58750E-02
        -0.58750E-02
        -0.58750E-02
        -0.58750E-02
        -0.58750E-02
        -0.58750E-02
        -0.58750E-02
        -0.58750E-02
        -0.58750E-02
        -0.58750E-02
        -0.58750E-02
        -0.58750E-02
        -0.58750E-02
        -0.58750E-02
        -0.58750E-02
        -0.58750E-02
        -0.58750E-02
        -0.58750E-02
        -0.58750E-02
        -0.58750E-02
        -0.58750E-02
        -0.58750E-02
        -0.58750E-02
        -0.58750E-02
        -0.58750E-02
        -0.58750E-02
        -0.58750E-02
        -0.58750E-02
        -0.58750E-02
        -0.58750E-02
        -0.58750E-02
        -0.58750E-02
        -0.58750E-02
        -0.48958E-02
        -0.48958E-02
        -0.48958E-02
        -0.48958E-02
        -0.48958E-02
        -0.48958E-02
        -0.48958E-02
        -0.48958E-02
        -0.48958E-02
        -0.48958E-02
        -0.48958E-02
        -0.48958E-02
        -0.48958E-02
        -0.48958E-02
        -0.48958E-02
        -0.48958E-02
        -0.48958E-02
        -0.48958E-02
        -0.48958E-02
        -0.48958E-02
        -0.48958E-02
        -0.48958E-02
        -0.48958E-02
        -0.48958E-02
        -0.48958E-02
        -0.48958E-02
        -0.48958E-02
        -0.48958E-02
        -0.48958E-02
        -0.48958E-02
        -0.48958E-02
        -0.48958E-02
        -0.48958E-02
        -0.48958E-02
        -0.48958E-02
        -0.48958E-02
        -0.48958E-02
        -0.48958E-02
        -0.48958E-02
        -0.48958E-02
        -0.48958E-02
        -0.48958E-02
        -0.48958E-02
        -0.48958E-02
        -0.48958E-02
        -0.48958E-02
        -0.48958E-02
        -0.48958E-02
        -0.48958E-02
        -0.48958E-02
        -0.48958E-02
        -0.48958E-02
        -0.48958E-02
        -0.48958E-02
        -0.48958E-02
        -0.48958E-02
        -0.48958E-02
        -0.48958E-02
        -0.48958E-02
        -0.48958E-02
        -0.48958E-02
        -0.48958E-02
        -0.48958E-02
        -0.48958E-02
        -0.48958E-02
        -0.48958E-02
        -0.48958E-02
        -0.48958E-02
        -0.48958E-02
        -0.48958E-02
        -0.48958E-02
        -0.48958E-02
        -0.48958E-02
        -0.48958E-02
        -0.48958E-02
        -0.48958E-02
        -0.48958E-02
        -0.48958E-02
        -0.39167E-02
        -0.39167E-02
        -0.39167E-02
        -0.39167E-02
        -0.39167E-02
        -0.39167E-02
        -0.39167E-02
        -0.39167E-02
        -0.39167E-02
        -0.39167E-02
        -0.39167E-02
        -0.39167E-02
        -0.39167E-02
        -0.39167E-02
        -0.39167E-02
        -0.39167E-02
        -0.39167E-02
        -0.39167E-02
        -0.39167E-02
        -0.39167E-02
        -0.39167E-02
        -0.39167E-02
        -0.39167E-02
        -0.39167E-02
        -0.39167E-02
        -0.39167E-02
        -0.39167E-02
        -0.39167E-02
        -0.39167E-02
        -0.39167E-02
        -0.39167E-02
        -0.39167E-02
        -0.39167E-02
        -0.39167E-02
        -0.39167E-02
        -0.39167E-02
        -0.39167E-02
        -0.39167E-02
        -0.39167E-02
        -0.39167E-02
        -0.39167E-02
        -0.39167E-02
        -0.39167E-02
        -0.39167E-02
        -0.39167E-02
        -0.39167E-02
        -0.39167E-02
        -0.39167E-02
        -0.39167E-02
        -0.39167E-02
        -0.39167E-02
        -0.39167E-02
        -0.39167E-02
        -0.39167E-02
        -0.39167E-02
        -0.39167E-02
        -0.39167E-02
        -0.39167E-02
        -0.39167E-02
        -0.39167E-02
        -0.39167E-02
        -0.39167E-02
        -0.39167E-02
        -0.39167E-02
        -0.39167E-02
        -0.39167E-02
        -0.39167E-02
        -0.39167E-02
        -0.39167E-02
        -0.39167E-02
        -0.39167E-02
        -0.39167E-02
        -0.39167E-02
        -0.39167E-02
        -0.39167E-02
        -0.39167E-02
        -0.39167E-02
        -0.39167E-02
        -0.29375E-02
        -0.29375E-02
        -0.29375E-02
        -0.29375E-02
        -0.29375E-02
        -0.29375E-02
        -0.29375E-02
        -0.29375E-02
        -0.29375E-02
        -0.29375E-02
        -0.29375E-02
        -0.29375E-02
        -0.29375E-02
        -0.29375E-02
        -0.29375E-02
        -0.29375E-02
        -0.29375E-02
        -0.29375E-02
        -0.29375E-02
        -0.29375E-02
        -0.29375E-02
        -0.29375E-02
        -0.29375E-02
        -0.29375E-02
        -0.29375E-02
        -0.29375E-02
        -0.29375E-02
        -0.29375E-02
        -0.29375E-02
        -0.29375E-02
        -0.29375E-02
        -0.29375E-02
        -0.29375E-02
        -0.29375E-02
        -0.29375E-02
        -0.29375E-02
        -0.29375E-02
        -0.29375E-02
        -0.29375E-02
        -0.29375E-02
        -0.29375E-02
        -0.29375E-02
        -0.29375E-02
        -0.29375E-02
        -0.29375E-02
        -0.29375E-02
        -0.29375E-02
        -0.29375E-02
        -0.29375E-02
        -0.29375E-02
        -0.29375E-02
        -0.29375E-02
        -0.29375E-02
        -0.29375E-02
        -0.29375E-02
        -0.29375E-02
        -0.29375E-02
        -0.29375E-02
        -0.29375E-02
        -0.29375E-02
        -0.29375E-02
        -0.29375E-02
        -0.29375E-02
        -0.29375E-02
        -0.29375E-02
        -0.29375E-02
        -0.29375E-02
        -0.29375E-02
        -0.29375E-02
        -0.29375E-02
        -0.29375E-02
        -0.29375E-02
        -0.29375E-02
        -0.29375E-02
        -0.29375E-02
        -0.29375E-02
        -0.29375E-02
        -0.29375E-02
        -0.19583E-02
        -0.19583E-02
        -0.19583E-02
        -0.19583E-02
        -0.19583E-02
        -0.19583E-02
        -0.19583E-02
        -0.19583E-02
        -0.19583E-02
        -0.19583E-02
        -0.19583E-02
        -0.19583E-02
        -0.19583E-02
        -0.19583E-02
        -0.19583E-02
        -0.19583E-02
        -0.19583E-02
        -0.19583E-02
        -0.19583E-02
        -0.19583E-02
        -0.19583E-02
        -0.19583E-02
        -0.19583E-02
        -0.19583E-02
        -0.19583E-02
        -0.19583E-02
        -0.19583E-02
        -0.19583E-02
        -0.19583E-02
        -0.19583E-02
        -0.19583E-02
        -0.19583E-02
        -0.19583E-02
        -0.19583E-02
        -0.19583E-02
        -0.19583E-02
        -0.19583E-02
        -0.19583E-02
        -0.19583E-02
        -0.19583E-02
        -0.19583E-02
        -0.19583E-02
        -0.19583E-02
        -0.19583E-02
        -0.19583E-02
        -0.19583E-02
        -0.19583E-02
        -0.19583E-02
        -0.19583E-02
        -0.19583E-02
        -0.19583E-02
        -0.19583E-02
        -0.19583E-02
        -0.19583E-02
        -0.19583E-02
        -0.19583E-02
        -0.19583E-02
        -0.19583E-02
        -0.19583E-02
        -0.19583E-02
        -0.19583E-02
        -0.19583E-02
        -0.19583E-02
        -0.19583E-02
        -0.19583E-02
        -0.19583E-02
        -0.19583E-02
        -0.19583E-02
        -0.19583E-02
        -0.19583E-02
        -0.19583E-02
        -0.19583E-02
        -0.19583E-02
        -0.19583E-02
        -0.19583E-02
        -0.19583E-02
        -0.19583E-02
        -0.19583E-02
        -0.97917E-03
        -0.97917E-03
        -0.97917E-03
        -0.97917E-03
        -0.97917E-03
        -0.97917E-03
        -0.97917E-03
        -0.97917E-03
        -0.97917E-03
        -0.97917E-03
        -0.97917E-03
        -0.97917E-03
        -0.97917E-03
        -0.97917E-03
        -0.97917E-03
        -0.97917E-03
        -0.97917E-03
        -0.97917E-03
        -0.97917E-03
        -0.97917E-03
        -0.97917E-03
        -0.97917E-03
        -0.97917E-03
        -0.97917E-03
        -0.97917E-03
        -0.97917E-03
        -0.97917E-03
        -0.97917E-03
        -0.97917E-03
        -0.97917E-03
        -0.97917E-03
        -0.97917E-03
        -0.97917E-03
        -0.97917E-03
        -0.97917E-03
        -0.97917E-03
        -0.97917E-03
        -0.97917E-03
        -0.97917E-03
        -0.97917E-03
        -0.97917E-03
        -0.97917E-03
        -0.97917E-03
        -0.97917E-03
        -0.97917E-03
        -0.97917E-03
        -0.97917E-03
        -0.97917E-03
        -0.97917E-03
        -0.97917E-03
        -0.97917E-03
        -0.97917E-03
        -0.97917E-03
        -0.97917E-03
        -0.97917E-03
        -0.97917E-03
        -0.97917E-03
        -0.97917E-03
        -0.97917E-03
        -0.97917E-03
        -0.97917E-03
        -0.97917E-03
        -0.97917E-03
        -0.97917E-03
        -0.97917E-03
        -0.97917E-03
        -0.97917E-03
        -0.97917E-03
        -0.97917E-03
        -0.97917E-03
        -0.97917E-03
        -0.97917E-03
        -0.97917E-03
        -0.97917E-03
        -0.97917E-03
        -0.97917E-03
        -0.97917E-03
        -0.97917E-03
         0.38917E-18
         0.44621E-18
         0.34485E-18
         0.23671E-18
         0.26613E-18
         0.16162E-18
         0.53980E-18
         0.50579E-18
         0.36337E-18
         0.48798E-18
         0.60712E-18
         0.67611E-18
         0.60634E-18
         0.60658E-18
         0.70997E-18
         0.20892E-18
         0.35894E-18
         0.21887E-18
         0.27638E-18
         0.38382E-18
         0.29058E-18
         0.40326E-18
         0.18564E-18
         0.19650E-18
         0.48570E-18
         0.12837E-18
         0.60589E-18
         0.60416E-18
         0.60524E-18
         0.49621E-18
         0.61582E-19
         0.32255E-19
         0.73874E-19
         0.78478E-19
         0.34514E-18
         0.42054E-18
         0.51644E-18
         0.72521E-18
         0.72233E-18
         0.70722E-18
         0.69126E-18
         0.61573E-18
         0.51484E-18
         0.91170E-19
         0.30347E-20
        -0.66516E-19
        -0.69988E-19
        -0.68643E-19
        -0.59779E-19
        -0.43507E-19
        -0.29471E-19
         0.53205E-19
         0.86819E-18
         0.00000E+00
         0.86819E-18
         0.86819E-18
         0.00000E+00
         0.00000E+00
         0.00000E+00
         0.17364E-17
         0.17364E-17
         0.17364E-17
         0.43410E-18
         0.43410E-18
         0.43410E-18
         0.00000E+00
         0.00000E+00
         0.00000E+00
         0.00000E+00
         0.00000E+00
         0.21705E-18
        -0.21705E-18
         0.00000E+00
         0.00000E+00
         0.00000E+00
        -0.32557E-18
         0.54262E-19
        -0.40697E-18
         0.97917E-03
         0.97917E-03
         0.97917E-03
         0.97917E-03
         0.97917E-03
         0.97917E-03
         0.97917E-03
         0.97917E-03
         0.97917E-03
         0.97917E-03
         0.97917E-03
         0.97917E-03
         0.97917E-03
         0.97917E-03
         0.97917E-03
         0.97917E-03
         0.97917E-03
         0.97917E-03
         0.97917E-03
         0.97917E-03
         0.97917E-03
         0.97917E-03
         0.97917E-03
         0.97917E-03
         0.97917E-03
         0.97917E-03
         0.97917E-03
         0.97917E-03
         0.97917E-03
         0.97917E-03
         0.97917E-03
         0.97917E-03
         0.97917E-03
         0.97917E-03
         0.97917E-03
         0.97917E-03
         0.97917E-03
         0.97917E-03
         0.97917E-03
         0.97917E-03
         0.97917E-03
         0.97917E-03
         0.97917E-03
         0.97917E-03
         0.97917E-03
         0.97917E-03
         0.97917E-03
         0.97917E-03
         0.97917E-03
         0.97917E-03
         0.97917E-03
         0.97917E-03
         0.97917E-03
         0.97917E-03
         0.97917E-03
         0.97917E-03
         0.97917E-03
         0.97917E-03
         0.97917E-03
         0.97917E-03
         0.97917E-03
         0.97917E-03
         0.97917E-03
         0.97917E-03
         0.97917E-03
         0.97917E-03
         0.97917E-03
         0.97917E-03
         0.97917E-03
         0.97917E-03
         0.97917E-03
         0.97917E-03
         0.97917E-03
         0.97917E-03
         0.97917E-03
         0.97917E-03
         0.97917E-03
         0.97917E-03
         0.19583E-02
         0.19583E-02
         0.19583E-02
         0.19583E-02
         0.19583E-02
         0.19583E-02
         0.19583E-02
         0.19583E-02
         0.19583E-02
         0.19583E-02
         0.19583E-02
         0.19583E-02
         0.19583E-02
         0.19583E-02
         0.19583E-02
         0.19583E-02
         0.19583E-02
         0.19583E-02
         0.19583E-02
         0.19583E-02
         0.19583E-02
         0.19583E-02
         0.19583E-02
         0.19583E-02
         0.19583E-02
         0.19583E-02
         0.19583E-02
         0.19583E-02
         0.19583E-02
         0.19583E-02
         0.19583E-02
         0.19583E-02
         0.19583E-02
         0.19583E-02
         0.19583E-02
         0.19583E-02
         0.19583E-02
         0.19583E-02
         0.19583E-02
         0.19583E-02
         0.19583E-02
         0.19583E-02
         0.19583E-02
         0.19583E-02
         0.19583E-02
         0.19583E-02
         0.19583E-02
         0.19583E-02
         0.19583E-02
         0.19583E-02
         0.19583E-02
         0.19583E-02
         0.19583E-02
         0.19583E-02
         0.19583E-02
         0.19583E-02
         0.19583E-02
         0.19583E-02
         0.19583E-02
         0.19583E-02
         0.19583E-02
         0.19583E-02
         0.19583E-02
         0.19583E-02
         0.19583E-02
         0.19583E-02
         0.19583E-02
         0.19583E-02
         0.19583E-02
         0.19583E-02
         0.19583E-02
         0.19583E-02
         0.19583E-02
         0.19583E-02
         0.19583E-02
         0.19583E-02
         0.19583E-02
         0.19583E-02
         0.29375E-02
         0.29375E-02
         0.29375E-02
         0.29375E-02
         0.29375E-02
         0.29375E-02
         0.29375E-02
         0.29375E-02
         0.29375E-02
         0.29375E-02
         0.29375E-02
         0.29375E-02
         0.29375E-02
         0.29375E-02
         0.29375E-02
         0.29375E-02
         0.29375E-02
         0.29375E-02
         0.29375E-02
         0.29375E-02
         0.29375E-02
         0.29375E-02
         0.29375E-02
         0.29375E-02
         0.29375E-02
         0.29375E-02
         0.29375E-02
         0.29375E-02
         0.29375E-02
         0.29375E-02
         0.29375E-02
         0.29375E-02
         0.29375E-02
         0.29375E-02
         0.29375E-02
         0.29375E-02
         0.29375E-02
         0.29375E-02
         0.29375E-02
         0.29375E-02
         0.29375E-02
         0.29375E-02
         0.29375E-02
         0.29375E-02
         0.29375E-02
         0.29375E-02
         0.29375E-02
         0.29375E-02
         0.29375E-02
         0.29375E-02
         0.29375E-02
         0.29375E-02
         0.29375E-02
         0.29375E-02
         0.29375E-02
         0.29375E-02
         0.29375E-02
         0.29375E-02
         0.29375E-02
         0.29375E-02
         0.29375E-02
         0.29375E-02
         0.29375E-02
         0.29375E-02
         0.29375E-02
         0.29375E-02
         0.29375E-02
         0.29375E-02
         0.29375E-02
         0.29375E-02
         0.29375E-02
         0.29375E-02
         0.29375E-02
         0.29375E-02
         0.29375E-02
         0.29375E-02
         0.29375E-02
         0.29375E-02
         0.39167E-02
         0.39167E-02
         0.39167E-02
         0.39167E-02
         0.39167E-02
         0.39167E-02
         0.39167E-02
         0.39167E-02
         0.39167E-02
         0.39167E-02
         0.39167E-02
         0.39167E-02
         0.39167E-02
         0.39167E-02
         0.39167E-02
         0.39167E-02
         0.39167E-02
         0.39167E-02
         0.39167E-02
         0.39167E-02
         0.39167E-02
         0.39167E-02
         0.39167E-02
         0.39167E-02
         0.39167E-02
         0.39167E-02
         0.39167E-02
         0.39167E-02
         0.39167E-02
         0.39167E-02
         0.39167E-02
         0.39167E-02
         0.39167E-02
         0.39167E-02
         0.39167E-02
         0.39167E-02
         0.39167E-02
         0.39167E-02
         0.39167E-02
         0.39167E-02
         0.39167E-02
         0.39167E-02
         0.39167E-02
         0.39167E-02
         0.39167E-02
         0.39167E-02
         0.39167E-02
         0.39167E-02
         0.39167E-02
         0.39167E-02
         0.39167E-02
         0.39167E-02
         0.39167E-02
         0.39167E-02
         0.39167E-02
         0.39167E-02
         0.39167E-02
         0.39167E-02
         0.39167E-02
         0.39167E-02
         0.39167E-02
         0.39167E-02
         0.39167E-02
         0.39167E-02
         0.39167E-02
         0.39167E-02
         0.39167E-02
         0.39167E-02
         0.39167E-02
         0.39167E-02
         0.39167E-02
         0.39167E-02
         0.39167E-02
         0.39167E-02
         0.39167E-02
         0.39167E-02
         0.39167E-02
         0.39167E-02
         0.48958E-02
         0.48958E-02
         0.48958E-02
         0.48958E-02
         0.48958E-02
         0.48958E-02
         0.48958E-02
         0.48958E-02
         0.48958E-02
         0.48958E-02
         0.48958E-02
         0.48958E-02
         0.48958E-02
         0.48958E-02
         0.48958E-02
         0.48958E-02
         0.48958E-02
         0.48958E-02
         0.48958E-02
         0.48958E-02
         0.48958E-02
         0.48958E-02
         0.48958E-02
         0.48958E-02
         0.48958E-02
         0.48958E-02
         0.48958E-02
         0.48958E-02
         0.48958E-02
         0.48958E-02
         0.48958E-02
         0.48958E-02
         0.48958E-02
         0.48958E-02
         0.48958E-02
         0.48958E-02
         0.48958E-02
         0.48958E-02
         0.48958E-02
         0.48958E-02
         0.48958E-02
         0.48958E-02
         0.48958E-02
         0.48958E-02
         0.48958E-02
         0.48958E-02
         0.48958E-02
         0.48958E-02
         0.48958E-02
         0.48958E-02
         0.48958E-02
         0.48958E-02
         0.48958E-02
         0.48958E-02
         0.48958E-02
         0.48958E-02
         0.48958E-02
         0.48958E-02
         0.48958E-02
         0.48958E-02
         0.48958E-02
         0.48958E-02
         0.48958E-02
         0.48958E-02
         0.48958E-02
         0.48958E-02
         0.48958E-02
         0.48958E-02
         0.48958E-02
         0.48958E-02
         0.48958E-02
         0.48958E-02
         0.48958E-02
         0.48958E-02
         0.48958E-02
         0.48958E-02
         0.48958E-02
         0.48958E-02
         0.58750E-02
         0.58750E-02
         0.58750E-02
         0.58750E-02
         0.58750E-02
         0.58750E-02
         0.58750E-02
         0.58750E-02
         0.58750E-02
         0.58750E-02
         0.58750E-02
         0.58750E-02
         0.58750E-02
         0.58750E-02
         0.58750E-02
         0.58750E-02
         0.58750E-02
         0.58750E-02
         0.58750E-02
         0.58750E-02
         0.58750E-02
         0.58750E-02
         0.58750E-02
         0.58750E-02
         0.58750E-02
         0.58750E-02
         0.58750E-02
         0.58750E-02
         0.58750E-02
         0.58750E-02
         0.58750E-02
         0.58750E-02
         0.58750E-02
         0.58750E-02
         0.58750E-02
         0.58750E-02
         0.58750E-02
         0.58750E-02
         0.58750E-02
         0.58750E-02
         0.58750E-02
         0.58750E-02
         0.58750E-02
         0.58750E-02
         0.58750E-02
         0.58750E-02
         0.58750E-02
         0.58750E-02
         0.58750E-02
         0.58750E-02
         0.58750E-02
         0.58750E-02
         0.58750E-02
         0.58750E-02
         0.58750E-02
         0.58750E-02
         0.58750E-02
         0.58750E-02
         0.58750E-02
         0.58750E-02
         0.58750E-02
         0.58750E-02
         0.58750E-02
         0.58750E-02
         0.58750E-02
         0.58750E-02
         0.58750E-02
         0.58750E-02
         0.58750E-02
         0.58750E-02
         0.58750E-02
         0.58750E-02
         0.58750E-02
         0.58750E-02
         0.58750E-02
         0.58750E-02
         0.58750E-02
         0.58750E-02
         0.68542E-02
         0.68542E-02
         0.68542E-02
         0.68542E-02
         0.68542E-02
         0.68542E-02
         0.68542E-02
         0.68542E-02
         0.68542E-02
         0.68542E-02
         0.68542E-02
         0.68542E-02
         0.68542E-02
         0.68542E-02
         0.68542E-02
         0.68542E-02
         0.68542E-02
         0.68542E-02
         0.68542E-02
         0.68542E-02
         0.68542E-02
         0.68542E-02
         0.68542E-02
         0.68542E-02
         0.68542E-02
         0.68542E-02
         0.68542E-02
         0.68542E-02
         0.68542E-02
         0.68542E-02
         0.68542E-02
         0.68542E-02
         0.68542E-02
         0.68542E-02
         0.68542E-02
         0.68542E-02
         0.68542E-02
         0.68542E-02
         0.68542E-02
         0.68542E-02
         0.68542E-02
         0.68542E-02
         0.68542E-02
         0.68542E-02
         0.68542E-02
         0.68542E-02
         0.68542E-02
         0.68542E-02
         0.68542E-02
         0.68542E-02
         0.68542E-02
         0.68542E-02
         0.68542E-02
         0.68542E-02
         0.68542E-02
         0.68542E-02
         0.68542E-02
         0.68542E-02
         0.68542E-02
         0.68542E-02
         0.68542E-02
         0.68542E-02
         0.68542E-02
         0.68542E-02
         0.68542E-02
         0.68542E-02
         0.68542E-02
         0.68542E-02
         0.68542E-02
         0.68542E-02
         0.68542E-02
         0.68542E-02
         0.68542E-02
         0.68542E-02
         0.68542E-02
         0.68542E-02
         0.68542E-02
         0.68542E-02
         0.78333E-02
         0.78333E-02
         0.78333E-02
         0.78333E-02
         0.78333E-02
         0.78333E-02
         0.78333E-02
         0.78333E-02
         0.78333E-02
         0.78333E-02
         0.78333E-02
         0.78333E-02
         0.78333E-02
         0.78333E-02
         0.78333E-02
         0.78333E-02
         0.78333E-02
         0.78333E-02
         0.78333E-02
         0.78333E-02
         0.78333E-02
         0.78333E-02
         0.78333E-02
         0.78333E-02
         0.78333E-02
         0.78333E-02
         0.78333E-02
         0.78333E-02
         0.78333E-02
         0.78333E-02
         0.78333E-02
         0.78333E-02
         0.78333E-02
         0.78333E-02
         0.78333E-02
         0.78333E-02
         0.78333E-02
         0.78333E-02
         0.78333E-02
         0.78333E-02
         0.78333E-02
         0.78333E-02
         0.78333E-02
         0.78333E-02
         0.78333E-02
         0.78333E-02
         0.78333E-02
         0.78333E-02
         0.78333E-02
         0.78333E-02
         0.78333E-02
         0.78333E-02
         0.78333E-02
         0.78333E-02
         0.78333E-02
         0.78333E-02
         0.78333E-02
         0.78333E-02
         0.78333E-02
         0.78333E-02
         0.78333E-02
         0.78333E-02
         0.78333E-02
         0.78333E-02
         0.78333E-02
         0.78333E-02
         0.78333E-02
         0.78333E-02
         0.78333E-02
         0.78333E-02
         0.78333E-02
         0.78333E-02
         0.78333E-02
         0.78333E-02
         0.78333E-02
         0.78333E-02
         0.78333E-02
         0.78333E-02
         0.88125E-02
         0.88125E-02
         0.88125E-02
         0.88125E-02
         0.88125E-02
         0.88125E-02
         0.88125E-02
         0.88125E-02
         0.88125E-02
         0.88125E-02
         0.88125E-02
         0.88125E-02
         0.88125E-02
         0.88125E-02
         0.88125E-02
         0.88125E-02
         0.88125E-02
         0.88125E-02
         0.88125E-02
         0.88125E-02
         0.88125E-02
         0.88125E-02
         0.88125E-02
         0.88125E-02
         0.88125E-02
         0.88125E-02
         0.88125E-02
         0.88125E-02
         0.88125E-02
         0.88125E-02
         0.88125E-02
         0.88125E-02
         0.88125E-02
         0.88125E-02
         0.88125E-02
         0.88125E-02
         0.88125E-02
         0.88125E-02
         0.88125E-02
         0.88125E-02
         0.88125E-02
         0.88125E-02
         0.88125E-02
         0.88125E-02
         0.88125E-02
         0.88125E-02
         0.88125E-02
         0.88125E-02
         0.88125E-02
         0.88125E-02
         0.88125E-02
         0.88125E-02
         0.88125E-02
         0.88125E-02
         0.88125E-02
         0.88125E-02
         0.88125E-02
         0.88125E-02
         0.88125E-02
         0.88125E-02
         0.88125E-02
         0.88125E-02
         0.88125E-02
         0.88125E-02
         0.88125E-02
         0.88125E-02
         0.88125E-02
         0.88125E-02
         0.88125E-02
         0.88125E-02
         0.88125E-02
         0.88125E-02
         0.88125E-02
         0.88125E-02
         0.88125E-02
         0.88125E-02
         0.88125E-02
         0.88125E-02
         0.97917E-02
         0.97917E-02
         0.97917E-02
         0.97917E-02
         0.97917E-02
         0.97917E-02
         0.97917E-02
         0.97917E-02
         0.97917E-02
         0.97917E-02
         0.97917E-02
         0.97917E-02
         0.97917E-02
         0.97917E-02
         0.97917E-02
         0.97917E-02
         0.97917E-02
         0.97917E-02
         0.97917E-02
         0.97917E-02
         0.97917E-02
         0.97917E-02
         0.97917E-02
         0.97917E-02
         0.97917E-02
         0.97917E-02
         0.97917E-02
         0.97917E-02
         0.97917E-02
         0.97917E-02
         0.97917E-02
         0.97917E-02
         0.97917E-02
         0.97917E-02
         0.97917E-02
         0.97917E-02
         0.97917E-02
         0.97917E-02
         0.97917E-02
         0.97917E-02
         0.97917E-02
         0.97917E-02
         0.97917E-02
         0.97917E-02
         0.97917E-02
         0.97917E-02
         0.97917E-02
         0.97917E-02
         0.97917E-02
         0.97917E-02
         0.97917E-02
         0.97917E-02
         0.97917E-02
         0.97917E-02
         0.97917E-02
         0.97917E-02
         0.97917E-02
         0.97917E-02
         0.97917E-02
         0.97917E-02
         0.97917E-02
         0.97917E-02
         0.97917E-02
         0.97917E-02
         0.97917E-02
         0.97917E-02
         0.97917E-02
         0.97917E-02
         0.97917E-02
         0.97917E-02
         0.97917E-02
         0.97917E-02
         0.97917E-02
         0.97917E-02
         0.97917E-02
         0.97917E-02
         0.97917E-02
         0.97917E-02
         0.10771E-01
         0.10771E-01
         0.10771E-01
         0.10771E-01
         0.10771E-01
         0.10771E-01
         0.10771E-01
         0.10771E-01
         0.10771E-01
         0.10771E-01
         0.10771E-01
         0.10771E-01
         0.10771E-01
         0.10771E-01
         0.10771E-01
         0.10771E-01
         0.10771E-01
         0.10771E-01
         0.10771E-01
         0.10771E-01
         0.10771E-01
         0.10771E-01
         0.10771E-01
         0.10771E-01
         0.10771E-01
         0.10771E-01
         0.10771E-01
         0.10771E-01
         0.10771E-01
         0.10771E-01
         0.10771E-01
         0.10771E-01
         0.10771E-01
         0.10771E-01
         0.10771E-01
         0.10771E-01
         0.10771E-01
         0.10771E-01
         0.10771E-01
         0.10771E-01
         0.10771E-01
         0.10771E-01
         0.10771E-01
         0.10771E-01
         0.10771E-01
         0.10771E-01
         0.10771E-01
         0.10771E-01
         0.10771E-01
         0.10771E-01
         0.10771E-01
         0.10771E-01
         0.10771E-01
         0.10771E-01
         0.10771E-01
         0.10771E-01
         0.10771E-01
         0.10771E-01
         0.10771E-01
         0.10771E-01
         0.10771E-01
         0.10771E-01
         0.10771E-01
         0.10771E-01
         0.10771E-01
         0.10771E-01
         0.10771E-01
         0.10771E-01
         0.10771E-01
         0.10771E-01
         0.10771E-01
         0.10771E-01
         0.10771E-01
         0.10771E-01
         0.10771E-01
         0.10771E-01
         0.10771E-01
         0.10771E-01
         0.11750E-01
         0.11750E-01
         0.11750E-01
         0.11750E-01
         0.11750E-01
         0.11750E-01
         0.11750E-01
         0.11750E-01
         0.11750E-01
         0.11750E-01
         0.11750E-01
         0.11750E-01
         0.11750E-01
         0.11750E-01
         0.11750E-01
         0.11750E-01
         0.11750E-01
         0.11750E-01
         0.11750E-01
         0.11750E-01
         0.11750E-01
         0.11750E-01
         0.11750E-01
         0.11750E-01
         0.11750E-01
         0.11750E-01
         0.11750E-01
         0.11750E-01
         0.11750E-01
         0.11750E-01
         0.11750E-01
         0.11750E-01
         0.11750E-01
         0.11750E-01
         0.11750E-01
         0.11750E-01
         0.11750E-01
         0.11750E-01
         0.11750E-01
         0.11750E-01
         0.11750E-01
         0.11750E-01
         0.11750E-01
         0.11750E-01
         0.11750E-01
         0.11750E-01
         0.11750E-01
         0.11750E-01
         0.11750E-01
         0.11750E-01
         0.11750E-01
         0.11750E-01
         0.11750E-01
         0.11750E-01
         0.11750E-01
         0.11750E-01
         0.11750E-01
         0.11750E-01
         0.11750E-01
         0.11750E-01
         0.11750E-01
         0.11750E-01
         0.11750E-01
         0.11750E-01
         0.11750E-01
         0.11750E-01
         0.11750E-01
         0.11750E-01
         0.11750E-01
         0.11750E-01
         0.11750E-01
         0.11750E-01
         0.11750E-01
         0.11750E-01
         0.11750E-01
         0.11750E-01
         0.11750E-01
         0.11750E-01
  
SCALARS                init_velocity_x  double 1
LOOKUP_TABLE default
         0.00000E+00
         0.00000E+00
         0.00000E+00
         0.00000E+00
         0.00000E+00
         0.00000E+00
         0.00000E+00
         0.00000E+00
         0.00000E+00
         0.00000E+00
         0.00000E+00
         0.00000E+00
         0.00000E+00
         0.00000E+00
         0.00000E+00
         0.00000E+00
         0.00000E+00
         0.00000E+00
         0.00000E+00
         0.00000E+00
         0.00000E+00
         0.00000E+00
         0.00000E+00
         0.00000E+00
         0.00000E+00
         0.00000E+00
         0.00000E+00
         0.00000E+00
         0.00000E+00
         0.00000E+00
         0.00000E+00
         0.00000E+00
         0.00000E+00
         0.00000E+00
         0.00000E+00
         0.00000E+00
         0.00000E+00
         0.00000E+00
         0.00000E+00
         0.00000E+00
         0.00000E+00
         0.00000E+00
         0.00000E+00
         0.00000E+00
         0.00000E+00
         0.00000E+00
         0.00000E+00
         0.00000E+00
         0.00000E+00
         0.00000E+00
         0.00000E+00
         0.00000E+00
         0.00000E+00
         0.00000E+00
         0.00000E+00
         0.00000E+00
         0.00000E+00
         0.00000E+00
         0.00000E+00
         0.00000E+00
         0.00000E+00
         0.00000E+00
         0.00000E+00
         0.00000E+00
         0.00000E+00
         0.00000E+00
         0.00000E+00
         0.00000E+00
         0.00000E+00
         0.00000E+00
         0.00000E+00
         0.00000E+00
         0.00000E+00
         0.00000E+00
         0.00000E+00
         0.00000E+00
         0.00000E+00
         0.00000E+00
         0.00000E+00
         0.00000E+00
         0.00000E+00
         0.00000E+00
         0.00000E+00
         0.00000E+00
         0.00000E+00
         0.00000E+00
         0.00000E+00
         0.00000E+00
         0.00000E+00
         0.00000E+00
         0.00000E+00
         0.00000E+00
         0.00000E+00
         0.00000E+00
         0.00000E+00
         0.00000E+00
         0.00000E+00
         0.00000E+00
         0.00000E+00
         0.00000E+00
         0.00000E+00
         0.00000E+00
         0.00000E+00
         0.00000E+00
         0.00000E+00
         0.00000E+00
         0.00000E+00
         0.00000E+00
         0.00000E+00
         0.00000E+00
         0.00000E+00
         0.00000E+00
         0.00000E+00
         0.00000E+00
         0.00000E+00
         0.00000E+00
         0.00000E+00
         0.00000E+00
         0.00000E+00
         0.00000E+00
         0.00000E+00
         0.00000E+00
         0.00000E+00
         0.00000E+00
         0.00000E+00
         0.00000E+00
         0.00000E+00
         0.00000E+00
         0.00000E+00
         0.00000E+00
         0.00000E+00
         0.00000E+00
         0.00000E+00
         0.00000E+00
         0.00000E+00
         0.00000E+00
         0.00000E+00
         0.00000E+00
         0.00000E+00
         0.00000E+00
         0.00000E+00
         0.00000E+00
         0.00000E+00
         0.00000E+00
         0.00000E+00
         0.00000E+00
         0.00000E+00
         0.00000E+00
         0.00000E+00
         0.00000E+00
         0.00000E+00
         0.00000E+00
         0.00000E+00
         0.00000E+00
         0.00000E+00
         0.00000E+00
         0.00000E+00
         0.00000E+00
         0.00000E+00
         0.00000E+00
         0.00000E+00
         0.00000E+00
         0.00000E+00
         0.00000E+00
         0.00000E+00
         0.00000E+00
         0.00000E+00
         0.00000E+00
         0.00000E+00
         0.00000E+00
         0.00000E+00
         0.00000E+00
         0.00000E+00
         0.00000E+00
         0.00000E+00
         0.00000E+00
         0.00000E+00
         0.00000E+00
         0.00000E+00
         0.00000E+00
         0.00000E+00
         0.00000E+00
         0.00000E+00
         0.00000E+00
         0.00000E+00
         0.00000E+00
         0.00000E+00
         0.00000E+00
         0.00000E+00
         0.00000E+00
         0.00000E+00
         0.00000E+00
         0.00000E+00
         0.00000E+00
         0.00000E+00
         0.00000E+00
         0.00000E+00
         0.00000E+00
         0.00000E+00
         0.00000E+00
         0.00000E+00
         0.00000E+00
         0.00000E+00
         0.00000E+00
         0.00000E+00
         0.00000E+00
         0.00000E+00
         0.00000E+00
         0.00000E+00
         0.00000E+00
         0.00000E+00
         0.00000E+00
         0.00000E+00
         0.00000E+00
         0.00000E+00
         0.00000E+00
         0.00000E+00
         0.00000E+00
         0.00000E+00
         0.00000E+00
         0.00000E+00
         0.00000E+00
         0.00000E+00
         0.00000E+00
         0.00000E+00
         0.00000E+00
         0.00000E+00
         0.00000E+00
         0.00000E+00
         0.00000E+00
         0.00000E+00
         0.00000E+00
         0.00000E+00
         0.00000E+00
         0.00000E+00
         0.00000E+00
         0.00000E+00
         0.00000E+00
         0.00000E+00
         0.00000E+00
         0.00000E+00
         0.00000E+00
         0.00000E+00
         0.00000E+00
         0.00000E+00
         0.00000E+00
         0.00000E+00
         0.00000E+00
         0.00000E+00
         0.00000E+00
         0.00000E+00
         0.00000E+00
         0.00000E+00
         0.00000E+00
         0.00000E+00
         0.00000E+00
         0.00000E+00
         0.00000E+00
         0.00000E+00
         0.00000E+00
         0.00000E+00
         0.00000E+00
         0.00000E+00
         0.00000E+00
         0.00000E+00
         0.00000E+00
         0.00000E+00
         0.00000E+00
         0.00000E+00
         0.00000E+00
         0.00000E+00
         0.00000E+00
         0.00000E+00
         0.00000E+00
         0.00000E+00
         0.00000E+00
         0.00000E+00
         0.00000E+00
         0.00000E+00
         0.00000E+00
         0.00000E+00
         0.00000E+00
         0.00000E+00
         0.00000E+00
         0.00000E+00
         0.00000E+00
         0.00000E+00
         0.00000E+00
         0.00000E+00
         0.00000E+00
         0.00000E+00
         0.00000E+00
         0.00000E+00
         0.00000E+00
         0.00000E+00
         0.00000E+00
         0.00000E+00
         0.00000E+00
         0.00000E+00
         0.00000E+00
         0.00000E+00
         0.00000E+00
         0.00000E+00
         0.00000E+00
         0.00000E+00
         0.00000E+00
         0.00000E+00
         0.00000E+00
         0.00000E+00
         0.00000E+00
         0.00000E+00
         0.00000E+00
         0.00000E+00
         0.00000E+00
         0.00000E+00
         0.00000E+00
         0.00000E+00
         0.00000E+00
         0.00000E+00
         0.00000E+00
         0.00000E+00
         0.00000E+00
         0.00000E+00
         0.00000E+00
         0.00000E+00
         0.00000E+00
         0.00000E+00
         0.00000E+00
         0.00000E+00
         0.00000E+00
         0.00000E+00
         0.00000E+00
         0.00000E+00
         0.00000E+00
         0.00000E+00
         0.00000E+00
         0.00000E+00
         0.00000E+00
         0.00000E+00
         0.00000E+00
         0.00000E+00
         0.00000E+00
         0.00000E+00
         0.00000E+00
         0.00000E+00
         0.00000E+00
         0.00000E+00
         0.00000E+00
         0.00000E+00
         0.00000E+00
         0.00000E+00
         0.00000E+00
         0.00000E+00
         0.00000E+00
         0.00000E+00
         0.00000E+00
         0.00000E+00
         0.00000E+00
         0.00000E+00
         0.00000E+00
         0.00000E+00
         0.00000E+00
         0.00000E+00
         0.00000E+00
         0.00000E+00
         0.00000E+00
         0.00000E+00
         0.00000E+00
         0.00000E+00
         0.00000E+00
         0.00000E+00
         0.00000E+00
         0.00000E+00
         0.00000E+00
         0.00000E+00
         0.00000E+00
         0.00000E+00
         0.00000E+00
         0.00000E+00
         0.00000E+00
         0.00000E+00
         0.00000E+00
         0.00000E+00
         0.00000E+00
         0.00000E+00
         0.00000E+00
         0.00000E+00
         0.00000E+00
         0.00000E+00
         0.00000E+00
         0.00000E+00
         0.00000E+00
         0.00000E+00
         0.00000E+00
         0.00000E+00
         0.00000E+00
         0.00000E+00
         0.00000E+00
         0.00000E+00
         0.00000E+00
         0.00000E+00
         0.00000E+00
         0.00000E+00
         0.00000E+00
         0.00000E+00
         0.00000E+00
         0.00000E+00
         0.00000E+00
         0.00000E+00
         0.00000E+00
         0.00000E+00
         0.00000E+00
         0.00000E+00
         0.00000E+00
         0.00000E+00
         0.00000E+00
         0.00000E+00
         0.00000E+00
         0.00000E+00
         0.00000E+00
         0.00000E+00
         0.00000E+00
         0.00000E+00
         0.00000E+00
         0.00000E+00
         0.00000E+00
         0.00000E+00
         0.00000E+00
         0.00000E+00
         0.00000E+00
         0.00000E+00
         0.00000E+00
         0.00000E+00
         0.00000E+00
         0.00000E+00
         0.00000E+00
         0.00000E+00
         0.00000E+00
         0.00000E+00
         0.00000E+00
         0.00000E+00
         0.00000E+00
         0.00000E+00
         0.00000E+00
         0.00000E+00
         0.00000E+00
         0.00000E+00
         0.00000E+00
         0.00000E+00
         0.00000E+00
         0.00000E+00
         0.00000E+00
         0.00000E+00
         0.00000E+00
         0.00000E+00
         0.00000E+00
         0.00000E+00
         0.00000E+00
         0.00000E+00
         0.00000E+00
         0.00000E+00
         0.00000E+00
         0.00000E+00
         0.00000E+00
         0.00000E+00
         0.00000E+00
         0.00000E+00
         0.00000E+00
         0.00000E+00
         0.00000E+00
         0.00000E+00
         0.00000E+00
         0.00000E+00
         0.00000E+00
         0.00000E+00
         0.00000E+00
         0.00000E+00
         0.00000E+00
         0.00000E+00
         0.00000E+00
         0.00000E+00
         0.00000E+00
         0.00000E+00
         0.00000E+00
         0.00000E+00
         0.00000E+00
         0.00000E+00
         0.00000E+00
         0.00000E+00
         0.00000E+00
         0.00000E+00
         0.00000E+00
         0.00000E+00
         0.00000E+00
         0.00000E+00
         0.00000E+00
         0.00000E+00
         0.00000E+00
         0.00000E+00
         0.00000E+00
         0.00000E+00
         0.00000E+00
         0.00000E+00
         0.00000E+00
         0.00000E+00
         0.00000E+00
         0.00000E+00
         0.00000E+00
         0.00000E+00
         0.00000E+00
         0.00000E+00
         0.00000E+00
         0.00000E+00
         0.00000E+00
         0.00000E+00
         0.00000E+00
         0.00000E+00
         0.00000E+00
         0.00000E+00
         0.00000E+00
         0.00000E+00
         0.00000E+00
         0.00000E+00
         0.00000E+00
         0.00000E+00
         0.00000E+00
         0.00000E+00
         0.00000E+00
         0.00000E+00
         0.00000E+00
         0.00000E+00
         0.00000E+00
         0.00000E+00
         0.00000E+00
         0.00000E+00
         0.00000E+00
         0.00000E+00
         0.00000E+00
         0.00000E+00
         0.00000E+00
         0.00000E+00
         0.00000E+00
         0.00000E+00
         0.00000E+00
         0.00000E+00
         0.00000E+00
         0.00000E+00
         0.00000E+00
         0.00000E+00
         0.00000E+00
         0.00000E+00
         0.00000E+00
         0.00000E+00
         0.00000E+00
         0.00000E+00
         0.00000E+00
         0.00000E+00
         0.00000E+00
         0.00000E+00
         0.00000E+00
         0.00000E+00
         0.00000E+00
         0.00000E+00
         0.00000E+00
         0.00000E+00
         0.00000E+00
         0.00000E+00
         0.00000E+00
         0.00000E+00
         0.00000E+00
         0.00000E+00
         0.00000E+00
         0.00000E+00
         0.00000E+00
         0.00000E+00
         0.00000E+00
         0.00000E+00
         0.00000E+00
         0.00000E+00
         0.00000E+00
         0.00000E+00
         0.00000E+00
         0.00000E+00
         0.00000E+00
         0.00000E+00
         0.00000E+00
         0.00000E+00
         0.00000E+00
         0.00000E+00
         0.00000E+00
         0.00000E+00
         0.00000E+00
         0.00000E+00
         0.00000E+00
         0.00000E+00
         0.00000E+00
         0.00000E+00
         0.00000E+00
         0.00000E+00
         0.00000E+00
         0.00000E+00
         0.00000E+00
         0.00000E+00
         0.00000E+00
         0.00000E+00
         0.00000E+00
         0.00000E+00
         0.00000E+00
         0.00000E+00
         0.00000E+00
         0.00000E+00
         0.00000E+00
         0.00000E+00
         0.00000E+00
         0.00000E+00
         0.00000E+00
         0.00000E+00
         0.00000E+00
         0.00000E+00
         0.00000E+00
         0.00000E+00
         0.00000E+00
         0.00000E+00
         0.00000E+00
         0.00000E+00
         0.00000E+00
         0.00000E+00
         0.00000E+00
         0.00000E+00
         0.00000E+00
         0.00000E+00
         0.00000E+00
         0.00000E+00
         0.00000E+00
         0.00000E+00
         0.00000E+00
         0.00000E+00
         0.00000E+00
         0.00000E+00
         0.00000E+00
         0.00000E+00
         0.00000E+00
         0.00000E+00
         0.00000E+00
         0.00000E+00
         0.00000E+00
         0.00000E+00
         0.00000E+00
         0.00000E+00
         0.00000E+00
         0.00000E+00
         0.00000E+00
         0.00000E+00
         0.00000E+00
         0.00000E+00
         0.00000E+00
         0.00000E+00
         0.00000E+00
         0.00000E+00
         0.00000E+00
         0.00000E+00
         0.00000E+00
         0.00000E+00
         0.00000E+00
         0.00000E+00
         0.00000E+00
         0.00000E+00
         0.00000E+00
         0.00000E+00
         0.00000E+00
         0.00000E+00
         0.00000E+00
         0.00000E+00
         0.00000E+00
         0.00000E+00
         0.00000E+00
         0.00000E+00
         0.00000E+00
         0.00000E+00
         0.00000E+00
         0.00000E+00
         0.00000E+00
         0.00000E+00
         0.00000E+00
         0.00000E+00
         0.00000E+00
         0.00000E+00
         0.00000E+00
         0.00000E+00
         0.00000E+00
         0.00000E+00
         0.00000E+00
         0.00000E+00
         0.00000E+00
         0.00000E+00
         0.00000E+00
         0.00000E+00
         0.00000E+00
         0.00000E+00
         0.00000E+00
         0.00000E+00
         0.00000E+00
         0.00000E+00
         0.00000E+00
         0.00000E+00
         0.00000E+00
         0.00000E+00
         0.00000E+00
         0.00000E+00
         0.00000E+00
         0.00000E+00
         0.00000E+00
         0.00000E+00
         0.00000E+00
         0.00000E+00
         0.00000E+00
         0.00000E+00
         0.00000E+00
         0.00000E+00
         0.00000E+00
         0.00000E+00
         0.00000E+00
         0.00000E+00
         0.00000E+00
         0.00000E+00
         0.00000E+00
         0.00000E+00
         0.00000E+00
         0.00000E+00
         0.00000E+00
         0.00000E+00
         0.00000E+00
         0.00000E+00
         0.00000E+00
         0.00000E+00
         0.00000E+00
         0.00000E+00
         0.00000E+00
         0.00000E+00
         0.00000E+00
         0.00000E+00
         0.00000E+00
         0.00000E+00
         0.00000E+00
         0.00000E+00
         0.00000E+00
         0.00000E+00
         0.00000E+00
         0.00000E+00
         0.00000E+00
         0.00000E+00
         0.00000E+00
         0.00000E+00
         0.00000E+00
         0.00000E+00
         0.00000E+00
         0.00000E+00
         0.00000E+00
         0.00000E+00
         0.00000E+00
         0.00000E+00
         0.00000E+00
         0.00000E+00
         0.00000E+00
         0.00000E+00
         0.00000E+00
         0.00000E+00
         0.00000E+00
         0.00000E+00
         0.00000E+00
         0.00000E+00
         0.00000E+00
         0.00000E+00
         0.00000E+00
         0.00000E+00
         0.00000E+00
         0.00000E+00
         0.00000E+00
         0.00000E+00
         0.00000E+00
         0.00000E+00
         0.00000E+00
         0.00000E+00
         0.00000E+00
         0.00000E+00
         0.00000E+00
         0.00000E+00
         0.00000E+00
         0.00000E+00
         0.00000E+00
         0.00000E+00
         0.00000E+00
         0.00000E+00
         0.00000E+00
         0.00000E+00
         0.00000E+00
         0.00000E+00
         0.00000E+00
         0.00000E+00
         0.00000E+00
         0.00000E+00
         0.00000E+00
         0.00000E+00
         0.00000E+00
         0.00000E+00
         0.00000E+00
         0.00000E+00
         0.00000E+00
         0.00000E+00
         0.00000E+00
         0.00000E+00
         0.00000E+00
         0.00000E+00
         0.00000E+00
         0.00000E+00
         0.00000E+00
         0.00000E+00
         0.00000E+00
         0.00000E+00
         0.00000E+00
         0.00000E+00
         0.00000E+00
         0.00000E+00
         0.00000E+00
         0.00000E+00
         0.00000E+00
         0.00000E+00
         0.00000E+00
         0.00000E+00
         0.00000E+00
         0.00000E+00
         0.00000E+00
         0.00000E+00
         0.00000E+00
         0.00000E+00
         0.00000E+00
         0.00000E+00
         0.00000E+00
         0.00000E+00
         0.00000E+00
         0.00000E+00
         0.00000E+00
         0.00000E+00
         0.00000E+00
         0.00000E+00
         0.00000E+00
         0.00000E+00
         0.00000E+00
         0.00000E+00
         0.00000E+00
         0.00000E+00
         0.00000E+00
         0.00000E+00
         0.00000E+00
         0.00000E+00
         0.00000E+00
         0.00000E+00
         0.00000E+00
         0.00000E+00
         0.00000E+00
         0.00000E+00
         0.00000E+00
         0.00000E+00
         0.00000E+00
         0.00000E+00
         0.00000E+00
         0.00000E+00
         0.00000E+00
         0.00000E+00
         0.00000E+00
         0.00000E+00
         0.00000E+00
         0.00000E+00
         0.00000E+00
         0.00000E+00
         0.00000E+00
         0.00000E+00
         0.00000E+00
         0.00000E+00
         0.00000E+00
         0.00000E+00
         0.00000E+00
         0.00000E+00
         0.00000E+00
         0.00000E+00
         0.00000E+00
         0.00000E+00
         0.00000E+00
         0.00000E+00
         0.00000E+00
         0.00000E+00
         0.00000E+00
         0.00000E+00
         0.00000E+00
         0.00000E+00
         0.00000E+00
         0.00000E+00
         0.00000E+00
         0.00000E+00
         0.00000E+00
         0.00000E+00
         0.00000E+00
         0.00000E+00
         0.00000E+00
         0.00000E+00
         0.00000E+00
         0.00000E+00
         0.00000E+00
         0.00000E+00
         0.00000E+00
         0.00000E+00
         0.00000E+00
         0.00000E+00
         0.00000E+00
         0.00000E+00
         0.00000E+00
         0.00000E+00
         0.00000E+00
         0.00000E+00
         0.00000E+00
         0.00000E+00
         0.00000E+00
         0.00000E+00
         0.00000E+00
         0.00000E+00
         0.00000E+00
         0.00000E+00
         0.00000E+00
         0.00000E+00
         0.00000E+00
         0.00000E+00
         0.00000E+00
         0.00000E+00
         0.00000E+00
         0.00000E+00
         0.00000E+00
         0.00000E+00
         0.00000E+00
         0.00000E+00
         0.00000E+00
         0.00000E+00
         0.00000E+00
         0.00000E+00
         0.00000E+00
         0.00000E+00
         0.00000E+00
         0.00000E+00
         0.00000E+00
         0.00000E+00
         0.00000E+00
         0.00000E+00
         0.00000E+00
         0.00000E+00
         0.00000E+00
         0.00000E+00
         0.00000E+00
         0.00000E+00
         0.00000E+00
         0.00000E+00
         0.00000E+00
         0.00000E+00
         0.00000E+00
         0.00000E+00
         0.00000E+00
         0.00000E+00
         0.00000E+00
         0.00000E+00
         0.00000E+00
         0.00000E+00
         0.00000E+00
         0.00000E+00
         0.00000E+00
         0.00000E+00
         0.00000E+00
         0.00000E+00
         0.00000E+00
         0.00000E+00
         0.00000E+00
         0.00000E+00
         0.00000E+00
         0.00000E+00
         0.00000E+00
         0.00000E+00
         0.00000E+00
         0.00000E+00
         0.00000E+00
         0.00000E+00
         0.00000E+00
         0.00000E+00
         0.00000E+00
         0.00000E+00
         0.00000E+00
         0.00000E+00
         0.00000E+00
         0.00000E+00
         0.00000E+00
         0.00000E+00
         0.00000E+00
         0.00000E+00
         0.00000E+00
         0.00000E+00
         0.00000E+00
         0.00000E+00
         0.00000E+00
         0.00000E+00
         0.00000E+00
         0.00000E+00
         0.00000E+00
         0.00000E+00
         0.00000E+00
         0.00000E+00
         0.00000E+00
         0.00000E+00
         0.00000E+00
         0.00000E+00
         0.00000E+00
         0.00000E+00
         0.00000E+00
         0.00000E+00
         0.00000E+00
         0.00000E+00
         0.00000E+00
         0.00000E+00
         0.00000E+00
         0.00000E+00
         0.00000E+00
         0.00000E+00
         0.00000E+00
         0.00000E+00
         0.00000E+00
         0.00000E+00
         0.00000E+00
         0.00000E+00
         0.00000E+00
         0.00000E+00
         0.00000E+00
         0.00000E+00
         0.00000E+00
         0.00000E+00
         0.00000E+00
         0.00000E+00
         0.00000E+00
         0.00000E+00
         0.00000E+00
         0.00000E+00
         0.00000E+00
         0.00000E+00
         0.00000E+00
         0.00000E+00
         0.00000E+00
         0.00000E+00
         0.00000E+00
         0.00000E+00
         0.00000E+00
         0.00000E+00
         0.00000E+00
         0.00000E+00
         0.00000E+00
         0.00000E+00
         0.00000E+00
         0.00000E+00
         0.00000E+00
         0.00000E+00
         0.00000E+00
         0.00000E+00
         0.00000E+00
         0.00000E+00
         0.00000E+00
         0.00000E+00
         0.00000E+00
         0.00000E+00
         0.00000E+00
         0.00000E+00
         0.00000E+00
         0.00000E+00
         0.00000E+00
         0.00000E+00
         0.00000E+00
         0.00000E+00
         0.00000E+00
         0.00000E+00
         0.00000E+00
         0.00000E+00
         0.00000E+00
         0.00000E+00
         0.00000E+00
         0.00000E+00
         0.00000E+00
         0.00000E+00
         0.00000E+00
         0.00000E+00
         0.00000E+00
         0.00000E+00
         0.00000E+00
         0.00000E+00
         0.00000E+00
         0.00000E+00
         0.00000E+00
         0.00000E+00
         0.00000E+00
         0.00000E+00
         0.00000E+00
         0.00000E+00
         0.00000E+00
         0.00000E+00
         0.00000E+00
         0.00000E+00
         0.00000E+00
         0.00000E+00
         0.00000E+00
         0.00000E+00
         0.00000E+00
         0.00000E+00
         0.00000E+00
         0.00000E+00
         0.00000E+00
         0.00000E+00
         0.00000E+00
         0.00000E+00
         0.00000E+00
         0.00000E+00
         0.00000E+00
         0.00000E+00
         0.00000E+00
         0.00000E+00
         0.00000E+00
         0.00000E+00
         0.00000E+00
         0.00000E+00
         0.00000E+00
         0.00000E+00
         0.00000E+00
         0.00000E+00
         0.00000E+00
         0.00000E+00
         0.00000E+00
         0.00000E+00
         0.00000E+00
         0.00000E+00
         0.00000E+00
         0.00000E+00
         0.00000E+00
         0.00000E+00
         0.00000E+00
         0.00000E+00
         0.00000E+00
         0.00000E+00
         0.00000E+00
         0.00000E+00
         0.00000E+00
         0.00000E+00
         0.00000E+00
         0.00000E+00
         0.00000E+00
         0.00000E+00
         0.00000E+00
         0.00000E+00
         0.00000E+00
         0.00000E+00
         0.00000E+00
         0.00000E+00
         0.00000E+00
         0.00000E+00
         0.00000E+00
         0.00000E+00
         0.00000E+00
         0.00000E+00
         0.00000E+00
         0.00000E+00
         0.00000E+00
         0.00000E+00
         0.00000E+00
         0.00000E+00
         0.00000E+00
         0.00000E+00
         0.00000E+00
         0.00000E+00
         0.00000E+00
         0.00000E+00
         0.00000E+00
         0.00000E+00
         0.00000E+00
         0.00000E+00
         0.00000E+00
         0.00000E+00
         0.00000E+00
         0.00000E+00
         0.00000E+00
         0.00000E+00
         0.00000E+00
         0.00000E+00
         0.00000E+00
         0.00000E+00
         0.00000E+00
         0.00000E+00
         0.00000E+00
         0.00000E+00
         0.00000E+00
         0.00000E+00
         0.00000E+00
         0.00000E+00
         0.00000E+00
         0.00000E+00
         0.00000E+00
         0.00000E+00
         0.00000E+00
         0.00000E+00
         0.00000E+00
         0.00000E+00
         0.00000E+00
         0.00000E+00
         0.00000E+00
         0.00000E+00
         0.00000E+00
         0.00000E+00
         0.00000E+00
         0.00000E+00
         0.00000E+00
         0.00000E+00
         0.00000E+00
         0.00000E+00
         0.00000E+00
         0.00000E+00
         0.00000E+00
         0.00000E+00
         0.00000E+00
         0.00000E+00
         0.00000E+00
         0.00000E+00
         0.00000E+00
         0.00000E+00
         0.00000E+00
         0.00000E+00
         0.00000E+00
         0.00000E+00
         0.00000E+00
         0.00000E+00
         0.00000E+00
         0.00000E+00
         0.00000E+00
         0.00000E+00
         0.00000E+00
         0.00000E+00
         0.00000E+00
         0.00000E+00
         0.00000E+00
         0.00000E+00
         0.00000E+00
         0.00000E+00
         0.00000E+00
         0.00000E+00
         0.00000E+00
         0.00000E+00
         0.00000E+00
         0.00000E+00
         0.00000E+00
         0.00000E+00
         0.00000E+00
         0.00000E+00
         0.00000E+00
         0.00000E+00
         0.00000E+00
         0.00000E+00
         0.00000E+00
         0.00000E+00
         0.00000E+00
         0.00000E+00
         0.00000E+00
         0.00000E+00
         0.00000E+00
         0.00000E+00
         0.00000E+00
         0.00000E+00
         0.00000E+00
         0.00000E+00
         0.00000E+00
         0.00000E+00
         0.00000E+00
         0.00000E+00
         0.00000E+00
         0.00000E+00
         0.00000E+00
         0.00000E+00
         0.00000E+00
         0.00000E+00
         0.00000E+00
         0.00000E+00
         0.00000E+00
         0.00000E+00
         0.00000E+00
         0.00000E+00
         0.00000E+00
         0.00000E+00
         0.00000E+00
         0.00000E+00
         0.00000E+00
         0.00000E+00
         0.00000E+00
         0.00000E+00
         0.00000E+00
         0.00000E+00
         0.00000E+00
         0.00000E+00
         0.00000E+00
         0.00000E+00
         0.00000E+00
         0.00000E+00
         0.00000E+00
         0.00000E+00
         0.00000E+00
         0.00000E+00
         0.00000E+00
         0.00000E+00
         0.00000E+00
         0.00000E+00
         0.00000E+00
         0.00000E+00
         0.00000E+00
         0.00000E+00
         0.00000E+00
         0.00000E+00
         0.00000E+00
         0.00000E+00
         0.00000E+00
         0.00000E+00
         0.00000E+00
         0.00000E+00
         0.00000E+00
         0.00000E+00
         0.00000E+00
         0.00000E+00
         0.00000E+00
         0.00000E+00
         0.00000E+00
         0.00000E+00
         0.00000E+00
         0.00000E+00
         0.00000E+00
         0.00000E+00
         0.00000E+00
         0.00000E+00
         0.00000E+00
         0.00000E+00
         0.00000E+00
         0.00000E+00
         0.00000E+00
         0.00000E+00
         0.00000E+00
         0.00000E+00
         0.00000E+00
         0.00000E+00
         0.00000E+00
         0.00000E+00
         0.00000E+00
         0.00000E+00
         0.00000E+00
         0.00000E+00
         0.00000E+00
         0.00000E+00
         0.00000E+00
         0.00000E+00
         0.00000E+00
         0.00000E+00
         0.00000E+00
         0.00000E+00
         0.00000E+00
         0.00000E+00
         0.00000E+00
         0.00000E+00
         0.00000E+00
         0.00000E+00
         0.00000E+00
         0.00000E+00
         0.00000E+00
         0.00000E+00
         0.00000E+00
         0.00000E+00
         0.00000E+00
         0.00000E+00
         0.00000E+00
         0.00000E+00
         0.00000E+00
         0.00000E+00
         0.00000E+00
         0.00000E+00
         0.00000E+00
         0.00000E+00
         0.00000E+00
         0.00000E+00
         0.00000E+00
         0.00000E+00
         0.00000E+00
         0.00000E+00
         0.00000E+00
         0.00000E+00
         0.00000E+00
         0.00000E+00
         0.00000E+00
         0.00000E+00
         0.00000E+00
         0.00000E+00
         0.00000E+00
         0.00000E+00
         0.00000E+00
         0.00000E+00
         0.00000E+00
         0.00000E+00
         0.00000E+00
         0.00000E+00
         0.00000E+00
         0.00000E+00
         0.00000E+00
         0.00000E+00
         0.00000E+00
         0.00000E+00
         0.00000E+00
         0.00000E+00
         0.00000E+00
         0.00000E+00
         0.00000E+00
         0.00000E+00
         0.00000E+00
         0.00000E+00
         0.00000E+00
         0.00000E+00
         0.00000E+00
         0.00000E+00
         0.00000E+00
         0.00000E+00
         0.00000E+00
         0.00000E+00
         0.00000E+00
         0.00000E+00
         0.00000E+00
         0.00000E+00
         0.00000E+00
         0.00000E+00
         0.00000E+00
         0.00000E+00
         0.00000E+00
         0.00000E+00
         0.00000E+00
         0.00000E+00
         0.00000E+00
         0.00000E+00
         0.00000E+00
         0.00000E+00
         0.00000E+00
         0.00000E+00
         0.00000E+00
         0.00000E+00
         0.00000E+00
         0.00000E+00
         0.00000E+00
         0.00000E+00
         0.00000E+00
         0.00000E+00
         0.00000E+00
         0.00000E+00
         0.00000E+00
         0.00000E+00
         0.00000E+00
         0.00000E+00
         0.00000E+00
         0.00000E+00
         0.00000E+00
         0.00000E+00
         0.00000E+00
         0.00000E+00
         0.00000E+00
         0.00000E+00
         0.00000E+00
         0.00000E+00
         0.00000E+00
         0.00000E+00
         0.00000E+00
         0.00000E+00
         0.00000E+00
         0.00000E+00
         0.00000E+00
         0.00000E+00
         0.00000E+00
         0.00000E+00
         0.00000E+00
         0.00000E+00
         0.00000E+00
         0.00000E+00
         0.00000E+00
         0.00000E+00
         0.00000E+00
         0.00000E+00
         0.00000E+00
         0.00000E+00
         0.00000E+00
         0.00000E+00
         0.00000E+00
         0.00000E+00
         0.00000E+00
         0.00000E+00
         0.00000E+00
         0.00000E+00
         0.00000E+00
         0.00000E+00
         0.00000E+00
         0.00000E+00
         0.00000E+00
         0.00000E+00
         0.00000E+00
         0.00000E+00
         0.00000E+00
         0.00000E+00
         0.00000E+00
         0.00000E+00
         0.00000E+00
         0.00000E+00
         0.00000E+00
         0.00000E+00
         0.00000E+00
         0.00000E+00
         0.00000E+00
         0.00000E+00
         0.00000E+00
         0.00000E+00
         0.00000E+00
         0.00000E+00
         0.00000E+00
         0.00000E+00
         0.00000E+00
         0.00000E+00
         0.00000E+00
         0.00000E+00
         0.00000E+00
         0.00000E+00
         0.00000E+00
         0.00000E+00
         0.00000E+00
         0.00000E+00
         0.00000E+00
         0.00000E+00
         0.00000E+00
         0.00000E+00
         0.00000E+00
         0.00000E+00
         0.00000E+00
         0.00000E+00
         0.00000E+00
         0.00000E+00
         0.00000E+00
         0.00000E+00
         0.00000E+00
         0.00000E+00
         0.00000E+00
         0.00000E+00
         0.00000E+00
         0.00000E+00
         0.00000E+00
         0.00000E+00
         0.00000E+00
         0.00000E+00
         0.00000E+00
         0.00000E+00
         0.00000E+00
         0.00000E+00
         0.00000E+00
         0.00000E+00
         0.00000E+00
         0.00000E+00
         0.00000E+00
         0.00000E+00
         0.00000E+00
         0.00000E+00
         0.00000E+00
         0.00000E+00
         0.00000E+00
         0.00000E+00
         0.00000E+00
         0.00000E+00
         0.00000E+00
         0.00000E+00
         0.00000E+00
         0.00000E+00
         0.00000E+00
         0.00000E+00
         0.00000E+00
         0.00000E+00
         0.00000E+00
         0.00000E+00
         0.00000E+00
         0.00000E+00
         0.00000E+00
         0.00000E+00
         0.00000E+00
         0.00000E+00
         0.00000E+00
         0.00000E+00
         0.00000E+00
         0.00000E+00
         0.00000E+00
         0.00000E+00
         0.00000E+00
         0.00000E+00
         0.00000E+00
         0.00000E+00
         0.00000E+00
         0.00000E+00
         0.00000E+00
         0.00000E+00
         0.00000E+00
         0.00000E+00
         0.00000E+00
         0.00000E+00
         0.00000E+00
         0.00000E+00
         0.00000E+00
         0.00000E+00
         0.00000E+00
         0.00000E+00
         0.00000E+00
         0.00000E+00
         0.00000E+00
         0.00000E+00
         0.00000E+00
         0.00000E+00
         0.00000E+00
         0.00000E+00
         0.00000E+00
         0.00000E+00
         0.00000E+00
         0.00000E+00
         0.00000E+00
         0.00000E+00
         0.00000E+00
         0.00000E+00
         0.00000E+00
         0.00000E+00
         0.00000E+00
         0.00000E+00
         0.00000E+00
         0.00000E+00
         0.00000E+00
         0.00000E+00
         0.00000E+00
         0.00000E+00
         0.00000E+00
         0.00000E+00
         0.00000E+00
         0.00000E+00
         0.00000E+00
         0.00000E+00
         0.00000E+00
         0.00000E+00
         0.00000E+00
         0.00000E+00
         0.00000E+00
         0.00000E+00
         0.00000E+00
         0.00000E+00
         0.00000E+00
         0.00000E+00
         0.00000E+00
         0.00000E+00
         0.00000E+00
         0.00000E+00
         0.00000E+00
         0.00000E+00
         0.00000E+00
         0.00000E+00
         0.00000E+00
         0.00000E+00
         0.00000E+00
         0.00000E+00
         0.00000E+00
         0.00000E+00
         0.00000E+00
         0.00000E+00
         0.00000E+00
         0.00000E+00
         0.00000E+00
         0.00000E+00
         0.00000E+00
         0.00000E+00
         0.00000E+00
         0.00000E+00
         0.00000E+00
         0.00000E+00
         0.00000E+00
         0.00000E+00
         0.00000E+00
         0.00000E+00
         0.00000E+00
         0.00000E+00
         0.00000E+00
         0.00000E+00
         0.00000E+00
         0.00000E+00
         0.00000E+00
         0.00000E+00
         0.00000E+00
         0.00000E+00
         0.00000E+00
         0.00000E+00
         0.00000E+00
         0.00000E+00
         0.00000E+00
         0.00000E+00
         0.00000E+00
         0.00000E+00
         0.00000E+00
         0.00000E+00
         0.00000E+00
         0.00000E+00
         0.00000E+00
         0.00000E+00
         0.00000E+00
         0.00000E+00
         0.00000E+00
         0.00000E+00
         0.00000E+00
         0.00000E+00
         0.00000E+00
         0.00000E+00
         0.00000E+00
         0.00000E+00
         0.00000E+00
         0.00000E+00
         0.00000E+00
         0.00000E+00
         0.00000E+00
         0.00000E+00
         0.00000E+00
         0.00000E+00
         0.00000E+00
         0.00000E+00
         0.00000E+00
         0.00000E+00
         0.00000E+00
         0.00000E+00
         0.00000E+00
         0.00000E+00
         0.00000E+00
         0.00000E+00
         0.00000E+00
         0.00000E+00
         0.00000E+00
         0.00000E+00
         0.00000E+00
         0.00000E+00
         0.00000E+00
         0.00000E+00
         0.00000E+00
         0.00000E+00
         0.00000E+00
         0.00000E+00
         0.00000E+00
         0.00000E+00
         0.00000E+00
         0.00000E+00
         0.00000E+00
         0.00000E+00
         0.00000E+00
         0.00000E+00
         0.00000E+00
         0.00000E+00
         0.00000E+00
         0.00000E+00
         0.00000E+00
         0.00000E+00
         0.00000E+00
         0.00000E+00
         0.00000E+00
         0.00000E+00
         0.00000E+00
         0.00000E+00
         0.00000E+00
         0.00000E+00
         0.00000E+00
         0.00000E+00
         0.00000E+00
         0.00000E+00
         0.00000E+00
         0.00000E+00
         0.00000E+00
         0.00000E+00
         0.00000E+00
         0.00000E+00
         0.00000E+00
         0.00000E+00
         0.00000E+00
         0.00000E+00
         0.00000E+00
         0.00000E+00
         0.00000E+00
         0.00000E+00
         0.00000E+00
         0.00000E+00
         0.00000E+00
         0.00000E+00
         0.00000E+00
         0.00000E+00
         0.00000E+00
         0.00000E+00
         0.00000E+00
         0.00000E+00
         0.00000E+00
         0.00000E+00
         0.00000E+00
         0.00000E+00
         0.00000E+00
         0.00000E+00
         0.00000E+00
         0.00000E+00
         0.00000E+00
         0.00000E+00
         0.00000E+00
         0.00000E+00
         0.00000E+00
         0.00000E+00
         0.00000E+00
         0.00000E+00
         0.00000E+00
         0.00000E+00
         0.00000E+00
         0.00000E+00
         0.00000E+00
         0.00000E+00
         0.00000E+00
         0.00000E+00
         0.00000E+00
         0.00000E+00
         0.00000E+00
         0.00000E+00
         0.00000E+00
         0.00000E+00
         0.00000E+00
         0.00000E+00
         0.00000E+00
         0.00000E+00
         0.00000E+00
         0.00000E+00
         0.00000E+00
         0.00000E+00
         0.00000E+00
         0.00000E+00
         0.00000E+00
         0.00000E+00
         0.00000E+00
         0.00000E+00
         0.00000E+00
         0.00000E+00
         0.00000E+00
         0.00000E+00
         0.00000E+00
         0.00000E+00
         0.00000E+00
         0.00000E+00
         0.00000E+00
         0.00000E+00
         0.00000E+00
         0.00000E+00
         0.00000E+00
         0.00000E+00
         0.00000E+00
         0.00000E+00
         0.00000E+00
         0.00000E+00
         0.00000E+00
         0.00000E+00
         0.00000E+00
         0.00000E+00
         0.00000E+00
         0.00000E+00
         0.00000E+00
         0.00000E+00
         0.00000E+00
         0.00000E+00
         0.00000E+00
         0.00000E+00
         0.00000E+00
         0.00000E+00
         0.00000E+00
         0.00000E+00
         0.00000E+00
         0.00000E+00
         0.00000E+00
         0.00000E+00
         0.00000E+00
         0.00000E+00
         0.00000E+00
         0.00000E+00
         0.00000E+00
         0.00000E+00
         0.00000E+00
         0.00000E+00
         0.00000E+00
         0.00000E+00
         0.00000E+00
         0.00000E+00
         0.00000E+00
         0.00000E+00
         0.00000E+00
         0.00000E+00
         0.00000E+00
         0.00000E+00
         0.00000E+00
         0.00000E+00
         0.00000E+00
         0.00000E+00
         0.00000E+00
         0.00000E+00
         0.00000E+00
         0.00000E+00
         0.00000E+00
         0.00000E+00
         0.00000E+00
         0.00000E+00
         0.00000E+00
         0.00000E+00
         0.00000E+00
         0.00000E+00
         0.00000E+00
         0.00000E+00
         0.00000E+00
         0.00000E+00
         0.00000E+00
         0.00000E+00
         0.00000E+00
         0.00000E+00
         0.00000E+00
         0.00000E+00
         0.00000E+00
         0.00000E+00
         0.00000E+00
         0.00000E+00
         0.00000E+00
         0.00000E+00
         0.00000E+00
         0.00000E+00
         0.00000E+00
         0.00000E+00
         0.00000E+00
         0.00000E+00
         0.00000E+00
         0.00000E+00
         0.00000E+00
         0.00000E+00
         0.00000E+00
         0.00000E+00
         0.00000E+00
         0.00000E+00
         0.00000E+00
  
SCALARS                init_velocity_y  double 1
LOOKUP_TABLE default
         0.00000E+00
         0.00000E+00
         0.00000E+00
         0.00000E+00
         0.00000E+00
         0.00000E+00
         0.00000E+00
         0.00000E+00
         0.00000E+00
         0.00000E+00
         0.00000E+00
         0.00000E+00
         0.00000E+00
         0.00000E+00
         0.00000E+00
         0.00000E+00
         0.00000E+00
         0.00000E+00
         0.00000E+00
         0.00000E+00
         0.00000E+00
         0.00000E+00
         0.00000E+00
         0.00000E+00
         0.00000E+00
         0.00000E+00
         0.00000E+00
         0.00000E+00
         0.00000E+00
         0.00000E+00
         0.00000E+00
         0.00000E+00
         0.00000E+00
         0.00000E+00
         0.00000E+00
         0.00000E+00
         0.00000E+00
         0.00000E+00
         0.00000E+00
         0.00000E+00
         0.00000E+00
         0.00000E+00
         0.00000E+00
         0.00000E+00
         0.00000E+00
         0.00000E+00
         0.00000E+00
         0.00000E+00
         0.00000E+00
         0.00000E+00
         0.00000E+00
         0.00000E+00
         0.00000E+00
         0.00000E+00
         0.00000E+00
         0.00000E+00
         0.00000E+00
         0.00000E+00
         0.00000E+00
         0.00000E+00
         0.00000E+00
         0.00000E+00
         0.00000E+00
         0.00000E+00
         0.00000E+00
         0.00000E+00
         0.00000E+00
         0.00000E+00
         0.00000E+00
         0.00000E+00
         0.00000E+00
         0.00000E+00
         0.00000E+00
         0.00000E+00
         0.00000E+00
         0.00000E+00
         0.00000E+00
         0.00000E+00
         0.00000E+00
         0.00000E+00
         0.00000E+00
         0.00000E+00
         0.00000E+00
         0.00000E+00
         0.00000E+00
         0.00000E+00
         0.00000E+00
         0.00000E+00
         0.00000E+00
         0.00000E+00
         0.00000E+00
         0.00000E+00
         0.00000E+00
         0.00000E+00
         0.00000E+00
         0.00000E+00
         0.00000E+00
         0.00000E+00
         0.00000E+00
         0.00000E+00
         0.00000E+00
         0.00000E+00
         0.00000E+00
         0.00000E+00
         0.00000E+00
         0.00000E+00
         0.00000E+00
         0.00000E+00
         0.00000E+00
         0.00000E+00
         0.00000E+00
         0.00000E+00
         0.00000E+00
         0.00000E+00
         0.00000E+00
         0.00000E+00
         0.00000E+00
         0.00000E+00
         0.00000E+00
         0.00000E+00
         0.00000E+00
         0.00000E+00
         0.00000E+00
         0.00000E+00
         0.00000E+00
         0.00000E+00
         0.00000E+00
         0.00000E+00
         0.00000E+00
         0.00000E+00
         0.00000E+00
         0.00000E+00
         0.00000E+00
         0.00000E+00
         0.00000E+00
         0.00000E+00
         0.00000E+00
         0.00000E+00
         0.00000E+00
         0.00000E+00
         0.00000E+00
         0.00000E+00
         0.00000E+00
         0.00000E+00
         0.00000E+00
         0.00000E+00
         0.00000E+00
         0.00000E+00
         0.00000E+00
         0.00000E+00
         0.00000E+00
         0.00000E+00
         0.00000E+00
         0.00000E+00
         0.00000E+00
         0.00000E+00
         0.00000E+00
         0.00000E+00
         0.00000E+00
         0.00000E+00
         0.00000E+00
         0.00000E+00
         0.00000E+00
         0.00000E+00
         0.00000E+00
         0.00000E+00
         0.00000E+00
         0.00000E+00
         0.00000E+00
         0.00000E+00
         0.00000E+00
         0.00000E+00
         0.00000E+00
         0.00000E+00
         0.00000E+00
         0.00000E+00
         0.00000E+00
         0.00000E+00
         0.00000E+00
         0.00000E+00
         0.00000E+00
         0.00000E+00
         0.00000E+00
         0.00000E+00
         0.00000E+00
         0.00000E+00
         0.00000E+00
         0.00000E+00
         0.00000E+00
         0.00000E+00
         0.00000E+00
         0.00000E+00
         0.00000E+00
         0.00000E+00
         0.00000E+00
         0.00000E+00
         0.00000E+00
         0.00000E+00
         0.00000E+00
         0.00000E+00
         0.00000E+00
         0.00000E+00
         0.00000E+00
         0.00000E+00
         0.00000E+00
         0.00000E+00
         0.00000E+00
         0.00000E+00
         0.00000E+00
         0.00000E+00
         0.00000E+00
         0.00000E+00
         0.00000E+00
         0.00000E+00
         0.00000E+00
         0.00000E+00
         0.00000E+00
         0.00000E+00
         0.00000E+00
         0.00000E+00
         0.00000E+00
         0.00000E+00
         0.00000E+00
         0.00000E+00
         0.00000E+00
         0.00000E+00
         0.00000E+00
         0.00000E+00
         0.00000E+00
         0.00000E+00
         0.00000E+00
         0.00000E+00
         0.00000E+00
         0.00000E+00
         0.00000E+00
         0.00000E+00
         0.00000E+00
         0.00000E+00
         0.00000E+00
         0.00000E+00
         0.00000E+00
         0.00000E+00
         0.00000E+00
         0.00000E+00
         0.00000E+00
         0.00000E+00
         0.00000E+00
         0.00000E+00
         0.00000E+00
         0.00000E+00
         0.00000E+00
         0.00000E+00
         0.00000E+00
         0.00000E+00
         0.00000E+00
         0.00000E+00
         0.00000E+00
         0.00000E+00
         0.00000E+00
         0.00000E+00
         0.00000E+00
         0.00000E+00
         0.00000E+00
         0.00000E+00
         0.00000E+00
         0.00000E+00
         0.00000E+00
         0.00000E+00
         0.00000E+00
         0.00000E+00
         0.00000E+00
         0.00000E+00
         0.00000E+00
         0.00000E+00
         0.00000E+00
         0.00000E+00
         0.00000E+00
         0.00000E+00
         0.00000E+00
         0.00000E+00
         0.00000E+00
         0.00000E+00
         0.00000E+00
         0.00000E+00
         0.00000E+00
         0.00000E+00
         0.00000E+00
         0.00000E+00
         0.00000E+00
         0.00000E+00
         0.00000E+00
         0.00000E+00
         0.00000E+00
         0.00000E+00
         0.00000E+00
         0.00000E+00
         0.00000E+00
         0.00000E+00
         0.00000E+00
         0.00000E+00
         0.00000E+00
         0.00000E+00
         0.00000E+00
         0.00000E+00
         0.00000E+00
         0.00000E+00
         0.00000E+00
         0.00000E+00
         0.00000E+00
         0.00000E+00
         0.00000E+00
         0.00000E+00
         0.00000E+00
         0.00000E+00
         0.00000E+00
         0.00000E+00
         0.00000E+00
         0.00000E+00
         0.00000E+00
         0.00000E+00
         0.00000E+00
         0.00000E+00
         0.00000E+00
         0.00000E+00
         0.00000E+00
         0.00000E+00
         0.00000E+00
         0.00000E+00
         0.00000E+00
         0.00000E+00
         0.00000E+00
         0.00000E+00
         0.00000E+00
         0.00000E+00
         0.00000E+00
         0.00000E+00
         0.00000E+00
         0.00000E+00
         0.00000E+00
         0.00000E+00
         0.00000E+00
         0.00000E+00
         0.00000E+00
         0.00000E+00
         0.00000E+00
         0.00000E+00
         0.00000E+00
         0.00000E+00
         0.00000E+00
         0.00000E+00
         0.00000E+00
         0.00000E+00
         0.00000E+00
         0.00000E+00
         0.00000E+00
         0.00000E+00
         0.00000E+00
         0.00000E+00
         0.00000E+00
         0.00000E+00
         0.00000E+00
         0.00000E+00
         0.00000E+00
         0.00000E+00
         0.00000E+00
         0.00000E+00
         0.00000E+00
         0.00000E+00
         0.00000E+00
         0.00000E+00
         0.00000E+00
         0.00000E+00
         0.00000E+00
         0.00000E+00
         0.00000E+00
         0.00000E+00
         0.00000E+00
         0.00000E+00
         0.00000E+00
         0.00000E+00
         0.00000E+00
         0.00000E+00
         0.00000E+00
         0.00000E+00
         0.00000E+00
         0.00000E+00
         0.00000E+00
         0.00000E+00
         0.00000E+00
         0.00000E+00
         0.00000E+00
         0.00000E+00
         0.00000E+00
         0.00000E+00
         0.00000E+00
         0.00000E+00
         0.00000E+00
         0.00000E+00
         0.00000E+00
         0.00000E+00
         0.00000E+00
         0.00000E+00
         0.00000E+00
         0.00000E+00
         0.00000E+00
         0.00000E+00
         0.00000E+00
         0.00000E+00
         0.00000E+00
         0.00000E+00
         0.00000E+00
         0.00000E+00
         0.00000E+00
         0.00000E+00
         0.00000E+00
         0.00000E+00
         0.00000E+00
         0.00000E+00
         0.00000E+00
         0.00000E+00
         0.00000E+00
         0.00000E+00
         0.00000E+00
         0.00000E+00
         0.00000E+00
         0.00000E+00
         0.00000E+00
         0.00000E+00
         0.00000E+00
         0.00000E+00
         0.00000E+00
         0.00000E+00
         0.00000E+00
         0.00000E+00
         0.00000E+00
         0.00000E+00
         0.00000E+00
         0.00000E+00
         0.00000E+00
         0.00000E+00
         0.00000E+00
         0.00000E+00
         0.00000E+00
         0.00000E+00
         0.00000E+00
         0.00000E+00
         0.00000E+00
         0.00000E+00
         0.00000E+00
         0.00000E+00
         0.00000E+00
         0.00000E+00
         0.00000E+00
         0.00000E+00
         0.00000E+00
         0.00000E+00
         0.00000E+00
         0.00000E+00
         0.00000E+00
         0.00000E+00
         0.00000E+00
         0.00000E+00
         0.00000E+00
         0.00000E+00
         0.00000E+00
         0.00000E+00
         0.00000E+00
         0.00000E+00
         0.00000E+00
         0.00000E+00
         0.00000E+00
         0.00000E+00
         0.00000E+00
         0.00000E+00
         0.00000E+00
         0.00000E+00
         0.00000E+00
         0.00000E+00
         0.00000E+00
         0.00000E+00
         0.00000E+00
         0.00000E+00
         0.00000E+00
         0.00000E+00
         0.00000E+00
         0.00000E+00
         0.00000E+00
         0.00000E+00
         0.00000E+00
         0.00000E+00
         0.00000E+00
         0.00000E+00
         0.00000E+00
         0.00000E+00
         0.00000E+00
         0.00000E+00
         0.00000E+00
         0.00000E+00
         0.00000E+00
         0.00000E+00
         0.00000E+00
         0.00000E+00
         0.00000E+00
         0.00000E+00
         0.00000E+00
         0.00000E+00
         0.00000E+00
         0.00000E+00
         0.00000E+00
         0.00000E+00
         0.00000E+00
         0.00000E+00
         0.00000E+00
         0.00000E+00
         0.00000E+00
         0.00000E+00
         0.00000E+00
         0.00000E+00
         0.00000E+00
         0.00000E+00
         0.00000E+00
         0.00000E+00
         0.00000E+00
         0.00000E+00
         0.00000E+00
         0.00000E+00
         0.00000E+00
         0.00000E+00
         0.00000E+00
         0.00000E+00
         0.00000E+00
         0.00000E+00
         0.00000E+00
         0.00000E+00
         0.00000E+00
         0.00000E+00
         0.00000E+00
         0.00000E+00
         0.00000E+00
         0.00000E+00
         0.00000E+00
         0.00000E+00
         0.00000E+00
         0.00000E+00
         0.00000E+00
         0.00000E+00
         0.00000E+00
         0.00000E+00
         0.00000E+00
         0.00000E+00
         0.00000E+00
         0.00000E+00
         0.00000E+00
         0.00000E+00
         0.00000E+00
         0.00000E+00
         0.00000E+00
         0.00000E+00
         0.00000E+00
         0.00000E+00
         0.00000E+00
         0.00000E+00
         0.00000E+00
         0.00000E+00
         0.00000E+00
         0.00000E+00
         0.00000E+00
         0.00000E+00
         0.00000E+00
         0.00000E+00
         0.00000E+00
         0.00000E+00
         0.00000E+00
         0.00000E+00
         0.00000E+00
         0.00000E+00
         0.00000E+00
         0.00000E+00
         0.00000E+00
         0.00000E+00
         0.00000E+00
         0.00000E+00
         0.00000E+00
         0.00000E+00
         0.00000E+00
         0.00000E+00
         0.00000E+00
         0.00000E+00
         0.00000E+00
         0.00000E+00
         0.00000E+00
         0.00000E+00
         0.00000E+00
         0.00000E+00
         0.00000E+00
         0.00000E+00
         0.00000E+00
         0.00000E+00
         0.00000E+00
         0.00000E+00
         0.00000E+00
         0.00000E+00
         0.00000E+00
         0.00000E+00
         0.00000E+00
         0.00000E+00
         0.00000E+00
         0.00000E+00
         0.00000E+00
         0.00000E+00
         0.00000E+00
         0.00000E+00
         0.00000E+00
         0.00000E+00
         0.00000E+00
         0.00000E+00
         0.00000E+00
         0.00000E+00
         0.00000E+00
         0.00000E+00
         0.00000E+00
         0.00000E+00
         0.00000E+00
         0.00000E+00
         0.00000E+00
         0.00000E+00
         0.00000E+00
         0.00000E+00
         0.00000E+00
         0.00000E+00
         0.00000E+00
         0.00000E+00
         0.00000E+00
         0.00000E+00
         0.00000E+00
         0.00000E+00
         0.00000E+00
         0.00000E+00
         0.00000E+00
         0.00000E+00
         0.00000E+00
         0.00000E+00
         0.00000E+00
         0.00000E+00
         0.00000E+00
         0.00000E+00
         0.00000E+00
         0.00000E+00
         0.00000E+00
         0.00000E+00
         0.00000E+00
         0.00000E+00
         0.00000E+00
         0.00000E+00
         0.00000E+00
         0.00000E+00
         0.00000E+00
         0.00000E+00
         0.00000E+00
         0.00000E+00
         0.00000E+00
         0.00000E+00
         0.00000E+00
         0.00000E+00
         0.00000E+00
         0.00000E+00
         0.00000E+00
         0.00000E+00
         0.00000E+00
         0.00000E+00
         0.00000E+00
         0.00000E+00
         0.00000E+00
         0.00000E+00
         0.00000E+00
         0.00000E+00
         0.00000E+00
         0.00000E+00
         0.00000E+00
         0.00000E+00
         0.00000E+00
         0.00000E+00
         0.00000E+00
         0.00000E+00
         0.00000E+00
         0.00000E+00
         0.00000E+00
         0.00000E+00
         0.00000E+00
         0.00000E+00
         0.00000E+00
         0.00000E+00
         0.00000E+00
         0.00000E+00
         0.00000E+00
         0.00000E+00
         0.00000E+00
         0.00000E+00
         0.00000E+00
         0.00000E+00
         0.00000E+00
         0.00000E+00
         0.00000E+00
         0.00000E+00
         0.00000E+00
         0.00000E+00
         0.00000E+00
         0.00000E+00
         0.00000E+00
         0.00000E+00
         0.00000E+00
         0.00000E+00
         0.00000E+00
         0.00000E+00
         0.00000E+00
         0.00000E+00
         0.00000E+00
         0.00000E+00
         0.00000E+00
         0.00000E+00
         0.00000E+00
         0.00000E+00
         0.00000E+00
         0.00000E+00
         0.00000E+00
         0.00000E+00
         0.00000E+00
         0.00000E+00
         0.00000E+00
         0.00000E+00
         0.00000E+00
         0.00000E+00
         0.00000E+00
         0.00000E+00
         0.00000E+00
         0.00000E+00
         0.00000E+00
         0.00000E+00
         0.00000E+00
         0.00000E+00
         0.00000E+00
         0.00000E+00
         0.00000E+00
         0.00000E+00
         0.00000E+00
         0.00000E+00
         0.00000E+00
         0.00000E+00
         0.00000E+00
         0.00000E+00
         0.00000E+00
         0.00000E+00
         0.00000E+00
         0.00000E+00
         0.00000E+00
         0.00000E+00
         0.00000E+00
         0.00000E+00
         0.00000E+00
         0.00000E+00
         0.00000E+00
         0.00000E+00
         0.00000E+00
         0.00000E+00
         0.00000E+00
         0.00000E+00
         0.00000E+00
         0.00000E+00
         0.00000E+00
         0.00000E+00
         0.00000E+00
         0.00000E+00
         0.00000E+00
         0.00000E+00
         0.00000E+00
         0.00000E+00
         0.00000E+00
         0.00000E+00
         0.00000E+00
         0.00000E+00
         0.00000E+00
         0.00000E+00
         0.00000E+00
         0.00000E+00
         0.00000E+00
         0.00000E+00
         0.00000E+00
         0.00000E+00
         0.00000E+00
         0.00000E+00
         0.00000E+00
         0.00000E+00
         0.00000E+00
         0.00000E+00
         0.00000E+00
         0.00000E+00
         0.00000E+00
         0.00000E+00
         0.00000E+00
         0.00000E+00
         0.00000E+00
         0.00000E+00
         0.00000E+00
         0.00000E+00
         0.00000E+00
         0.00000E+00
         0.00000E+00
         0.00000E+00
         0.00000E+00
         0.00000E+00
         0.00000E+00
         0.00000E+00
         0.00000E+00
         0.00000E+00
         0.00000E+00
         0.00000E+00
         0.00000E+00
         0.00000E+00
         0.00000E+00
         0.00000E+00
         0.00000E+00
         0.00000E+00
         0.00000E+00
         0.00000E+00
         0.00000E+00
         0.00000E+00
         0.00000E+00
         0.00000E+00
         0.00000E+00
         0.00000E+00
         0.00000E+00
         0.00000E+00
         0.00000E+00
         0.00000E+00
         0.00000E+00
         0.00000E+00
         0.00000E+00
         0.00000E+00
         0.00000E+00
         0.00000E+00
         0.00000E+00
         0.00000E+00
         0.00000E+00
         0.00000E+00
         0.00000E+00
         0.00000E+00
         0.00000E+00
         0.00000E+00
         0.00000E+00
         0.00000E+00
         0.00000E+00
         0.00000E+00
         0.00000E+00
         0.00000E+00
         0.00000E+00
         0.00000E+00
         0.00000E+00
         0.00000E+00
         0.00000E+00
         0.00000E+00
         0.00000E+00
         0.00000E+00
         0.00000E+00
         0.00000E+00
         0.00000E+00
         0.00000E+00
         0.00000E+00
         0.00000E+00
         0.00000E+00
         0.00000E+00
         0.00000E+00
         0.00000E+00
         0.00000E+00
         0.00000E+00
         0.00000E+00
         0.00000E+00
         0.00000E+00
         0.00000E+00
         0.00000E+00
         0.00000E+00
         0.00000E+00
         0.00000E+00
         0.00000E+00
         0.00000E+00
         0.00000E+00
         0.00000E+00
         0.00000E+00
         0.00000E+00
         0.00000E+00
         0.00000E+00
         0.00000E+00
         0.00000E+00
         0.00000E+00
         0.00000E+00
         0.00000E+00
         0.00000E+00
         0.00000E+00
         0.00000E+00
         0.00000E+00
         0.00000E+00
         0.00000E+00
         0.00000E+00
         0.00000E+00
         0.00000E+00
         0.00000E+00
         0.00000E+00
         0.00000E+00
         0.00000E+00
         0.00000E+00
         0.00000E+00
         0.00000E+00
         0.00000E+00
         0.00000E+00
         0.00000E+00
         0.00000E+00
         0.00000E+00
         0.00000E+00
         0.00000E+00
         0.00000E+00
         0.00000E+00
         0.00000E+00
         0.00000E+00
         0.00000E+00
         0.00000E+00
         0.00000E+00
         0.00000E+00
         0.00000E+00
         0.00000E+00
         0.00000E+00
         0.00000E+00
         0.00000E+00
         0.00000E+00
         0.00000E+00
         0.00000E+00
         0.00000E+00
         0.00000E+00
         0.00000E+00
         0.00000E+00
         0.00000E+00
         0.00000E+00
         0.00000E+00
         0.00000E+00
         0.00000E+00
         0.00000E+00
         0.00000E+00
         0.00000E+00
         0.00000E+00
         0.00000E+00
         0.00000E+00
         0.00000E+00
         0.00000E+00
         0.00000E+00
         0.00000E+00
         0.00000E+00
         0.00000E+00
         0.00000E+00
         0.00000E+00
         0.00000E+00
         0.00000E+00
         0.00000E+00
         0.00000E+00
         0.00000E+00
         0.00000E+00
         0.00000E+00
         0.00000E+00
         0.00000E+00
         0.00000E+00
         0.00000E+00
         0.00000E+00
         0.00000E+00
         0.00000E+00
         0.00000E+00
         0.00000E+00
         0.00000E+00
         0.00000E+00
         0.00000E+00
         0.00000E+00
         0.00000E+00
         0.00000E+00
         0.00000E+00
         0.00000E+00
         0.00000E+00
         0.00000E+00
         0.00000E+00
         0.00000E+00
         0.00000E+00
         0.00000E+00
         0.00000E+00
         0.00000E+00
         0.00000E+00
         0.00000E+00
         0.00000E+00
         0.00000E+00
         0.00000E+00
         0.00000E+00
         0.00000E+00
         0.00000E+00
         0.00000E+00
         0.00000E+00
         0.00000E+00
         0.00000E+00
         0.00000E+00
         0.00000E+00
         0.00000E+00
         0.00000E+00
         0.00000E+00
         0.00000E+00
         0.00000E+00
         0.00000E+00
         0.00000E+00
         0.00000E+00
         0.00000E+00
         0.00000E+00
         0.00000E+00
         0.00000E+00
         0.00000E+00
         0.00000E+00
         0.00000E+00
         0.00000E+00
         0.00000E+00
         0.00000E+00
         0.00000E+00
         0.00000E+00
         0.00000E+00
         0.00000E+00
         0.00000E+00
         0.00000E+00
         0.00000E+00
         0.00000E+00
         0.00000E+00
         0.00000E+00
         0.00000E+00
         0.00000E+00
         0.00000E+00
         0.00000E+00
         0.00000E+00
         0.00000E+00
         0.00000E+00
         0.00000E+00
         0.00000E+00
         0.00000E+00
         0.00000E+00
         0.00000E+00
         0.00000E+00
         0.00000E+00
         0.00000E+00
         0.00000E+00
         0.00000E+00
         0.00000E+00
         0.00000E+00
         0.00000E+00
         0.00000E+00
         0.00000E+00
         0.00000E+00
         0.00000E+00
         0.00000E+00
         0.00000E+00
         0.00000E+00
         0.00000E+00
         0.00000E+00
         0.00000E+00
         0.00000E+00
         0.00000E+00
         0.00000E+00
         0.00000E+00
         0.00000E+00
         0.00000E+00
         0.00000E+00
         0.00000E+00
         0.00000E+00
         0.00000E+00
         0.00000E+00
         0.00000E+00
         0.00000E+00
         0.00000E+00
         0.00000E+00
         0.00000E+00
         0.00000E+00
         0.00000E+00
         0.00000E+00
         0.00000E+00
         0.00000E+00
         0.00000E+00
         0.00000E+00
         0.00000E+00
         0.00000E+00
         0.00000E+00
         0.00000E+00
         0.00000E+00
         0.00000E+00
         0.00000E+00
         0.00000E+00
         0.00000E+00
         0.00000E+00
         0.00000E+00
         0.00000E+00
         0.00000E+00
         0.00000E+00
         0.00000E+00
         0.00000E+00
         0.00000E+00
         0.00000E+00
         0.00000E+00
         0.00000E+00
         0.00000E+00
         0.00000E+00
         0.00000E+00
         0.00000E+00
         0.00000E+00
         0.00000E+00
         0.00000E+00
         0.00000E+00
         0.00000E+00
         0.00000E+00
         0.00000E+00
         0.00000E+00
         0.00000E+00
         0.00000E+00
         0.00000E+00
         0.00000E+00
         0.00000E+00
         0.00000E+00
         0.00000E+00
         0.00000E+00
         0.00000E+00
         0.00000E+00
         0.00000E+00
         0.00000E+00
         0.00000E+00
         0.00000E+00
         0.00000E+00
         0.00000E+00
         0.00000E+00
         0.00000E+00
         0.00000E+00
         0.00000E+00
         0.00000E+00
         0.00000E+00
         0.00000E+00
         0.00000E+00
         0.00000E+00
         0.00000E+00
         0.00000E+00
         0.00000E+00
         0.00000E+00
         0.00000E+00
         0.00000E+00
         0.00000E+00
         0.00000E+00
         0.00000E+00
         0.00000E+00
         0.00000E+00
         0.00000E+00
         0.00000E+00
         0.00000E+00
         0.00000E+00
         0.00000E+00
         0.00000E+00
         0.00000E+00
         0.00000E+00
         0.00000E+00
         0.00000E+00
         0.00000E+00
         0.00000E+00
         0.00000E+00
         0.00000E+00
         0.00000E+00
         0.00000E+00
         0.00000E+00
         0.00000E+00
         0.00000E+00
         0.00000E+00
         0.00000E+00
         0.00000E+00
         0.00000E+00
         0.00000E+00
         0.00000E+00
         0.00000E+00
         0.00000E+00
         0.00000E+00
         0.00000E+00
         0.00000E+00
         0.00000E+00
         0.00000E+00
         0.00000E+00
         0.00000E+00
         0.00000E+00
         0.00000E+00
         0.00000E+00
         0.00000E+00
         0.00000E+00
         0.00000E+00
         0.00000E+00
         0.00000E+00
         0.00000E+00
         0.00000E+00
         0.00000E+00
         0.00000E+00
         0.00000E+00
         0.00000E+00
         0.00000E+00
         0.00000E+00
         0.00000E+00
         0.00000E+00
         0.00000E+00
         0.00000E+00
         0.00000E+00
         0.00000E+00
         0.00000E+00
         0.00000E+00
         0.00000E+00
         0.00000E+00
         0.00000E+00
         0.00000E+00
         0.00000E+00
         0.00000E+00
         0.00000E+00
         0.00000E+00
         0.00000E+00
         0.00000E+00
         0.00000E+00
         0.00000E+00
         0.00000E+00
         0.00000E+00
         0.00000E+00
         0.00000E+00
         0.00000E+00
         0.00000E+00
         0.00000E+00
         0.00000E+00
         0.00000E+00
         0.00000E+00
         0.00000E+00
         0.00000E+00
         0.00000E+00
         0.00000E+00
         0.00000E+00
         0.00000E+00
         0.00000E+00
         0.00000E+00
         0.00000E+00
         0.00000E+00
         0.00000E+00
         0.00000E+00
         0.00000E+00
         0.00000E+00
         0.00000E+00
         0.00000E+00
         0.00000E+00
         0.00000E+00
         0.00000E+00
         0.00000E+00
         0.00000E+00
         0.00000E+00
         0.00000E+00
         0.00000E+00
         0.00000E+00
         0.00000E+00
         0.00000E+00
         0.00000E+00
         0.00000E+00
         0.00000E+00
         0.00000E+00
         0.00000E+00
         0.00000E+00
         0.00000E+00
         0.00000E+00
         0.00000E+00
         0.00000E+00
         0.00000E+00
         0.00000E+00
         0.00000E+00
         0.00000E+00
         0.00000E+00
         0.00000E+00
         0.00000E+00
         0.00000E+00
         0.00000E+00
         0.00000E+00
         0.00000E+00
         0.00000E+00
         0.00000E+00
         0.00000E+00
         0.00000E+00
         0.00000E+00
         0.00000E+00
         0.00000E+00
         0.00000E+00
         0.00000E+00
         0.00000E+00
         0.00000E+00
         0.00000E+00
         0.00000E+00
         0.00000E+00
         0.00000E+00
         0.00000E+00
         0.00000E+00
         0.00000E+00
         0.00000E+00
         0.00000E+00
         0.00000E+00
         0.00000E+00
         0.00000E+00
         0.00000E+00
         0.00000E+00
         0.00000E+00
         0.00000E+00
         0.00000E+00
         0.00000E+00
         0.00000E+00
         0.00000E+00
         0.00000E+00
         0.00000E+00
         0.00000E+00
         0.00000E+00
         0.00000E+00
         0.00000E+00
         0.00000E+00
         0.00000E+00
         0.00000E+00
         0.00000E+00
         0.00000E+00
         0.00000E+00
         0.00000E+00
         0.00000E+00
         0.00000E+00
         0.00000E+00
         0.00000E+00
         0.00000E+00
         0.00000E+00
         0.00000E+00
         0.00000E+00
         0.00000E+00
         0.00000E+00
         0.00000E+00
         0.00000E+00
         0.00000E+00
         0.00000E+00
         0.00000E+00
         0.00000E+00
         0.00000E+00
         0.00000E+00
         0.00000E+00
         0.00000E+00
         0.00000E+00
         0.00000E+00
         0.00000E+00
         0.00000E+00
         0.00000E+00
         0.00000E+00
         0.00000E+00
         0.00000E+00
         0.00000E+00
         0.00000E+00
         0.00000E+00
         0.00000E+00
         0.00000E+00
         0.00000E+00
         0.00000E+00
         0.00000E+00
         0.00000E+00
         0.00000E+00
         0.00000E+00
         0.00000E+00
         0.00000E+00
         0.00000E+00
         0.00000E+00
         0.00000E+00
         0.00000E+00
         0.00000E+00
         0.00000E+00
         0.00000E+00
         0.00000E+00
         0.00000E+00
         0.00000E+00
         0.00000E+00
         0.00000E+00
         0.00000E+00
         0.00000E+00
         0.00000E+00
         0.00000E+00
         0.00000E+00
         0.00000E+00
         0.00000E+00
         0.00000E+00
         0.00000E+00
         0.00000E+00
         0.00000E+00
         0.00000E+00
         0.00000E+00
         0.00000E+00
         0.00000E+00
         0.00000E+00
         0.00000E+00
         0.00000E+00
         0.00000E+00
         0.00000E+00
         0.00000E+00
         0.00000E+00
         0.00000E+00
         0.00000E+00
         0.00000E+00
         0.00000E+00
         0.00000E+00
         0.00000E+00
         0.00000E+00
         0.00000E+00
         0.00000E+00
         0.00000E+00
         0.00000E+00
         0.00000E+00
         0.00000E+00
         0.00000E+00
         0.00000E+00
         0.00000E+00
         0.00000E+00
         0.00000E+00
         0.00000E+00
         0.00000E+00
         0.00000E+00
         0.00000E+00
         0.00000E+00
         0.00000E+00
         0.00000E+00
         0.00000E+00
         0.00000E+00
         0.00000E+00
         0.00000E+00
         0.00000E+00
         0.00000E+00
         0.00000E+00
         0.00000E+00
         0.00000E+00
         0.00000E+00
         0.00000E+00
         0.00000E+00
         0.00000E+00
         0.00000E+00
         0.00000E+00
         0.00000E+00
         0.00000E+00
         0.00000E+00
         0.00000E+00
         0.00000E+00
         0.00000E+00
         0.00000E+00
         0.00000E+00
         0.00000E+00
         0.00000E+00
         0.00000E+00
         0.00000E+00
         0.00000E+00
         0.00000E+00
         0.00000E+00
         0.00000E+00
         0.00000E+00
         0.00000E+00
         0.00000E+00
         0.00000E+00
         0.00000E+00
         0.00000E+00
         0.00000E+00
         0.00000E+00
         0.00000E+00
         0.00000E+00
         0.00000E+00
         0.00000E+00
         0.00000E+00
         0.00000E+00
         0.00000E+00
         0.00000E+00
         0.00000E+00
         0.00000E+00
         0.00000E+00
         0.00000E+00
         0.00000E+00
         0.00000E+00
         0.00000E+00
         0.00000E+00
         0.00000E+00
         0.00000E+00
         0.00000E+00
         0.00000E+00
         0.00000E+00
         0.00000E+00
         0.00000E+00
         0.00000E+00
         0.00000E+00
         0.00000E+00
         0.00000E+00
         0.00000E+00
         0.00000E+00
         0.00000E+00
         0.00000E+00
         0.00000E+00
         0.00000E+00
         0.00000E+00
         0.00000E+00
         0.00000E+00
         0.00000E+00
         0.00000E+00
         0.00000E+00
         0.00000E+00
         0.00000E+00
         0.00000E+00
         0.00000E+00
         0.00000E+00
         0.00000E+00
         0.00000E+00
         0.00000E+00
         0.00000E+00
         0.00000E+00
         0.00000E+00
         0.00000E+00
         0.00000E+00
         0.00000E+00
         0.00000E+00
         0.00000E+00
         0.00000E+00
         0.00000E+00
         0.00000E+00
         0.00000E+00
         0.00000E+00
         0.00000E+00
         0.00000E+00
         0.00000E+00
         0.00000E+00
         0.00000E+00
         0.00000E+00
         0.00000E+00
         0.00000E+00
         0.00000E+00
         0.00000E+00
         0.00000E+00
         0.00000E+00
         0.00000E+00
         0.00000E+00
         0.00000E+00
         0.00000E+00
         0.00000E+00
         0.00000E+00
         0.00000E+00
         0.00000E+00
         0.00000E+00
         0.00000E+00
         0.00000E+00
         0.00000E+00
         0.00000E+00
         0.00000E+00
         0.00000E+00
         0.00000E+00
         0.00000E+00
         0.00000E+00
         0.00000E+00
         0.00000E+00
         0.00000E+00
         0.00000E+00
         0.00000E+00
         0.00000E+00
         0.00000E+00
         0.00000E+00
         0.00000E+00
         0.00000E+00
         0.00000E+00
         0.00000E+00
         0.00000E+00
         0.00000E+00
         0.00000E+00
         0.00000E+00
         0.00000E+00
         0.00000E+00
         0.00000E+00
         0.00000E+00
         0.00000E+00
         0.00000E+00
         0.00000E+00
         0.00000E+00
         0.00000E+00
         0.00000E+00
         0.00000E+00
         0.00000E+00
         0.00000E+00
         0.00000E+00
         0.00000E+00
         0.00000E+00
         0.00000E+00
         0.00000E+00
         0.00000E+00
         0.00000E+00
         0.00000E+00
         0.00000E+00
         0.00000E+00
         0.00000E+00
         0.00000E+00
         0.00000E+00
         0.00000E+00
         0.00000E+00
         0.00000E+00
         0.00000E+00
         0.00000E+00
         0.00000E+00
         0.00000E+00
         0.00000E+00
         0.00000E+00
         0.00000E+00
         0.00000E+00
         0.00000E+00
         0.00000E+00
         0.00000E+00
         0.00000E+00
         0.00000E+00
         0.00000E+00
         0.00000E+00
         0.00000E+00
         0.00000E+00
         0.00000E+00
         0.00000E+00
         0.00000E+00
         0.00000E+00
         0.00000E+00
         0.00000E+00
         0.00000E+00
         0.00000E+00
         0.00000E+00
         0.00000E+00
         0.00000E+00
         0.00000E+00
         0.00000E+00
         0.00000E+00
         0.00000E+00
         0.00000E+00
         0.00000E+00
         0.00000E+00
         0.00000E+00
         0.00000E+00
         0.00000E+00
         0.00000E+00
         0.00000E+00
         0.00000E+00
         0.00000E+00
         0.00000E+00
         0.00000E+00
         0.00000E+00
         0.00000E+00
         0.00000E+00
         0.00000E+00
         0.00000E+00
         0.00000E+00
         0.00000E+00
         0.00000E+00
         0.00000E+00
         0.00000E+00
         0.00000E+00
         0.00000E+00
         0.00000E+00
         0.00000E+00
         0.00000E+00
         0.00000E+00
         0.00000E+00
         0.00000E+00
         0.00000E+00
         0.00000E+00
         0.00000E+00
         0.00000E+00
         0.00000E+00
         0.00000E+00
         0.00000E+00
         0.00000E+00
         0.00000E+00
         0.00000E+00
         0.00000E+00
         0.00000E+00
         0.00000E+00
         0.00000E+00
         0.00000E+00
         0.00000E+00
         0.00000E+00
         0.00000E+00
         0.00000E+00
         0.00000E+00
         0.00000E+00
         0.00000E+00
         0.00000E+00
         0.00000E+00
         0.00000E+00
         0.00000E+00
         0.00000E+00
         0.00000E+00
         0.00000E+00
         0.00000E+00
         0.00000E+00
         0.00000E+00
         0.00000E+00
         0.00000E+00
         0.00000E+00
         0.00000E+00
         0.00000E+00
         0.00000E+00
         0.00000E+00
         0.00000E+00
         0.00000E+00
         0.00000E+00
         0.00000E+00
         0.00000E+00
         0.00000E+00
         0.00000E+00
         0.00000E+00
         0.00000E+00
         0.00000E+00
         0.00000E+00
         0.00000E+00
         0.00000E+00
         0.00000E+00
         0.00000E+00
         0.00000E+00
         0.00000E+00
         0.00000E+00
         0.00000E+00
         0.00000E+00
         0.00000E+00
         0.00000E+00
         0.00000E+00
         0.00000E+00
         0.00000E+00
         0.00000E+00
         0.00000E+00
         0.00000E+00
         0.00000E+00
         0.00000E+00
         0.00000E+00
         0.00000E+00
         0.00000E+00
         0.00000E+00
         0.00000E+00
         0.00000E+00
         0.00000E+00
         0.00000E+00
         0.00000E+00
         0.00000E+00
         0.00000E+00
         0.00000E+00
         0.00000E+00
         0.00000E+00
         0.00000E+00
         0.00000E+00
         0.00000E+00
         0.00000E+00
         0.00000E+00
         0.00000E+00
         0.00000E+00
         0.00000E+00
         0.00000E+00
         0.00000E+00
         0.00000E+00
         0.00000E+00
         0.00000E+00
         0.00000E+00
         0.00000E+00
         0.00000E+00
         0.00000E+00
         0.00000E+00
         0.00000E+00
         0.00000E+00
         0.00000E+00
         0.00000E+00
         0.00000E+00
         0.00000E+00
         0.00000E+00
         0.00000E+00
         0.00000E+00
         0.00000E+00
         0.00000E+00
         0.00000E+00
         0.00000E+00
         0.00000E+00
         0.00000E+00
         0.00000E+00
         0.00000E+00
         0.00000E+00
         0.00000E+00
         0.00000E+00
         0.00000E+00
         0.00000E+00
         0.00000E+00
         0.00000E+00
         0.00000E+00
         0.00000E+00
         0.00000E+00
         0.00000E+00
         0.00000E+00
         0.00000E+00
         0.00000E+00
         0.00000E+00
         0.00000E+00
         0.00000E+00
         0.00000E+00
         0.00000E+00
         0.00000E+00
         0.00000E+00
         0.00000E+00
         0.00000E+00
         0.00000E+00
         0.00000E+00
         0.00000E+00
         0.00000E+00
         0.00000E+00
         0.00000E+00
         0.00000E+00
         0.00000E+00
         0.00000E+00
         0.00000E+00
         0.00000E+00
         0.00000E+00
         0.00000E+00
         0.00000E+00
         0.00000E+00
         0.00000E+00
         0.00000E+00
         0.00000E+00
         0.00000E+00
         0.00000E+00
         0.00000E+00
         0.00000E+00
         0.00000E+00
         0.00000E+00
         0.00000E+00
         0.00000E+00
         0.00000E+00
         0.00000E+00
         0.00000E+00
         0.00000E+00
         0.00000E+00
         0.00000E+00
         0.00000E+00
         0.00000E+00
         0.00000E+00
         0.00000E+00
         0.00000E+00
         0.00000E+00
         0.00000E+00
         0.00000E+00
         0.00000E+00
         0.00000E+00
         0.00000E+00
         0.00000E+00
         0.00000E+00
         0.00000E+00
         0.00000E+00
         0.00000E+00
         0.00000E+00
         0.00000E+00
         0.00000E+00
         0.00000E+00
         0.00000E+00
         0.00000E+00
         0.00000E+00
         0.00000E+00
         0.00000E+00
         0.00000E+00
         0.00000E+00
         0.00000E+00
         0.00000E+00
         0.00000E+00
         0.00000E+00
         0.00000E+00
         0.00000E+00
         0.00000E+00
         0.00000E+00
         0.00000E+00
         0.00000E+00
         0.00000E+00
         0.00000E+00
         0.00000E+00
         0.00000E+00
         0.00000E+00
         0.00000E+00
         0.00000E+00
         0.00000E+00
         0.00000E+00
         0.00000E+00
         0.00000E+00
         0.00000E+00
         0.00000E+00
         0.00000E+00
         0.00000E+00
         0.00000E+00
         0.00000E+00
         0.00000E+00
         0.00000E+00
         0.00000E+00
         0.00000E+00
         0.00000E+00
         0.00000E+00
         0.00000E+00
         0.00000E+00
         0.00000E+00
         0.00000E+00
         0.00000E+00
         0.00000E+00
         0.00000E+00
         0.00000E+00
         0.00000E+00
         0.00000E+00
         0.00000E+00
         0.00000E+00
         0.00000E+00
         0.00000E+00
         0.00000E+00
         0.00000E+00
         0.00000E+00
         0.00000E+00
         0.00000E+00
         0.00000E+00
         0.00000E+00
         0.00000E+00
         0.00000E+00
         0.00000E+00
         0.00000E+00
         0.00000E+00
         0.00000E+00
         0.00000E+00
         0.00000E+00
         0.00000E+00
         0.00000E+00
         0.00000E+00
         0.00000E+00
         0.00000E+00
         0.00000E+00
         0.00000E+00
         0.00000E+00
         0.00000E+00
         0.00000E+00
         0.00000E+00
         0.00000E+00
         0.00000E+00
         0.00000E+00
         0.00000E+00
         0.00000E+00
         0.00000E+00
         0.00000E+00
         0.00000E+00
         0.00000E+00
         0.00000E+00
         0.00000E+00
         0.00000E+00
         0.00000E+00
         0.00000E+00
         0.00000E+00
         0.00000E+00
         0.00000E+00
  
SCALARS                init_velocity_z  double 1
LOOKUP_TABLE default
        -0.37300E+03
        -0.37300E+03
        -0.37300E+03
        -0.37300E+03
        -0.37300E+03
        -0.37300E+03
        -0.37300E+03
        -0.37300E+03
        -0.37300E+03
        -0.37300E+03
        -0.37300E+03
        -0.37300E+03
        -0.37300E+03
        -0.37300E+03
        -0.37300E+03
        -0.37300E+03
        -0.37300E+03
        -0.37300E+03
        -0.37300E+03
        -0.37300E+03
        -0.37300E+03
        -0.37300E+03
        -0.37300E+03
        -0.37300E+03
        -0.37300E+03
        -0.37300E+03
        -0.37300E+03
        -0.37300E+03
        -0.37300E+03
        -0.37300E+03
        -0.37300E+03
        -0.37300E+03
        -0.37300E+03
        -0.37300E+03
        -0.37300E+03
        -0.37300E+03
        -0.37300E+03
        -0.37300E+03
        -0.37300E+03
        -0.37300E+03
        -0.37300E+03
        -0.37300E+03
        -0.37300E+03
        -0.37300E+03
        -0.37300E+03
        -0.37300E+03
        -0.37300E+03
        -0.37300E+03
        -0.37300E+03
        -0.37300E+03
        -0.37300E+03
        -0.37300E+03
        -0.37300E+03
        -0.37300E+03
        -0.37300E+03
        -0.37300E+03
        -0.37300E+03
        -0.37300E+03
        -0.37300E+03
        -0.37300E+03
        -0.37300E+03
        -0.37300E+03
        -0.37300E+03
        -0.37300E+03
        -0.37300E+03
        -0.37300E+03
        -0.37300E+03
        -0.37300E+03
        -0.37300E+03
        -0.37300E+03
        -0.37300E+03
        -0.37300E+03
        -0.37300E+03
        -0.37300E+03
        -0.37300E+03
        -0.37300E+03
        -0.37300E+03
        -0.37300E+03
        -0.37300E+03
        -0.37300E+03
        -0.37300E+03
        -0.37300E+03
        -0.37300E+03
        -0.37300E+03
        -0.37300E+03
        -0.37300E+03
        -0.37300E+03
        -0.37300E+03
        -0.37300E+03
        -0.37300E+03
        -0.37300E+03
        -0.37300E+03
        -0.37300E+03
        -0.37300E+03
        -0.37300E+03
        -0.37300E+03
        -0.37300E+03
        -0.37300E+03
        -0.37300E+03
        -0.37300E+03
        -0.37300E+03
        -0.37300E+03
        -0.37300E+03
        -0.37300E+03
        -0.37300E+03
        -0.37300E+03
        -0.37300E+03
        -0.37300E+03
        -0.37300E+03
        -0.37300E+03
        -0.37300E+03
        -0.37300E+03
        -0.37300E+03
        -0.37300E+03
        -0.37300E+03
        -0.37300E+03
        -0.37300E+03
        -0.37300E+03
        -0.37300E+03
        -0.37300E+03
        -0.37300E+03
        -0.37300E+03
        -0.37300E+03
        -0.37300E+03
        -0.37300E+03
        -0.37300E+03
        -0.37300E+03
        -0.37300E+03
        -0.37300E+03
        -0.37300E+03
        -0.37300E+03
        -0.37300E+03
        -0.37300E+03
        -0.37300E+03
        -0.37300E+03
        -0.37300E+03
        -0.37300E+03
        -0.37300E+03
        -0.37300E+03
        -0.37300E+03
        -0.37300E+03
        -0.37300E+03
        -0.37300E+03
        -0.37300E+03
        -0.37300E+03
        -0.37300E+03
        -0.37300E+03
        -0.37300E+03
        -0.37300E+03
        -0.37300E+03
        -0.37300E+03
        -0.37300E+03
        -0.37300E+03
        -0.37300E+03
        -0.37300E+03
        -0.37300E+03
        -0.37300E+03
        -0.37300E+03
        -0.37300E+03
        -0.37300E+03
        -0.37300E+03
        -0.37300E+03
        -0.37300E+03
        -0.37300E+03
        -0.37300E+03
        -0.37300E+03
        -0.37300E+03
        -0.37300E+03
        -0.37300E+03
        -0.37300E+03
        -0.37300E+03
        -0.37300E+03
        -0.37300E+03
        -0.37300E+03
        -0.37300E+03
        -0.37300E+03
        -0.37300E+03
        -0.37300E+03
        -0.37300E+03
        -0.37300E+03
        -0.37300E+03
        -0.37300E+03
        -0.37300E+03
        -0.37300E+03
        -0.37300E+03
        -0.37300E+03
        -0.37300E+03
        -0.37300E+03
        -0.37300E+03
        -0.37300E+03
        -0.37300E+03
        -0.37300E+03
        -0.37300E+03
        -0.37300E+03
        -0.37300E+03
        -0.37300E+03
        -0.37300E+03
        -0.37300E+03
        -0.37300E+03
        -0.37300E+03
        -0.37300E+03
        -0.37300E+03
        -0.37300E+03
        -0.37300E+03
        -0.37300E+03
        -0.37300E+03
        -0.37300E+03
        -0.37300E+03
        -0.37300E+03
        -0.37300E+03
        -0.37300E+03
        -0.37300E+03
        -0.37300E+03
        -0.37300E+03
        -0.37300E+03
        -0.37300E+03
        -0.37300E+03
        -0.37300E+03
        -0.37300E+03
        -0.37300E+03
        -0.37300E+03
        -0.37300E+03
        -0.37300E+03
        -0.37300E+03
        -0.37300E+03
        -0.37300E+03
        -0.37300E+03
        -0.37300E+03
        -0.37300E+03
        -0.37300E+03
        -0.37300E+03
        -0.37300E+03
        -0.37300E+03
        -0.37300E+03
        -0.37300E+03
        -0.37300E+03
        -0.37300E+03
        -0.37300E+03
        -0.37300E+03
        -0.37300E+03
        -0.37300E+03
        -0.37300E+03
        -0.37300E+03
        -0.37300E+03
        -0.37300E+03
        -0.37300E+03
        -0.37300E+03
        -0.37300E+03
        -0.37300E+03
        -0.37300E+03
        -0.37300E+03
        -0.37300E+03
        -0.37300E+03
        -0.37300E+03
        -0.37300E+03
        -0.37300E+03
        -0.37300E+03
        -0.37300E+03
        -0.37300E+03
        -0.37300E+03
        -0.37300E+03
        -0.37300E+03
        -0.37300E+03
        -0.37300E+03
        -0.37300E+03
        -0.37300E+03
        -0.37300E+03
        -0.37300E+03
        -0.37300E+03
        -0.37300E+03
        -0.37300E+03
        -0.37300E+03
        -0.37300E+03
        -0.37300E+03
        -0.37300E+03
        -0.37300E+03
        -0.37300E+03
        -0.37300E+03
        -0.37300E+03
        -0.37300E+03
        -0.37300E+03
        -0.37300E+03
        -0.37300E+03
        -0.37300E+03
        -0.37300E+03
        -0.37300E+03
        -0.37300E+03
        -0.37300E+03
        -0.37300E+03
        -0.37300E+03
        -0.37300E+03
        -0.37300E+03
        -0.37300E+03
        -0.37300E+03
        -0.37300E+03
        -0.37300E+03
        -0.37300E+03
        -0.37300E+03
        -0.37300E+03
        -0.37300E+03
        -0.37300E+03
        -0.37300E+03
        -0.37300E+03
        -0.37300E+03
        -0.37300E+03
        -0.37300E+03
        -0.37300E+03
        -0.37300E+03
        -0.37300E+03
        -0.37300E+03
        -0.37300E+03
        -0.37300E+03
        -0.37300E+03
        -0.37300E+03
        -0.37300E+03
        -0.37300E+03
        -0.37300E+03
        -0.37300E+03
        -0.37300E+03
        -0.37300E+03
        -0.37300E+03
        -0.37300E+03
        -0.37300E+03
        -0.37300E+03
        -0.37300E+03
        -0.37300E+03
        -0.37300E+03
        -0.37300E+03
        -0.37300E+03
        -0.37300E+03
        -0.37300E+03
        -0.37300E+03
        -0.37300E+03
        -0.37300E+03
        -0.37300E+03
        -0.37300E+03
        -0.37300E+03
        -0.37300E+03
        -0.37300E+03
        -0.37300E+03
        -0.37300E+03
        -0.37300E+03
        -0.37300E+03
        -0.37300E+03
        -0.37300E+03
        -0.37300E+03
        -0.37300E+03
        -0.37300E+03
        -0.37300E+03
        -0.37300E+03
        -0.37300E+03
        -0.37300E+03
        -0.37300E+03
        -0.37300E+03
        -0.37300E+03
        -0.37300E+03
        -0.37300E+03
        -0.37300E+03
        -0.37300E+03
        -0.37300E+03
        -0.37300E+03
        -0.37300E+03
        -0.37300E+03
        -0.37300E+03
        -0.37300E+03
        -0.37300E+03
        -0.37300E+03
        -0.37300E+03
        -0.37300E+03
        -0.37300E+03
        -0.37300E+03
        -0.37300E+03
        -0.37300E+03
        -0.37300E+03
        -0.37300E+03
        -0.37300E+03
        -0.37300E+03
        -0.37300E+03
        -0.37300E+03
        -0.37300E+03
        -0.37300E+03
        -0.37300E+03
        -0.37300E+03
        -0.37300E+03
        -0.37300E+03
        -0.37300E+03
        -0.37300E+03
        -0.37300E+03
        -0.37300E+03
        -0.37300E+03
        -0.37300E+03
        -0.37300E+03
        -0.37300E+03
        -0.37300E+03
        -0.37300E+03
        -0.37300E+03
        -0.37300E+03
        -0.37300E+03
        -0.37300E+03
        -0.37300E+03
        -0.37300E+03
        -0.37300E+03
        -0.37300E+03
        -0.37300E+03
        -0.37300E+03
        -0.37300E+03
        -0.37300E+03
        -0.37300E+03
        -0.37300E+03
        -0.37300E+03
        -0.37300E+03
        -0.37300E+03
        -0.37300E+03
        -0.37300E+03
        -0.37300E+03
        -0.37300E+03
        -0.37300E+03
        -0.37300E+03
        -0.37300E+03
        -0.37300E+03
        -0.37300E+03
        -0.37300E+03
        -0.37300E+03
        -0.37300E+03
        -0.37300E+03
        -0.37300E+03
        -0.37300E+03
        -0.37300E+03
        -0.37300E+03
        -0.37300E+03
        -0.37300E+03
        -0.37300E+03
        -0.37300E+03
        -0.37300E+03
        -0.37300E+03
        -0.37300E+03
        -0.37300E+03
        -0.37300E+03
        -0.37300E+03
        -0.37300E+03
        -0.37300E+03
        -0.37300E+03
        -0.37300E+03
        -0.37300E+03
        -0.37300E+03
        -0.37300E+03
        -0.37300E+03
        -0.37300E+03
        -0.37300E+03
        -0.37300E+03
        -0.37300E+03
        -0.37300E+03
        -0.37300E+03
        -0.37300E+03
        -0.37300E+03
        -0.37300E+03
        -0.37300E+03
        -0.37300E+03
        -0.37300E+03
        -0.37300E+03
        -0.37300E+03
        -0.37300E+03
        -0.37300E+03
        -0.37300E+03
        -0.37300E+03
        -0.37300E+03
        -0.37300E+03
        -0.37300E+03
        -0.37300E+03
        -0.37300E+03
        -0.37300E+03
        -0.37300E+03
        -0.37300E+03
        -0.37300E+03
        -0.37300E+03
        -0.37300E+03
        -0.37300E+03
        -0.37300E+03
        -0.37300E+03
        -0.37300E+03
        -0.37300E+03
        -0.37300E+03
        -0.37300E+03
        -0.37300E+03
        -0.37300E+03
        -0.37300E+03
        -0.37300E+03
        -0.37300E+03
        -0.37300E+03
        -0.37300E+03
        -0.37300E+03
        -0.37300E+03
        -0.37300E+03
        -0.37300E+03
        -0.37300E+03
        -0.37300E+03
        -0.37300E+03
        -0.37300E+03
        -0.37300E+03
        -0.37300E+03
        -0.37300E+03
        -0.37300E+03
        -0.37300E+03
        -0.37300E+03
        -0.37300E+03
        -0.37300E+03
        -0.37300E+03
        -0.37300E+03
        -0.37300E+03
        -0.37300E+03
        -0.37300E+03
        -0.37300E+03
        -0.37300E+03
        -0.37300E+03
        -0.37300E+03
        -0.37300E+03
        -0.37300E+03
        -0.37300E+03
        -0.37300E+03
        -0.37300E+03
        -0.37300E+03
        -0.37300E+03
        -0.37300E+03
        -0.37300E+03
        -0.37300E+03
        -0.37300E+03
        -0.37300E+03
        -0.37300E+03
        -0.37300E+03
        -0.37300E+03
        -0.37300E+03
        -0.37300E+03
        -0.37300E+03
        -0.37300E+03
        -0.37300E+03
        -0.37300E+03
        -0.37300E+03
        -0.37300E+03
        -0.37300E+03
        -0.37300E+03
        -0.37300E+03
        -0.37300E+03
        -0.37300E+03
        -0.37300E+03
        -0.37300E+03
        -0.37300E+03
        -0.37300E+03
        -0.37300E+03
        -0.37300E+03
        -0.37300E+03
        -0.37300E+03
        -0.37300E+03
        -0.37300E+03
        -0.37300E+03
        -0.37300E+03
        -0.37300E+03
        -0.37300E+03
        -0.37300E+03
        -0.37300E+03
        -0.37300E+03
        -0.37300E+03
        -0.37300E+03
        -0.37300E+03
        -0.37300E+03
        -0.37300E+03
        -0.37300E+03
        -0.37300E+03
        -0.37300E+03
        -0.37300E+03
        -0.37300E+03
        -0.37300E+03
        -0.37300E+03
        -0.37300E+03
        -0.37300E+03
        -0.37300E+03
        -0.37300E+03
        -0.37300E+03
        -0.37300E+03
        -0.37300E+03
        -0.37300E+03
        -0.37300E+03
        -0.37300E+03
        -0.37300E+03
        -0.37300E+03
        -0.37300E+03
        -0.37300E+03
        -0.37300E+03
        -0.37300E+03
        -0.37300E+03
        -0.37300E+03
        -0.37300E+03
        -0.37300E+03
        -0.37300E+03
        -0.37300E+03
        -0.37300E+03
        -0.37300E+03
        -0.37300E+03
        -0.37300E+03
        -0.37300E+03
        -0.37300E+03
        -0.37300E+03
        -0.37300E+03
        -0.37300E+03
        -0.37300E+03
        -0.37300E+03
        -0.37300E+03
        -0.37300E+03
        -0.37300E+03
        -0.37300E+03
        -0.37300E+03
        -0.37300E+03
        -0.37300E+03
        -0.37300E+03
        -0.37300E+03
        -0.37300E+03
        -0.37300E+03
        -0.37300E+03
        -0.37300E+03
        -0.37300E+03
        -0.37300E+03
        -0.37300E+03
        -0.37300E+03
        -0.37300E+03
        -0.37300E+03
        -0.37300E+03
        -0.37300E+03
        -0.37300E+03
        -0.37300E+03
        -0.37300E+03
        -0.37300E+03
        -0.37300E+03
        -0.37300E+03
        -0.37300E+03
        -0.37300E+03
        -0.37300E+03
        -0.37300E+03
        -0.37300E+03
        -0.37300E+03
        -0.37300E+03
        -0.37300E+03
        -0.37300E+03
        -0.37300E+03
        -0.37300E+03
        -0.37300E+03
        -0.37300E+03
        -0.37300E+03
        -0.37300E+03
        -0.37300E+03
        -0.37300E+03
        -0.37300E+03
        -0.37300E+03
        -0.37300E+03
        -0.37300E+03
        -0.37300E+03
        -0.37300E+03
        -0.37300E+03
        -0.37300E+03
        -0.37300E+03
        -0.37300E+03
        -0.37300E+03
        -0.37300E+03
        -0.37300E+03
        -0.37300E+03
        -0.37300E+03
        -0.37300E+03
        -0.37300E+03
        -0.37300E+03
        -0.37300E+03
        -0.37300E+03
        -0.37300E+03
        -0.37300E+03
        -0.37300E+03
        -0.37300E+03
        -0.37300E+03
        -0.37300E+03
        -0.37300E+03
        -0.37300E+03
        -0.37300E+03
        -0.37300E+03
        -0.37300E+03
        -0.37300E+03
        -0.37300E+03
        -0.37300E+03
        -0.37300E+03
        -0.37300E+03
        -0.37300E+03
        -0.37300E+03
        -0.37300E+03
        -0.37300E+03
        -0.37300E+03
        -0.37300E+03
        -0.37300E+03
        -0.37300E+03
        -0.37300E+03
        -0.37300E+03
        -0.37300E+03
        -0.37300E+03
        -0.37300E+03
        -0.37300E+03
        -0.37300E+03
        -0.37300E+03
        -0.37300E+03
        -0.37300E+03
        -0.37300E+03
        -0.37300E+03
        -0.37300E+03
        -0.37300E+03
        -0.37300E+03
        -0.37300E+03
        -0.37300E+03
        -0.37300E+03
        -0.37300E+03
        -0.37300E+03
        -0.37300E+03
        -0.37300E+03
        -0.37300E+03
        -0.37300E+03
        -0.37300E+03
        -0.37300E+03
        -0.37300E+03
        -0.37300E+03
        -0.37300E+03
        -0.37300E+03
        -0.37300E+03
        -0.37300E+03
        -0.37300E+03
        -0.37300E+03
        -0.37300E+03
        -0.37300E+03
        -0.37300E+03
        -0.37300E+03
        -0.37300E+03
        -0.37300E+03
        -0.37300E+03
        -0.37300E+03
        -0.37300E+03
        -0.37300E+03
        -0.37300E+03
        -0.37300E+03
        -0.37300E+03
        -0.37300E+03
        -0.37300E+03
        -0.37300E+03
        -0.37300E+03
        -0.37300E+03
        -0.37300E+03
        -0.37300E+03
        -0.37300E+03
        -0.37300E+03
        -0.37300E+03
        -0.37300E+03
        -0.37300E+03
        -0.37300E+03
        -0.37300E+03
        -0.37300E+03
        -0.37300E+03
        -0.37300E+03
        -0.37300E+03
        -0.37300E+03
        -0.37300E+03
        -0.37300E+03
        -0.37300E+03
        -0.37300E+03
        -0.37300E+03
        -0.37300E+03
        -0.37300E+03
        -0.37300E+03
        -0.37300E+03
        -0.37300E+03
        -0.37300E+03
        -0.37300E+03
        -0.37300E+03
        -0.37300E+03
        -0.37300E+03
        -0.37300E+03
        -0.37300E+03
        -0.37300E+03
        -0.37300E+03
        -0.37300E+03
        -0.37300E+03
        -0.37300E+03
        -0.37300E+03
        -0.37300E+03
        -0.37300E+03
        -0.37300E+03
        -0.37300E+03
        -0.37300E+03
        -0.37300E+03
        -0.37300E+03
        -0.37300E+03
        -0.37300E+03
        -0.37300E+03
        -0.37300E+03
        -0.37300E+03
        -0.37300E+03
        -0.37300E+03
        -0.37300E+03
        -0.37300E+03
        -0.37300E+03
        -0.37300E+03
        -0.37300E+03
        -0.37300E+03
        -0.37300E+03
        -0.37300E+03
        -0.37300E+03
        -0.37300E+03
        -0.37300E+03
        -0.37300E+03
        -0.37300E+03
        -0.37300E+03
        -0.37300E+03
        -0.37300E+03
        -0.37300E+03
        -0.37300E+03
        -0.37300E+03
        -0.37300E+03
        -0.37300E+03
        -0.37300E+03
        -0.37300E+03
        -0.37300E+03
        -0.37300E+03
        -0.37300E+03
        -0.37300E+03
        -0.37300E+03
        -0.37300E+03
        -0.37300E+03
        -0.37300E+03
        -0.37300E+03
        -0.37300E+03
        -0.37300E+03
        -0.37300E+03
        -0.37300E+03
        -0.37300E+03
        -0.37300E+03
        -0.37300E+03
        -0.37300E+03
        -0.37300E+03
        -0.37300E+03
        -0.37300E+03
        -0.37300E+03
        -0.37300E+03
        -0.37300E+03
        -0.37300E+03
        -0.37300E+03
        -0.37300E+03
        -0.37300E+03
        -0.37300E+03
        -0.37300E+03
        -0.37300E+03
        -0.37300E+03
        -0.37300E+03
        -0.37300E+03
        -0.37300E+03
        -0.37300E+03
        -0.37300E+03
        -0.37300E+03
        -0.37300E+03
        -0.37300E+03
        -0.37300E+03
        -0.37300E+03
        -0.37300E+03
        -0.37300E+03
        -0.37300E+03
        -0.37300E+03
        -0.37300E+03
        -0.37300E+03
        -0.37300E+03
        -0.37300E+03
        -0.37300E+03
        -0.37300E+03
        -0.37300E+03
        -0.37300E+03
        -0.37300E+03
        -0.37300E+03
        -0.37300E+03
        -0.37300E+03
        -0.37300E+03
        -0.37300E+03
        -0.37300E+03
        -0.37300E+03
        -0.37300E+03
        -0.37300E+03
        -0.37300E+03
        -0.37300E+03
        -0.37300E+03
        -0.37300E+03
        -0.37300E+03
        -0.37300E+03
        -0.37300E+03
        -0.37300E+03
        -0.37300E+03
        -0.37300E+03
        -0.37300E+03
        -0.37300E+03
        -0.37300E+03
        -0.37300E+03
        -0.37300E+03
        -0.37300E+03
        -0.37300E+03
        -0.37300E+03
        -0.37300E+03
        -0.37300E+03
        -0.37300E+03
        -0.37300E+03
        -0.37300E+03
        -0.37300E+03
        -0.37300E+03
        -0.37300E+03
        -0.37300E+03
        -0.37300E+03
        -0.37300E+03
        -0.37300E+03
        -0.37300E+03
        -0.37300E+03
        -0.37300E+03
        -0.37300E+03
        -0.37300E+03
        -0.37300E+03
        -0.37300E+03
        -0.37300E+03
        -0.37300E+03
        -0.37300E+03
        -0.37300E+03
        -0.37300E+03
        -0.37300E+03
        -0.37300E+03
        -0.37300E+03
        -0.37300E+03
        -0.37300E+03
        -0.37300E+03
        -0.37300E+03
        -0.37300E+03
        -0.37300E+03
        -0.37300E+03
        -0.37300E+03
        -0.37300E+03
        -0.37300E+03
        -0.37300E+03
        -0.37300E+03
        -0.37300E+03
        -0.37300E+03
        -0.37300E+03
        -0.37300E+03
        -0.37300E+03
        -0.37300E+03
        -0.37300E+03
        -0.37300E+03
        -0.37300E+03
        -0.37300E+03
        -0.37300E+03
        -0.37300E+03
        -0.37300E+03
        -0.37300E+03
        -0.37300E+03
        -0.37300E+03
        -0.37300E+03
        -0.37300E+03
        -0.37300E+03
        -0.37300E+03
        -0.37300E+03
        -0.37300E+03
        -0.37300E+03
        -0.37300E+03
        -0.37300E+03
        -0.37300E+03
        -0.37300E+03
        -0.37300E+03
        -0.37300E+03
        -0.37300E+03
        -0.37300E+03
        -0.37300E+03
        -0.37300E+03
        -0.37300E+03
        -0.37300E+03
        -0.37300E+03
        -0.37300E+03
        -0.37300E+03
        -0.37300E+03
        -0.37300E+03
        -0.37300E+03
        -0.37300E+03
        -0.37300E+03
        -0.37300E+03
        -0.37300E+03
        -0.37300E+03
        -0.37300E+03
        -0.37300E+03
        -0.37300E+03
        -0.37300E+03
        -0.37300E+03
        -0.37300E+03
        -0.37300E+03
        -0.37300E+03
        -0.37300E+03
        -0.37300E+03
        -0.37300E+03
        -0.37300E+03
        -0.37300E+03
        -0.37300E+03
        -0.37300E+03
        -0.37300E+03
        -0.37300E+03
        -0.37300E+03
        -0.37300E+03
        -0.37300E+03
        -0.37300E+03
        -0.37300E+03
        -0.37300E+03
        -0.37300E+03
        -0.37300E+03
        -0.37300E+03
        -0.37300E+03
        -0.37300E+03
        -0.37300E+03
        -0.37300E+03
        -0.37300E+03
        -0.37300E+03
        -0.37300E+03
        -0.37300E+03
        -0.37300E+03
        -0.37300E+03
        -0.37300E+03
        -0.37300E+03
        -0.37300E+03
        -0.37300E+03
        -0.37300E+03
        -0.37300E+03
        -0.37300E+03
        -0.37300E+03
        -0.37300E+03
        -0.37300E+03
        -0.37300E+03
        -0.37300E+03
        -0.37300E+03
        -0.37300E+03
        -0.37300E+03
        -0.37300E+03
        -0.37300E+03
        -0.37300E+03
        -0.37300E+03
        -0.37300E+03
        -0.37300E+03
        -0.37300E+03
        -0.37300E+03
        -0.37300E+03
        -0.37300E+03
        -0.37300E+03
        -0.37300E+03
        -0.37300E+03
        -0.37300E+03
        -0.37300E+03
        -0.37300E+03
        -0.37300E+03
        -0.37300E+03
        -0.37300E+03
        -0.37300E+03
        -0.37300E+03
        -0.37300E+03
        -0.37300E+03
        -0.37300E+03
        -0.37300E+03
        -0.37300E+03
        -0.37300E+03
        -0.37300E+03
        -0.37300E+03
        -0.37300E+03
        -0.37300E+03
        -0.37300E+03
        -0.37300E+03
        -0.37300E+03
        -0.37300E+03
        -0.37300E+03
        -0.37300E+03
        -0.37300E+03
        -0.37300E+03
        -0.37300E+03
        -0.37300E+03
        -0.37300E+03
        -0.37300E+03
        -0.37300E+03
        -0.37300E+03
        -0.37300E+03
        -0.37300E+03
        -0.37300E+03
        -0.37300E+03
        -0.37300E+03
        -0.37300E+03
        -0.37300E+03
        -0.37300E+03
        -0.37300E+03
        -0.37300E+03
        -0.37300E+03
        -0.37300E+03
        -0.37300E+03
        -0.37300E+03
        -0.37300E+03
        -0.37300E+03
        -0.37300E+03
        -0.37300E+03
        -0.37300E+03
        -0.37300E+03
        -0.37300E+03
        -0.37300E+03
        -0.37300E+03
        -0.37300E+03
        -0.37300E+03
        -0.37300E+03
        -0.37300E+03
        -0.37300E+03
        -0.37300E+03
        -0.37300E+03
        -0.37300E+03
        -0.37300E+03
        -0.37300E+03
        -0.37300E+03
        -0.37300E+03
        -0.37300E+03
        -0.37300E+03
        -0.37300E+03
        -0.37300E+03
        -0.37300E+03
        -0.37300E+03
        -0.37300E+03
        -0.37300E+03
        -0.37300E+03
        -0.37300E+03
        -0.37300E+03
        -0.37300E+03
        -0.37300E+03
        -0.37300E+03
        -0.37300E+03
        -0.37300E+03
        -0.37300E+03
        -0.37300E+03
        -0.37300E+03
        -0.37300E+03
        -0.37300E+03
        -0.37300E+03
        -0.37300E+03
        -0.37300E+03
        -0.37300E+03
        -0.37300E+03
        -0.37300E+03
        -0.37300E+03
        -0.37300E+03
        -0.37300E+03
        -0.37300E+03
        -0.37300E+03
        -0.37300E+03
        -0.37300E+03
        -0.37300E+03
        -0.37300E+03
        -0.37300E+03
        -0.37300E+03
        -0.37300E+03
        -0.37300E+03
        -0.37300E+03
        -0.37300E+03
        -0.37300E+03
        -0.37300E+03
        -0.37300E+03
        -0.37300E+03
        -0.37300E+03
        -0.37300E+03
        -0.37300E+03
        -0.37300E+03
        -0.37300E+03
        -0.37300E+03
        -0.37300E+03
        -0.37300E+03
        -0.37300E+03
        -0.37300E+03
        -0.37300E+03
        -0.37300E+03
        -0.37300E+03
        -0.37300E+03
        -0.37300E+03
        -0.37300E+03
        -0.37300E+03
        -0.37300E+03
        -0.37300E+03
        -0.37300E+03
        -0.37300E+03
        -0.37300E+03
        -0.37300E+03
        -0.37300E+03
        -0.37300E+03
        -0.37300E+03
        -0.37300E+03
        -0.37300E+03
        -0.37300E+03
        -0.37300E+03
        -0.37300E+03
        -0.37300E+03
        -0.37300E+03
        -0.37300E+03
        -0.37300E+03
        -0.37300E+03
        -0.37300E+03
        -0.37300E+03
        -0.37300E+03
        -0.37300E+03
        -0.37300E+03
        -0.37300E+03
        -0.37300E+03
        -0.37300E+03
        -0.37300E+03
        -0.37300E+03
        -0.37300E+03
        -0.37300E+03
        -0.37300E+03
        -0.37300E+03
        -0.37300E+03
        -0.37300E+03
        -0.37300E+03
        -0.37300E+03
        -0.37300E+03
        -0.37300E+03
        -0.37300E+03
        -0.37300E+03
        -0.37300E+03
        -0.37300E+03
        -0.37300E+03
        -0.37300E+03
        -0.37300E+03
        -0.37300E+03
        -0.37300E+03
        -0.37300E+03
        -0.37300E+03
        -0.37300E+03
        -0.37300E+03
        -0.37300E+03
        -0.37300E+03
        -0.37300E+03
        -0.37300E+03
        -0.37300E+03
        -0.37300E+03
        -0.37300E+03
        -0.37300E+03
        -0.37300E+03
        -0.37300E+03
        -0.37300E+03
        -0.37300E+03
        -0.37300E+03
        -0.37300E+03
        -0.37300E+03
        -0.37300E+03
        -0.37300E+03
        -0.37300E+03
        -0.37300E+03
        -0.37300E+03
        -0.37300E+03
        -0.37300E+03
        -0.37300E+03
        -0.37300E+03
        -0.37300E+03
        -0.37300E+03
        -0.37300E+03
        -0.37300E+03
        -0.37300E+03
        -0.37300E+03
        -0.37300E+03
        -0.37300E+03
        -0.37300E+03
        -0.37300E+03
        -0.37300E+03
        -0.37300E+03
        -0.37300E+03
        -0.37300E+03
        -0.37300E+03
        -0.37300E+03
        -0.37300E+03
        -0.37300E+03
        -0.37300E+03
        -0.37300E+03
        -0.37300E+03
        -0.37300E+03
        -0.37300E+03
        -0.37300E+03
        -0.37300E+03
        -0.37300E+03
        -0.37300E+03
        -0.37300E+03
        -0.37300E+03
        -0.37300E+03
        -0.37300E+03
        -0.37300E+03
        -0.37300E+03
        -0.37300E+03
        -0.37300E+03
        -0.37300E+03
        -0.37300E+03
        -0.37300E+03
        -0.37300E+03
        -0.37300E+03
        -0.37300E+03
        -0.37300E+03
        -0.37300E+03
        -0.37300E+03
        -0.37300E+03
        -0.37300E+03
        -0.37300E+03
        -0.37300E+03
        -0.37300E+03
        -0.37300E+03
        -0.37300E+03
        -0.37300E+03
        -0.37300E+03
        -0.37300E+03
        -0.37300E+03
        -0.37300E+03
        -0.37300E+03
        -0.37300E+03
        -0.37300E+03
        -0.37300E+03
        -0.37300E+03
        -0.37300E+03
        -0.37300E+03
        -0.37300E+03
        -0.37300E+03
        -0.37300E+03
        -0.37300E+03
        -0.37300E+03
        -0.37300E+03
        -0.37300E+03
        -0.37300E+03
        -0.37300E+03
        -0.37300E+03
        -0.37300E+03
        -0.37300E+03
        -0.37300E+03
        -0.37300E+03
        -0.37300E+03
        -0.37300E+03
        -0.37300E+03
        -0.37300E+03
        -0.37300E+03
        -0.37300E+03
        -0.37300E+03
        -0.37300E+03
        -0.37300E+03
        -0.37300E+03
        -0.37300E+03
        -0.37300E+03
        -0.37300E+03
        -0.37300E+03
        -0.37300E+03
        -0.37300E+03
        -0.37300E+03
        -0.37300E+03
        -0.37300E+03
        -0.37300E+03
        -0.37300E+03
        -0.37300E+03
        -0.37300E+03
        -0.37300E+03
        -0.37300E+03
        -0.37300E+03
        -0.37300E+03
        -0.37300E+03
        -0.37300E+03
        -0.37300E+03
        -0.37300E+03
        -0.37300E+03
        -0.37300E+03
        -0.37300E+03
        -0.37300E+03
        -0.37300E+03
        -0.37300E+03
        -0.37300E+03
        -0.37300E+03
        -0.37300E+03
        -0.37300E+03
        -0.37300E+03
        -0.37300E+03
        -0.37300E+03
        -0.37300E+03
        -0.37300E+03
        -0.37300E+03
        -0.37300E+03
        -0.37300E+03
        -0.37300E+03
        -0.37300E+03
        -0.37300E+03
        -0.37300E+03
        -0.37300E+03
        -0.37300E+03
        -0.37300E+03
        -0.37300E+03
        -0.37300E+03
        -0.37300E+03
        -0.37300E+03
        -0.37300E+03
        -0.37300E+03
        -0.37300E+03
        -0.37300E+03
        -0.37300E+03
        -0.37300E+03
        -0.37300E+03
        -0.37300E+03
        -0.37300E+03
        -0.37300E+03
        -0.37300E+03
        -0.37300E+03
        -0.37300E+03
        -0.37300E+03
        -0.37300E+03
        -0.37300E+03
        -0.37300E+03
        -0.37300E+03
        -0.37300E+03
        -0.37300E+03
        -0.37300E+03
        -0.37300E+03
        -0.37300E+03
        -0.37300E+03
        -0.37300E+03
        -0.37300E+03
        -0.37300E+03
        -0.37300E+03
        -0.37300E+03
        -0.37300E+03
        -0.37300E+03
        -0.37300E+03
        -0.37300E+03
        -0.37300E+03
        -0.37300E+03
        -0.37300E+03
        -0.37300E+03
        -0.37300E+03
        -0.37300E+03
        -0.37300E+03
        -0.37300E+03
        -0.37300E+03
        -0.37300E+03
        -0.37300E+03
        -0.37300E+03
        -0.37300E+03
        -0.37300E+03
        -0.37300E+03
        -0.37300E+03
        -0.37300E+03
        -0.37300E+03
        -0.37300E+03
        -0.37300E+03
        -0.37300E+03
        -0.37300E+03
        -0.37300E+03
        -0.37300E+03
        -0.37300E+03
        -0.37300E+03
        -0.37300E+03
        -0.37300E+03
        -0.37300E+03
        -0.37300E+03
        -0.37300E+03
        -0.37300E+03
        -0.37300E+03
        -0.37300E+03
        -0.37300E+03
        -0.37300E+03
        -0.37300E+03
        -0.37300E+03
        -0.37300E+03
        -0.37300E+03
        -0.37300E+03
        -0.37300E+03
        -0.37300E+03
        -0.37300E+03
        -0.37300E+03
        -0.37300E+03
        -0.37300E+03
        -0.37300E+03
        -0.37300E+03
        -0.37300E+03
        -0.37300E+03
        -0.37300E+03
        -0.37300E+03
        -0.37300E+03
        -0.37300E+03
        -0.37300E+03
        -0.37300E+03
        -0.37300E+03
        -0.37300E+03
        -0.37300E+03
        -0.37300E+03
        -0.37300E+03
        -0.37300E+03
        -0.37300E+03
        -0.37300E+03
        -0.37300E+03
        -0.37300E+03
        -0.37300E+03
        -0.37300E+03
        -0.37300E+03
        -0.37300E+03
        -0.37300E+03
        -0.37300E+03
        -0.37300E+03
        -0.37300E+03
        -0.37300E+03
        -0.37300E+03
        -0.37300E+03
        -0.37300E+03
        -0.37300E+03
        -0.37300E+03
        -0.37300E+03
        -0.37300E+03
        -0.37300E+03
        -0.37300E+03
        -0.37300E+03
        -0.37300E+03
        -0.37300E+03
        -0.37300E+03
        -0.37300E+03
        -0.37300E+03
        -0.37300E+03
        -0.37300E+03
        -0.37300E+03
        -0.37300E+03
        -0.37300E+03
        -0.37300E+03
        -0.37300E+03
        -0.37300E+03
        -0.37300E+03
        -0.37300E+03
        -0.37300E+03
        -0.37300E+03
        -0.37300E+03
        -0.37300E+03
        -0.37300E+03
        -0.37300E+03
        -0.37300E+03
        -0.37300E+03
        -0.37300E+03
        -0.37300E+03
        -0.37300E+03
        -0.37300E+03
        -0.37300E+03
        -0.37300E+03
        -0.37300E+03
        -0.37300E+03
        -0.37300E+03
        -0.37300E+03
        -0.37300E+03
        -0.37300E+03
        -0.37300E+03
        -0.37300E+03
        -0.37300E+03
        -0.37300E+03
        -0.37300E+03
        -0.37300E+03
        -0.37300E+03
        -0.37300E+03
        -0.37300E+03
        -0.37300E+03
        -0.37300E+03
        -0.37300E+03
        -0.37300E+03
        -0.37300E+03
        -0.37300E+03
        -0.37300E+03
        -0.37300E+03
        -0.37300E+03
        -0.37300E+03
        -0.37300E+03
        -0.37300E+03
        -0.37300E+03
        -0.37300E+03
        -0.37300E+03
        -0.37300E+03
        -0.37300E+03
        -0.37300E+03
        -0.37300E+03
        -0.37300E+03
        -0.37300E+03
        -0.37300E+03
        -0.37300E+03
        -0.37300E+03
        -0.37300E+03
        -0.37300E+03
        -0.37300E+03
        -0.37300E+03
        -0.37300E+03
        -0.37300E+03
        -0.37300E+03
        -0.37300E+03
        -0.37300E+03
        -0.37300E+03
        -0.37300E+03
        -0.37300E+03
        -0.37300E+03
        -0.37300E+03
        -0.37300E+03
        -0.37300E+03
        -0.37300E+03
        -0.37300E+03
        -0.37300E+03
        -0.37300E+03
        -0.37300E+03
        -0.37300E+03
        -0.37300E+03
        -0.37300E+03
        -0.37300E+03
        -0.37300E+03
        -0.37300E+03
        -0.37300E+03
        -0.37300E+03
        -0.37300E+03
        -0.37300E+03
        -0.37300E+03
        -0.37300E+03
        -0.37300E+03
        -0.37300E+03
        -0.37300E+03
        -0.37300E+03
        -0.37300E+03
        -0.37300E+03
        -0.37300E+03
        -0.37300E+03
        -0.37300E+03
        -0.37300E+03
        -0.37300E+03
        -0.37300E+03
        -0.37300E+03
        -0.37300E+03
        -0.37300E+03
        -0.37300E+03
        -0.37300E+03
        -0.37300E+03
        -0.37300E+03
        -0.37300E+03
        -0.37300E+03
        -0.37300E+03
        -0.37300E+03
        -0.37300E+03
        -0.37300E+03
        -0.37300E+03
        -0.37300E+03
        -0.37300E+03
        -0.37300E+03
        -0.37300E+03
        -0.37300E+03
        -0.37300E+03
        -0.37300E+03
        -0.37300E+03
        -0.37300E+03
        -0.37300E+03
        -0.37300E+03
        -0.37300E+03
        -0.37300E+03
        -0.37300E+03
        -0.37300E+03
        -0.37300E+03
        -0.37300E+03
        -0.37300E+03
        -0.37300E+03
        -0.37300E+03
        -0.37300E+03
        -0.37300E+03
        -0.37300E+03
        -0.37300E+03
        -0.37300E+03
        -0.37300E+03
        -0.37300E+03
        -0.37300E+03
        -0.37300E+03
        -0.37300E+03
        -0.37300E+03
        -0.37300E+03
        -0.37300E+03
        -0.37300E+03
        -0.37300E+03
        -0.37300E+03
        -0.37300E+03
        -0.37300E+03
        -0.37300E+03
        -0.37300E+03
        -0.37300E+03
        -0.37300E+03
        -0.37300E+03
        -0.37300E+03
        -0.37300E+03
        -0.37300E+03
        -0.37300E+03
        -0.37300E+03
        -0.37300E+03
        -0.37300E+03
        -0.37300E+03
        -0.37300E+03
        -0.37300E+03
        -0.37300E+03
        -0.37300E+03
        -0.37300E+03
        -0.37300E+03
        -0.37300E+03
        -0.37300E+03
        -0.37300E+03
        -0.37300E+03
        -0.37300E+03
        -0.37300E+03
        -0.37300E+03
        -0.37300E+03
        -0.37300E+03
        -0.37300E+03
        -0.37300E+03
        -0.37300E+03
        -0.37300E+03
        -0.37300E+03
        -0.37300E+03
        -0.37300E+03
        -0.37300E+03
        -0.37300E+03
        -0.37300E+03
        -0.37300E+03
        -0.37300E+03
        -0.37300E+03
        -0.37300E+03
        -0.37300E+03
        -0.37300E+03
        -0.37300E+03
        -0.37300E+03
        -0.37300E+03
        -0.37300E+03
        -0.37300E+03
        -0.37300E+03
        -0.37300E+03
        -0.37300E+03
        -0.37300E+03
        -0.37300E+03
        -0.37300E+03
        -0.37300E+03
        -0.37300E+03
        -0.37300E+03
        -0.37300E+03
        -0.37300E+03
        -0.37300E+03
        -0.37300E+03
        -0.37300E+03
        -0.37300E+03
        -0.37300E+03
        -0.37300E+03
        -0.37300E+03
        -0.37300E+03
        -0.37300E+03
        -0.37300E+03
        -0.37300E+03
        -0.37300E+03
        -0.37300E+03
        -0.37300E+03
        -0.37300E+03
        -0.37300E+03
        -0.37300E+03
        -0.37300E+03
        -0.37300E+03
        -0.37300E+03
        -0.37300E+03
        -0.37300E+03
        -0.37300E+03
        -0.37300E+03
        -0.37300E+03
        -0.37300E+03
        -0.37300E+03
        -0.37300E+03
        -0.37300E+03
        -0.37300E+03
        -0.37300E+03
        -0.37300E+03
        -0.37300E+03
        -0.37300E+03
        -0.37300E+03
        -0.37300E+03
        -0.37300E+03
        -0.37300E+03
        -0.37300E+03
        -0.37300E+03
        -0.37300E+03
        -0.37300E+03
        -0.37300E+03
        -0.37300E+03
        -0.37300E+03
        -0.37300E+03
        -0.37300E+03
        -0.37300E+03
        -0.37300E+03
        -0.37300E+03
        -0.37300E+03
        -0.37300E+03
        -0.37300E+03
        -0.37300E+03
        -0.37300E+03
        -0.37300E+03
        -0.37300E+03
        -0.37300E+03
        -0.37300E+03
        -0.37300E+03
        -0.37300E+03
        -0.37300E+03
        -0.37300E+03
        -0.37300E+03
        -0.37300E+03
        -0.37300E+03
        -0.37300E+03
        -0.37300E+03
        -0.37300E+03
        -0.37300E+03
        -0.37300E+03
        -0.37300E+03
        -0.37300E+03
        -0.37300E+03
        -0.37300E+03
        -0.37300E+03
        -0.37300E+03
        -0.37300E+03
        -0.37300E+03
        -0.37300E+03
        -0.37300E+03
        -0.37300E+03
        -0.37300E+03
        -0.37300E+03
        -0.37300E+03
        -0.37300E+03
        -0.37300E+03
        -0.37300E+03
        -0.37300E+03
        -0.37300E+03
        -0.37300E+03
        -0.37300E+03
        -0.37300E+03
        -0.37300E+03
        -0.37300E+03
        -0.37300E+03
        -0.37300E+03
        -0.37300E+03
        -0.37300E+03
        -0.37300E+03
        -0.37300E+03
        -0.37300E+03
        -0.37300E+03
        -0.37300E+03
        -0.37300E+03
        -0.37300E+03
        -0.37300E+03
        -0.37300E+03
        -0.37300E+03
        -0.37300E+03
        -0.37300E+03
        -0.37300E+03
        -0.37300E+03
        -0.37300E+03
        -0.37300E+03
        -0.37300E+03
        -0.37300E+03
        -0.37300E+03
        -0.37300E+03
        -0.37300E+03
        -0.37300E+03
        -0.37300E+03
        -0.37300E+03
        -0.37300E+03
        -0.37300E+03
        -0.37300E+03
        -0.37300E+03
        -0.37300E+03
        -0.37300E+03
        -0.37300E+03
        -0.37300E+03
        -0.37300E+03
        -0.37300E+03
        -0.37300E+03
        -0.37300E+03
        -0.37300E+03
        -0.37300E+03
        -0.37300E+03
        -0.37300E+03
        -0.37300E+03
        -0.37300E+03
        -0.37300E+03
        -0.37300E+03
        -0.37300E+03
        -0.37300E+03
        -0.37300E+03
        -0.37300E+03
        -0.37300E+03
        -0.37300E+03
        -0.37300E+03
        -0.37300E+03
        -0.37300E+03
        -0.37300E+03
        -0.37300E+03
        -0.37300E+03
        -0.37300E+03
        -0.37300E+03
        -0.37300E+03
        -0.37300E+03
        -0.37300E+03
        -0.37300E+03
        -0.37300E+03
        -0.37300E+03
        -0.37300E+03
        -0.37300E+03
        -0.37300E+03
        -0.37300E+03
        -0.37300E+03
        -0.37300E+03
        -0.37300E+03
        -0.37300E+03
        -0.37300E+03
        -0.37300E+03
        -0.37300E+03
        -0.37300E+03
        -0.37300E+03
        -0.37300E+03
        -0.37300E+03
        -0.37300E+03
        -0.37300E+03
        -0.37300E+03
        -0.37300E+03
        -0.37300E+03
        -0.37300E+03
        -0.37300E+03
        -0.37300E+03
        -0.37300E+03
        -0.37300E+03
        -0.37300E+03
        -0.37300E+03
        -0.37300E+03
        -0.37300E+03
        -0.37300E+03
        -0.37300E+03
        -0.37300E+03
        -0.37300E+03
        -0.37300E+03
        -0.37300E+03
        -0.37300E+03
        -0.37300E+03
        -0.37300E+03
        -0.37300E+03
        -0.37300E+03
        -0.37300E+03
        -0.37300E+03
        -0.37300E+03
        -0.37300E+03
        -0.37300E+03
        -0.37300E+03
        -0.37300E+03
        -0.37300E+03
        -0.37300E+03
        -0.37300E+03
        -0.37300E+03
  
SCALARS              normalized_window  double 1
LOOKUP_TABLE default
         0.27500E+01
         0.27500E+01
         0.27500E+01
         0.27500E+01
         0.27500E+01
         0.27500E+01
         0.27500E+01
         0.27500E+01
         0.27500E+01
         0.27500E+01
         0.27500E+01
         0.27500E+01
         0.27500E+01
         0.27500E+01
         0.27500E+01
         0.27500E+01
         0.27500E+01
         0.27500E+01
         0.27500E+01
         0.27500E+01
         0.27500E+01
         0.27500E+01
         0.27500E+01
         0.27500E+01
         0.27500E+01
         0.27500E+01
         0.27500E+01
         0.27500E+01
         0.27500E+01
         0.27500E+01
         0.27500E+01
         0.27500E+01
         0.27500E+01
         0.27500E+01
         0.27500E+01
         0.27500E+01
         0.27500E+01
         0.27500E+01
         0.27500E+01
         0.27500E+01
         0.27500E+01
         0.27500E+01
         0.27500E+01
         0.27500E+01
         0.27500E+01
         0.27500E+01
         0.27500E+01
         0.27500E+01
         0.27500E+01
         0.27500E+01
         0.27500E+01
         0.27500E+01
         0.27500E+01
         0.27500E+01
         0.27500E+01
         0.27500E+01
         0.27500E+01
         0.27500E+01
         0.27500E+01
         0.27500E+01
         0.27500E+01
         0.27500E+01
         0.27500E+01
         0.27500E+01
         0.27500E+01
         0.27500E+01
         0.27500E+01
         0.27500E+01
         0.27500E+01
         0.27500E+01
         0.27500E+01
         0.27500E+01
         0.27500E+01
         0.27500E+01
         0.27500E+01
         0.27500E+01
         0.27500E+01
         0.27500E+01
         0.27500E+01
         0.27500E+01
         0.27500E+01
         0.27500E+01
         0.27500E+01
         0.27500E+01
         0.27500E+01
         0.27500E+01
         0.27500E+01
         0.27500E+01
         0.27500E+01
         0.27500E+01
         0.27500E+01
         0.27500E+01
         0.27500E+01
         0.27500E+01
         0.27500E+01
         0.27500E+01
         0.27500E+01
         0.27500E+01
         0.27500E+01
         0.27500E+01
         0.27500E+01
         0.27500E+01
         0.27500E+01
         0.27500E+01
         0.27500E+01
         0.27500E+01
         0.27500E+01
         0.27500E+01
         0.27500E+01
         0.27500E+01
         0.27500E+01
         0.27500E+01
         0.27500E+01
         0.27500E+01
         0.27500E+01
         0.27500E+01
         0.27500E+01
         0.27500E+01
         0.27500E+01
         0.27500E+01
         0.27500E+01
         0.27500E+01
         0.27500E+01
         0.27500E+01
         0.27500E+01
         0.27500E+01
         0.27500E+01
         0.27500E+01
         0.27500E+01
         0.27500E+01
         0.27500E+01
         0.27500E+01
         0.27500E+01
         0.27500E+01
         0.27500E+01
         0.27500E+01
         0.27500E+01
         0.27500E+01
         0.27500E+01
         0.27500E+01
         0.27500E+01
         0.27500E+01
         0.27500E+01
         0.27500E+01
         0.27500E+01
         0.27500E+01
         0.27500E+01
         0.27500E+01
         0.27500E+01
         0.27500E+01
         0.27500E+01
         0.27500E+01
         0.27500E+01
         0.27500E+01
         0.27500E+01
         0.27500E+01
         0.27500E+01
         0.27500E+01
         0.27500E+01
         0.27500E+01
         0.27500E+01
         0.27500E+01
         0.27500E+01
         0.27500E+01
         0.27500E+01
         0.27500E+01
         0.27500E+01
         0.27500E+01
         0.27500E+01
         0.27500E+01
         0.27500E+01
         0.27500E+01
         0.27500E+01
         0.27500E+01
         0.27500E+01
         0.27500E+01
         0.27500E+01
         0.27500E+01
         0.27500E+01
         0.27500E+01
         0.27500E+01
         0.27500E+01
         0.27500E+01
         0.27500E+01
         0.27500E+01
         0.27500E+01
         0.27500E+01
         0.27500E+01
         0.27500E+01
         0.27500E+01
         0.27500E+01
         0.27500E+01
         0.27500E+01
         0.27500E+01
         0.27500E+01
         0.27500E+01
         0.27500E+01
         0.27500E+01
         0.27500E+01
         0.27500E+01
         0.27500E+01
         0.27500E+01
         0.27500E+01
         0.27500E+01
         0.27500E+01
         0.27500E+01
         0.27500E+01
         0.27500E+01
         0.27500E+01
         0.27500E+01
         0.27500E+01
         0.27500E+01
         0.27500E+01
         0.27500E+01
         0.27500E+01
         0.27500E+01
         0.27500E+01
         0.27500E+01
         0.27500E+01
         0.27500E+01
         0.27500E+01
         0.27500E+01
         0.27500E+01
         0.27500E+01
         0.27500E+01
         0.27500E+01
         0.27500E+01
         0.27500E+01
         0.27500E+01
         0.27500E+01
         0.27500E+01
         0.27500E+01
         0.27500E+01
         0.27500E+01
         0.27500E+01
         0.27500E+01
         0.27500E+01
         0.27500E+01
         0.27500E+01
         0.27500E+01
         0.27500E+01
         0.27500E+01
         0.27500E+01
         0.27500E+01
         0.27500E+01
         0.27500E+01
         0.27500E+01
         0.27500E+01
         0.27500E+01
         0.27500E+01
         0.27500E+01
         0.27500E+01
         0.27500E+01
         0.27500E+01
         0.27500E+01
         0.27500E+01
         0.27500E+01
         0.27500E+01
         0.27500E+01
         0.27500E+01
         0.27500E+01
         0.27500E+01
         0.27500E+01
         0.27500E+01
         0.27500E+01
         0.27500E+01
         0.27500E+01
         0.27500E+01
         0.27500E+01
         0.27500E+01
         0.27500E+01
         0.27500E+01
         0.27500E+01
         0.27500E+01
         0.27500E+01
         0.27500E+01
         0.27500E+01
         0.27500E+01
         0.27500E+01
         0.27500E+01
         0.27500E+01
         0.27500E+01
         0.27500E+01
         0.27500E+01
         0.27500E+01
         0.27500E+01
         0.27500E+01
         0.27500E+01
         0.27500E+01
         0.27500E+01
         0.27500E+01
         0.27500E+01
         0.27500E+01
         0.27500E+01
         0.27500E+01
         0.27500E+01
         0.27500E+01
         0.27500E+01
         0.27500E+01
         0.27500E+01
         0.27500E+01
         0.27500E+01
         0.27500E+01
         0.27500E+01
         0.27500E+01
         0.27500E+01
         0.27500E+01
         0.27500E+01
         0.27500E+01
         0.27500E+01
         0.27500E+01
         0.27500E+01
         0.27500E+01
         0.27500E+01
         0.27500E+01
         0.27500E+01
         0.27500E+01
         0.27500E+01
         0.27500E+01
         0.27500E+01
         0.27500E+01
         0.27500E+01
         0.27500E+01
         0.27500E+01
         0.27500E+01
         0.27500E+01
         0.27500E+01
         0.27500E+01
         0.27500E+01
         0.27500E+01
         0.27500E+01
         0.27500E+01
         0.27500E+01
         0.27500E+01
         0.27500E+01
         0.27500E+01
         0.27500E+01
         0.27500E+01
         0.27500E+01
         0.27500E+01
         0.27500E+01
         0.27500E+01
         0.27500E+01
         0.27500E+01
         0.27500E+01
         0.27500E+01
         0.27500E+01
         0.27500E+01
         0.27500E+01
         0.27500E+01
         0.27500E+01
         0.27500E+01
         0.27500E+01
         0.27500E+01
         0.27500E+01
         0.27500E+01
         0.27500E+01
         0.27500E+01
         0.27500E+01
         0.27500E+01
         0.27500E+01
         0.27500E+01
         0.27500E+01
         0.27500E+01
         0.27500E+01
         0.27500E+01
         0.27500E+01
         0.27500E+01
         0.27500E+01
         0.27500E+01
         0.27500E+01
         0.27500E+01
         0.27500E+01
         0.27500E+01
         0.27500E+01
         0.27500E+01
         0.27500E+01
         0.27500E+01
         0.27500E+01
         0.27500E+01
         0.27500E+01
         0.27500E+01
         0.27500E+01
         0.27500E+01
         0.27500E+01
         0.27500E+01
         0.27500E+01
         0.27500E+01
         0.27500E+01
         0.27500E+01
         0.27500E+01
         0.27500E+01
         0.27500E+01
         0.27500E+01
         0.27500E+01
         0.27500E+01
         0.27500E+01
         0.27500E+01
         0.27500E+01
         0.27500E+01
         0.27500E+01
         0.27500E+01
         0.27500E+01
         0.27500E+01
         0.27500E+01
         0.27500E+01
         0.27500E+01
         0.27500E+01
         0.27500E+01
         0.27500E+01
         0.27500E+01
         0.27500E+01
         0.27500E+01
         0.27500E+01
         0.27500E+01
         0.27500E+01
         0.27500E+01
         0.27500E+01
         0.27500E+01
         0.27500E+01
         0.27500E+01
         0.27500E+01
         0.27500E+01
         0.27500E+01
         0.27500E+01
         0.27500E+01
         0.27500E+01
         0.27500E+01
         0.27500E+01
         0.27500E+01
         0.27500E+01
         0.27500E+01
         0.27500E+01
         0.27500E+01
         0.27500E+01
         0.27500E+01
         0.27500E+01
         0.27500E+01
         0.27500E+01
         0.27500E+01
         0.27500E+01
         0.27500E+01
         0.27500E+01
         0.27500E+01
         0.27500E+01
         0.27500E+01
         0.27500E+01
         0.27500E+01
         0.27500E+01
         0.27500E+01
         0.27500E+01
         0.27500E+01
         0.27500E+01
         0.27500E+01
         0.27500E+01
         0.27500E+01
         0.27500E+01
         0.27500E+01
         0.27500E+01
         0.27500E+01
         0.27500E+01
         0.27500E+01
         0.27500E+01
         0.27500E+01
         0.27500E+01
         0.27500E+01
         0.27500E+01
         0.27500E+01
         0.27500E+01
         0.27500E+01
         0.27500E+01
         0.27500E+01
         0.27500E+01
         0.27500E+01
         0.27500E+01
         0.27500E+01
         0.27500E+01
         0.27500E+01
         0.27500E+01
         0.27500E+01
         0.27500E+01
         0.27500E+01
         0.27500E+01
         0.27500E+01
         0.27500E+01
         0.27500E+01
         0.27500E+01
         0.27500E+01
         0.27500E+01
         0.27500E+01
         0.27500E+01
         0.27500E+01
         0.27500E+01
         0.27500E+01
         0.27500E+01
         0.27500E+01
         0.27500E+01
         0.27500E+01
         0.27500E+01
         0.27500E+01
         0.27500E+01
         0.27500E+01
         0.27500E+01
         0.27500E+01
         0.27500E+01
         0.27500E+01
         0.27500E+01
         0.27500E+01
         0.27500E+01
         0.27500E+01
         0.27500E+01
         0.27500E+01
         0.27500E+01
         0.27500E+01
         0.27500E+01
         0.27500E+01
         0.27500E+01
         0.27500E+01
         0.27500E+01
         0.27500E+01
         0.27500E+01
         0.27500E+01
         0.27500E+01
         0.27500E+01
         0.27500E+01
         0.27500E+01
         0.27500E+01
         0.27500E+01
         0.27500E+01
         0.27500E+01
         0.27500E+01
         0.27500E+01
         0.27500E+01
         0.27500E+01
         0.27500E+01
         0.27500E+01
         0.27500E+01
         0.27500E+01
         0.27500E+01
         0.27500E+01
         0.27500E+01
         0.27500E+01
         0.27500E+01
         0.27500E+01
         0.27500E+01
         0.27500E+01
         0.27500E+01
         0.27500E+01
         0.27500E+01
         0.27500E+01
         0.27500E+01
         0.27500E+01
         0.27500E+01
         0.27500E+01
         0.27500E+01
         0.27500E+01
         0.27500E+01
         0.27500E+01
         0.27500E+01
         0.27500E+01
         0.27500E+01
         0.27500E+01
         0.27500E+01
         0.27500E+01
         0.27500E+01
         0.27500E+01
         0.27500E+01
         0.27500E+01
         0.27500E+01
         0.27500E+01
         0.27500E+01
         0.27500E+01
         0.27500E+01
         0.27500E+01
         0.27500E+01
         0.27500E+01
         0.27500E+01
         0.27500E+01
         0.27500E+01
         0.27500E+01
         0.27500E+01
         0.27500E+01
         0.27500E+01
         0.27500E+01
         0.27500E+01
         0.27500E+01
         0.27500E+01
         0.27500E+01
         0.27500E+01
         0.27500E+01
         0.27500E+01
         0.27500E+01
         0.27500E+01
         0.27500E+01
         0.27500E+01
         0.27500E+01
         0.27500E+01
         0.27500E+01
         0.27500E+01
         0.27500E+01
         0.27500E+01
         0.27500E+01
         0.27500E+01
         0.27500E+01
         0.27500E+01
         0.27500E+01
         0.27500E+01
         0.27500E+01
         0.27500E+01
         0.27500E+01
         0.27500E+01
         0.27500E+01
         0.27500E+01
         0.27500E+01
         0.27500E+01
         0.27500E+01
         0.27500E+01
         0.27500E+01
         0.27500E+01
         0.27500E+01
         0.27500E+01
         0.27500E+01
         0.27500E+01
         0.27500E+01
         0.27500E+01
         0.27500E+01
         0.27500E+01
         0.27500E+01
         0.27500E+01
         0.27500E+01
         0.27500E+01
         0.27500E+01
         0.27500E+01
         0.27500E+01
         0.27500E+01
         0.27500E+01
         0.27500E+01
         0.27500E+01
         0.27500E+01
         0.27500E+01
         0.27500E+01
         0.27500E+01
         0.27500E+01
         0.27500E+01
         0.27500E+01
         0.27500E+01
         0.27500E+01
         0.27500E+01
         0.27500E+01
         0.27500E+01
         0.27500E+01
         0.27500E+01
         0.27500E+01
         0.27500E+01
         0.27500E+01
         0.27500E+01
         0.27500E+01
         0.27500E+01
         0.27500E+01
         0.27500E+01
         0.27500E+01
         0.27500E+01
         0.27500E+01
         0.27500E+01
         0.27500E+01
         0.27500E+01
         0.27500E+01
         0.27500E+01
         0.27500E+01
         0.27500E+01
         0.27500E+01
         0.27500E+01
         0.27500E+01
         0.27500E+01
         0.27500E+01
         0.27500E+01
         0.27500E+01
         0.27500E+01
         0.27500E+01
         0.27500E+01
         0.27500E+01
         0.27500E+01
         0.27500E+01
         0.27500E+01
         0.27500E+01
         0.27500E+01
         0.27500E+01
         0.27500E+01
         0.27500E+01
         0.27500E+01
         0.27500E+01
         0.27500E+01
         0.27500E+01
         0.27500E+01
         0.27500E+01
         0.27500E+01
         0.27500E+01
         0.27500E+01
         0.27500E+01
         0.27500E+01
         0.27500E+01
         0.27500E+01
         0.27500E+01
         0.27500E+01
         0.27500E+01
         0.27500E+01
         0.27500E+01
         0.27500E+01
         0.27500E+01
         0.27500E+01
         0.27500E+01
         0.27500E+01
         0.27500E+01
         0.27500E+01
         0.27500E+01
         0.27500E+01
         0.27500E+01
         0.27500E+01
         0.27500E+01
         0.27500E+01
         0.27500E+01
         0.27500E+01
         0.27500E+01
         0.27500E+01
         0.27500E+01
         0.27500E+01
         0.27500E+01
         0.27500E+01
         0.27500E+01
         0.27500E+01
         0.27500E+01
         0.27500E+01
         0.27500E+01
         0.27500E+01
         0.27500E+01
         0.27500E+01
         0.27500E+01
         0.27500E+01
         0.27500E+01
         0.27500E+01
         0.27500E+01
         0.27500E+01
         0.27500E+01
         0.27500E+01
         0.27500E+01
         0.27500E+01
         0.27500E+01
         0.27500E+01
         0.27500E+01
         0.27500E+01
         0.27500E+01
         0.27500E+01
         0.27500E+01
         0.27500E+01
         0.27500E+01
         0.27500E+01
         0.27500E+01
         0.27500E+01
         0.27500E+01
         0.27500E+01
         0.27500E+01
         0.27500E+01
         0.27500E+01
         0.27500E+01
         0.27500E+01
         0.27500E+01
         0.27500E+01
         0.27500E+01
         0.27500E+01
         0.27500E+01
         0.27500E+01
         0.27500E+01
         0.27500E+01
         0.27500E+01
         0.27500E+01
         0.27500E+01
         0.27500E+01
         0.27500E+01
         0.27500E+01
         0.27500E+01
         0.27500E+01
         0.27500E+01
         0.27500E+01
         0.27500E+01
         0.27500E+01
         0.27500E+01
         0.27500E+01
         0.27500E+01
         0.27500E+01
         0.27500E+01
         0.27500E+01
         0.27500E+01
         0.27500E+01
         0.27500E+01
         0.27500E+01
         0.27500E+01
         0.27500E+01
         0.27500E+01
         0.27500E+01
         0.27500E+01
         0.27500E+01
         0.27500E+01
         0.27500E+01
         0.27500E+01
         0.27500E+01
         0.27500E+01
         0.27500E+01
         0.27500E+01
         0.27500E+01
         0.27500E+01
         0.27500E+01
         0.27500E+01
         0.27500E+01
         0.27500E+01
         0.27500E+01
         0.27500E+01
         0.27500E+01
         0.27500E+01
         0.27500E+01
         0.27500E+01
         0.27500E+01
         0.27500E+01
         0.27500E+01
         0.27500E+01
         0.27500E+01
         0.27500E+01
         0.27500E+01
         0.27500E+01
         0.27500E+01
         0.27500E+01
         0.27500E+01
         0.27500E+01
         0.27500E+01
         0.27500E+01
         0.27500E+01
         0.27500E+01
         0.27500E+01
         0.27500E+01
         0.27500E+01
         0.27500E+01
         0.27500E+01
         0.27500E+01
         0.27500E+01
         0.27500E+01
         0.27500E+01
         0.27500E+01
         0.27500E+01
         0.27500E+01
         0.27500E+01
         0.27500E+01
         0.27500E+01
         0.27500E+01
         0.27500E+01
         0.27500E+01
         0.27500E+01
         0.27500E+01
         0.27500E+01
         0.27500E+01
         0.27500E+01
         0.27500E+01
         0.27500E+01
         0.27500E+01
         0.27500E+01
         0.27500E+01
         0.27500E+01
         0.27500E+01
         0.27500E+01
         0.27500E+01
         0.27500E+01
         0.27500E+01
         0.27500E+01
         0.27500E+01
         0.27500E+01
         0.27500E+01
         0.27500E+01
         0.27500E+01
         0.27500E+01
         0.27500E+01
         0.27500E+01
         0.27500E+01
         0.27500E+01
         0.27500E+01
         0.27500E+01
         0.27500E+01
         0.27500E+01
         0.27500E+01
         0.27500E+01
         0.27500E+01
         0.27500E+01
         0.27500E+01
         0.27500E+01
         0.27500E+01
         0.27500E+01
         0.27500E+01
         0.27500E+01
         0.27500E+01
         0.27500E+01
         0.27500E+01
         0.27500E+01
         0.27500E+01
         0.27500E+01
         0.27500E+01
         0.27500E+01
         0.27500E+01
         0.27500E+01
         0.27500E+01
         0.27500E+01
         0.27500E+01
         0.27500E+01
         0.27500E+01
         0.27500E+01
         0.27500E+01
         0.27500E+01
         0.27500E+01
         0.27500E+01
         0.27500E+01
         0.27500E+01
         0.27500E+01
         0.27500E+01
         0.27500E+01
         0.27500E+01
         0.27500E+01
         0.27500E+01
         0.27500E+01
         0.27500E+01
         0.27500E+01
         0.27500E+01
         0.27500E+01
         0.27500E+01
         0.27500E+01
         0.27500E+01
         0.27500E+01
         0.27500E+01
         0.27500E+01
         0.27500E+01
         0.27500E+01
         0.27500E+01
         0.27500E+01
         0.27500E+01
         0.27500E+01
         0.27500E+01
         0.27500E+01
         0.27500E+01
         0.27500E+01
         0.27500E+01
         0.27500E+01
         0.27500E+01
         0.27500E+01
         0.27500E+01
         0.27500E+01
         0.27500E+01
         0.27500E+01
         0.27500E+01
         0.27500E+01
         0.27500E+01
         0.27500E+01
         0.27500E+01
         0.27500E+01
         0.27500E+01
         0.27500E+01
         0.27500E+01
         0.27500E+01
         0.27500E+01
         0.27500E+01
         0.27500E+01
         0.27500E+01
         0.27500E+01
         0.27500E+01
         0.27500E+01
         0.27500E+01
         0.27500E+01
         0.27500E+01
         0.27500E+01
         0.27500E+01
         0.27500E+01
         0.27500E+01
         0.27500E+01
         0.27500E+01
         0.27500E+01
         0.27500E+01
         0.27500E+01
         0.27500E+01
         0.27500E+01
         0.27500E+01
         0.27500E+01
         0.27500E+01
         0.27500E+01
         0.27500E+01
         0.27500E+01
         0.27500E+01
         0.27500E+01
         0.27500E+01
         0.27500E+01
         0.27500E+01
         0.27500E+01
         0.27500E+01
         0.27500E+01
         0.27500E+01
         0.27500E+01
         0.27500E+01
         0.27500E+01
         0.27500E+01
         0.27500E+01
         0.27500E+01
         0.27500E+01
         0.27500E+01
         0.27500E+01
         0.27500E+01
         0.27500E+01
         0.27500E+01
         0.27500E+01
         0.27500E+01
         0.27500E+01
         0.27500E+01
         0.27500E+01
         0.27500E+01
         0.27500E+01
         0.27500E+01
         0.27500E+01
         0.27500E+01
         0.27500E+01
         0.27500E+01
         0.27500E+01
         0.27500E+01
         0.27500E+01
         0.27500E+01
         0.27500E+01
         0.27500E+01
         0.27500E+01
         0.27500E+01
         0.27500E+01
         0.27500E+01
         0.27500E+01
         0.27500E+01
         0.27500E+01
         0.27500E+01
         0.27500E+01
         0.27500E+01
         0.27500E+01
         0.27500E+01
         0.27500E+01
         0.27500E+01
         0.27500E+01
         0.27500E+01
         0.27500E+01
         0.27500E+01
         0.27500E+01
         0.27500E+01
         0.27500E+01
         0.27500E+01
         0.27500E+01
         0.27500E+01
         0.27500E+01
         0.27500E+01
         0.27500E+01
         0.27500E+01
         0.27500E+01
         0.27500E+01
         0.27500E+01
         0.27500E+01
         0.27500E+01
         0.27500E+01
         0.27500E+01
         0.27500E+01
         0.27500E+01
         0.27500E+01
         0.27500E+01
         0.27500E+01
         0.27500E+01
         0.27500E+01
         0.27500E+01
         0.27500E+01
         0.27500E+01
         0.27500E+01
         0.27500E+01
         0.27500E+01
         0.27500E+01
         0.27500E+01
         0.27500E+01
         0.27500E+01
         0.27500E+01
         0.27500E+01
         0.27500E+01
         0.27500E+01
         0.27500E+01
         0.27500E+01
         0.27500E+01
         0.27500E+01
         0.27500E+01
         0.27500E+01
         0.27500E+01
         0.27500E+01
         0.27500E+01
         0.27500E+01
         0.27500E+01
         0.27500E+01
         0.27500E+01
         0.27500E+01
         0.27500E+01
         0.27500E+01
         0.27500E+01
         0.27500E+01
         0.27500E+01
         0.27500E+01
         0.27500E+01
         0.27500E+01
         0.27500E+01
         0.27500E+01
         0.27500E+01
         0.27500E+01
         0.27500E+01
         0.27500E+01
         0.27500E+01
         0.27500E+01
         0.27500E+01
         0.27500E+01
         0.27500E+01
         0.27500E+01
         0.27500E+01
         0.27500E+01
         0.27500E+01
         0.27500E+01
         0.27500E+01
         0.27500E+01
         0.27500E+01
         0.27500E+01
         0.27500E+01
         0.27500E+01
         0.27500E+01
         0.27500E+01
         0.27500E+01
         0.27500E+01
         0.27500E+01
         0.27500E+01
         0.27500E+01
         0.27500E+01
         0.27500E+01
         0.27500E+01
         0.27500E+01
         0.27500E+01
         0.27500E+01
         0.27500E+01
         0.27500E+01
         0.27500E+01
         0.27500E+01
         0.27500E+01
         0.27500E+01
         0.27500E+01
         0.27500E+01
         0.27500E+01
         0.27500E+01
         0.27500E+01
         0.27500E+01
         0.27500E+01
         0.27500E+01
         0.27500E+01
         0.27500E+01
         0.27500E+01
         0.27500E+01
         0.27500E+01
         0.27500E+01
         0.27500E+01
         0.27500E+01
         0.27500E+01
         0.27500E+01
         0.27500E+01
         0.27500E+01
         0.27500E+01
         0.27500E+01
         0.27500E+01
         0.27500E+01
         0.27500E+01
         0.27500E+01
         0.27500E+01
         0.27500E+01
         0.27500E+01
         0.27500E+01
         0.27500E+01
         0.27500E+01
         0.27500E+01
         0.27500E+01
         0.27500E+01
         0.27500E+01
         0.27500E+01
         0.27500E+01
         0.27500E+01
         0.27500E+01
         0.27500E+01
         0.27500E+01
         0.27500E+01
         0.27500E+01
         0.27500E+01
         0.27500E+01
         0.27500E+01
         0.27500E+01
         0.27500E+01
         0.27500E+01
         0.27500E+01
         0.27500E+01
         0.27500E+01
         0.27500E+01
         0.27500E+01
         0.27500E+01
         0.27500E+01
         0.27500E+01
         0.27500E+01
         0.27500E+01
         0.27500E+01
         0.27500E+01
         0.27500E+01
         0.27500E+01
         0.27500E+01
         0.27500E+01
         0.27500E+01
         0.27500E+01
         0.27500E+01
         0.27500E+01
         0.27500E+01
         0.27500E+01
         0.27500E+01
         0.27500E+01
         0.27500E+01
         0.27500E+01
         0.27500E+01
         0.27500E+01
         0.27500E+01
         0.27500E+01
         0.27500E+01
         0.27500E+01
         0.27500E+01
         0.27500E+01
         0.27500E+01
         0.27500E+01
         0.27500E+01
         0.27500E+01
         0.27500E+01
         0.27500E+01
         0.27500E+01
         0.27500E+01
         0.27500E+01
         0.27500E+01
         0.27500E+01
         0.27500E+01
         0.27500E+01
         0.27500E+01
         0.27500E+01
         0.27500E+01
         0.27500E+01
         0.27500E+01
         0.27500E+01
         0.27500E+01
         0.27500E+01
         0.27500E+01
         0.27500E+01
         0.27500E+01
         0.27500E+01
         0.27500E+01
         0.27500E+01
         0.27500E+01
         0.27500E+01
         0.27500E+01
         0.27500E+01
         0.27500E+01
         0.27500E+01
         0.27500E+01
         0.27500E+01
         0.27500E+01
         0.27500E+01
         0.27500E+01
         0.27500E+01
         0.27500E+01
         0.27500E+01
         0.27500E+01
         0.27500E+01
         0.27500E+01
         0.27500E+01
         0.27500E+01
         0.27500E+01
         0.27500E+01
         0.27500E+01
         0.27500E+01
         0.27500E+01
         0.27500E+01
         0.27500E+01
         0.27500E+01
         0.27500E+01
         0.27500E+01
         0.27500E+01
         0.27500E+01
         0.27500E+01
         0.27500E+01
         0.27500E+01
         0.27500E+01
         0.27500E+01
         0.27500E+01
         0.27500E+01
         0.27500E+01
         0.27500E+01
         0.27500E+01
         0.27500E+01
         0.27500E+01
         0.27500E+01
         0.27500E+01
         0.27500E+01
         0.27500E+01
         0.27500E+01
         0.27500E+01
         0.27500E+01
         0.27500E+01
         0.27500E+01
         0.27500E+01
         0.27500E+01
         0.27500E+01
         0.27500E+01
         0.27500E+01
         0.27500E+01
         0.27500E+01
         0.27500E+01
         0.27500E+01
         0.27500E+01
         0.27500E+01
         0.27500E+01
         0.27500E+01
         0.27500E+01
         0.27500E+01
         0.27500E+01
         0.27500E+01
         0.27500E+01
         0.27500E+01
         0.27500E+01
         0.27500E+01
         0.27500E+01
         0.27500E+01
         0.27500E+01
         0.27500E+01
         0.27500E+01
         0.27500E+01
         0.27500E+01
         0.27500E+01
         0.27500E+01
         0.27500E+01
         0.27500E+01
         0.27500E+01
         0.27500E+01
         0.27500E+01
         0.27500E+01
         0.27500E+01
         0.27500E+01
         0.27500E+01
         0.27500E+01
         0.27500E+01
         0.27500E+01
         0.27500E+01
         0.27500E+01
         0.27500E+01
         0.27500E+01
         0.27500E+01
         0.27500E+01
         0.27500E+01
         0.27500E+01
         0.27500E+01
         0.27500E+01
         0.27500E+01
         0.27500E+01
         0.27500E+01
         0.27500E+01
         0.27500E+01
         0.27500E+01
         0.27500E+01
         0.27500E+01
         0.27500E+01
         0.27500E+01
         0.27500E+01
         0.27500E+01
         0.27500E+01
         0.27500E+01
         0.27500E+01
         0.27500E+01
         0.27500E+01
         0.27500E+01
         0.27500E+01
         0.27500E+01
         0.27500E+01
         0.27500E+01
         0.27500E+01
         0.27500E+01
         0.27500E+01
         0.27500E+01
         0.27500E+01
         0.27500E+01
         0.27500E+01
         0.27500E+01
         0.27500E+01
         0.27500E+01
         0.27500E+01
         0.27500E+01
         0.27500E+01
         0.27500E+01
         0.27500E+01
         0.27500E+01
         0.27500E+01
         0.27500E+01
         0.27500E+01
         0.27500E+01
         0.27500E+01
         0.27500E+01
         0.27500E+01
         0.27500E+01
         0.27500E+01
         0.27500E+01
         0.27500E+01
         0.27500E+01
         0.27500E+01
         0.27500E+01
         0.27500E+01
         0.27500E+01
         0.27500E+01
         0.27500E+01
         0.27500E+01
         0.27500E+01
         0.27500E+01
         0.27500E+01
         0.27500E+01
         0.27500E+01
         0.27500E+01
         0.27500E+01
         0.27500E+01
         0.27500E+01
         0.27500E+01
         0.27500E+01
         0.27500E+01
         0.27500E+01
         0.27500E+01
         0.27500E+01
         0.27500E+01
         0.27500E+01
         0.27500E+01
         0.27500E+01
         0.27500E+01
         0.27500E+01
         0.27500E+01
         0.27500E+01
         0.27500E+01
         0.27500E+01
         0.27500E+01
         0.27500E+01
         0.27500E+01
         0.27500E+01
         0.27500E+01
         0.27500E+01
         0.27500E+01
         0.27500E+01
         0.27500E+01
         0.27500E+01
         0.27500E+01
         0.27500E+01
         0.27500E+01
         0.27500E+01
         0.27500E+01
         0.27500E+01
         0.27500E+01
         0.27500E+01
         0.27500E+01
         0.27500E+01
         0.27500E+01
         0.27500E+01
         0.27500E+01
         0.27500E+01
         0.27500E+01
         0.27500E+01
         0.27500E+01
         0.27500E+01
         0.27500E+01
         0.27500E+01
         0.27500E+01
         0.27500E+01
         0.27500E+01
         0.27500E+01
         0.27500E+01
         0.27500E+01
         0.27500E+01
         0.27500E+01
         0.27500E+01
         0.27500E+01
         0.27500E+01
         0.27500E+01
         0.27500E+01
         0.27500E+01
         0.27500E+01
         0.27500E+01
         0.27500E+01
         0.27500E+01
         0.27500E+01
         0.27500E+01
         0.27500E+01
         0.27500E+01
         0.27500E+01
         0.27500E+01
         0.27500E+01
         0.27500E+01
         0.27500E+01
         0.27500E+01
         0.27500E+01
         0.27500E+01
         0.27500E+01
         0.27500E+01
         0.27500E+01
         0.27500E+01
         0.27500E+01
         0.27500E+01
         0.27500E+01
         0.27500E+01
         0.27500E+01
         0.27500E+01
         0.27500E+01
         0.27500E+01
         0.27500E+01
         0.27500E+01
         0.27500E+01
         0.27500E+01
         0.27500E+01
         0.27500E+01
         0.27500E+01
         0.27500E+01
         0.27500E+01
         0.27500E+01
         0.27500E+01
         0.27500E+01
         0.27500E+01
         0.27500E+01
         0.27500E+01
         0.27500E+01
         0.27500E+01
         0.27500E+01
         0.27500E+01
         0.27500E+01
         0.27500E+01
         0.27500E+01
         0.27500E+01
         0.27500E+01
         0.27500E+01
         0.27500E+01
         0.27500E+01
         0.27500E+01
         0.27500E+01
         0.27500E+01
         0.27500E+01
         0.27500E+01
         0.27500E+01
         0.27500E+01
         0.27500E+01
         0.27500E+01
         0.27500E+01
         0.27500E+01
         0.27500E+01
         0.27500E+01
         0.27500E+01
         0.27500E+01
         0.27500E+01
         0.27500E+01
         0.27500E+01
         0.27500E+01
         0.27500E+01
         0.27500E+01
         0.27500E+01
         0.27500E+01
         0.27500E+01
         0.27500E+01
         0.27500E+01
         0.27500E+01
         0.27500E+01
         0.27500E+01
         0.27500E+01
         0.27500E+01
         0.27500E+01
         0.27500E+01
         0.27500E+01
         0.27500E+01
         0.27500E+01
         0.27500E+01
         0.27500E+01
         0.27500E+01
         0.27500E+01
         0.27500E+01
         0.27500E+01
         0.27500E+01
         0.27500E+01
         0.27500E+01
         0.27500E+01
         0.27500E+01
         0.27500E+01
         0.27500E+01
         0.27500E+01
         0.27500E+01
         0.27500E+01
         0.27500E+01
         0.27500E+01
         0.27500E+01
         0.27500E+01
         0.27500E+01
         0.27500E+01
         0.27500E+01
         0.27500E+01
         0.27500E+01
         0.27500E+01
         0.27500E+01
         0.27500E+01
         0.27500E+01
         0.27500E+01
         0.27500E+01
         0.27500E+01
         0.27500E+01
         0.27500E+01
         0.27500E+01
         0.27500E+01
         0.27500E+01
         0.27500E+01
         0.27500E+01
         0.27500E+01
         0.27500E+01
         0.27500E+01
         0.27500E+01
         0.27500E+01
         0.27500E+01
         0.27500E+01
         0.27500E+01
         0.27500E+01
         0.27500E+01
         0.27500E+01
         0.27500E+01
         0.27500E+01
         0.27500E+01
         0.27500E+01
         0.27500E+01
         0.27500E+01
         0.27500E+01
         0.27500E+01
         0.27500E+01
         0.27500E+01
         0.27500E+01
         0.27500E+01
         0.27500E+01
         0.27500E+01
         0.27500E+01
         0.27500E+01
         0.27500E+01
         0.27500E+01
         0.27500E+01
         0.27500E+01
         0.27500E+01
         0.27500E+01
         0.27500E+01
         0.27500E+01
         0.27500E+01
         0.27500E+01
         0.27500E+01
         0.27500E+01
         0.27500E+01
         0.27500E+01
         0.27500E+01
         0.27500E+01
         0.27500E+01
         0.27500E+01
         0.27500E+01
         0.27500E+01
         0.27500E+01
         0.27500E+01
         0.27500E+01
         0.27500E+01
         0.27500E+01
         0.27500E+01
         0.27500E+01
         0.27500E+01
         0.27500E+01
         0.27500E+01
         0.27500E+01
         0.27500E+01
         0.27500E+01
         0.27500E+01
         0.27500E+01
         0.27500E+01
         0.27500E+01
         0.27500E+01
         0.27500E+01
         0.27500E+01
         0.27500E+01
         0.27500E+01
         0.27500E+01
         0.27500E+01
         0.27500E+01
         0.27500E+01
         0.27500E+01
         0.27500E+01
         0.27500E+01
         0.27500E+01
         0.27500E+01
         0.27500E+01
         0.27500E+01
         0.27500E+01
         0.27500E+01
         0.27500E+01
         0.27500E+01
         0.27500E+01
         0.27500E+01
         0.27500E+01
         0.27500E+01
         0.27500E+01
         0.27500E+01
         0.27500E+01
         0.27500E+01
         0.27500E+01
         0.27500E+01
         0.27500E+01
         0.27500E+01
         0.27500E+01
         0.27500E+01
         0.27500E+01
         0.27500E+01
         0.27500E+01
         0.27500E+01
         0.27500E+01
         0.27500E+01
         0.27500E+01
         0.27500E+01
         0.27500E+01
         0.27500E+01
         0.27500E+01
         0.27500E+01
         0.27500E+01
         0.27500E+01
         0.27500E+01
         0.27500E+01
         0.27500E+01
         0.27500E+01
         0.27500E+01
         0.27500E+01
         0.27500E+01
         0.27500E+01
         0.27500E+01
         0.27500E+01
         0.27500E+01
         0.27500E+01
         0.27500E+01
         0.27500E+01
         0.27500E+01
         0.27500E+01
         0.27500E+01
         0.27500E+01
         0.27500E+01
         0.27500E+01
         0.27500E+01
         0.27500E+01
         0.27500E+01
         0.27500E+01
         0.27500E+01
         0.27500E+01
         0.27500E+01
         0.27500E+01
         0.27500E+01
         0.27500E+01
         0.27500E+01
         0.27500E+01
         0.27500E+01
         0.27500E+01
         0.27500E+01
         0.27500E+01
         0.27500E+01
         0.27500E+01
         0.27500E+01
         0.27500E+01
         0.27500E+01
         0.27500E+01
         0.27500E+01
         0.27500E+01
         0.27500E+01
         0.27500E+01
         0.27500E+01
         0.27500E+01
         0.27500E+01
         0.27500E+01
         0.27500E+01
         0.27500E+01
         0.27500E+01
         0.27500E+01
         0.27500E+01
         0.27500E+01
         0.27500E+01
         0.27500E+01
         0.27500E+01
         0.27500E+01
         0.27500E+01
         0.27500E+01
         0.27500E+01
         0.27500E+01
         0.27500E+01
         0.27500E+01
         0.27500E+01
         0.27500E+01
         0.27500E+01
         0.27500E+01
         0.27500E+01
         0.27500E+01
         0.27500E+01
         0.27500E+01
         0.27500E+01
         0.27500E+01
         0.27500E+01
         0.27500E+01
         0.27500E+01
         0.27500E+01
         0.27500E+01
         0.27500E+01
         0.27500E+01
         0.27500E+01
         0.27500E+01
         0.27500E+01
         0.27500E+01
         0.27500E+01
         0.27500E+01
         0.27500E+01
         0.27500E+01
         0.27500E+01
         0.27500E+01
         0.27500E+01
         0.27500E+01
         0.27500E+01
         0.27500E+01
         0.27500E+01
         0.27500E+01
         0.27500E+01
         0.27500E+01
         0.27500E+01
         0.27500E+01
         0.27500E+01
         0.27500E+01
         0.27500E+01
         0.27500E+01
         0.27500E+01
         0.27500E+01
         0.27500E+01
         0.27500E+01
         0.27500E+01
         0.27500E+01
         0.27500E+01
         0.27500E+01
         0.27500E+01
         0.27500E+01
         0.27500E+01
         0.27500E+01
         0.27500E+01
         0.27500E+01
         0.27500E+01
         0.27500E+01
         0.27500E+01
         0.27500E+01
         0.27500E+01
         0.27500E+01
         0.27500E+01
         0.27500E+01
         0.27500E+01
         0.27500E+01
         0.27500E+01
         0.27500E+01
         0.27500E+01
         0.27500E+01
         0.27500E+01
         0.27500E+01
         0.27500E+01
         0.27500E+01
         0.27500E+01
         0.27500E+01
         0.27500E+01
         0.27500E+01
         0.27500E+01
         0.27500E+01
         0.27500E+01
         0.27500E+01
         0.27500E+01
         0.27500E+01
         0.27500E+01
         0.27500E+01
         0.27500E+01
         0.27500E+01
         0.27500E+01
         0.27500E+01
         0.27500E+01
         0.27500E+01
         0.27500E+01
         0.27500E+01
         0.27500E+01
         0.27500E+01
         0.27500E+01
         0.27500E+01
         0.27500E+01
         0.27500E+01
         0.27500E+01
         0.27500E+01
         0.27500E+01
         0.27500E+01
         0.27500E+01
         0.27500E+01
         0.27500E+01
         0.27500E+01
         0.27500E+01
         0.27500E+01
         0.27500E+01
         0.27500E+01
         0.27500E+01
         0.27500E+01
         0.27500E+01
         0.27500E+01
         0.27500E+01
         0.27500E+01
         0.27500E+01
         0.27500E+01
         0.27500E+01
         0.27500E+01
         0.27500E+01
         0.27500E+01
         0.27500E+01
         0.27500E+01
         0.27500E+01
         0.27500E+01
         0.27500E+01
         0.27500E+01
         0.27500E+01
         0.27500E+01
         0.27500E+01
         0.27500E+01
         0.27500E+01
         0.27500E+01
         0.27500E+01
         0.27500E+01
         0.27500E+01
         0.27500E+01
         0.27500E+01
         0.27500E+01
         0.27500E+01
         0.27500E+01
         0.27500E+01
         0.27500E+01
         0.27500E+01
         0.27500E+01
         0.27500E+01
         0.27500E+01
         0.27500E+01
         0.27500E+01
         0.27500E+01
         0.27500E+01
         0.27500E+01
  
SCALARS              physical_window_x  double 1
LOOKUP_TABLE default
         0.42419E-02
         0.35201E-02
         0.37624E-02
         0.42419E-02
         0.42417E-02
         0.35201E-02
         0.37618E-02
         0.42417E-02
         0.37624E-02
         0.37624E-02
         0.37618E-02
         0.37618E-02
         0.30086E-02
         0.32069E-02
         0.30084E-02
         0.32067E-02
         0.42419E-02
         0.32069E-02
         0.42417E-02
         0.32067E-02
         0.24180E-02
         0.29942E-02
         0.32396E-02
         0.24180E-02
         0.29933E-02
         0.32385E-02
         0.26608E-02
         0.27190E-02
         0.26608E-02
         0.27190E-02
         0.42687E-02
         0.36511E-02
         0.42687E-02
         0.42687E-02
         0.36511E-02
         0.42687E-02
         0.32069E-02
         0.29739E-02
         0.32066E-02
         0.29739E-02
         0.34652E-02
         0.32621E-02
         0.34652E-02
         0.32621E-02
         0.37123E-02
         0.32069E-02
         0.37123E-02
         0.32066E-02
         0.30844E-02
         0.30844E-02
         0.35191E-02
         0.35189E-02
         0.26925E-02
         0.26925E-02
         0.26925E-02
         0.26925E-02
         0.24643E-02
         0.27651E-02
         0.24643E-02
         0.27651E-02
         0.42687E-02
         0.35191E-02
         0.42687E-02
         0.35189E-02
         0.42687E-02
         0.42687E-02
         0.34658E-02
         0.34648E-02
         0.27274E-02
         0.31799E-02
         0.27273E-02
         0.31796E-02
         0.32396E-02
         0.32385E-02
         0.26964E-02
         0.26960E-02
         0.27828E-02
         0.27828E-02
         0.27828E-02
         0.27828E-02
         0.27004E-02
         0.31883E-02
         0.27003E-02
         0.31880E-02
         0.31883E-02
         0.31880E-02
         0.37123E-02
         0.37123E-02
         0.36245E-02
         0.36245E-02
         0.28253E-02
         0.31642E-02
         0.28253E-02
         0.31636E-02
         0.33485E-02
         0.33485E-02
         0.33485E-02
         0.33485E-02
         0.31978E-02
         0.31969E-02
         0.29849E-02
         0.32843E-02
         0.29849E-02
         0.32843E-02
         0.27274E-02
         0.31109E-02
         0.27273E-02
         0.31109E-02
         0.31799E-02
         0.31796E-02
         0.32396E-02
         0.32385E-02
         0.32396E-02
         0.32385E-02
         0.29942E-02
         0.29933E-02
         0.27190E-02
         0.27190E-02
         0.26964E-02
         0.26960E-02
         0.27828E-02
         0.27828E-02
         0.27828E-02
         0.27828E-02
         0.27004E-02
         0.27003E-02
         0.31883E-02
         0.31880E-02
         0.31883E-02
         0.31880E-02
         0.32621E-02
         0.32621E-02
         0.34652E-02
         0.34652E-02
         0.37123E-02
         0.37123E-02
         0.37123E-02
         0.37123E-02
         0.36245E-02
         0.36245E-02
         0.28253E-02
         0.28253E-02
         0.29097E-02
         0.29087E-02
         0.32389E-02
         0.32378E-02
         0.32389E-02
         0.32378E-02
         0.31978E-02
         0.31969E-02
         0.29849E-02
         0.29849E-02
         0.32843E-02
         0.32843E-02
         0.32843E-02
         0.32843E-02
         0.42420E-02
         0.35201E-02
         0.37629E-02
         0.42420E-02
         0.37629E-02
         0.37629E-02
         0.30087E-02
         0.32071E-02
         0.42420E-02
         0.32071E-02
         0.24178E-02
         0.29952E-02
         0.32407E-02
         0.26596E-02
         0.27191E-02
         0.42679E-02
         0.36502E-02
         0.42679E-02
         0.32071E-02
         0.29727E-02
         0.34648E-02
         0.32622E-02
         0.37119E-02
         0.32071E-02
         0.30833E-02
         0.35193E-02
         0.26910E-02
         0.26910E-02
         0.24638E-02
         0.27644E-02
         0.42679E-02
         0.35193E-02
         0.42679E-02
         0.34670E-02
         0.27274E-02
         0.31802E-02
         0.32407E-02
         0.26968E-02
         0.27828E-02
         0.27828E-02
         0.27005E-02
         0.31885E-02
         0.31885E-02
         0.37119E-02
         0.36244E-02
         0.28250E-02
         0.31647E-02
         0.33484E-02
         0.33484E-02
         0.31986E-02
         0.29848E-02
         0.32841E-02
         0.27274E-02
         0.31099E-02
         0.31802E-02
         0.32407E-02
         0.32407E-02
         0.29952E-02
         0.27191E-02
         0.26968E-02
         0.27828E-02
         0.27828E-02
         0.27005E-02
         0.31885E-02
         0.31885E-02
         0.32622E-02
         0.34648E-02
         0.37119E-02
         0.37119E-02
         0.36244E-02
         0.28250E-02
         0.29106E-02
         0.32401E-02
         0.32401E-02
         0.31986E-02
         0.29848E-02
         0.32841E-02
         0.32841E-02
         0.42421E-02
         0.35201E-02
         0.37634E-02
         0.42421E-02
         0.37634E-02
         0.37634E-02
         0.30089E-02
         0.32073E-02
         0.42421E-02
         0.32073E-02
         0.24177E-02
         0.29961E-02
         0.32418E-02
         0.26584E-02
         0.27191E-02
         0.42670E-02
         0.36493E-02
         0.42670E-02
         0.32073E-02
         0.29714E-02
         0.34644E-02
         0.32623E-02
         0.37115E-02
         0.32073E-02
         0.30822E-02
         0.35195E-02
         0.26896E-02
         0.26896E-02
         0.24633E-02
         0.27638E-02
         0.42670E-02
         0.35195E-02
         0.42670E-02
         0.34681E-02
         0.27275E-02
         0.31805E-02
         0.32418E-02
         0.26972E-02
         0.27828E-02
         0.27828E-02
         0.27006E-02
         0.31888E-02
         0.31888E-02
         0.37115E-02
         0.36243E-02
         0.28247E-02
         0.31652E-02
         0.33483E-02
         0.33483E-02
         0.31995E-02
         0.29847E-02
         0.32839E-02
         0.27275E-02
         0.31090E-02
         0.31805E-02
         0.32418E-02
         0.32418E-02
         0.29961E-02
         0.27191E-02
         0.26972E-02
         0.27828E-02
         0.27828E-02
         0.27006E-02
         0.31888E-02
         0.31888E-02
         0.32623E-02
         0.34644E-02
         0.37115E-02
         0.37115E-02
         0.36243E-02
         0.28247E-02
         0.29116E-02
         0.32412E-02
         0.32412E-02
         0.31995E-02
         0.29847E-02
         0.32839E-02
         0.32839E-02
         0.42423E-02
         0.35200E-02
         0.37639E-02
         0.42423E-02
         0.37639E-02
         0.37639E-02
         0.30091E-02
         0.32075E-02
         0.42423E-02
         0.32075E-02
         0.24176E-02
         0.29970E-02
         0.32428E-02
         0.26572E-02
         0.27192E-02
         0.42662E-02
         0.36483E-02
         0.42662E-02
         0.32075E-02
         0.29702E-02
         0.34639E-02
         0.32624E-02
         0.37111E-02
         0.32075E-02
         0.30811E-02
         0.35197E-02
         0.26881E-02
         0.26881E-02
         0.24628E-02
         0.27631E-02
         0.42662E-02
         0.35197E-02
         0.42662E-02
         0.34692E-02
         0.27276E-02
         0.31808E-02
         0.32428E-02
         0.26975E-02
         0.27828E-02
         0.27828E-02
         0.27007E-02
         0.31890E-02
         0.31890E-02
         0.37111E-02
         0.36242E-02
         0.28243E-02
         0.31658E-02
         0.33482E-02
         0.33482E-02
         0.32003E-02
         0.29846E-02
         0.32837E-02
         0.27276E-02
         0.31081E-02
         0.31808E-02
         0.32428E-02
         0.32428E-02
         0.29970E-02
         0.27192E-02
         0.26975E-02
         0.27828E-02
         0.27828E-02
         0.27007E-02
         0.31890E-02
         0.31890E-02
         0.32624E-02
         0.34639E-02
         0.37111E-02
         0.37111E-02
         0.36242E-02
         0.28243E-02
         0.29125E-02
         0.32423E-02
         0.32423E-02
         0.32003E-02
         0.29846E-02
         0.32837E-02
         0.32837E-02
         0.42424E-02
         0.35200E-02
         0.37644E-02
         0.42424E-02
         0.37644E-02
         0.37644E-02
         0.30093E-02
         0.32077E-02
         0.42424E-02
         0.32077E-02
         0.24174E-02
         0.29979E-02
         0.32439E-02
         0.26559E-02
         0.27192E-02
         0.42653E-02
         0.36474E-02
         0.42653E-02
         0.32077E-02
         0.29690E-02
         0.34635E-02
         0.32624E-02
         0.37108E-02
         0.32077E-02
         0.30799E-02
         0.35199E-02
         0.26867E-02
         0.26867E-02
         0.24623E-02
         0.27625E-02
         0.42653E-02
         0.35199E-02
         0.42653E-02
         0.34703E-02
         0.27276E-02
         0.31812E-02
         0.32439E-02
         0.26979E-02
         0.27828E-02
         0.27828E-02
         0.27008E-02
         0.31893E-02
         0.31893E-02
         0.37108E-02
         0.36241E-02
         0.28240E-02
         0.31663E-02
         0.33481E-02
         0.33481E-02
         0.32012E-02
         0.29844E-02
         0.32835E-02
         0.27276E-02
         0.31071E-02
         0.31812E-02
         0.32439E-02
         0.32439E-02
         0.29979E-02
         0.27192E-02
         0.26979E-02
         0.27828E-02
         0.27828E-02
         0.27008E-02
         0.31893E-02
         0.31893E-02
         0.32624E-02
         0.34635E-02
         0.37108E-02
         0.37108E-02
         0.36241E-02
         0.28240E-02
         0.29135E-02
         0.32434E-02
         0.32434E-02
         0.32012E-02
         0.29844E-02
         0.32835E-02
         0.32835E-02
         0.42425E-02
         0.35200E-02
         0.37649E-02
         0.42425E-02
         0.37649E-02
         0.37649E-02
         0.30095E-02
         0.32079E-02
         0.42425E-02
         0.32079E-02
         0.24173E-02
         0.29989E-02
         0.32450E-02
         0.26547E-02
         0.27193E-02
         0.42645E-02
         0.36465E-02
         0.42645E-02
         0.32079E-02
         0.29677E-02
         0.34631E-02
         0.32625E-02
         0.37104E-02
         0.32079E-02
         0.30788E-02
         0.35201E-02
         0.26852E-02
         0.26852E-02
         0.24618E-02
         0.27618E-02
         0.42645E-02
         0.35201E-02
         0.42645E-02
         0.34715E-02
         0.27277E-02
         0.31815E-02
         0.32450E-02
         0.26983E-02
         0.27828E-02
         0.27828E-02
         0.27009E-02
         0.31895E-02
         0.31895E-02
         0.37104E-02
         0.36239E-02
         0.28237E-02
         0.31668E-02
         0.33480E-02
         0.33480E-02
         0.32020E-02
         0.29843E-02
         0.32833E-02
         0.27277E-02
         0.31062E-02
         0.31815E-02
         0.32450E-02
         0.32450E-02
         0.29989E-02
         0.27193E-02
         0.26983E-02
         0.27828E-02
         0.27828E-02
         0.27009E-02
         0.31895E-02
         0.31895E-02
         0.32625E-02
         0.34631E-02
         0.37104E-02
         0.37104E-02
         0.36239E-02
         0.28237E-02
         0.29145E-02
         0.32445E-02
         0.32445E-02
         0.32020E-02
         0.29843E-02
         0.32833E-02
         0.32833E-02
         0.42427E-02
         0.35200E-02
         0.37654E-02
         0.42427E-02
         0.37654E-02
         0.37654E-02
         0.30097E-02
         0.32081E-02
         0.42427E-02
         0.32081E-02
         0.24171E-02
         0.29998E-02
         0.32461E-02
         0.26535E-02
         0.27193E-02
         0.42636E-02
         0.36455E-02
         0.42636E-02
         0.32081E-02
         0.29665E-02
         0.34626E-02
         0.32626E-02
         0.37100E-02
         0.32081E-02
         0.30777E-02
         0.35203E-02
         0.26838E-02
         0.26838E-02
         0.24613E-02
         0.27611E-02
         0.42636E-02
         0.35203E-02
         0.42636E-02
         0.34726E-02
         0.27278E-02
         0.31818E-02
         0.32461E-02
         0.26987E-02
         0.27827E-02
         0.27827E-02
         0.27010E-02
         0.31898E-02
         0.31898E-02
         0.37100E-02
         0.36238E-02
         0.28234E-02
         0.31673E-02
         0.33479E-02
         0.33479E-02
         0.32029E-02
         0.29842E-02
         0.32831E-02
         0.27278E-02
         0.31052E-02
         0.31818E-02
         0.32461E-02
         0.32461E-02
         0.29998E-02
         0.27193E-02
         0.26987E-02
         0.27827E-02
         0.27827E-02
         0.27010E-02
         0.31898E-02
         0.31898E-02
         0.32626E-02
         0.34626E-02
         0.37100E-02
         0.37100E-02
         0.36238E-02
         0.28234E-02
         0.29154E-02
         0.32457E-02
         0.32457E-02
         0.32029E-02
         0.29842E-02
         0.32831E-02
         0.32831E-02
         0.42428E-02
         0.35199E-02
         0.37660E-02
         0.42428E-02
         0.37660E-02
         0.37660E-02
         0.30099E-02
         0.32083E-02
         0.42428E-02
         0.32083E-02
         0.24170E-02
         0.30007E-02
         0.32471E-02
         0.26523E-02
         0.27194E-02
         0.42628E-02
         0.36446E-02
         0.42628E-02
         0.32083E-02
         0.29652E-02
         0.34622E-02
         0.32627E-02
         0.37096E-02
         0.32083E-02
         0.30766E-02
         0.35205E-02
         0.26823E-02
         0.26823E-02
         0.24608E-02
         0.27605E-02
         0.42628E-02
         0.35205E-02
         0.42628E-02
         0.34737E-02
         0.27279E-02
         0.31821E-02
         0.32471E-02
         0.26991E-02
         0.27827E-02
         0.27827E-02
         0.27011E-02
         0.31900E-02
         0.31900E-02
         0.37096E-02
         0.36237E-02
         0.28231E-02
         0.31679E-02
         0.33478E-02
         0.33478E-02
         0.32038E-02
         0.29841E-02
         0.32829E-02
         0.27279E-02
         0.31043E-02
         0.31821E-02
         0.32471E-02
         0.32471E-02
         0.30007E-02
         0.27194E-02
         0.26991E-02
         0.27827E-02
         0.27827E-02
         0.27011E-02
         0.31900E-02
         0.31900E-02
         0.32627E-02
         0.34622E-02
         0.37096E-02
         0.37096E-02
         0.36237E-02
         0.28231E-02
         0.29164E-02
         0.32468E-02
         0.32468E-02
         0.32038E-02
         0.29841E-02
         0.32829E-02
         0.32829E-02
         0.42429E-02
         0.35199E-02
         0.37665E-02
         0.42429E-02
         0.37665E-02
         0.37665E-02
         0.30101E-02
         0.32085E-02
         0.42429E-02
         0.32085E-02
         0.24168E-02
         0.30017E-02
         0.32482E-02
         0.26510E-02
         0.27194E-02
         0.42619E-02
         0.36437E-02
         0.42619E-02
         0.32085E-02
         0.29640E-02
         0.34618E-02
         0.32627E-02
         0.37092E-02
         0.32085E-02
         0.30755E-02
         0.35207E-02
         0.26808E-02
         0.26808E-02
         0.24603E-02
         0.27599E-02
         0.42619E-02
         0.35207E-02
         0.42619E-02
         0.34748E-02
         0.27279E-02
         0.31824E-02
         0.32482E-02
         0.26994E-02
         0.27827E-02
         0.27827E-02
         0.27012E-02
         0.31902E-02
         0.31902E-02
         0.37092E-02
         0.36236E-02
         0.28227E-02
         0.31684E-02
         0.33477E-02
         0.33477E-02
         0.32046E-02
         0.29840E-02
         0.32827E-02
         0.27279E-02
         0.31034E-02
         0.31824E-02
         0.32482E-02
         0.32482E-02
         0.30017E-02
         0.27194E-02
         0.26994E-02
         0.27827E-02
         0.27827E-02
         0.27012E-02
         0.31902E-02
         0.31902E-02
         0.32627E-02
         0.34618E-02
         0.37092E-02
         0.37092E-02
         0.36236E-02
         0.28227E-02
         0.29173E-02
         0.32479E-02
         0.32479E-02
         0.32046E-02
         0.29840E-02
         0.32827E-02
         0.32827E-02
         0.42431E-02
         0.35199E-02
         0.37670E-02
         0.42431E-02
         0.37670E-02
         0.37670E-02
         0.30102E-02
         0.32087E-02
         0.42431E-02
         0.32087E-02
         0.24167E-02
         0.30026E-02
         0.32493E-02
         0.26498E-02
         0.27194E-02
         0.42611E-02
         0.36427E-02
         0.42611E-02
         0.32087E-02
         0.29628E-02
         0.34613E-02
         0.32628E-02
         0.37089E-02
         0.32087E-02
         0.30744E-02
         0.35209E-02
         0.26794E-02
         0.26794E-02
         0.24598E-02
         0.27592E-02
         0.42611E-02
         0.35209E-02
         0.42611E-02
         0.34759E-02
         0.27280E-02
         0.31827E-02
         0.32493E-02
         0.26998E-02
         0.27827E-02
         0.27827E-02
         0.27013E-02
         0.31905E-02
         0.31905E-02
         0.37089E-02
         0.36235E-02
         0.28224E-02
         0.31689E-02
         0.33476E-02
         0.33476E-02
         0.32055E-02
         0.29839E-02
         0.32825E-02
         0.27280E-02
         0.31024E-02
         0.31827E-02
         0.32493E-02
         0.32493E-02
         0.30026E-02
         0.27194E-02
         0.26998E-02
         0.27827E-02
         0.27827E-02
         0.27013E-02
         0.31905E-02
         0.31905E-02
         0.32628E-02
         0.34613E-02
         0.37089E-02
         0.37089E-02
         0.36235E-02
         0.28224E-02
         0.29183E-02
         0.32490E-02
         0.32490E-02
         0.32055E-02
         0.29839E-02
         0.32825E-02
         0.32825E-02
         0.42432E-02
         0.35199E-02
         0.37675E-02
         0.42432E-02
         0.37675E-02
         0.37675E-02
         0.30104E-02
         0.32089E-02
         0.42432E-02
         0.32089E-02
         0.24166E-02
         0.30035E-02
         0.32504E-02
         0.26486E-02
         0.27195E-02
         0.42603E-02
         0.36418E-02
         0.42603E-02
         0.32089E-02
         0.29615E-02
         0.34609E-02
         0.32629E-02
         0.37085E-02
         0.32089E-02
         0.30732E-02
         0.35211E-02
         0.26779E-02
         0.26779E-02
         0.24593E-02
         0.27585E-02
         0.42603E-02
         0.35211E-02
         0.42603E-02
         0.34771E-02
         0.27281E-02
         0.31830E-02
         0.32504E-02
         0.27002E-02
         0.27827E-02
         0.27827E-02
         0.27014E-02
         0.31907E-02
         0.31907E-02
         0.37085E-02
         0.36233E-02
         0.28221E-02
         0.31694E-02
         0.33475E-02
         0.33475E-02
         0.32063E-02
         0.29838E-02
         0.32823E-02
         0.27281E-02
         0.31015E-02
         0.31830E-02
         0.32504E-02
         0.32504E-02
         0.30035E-02
         0.27195E-02
         0.27002E-02
         0.27827E-02
         0.27827E-02
         0.27014E-02
         0.31907E-02
         0.31907E-02
         0.32629E-02
         0.34609E-02
         0.37085E-02
         0.37085E-02
         0.36233E-02
         0.28221E-02
         0.29193E-02
         0.32501E-02
         0.32501E-02
         0.32063E-02
         0.29838E-02
         0.32823E-02
         0.32823E-02
         0.42433E-02
         0.35199E-02
         0.37680E-02
         0.42433E-02
         0.37680E-02
         0.37680E-02
         0.30106E-02
         0.32091E-02
         0.42433E-02
         0.32091E-02
         0.24164E-02
         0.30045E-02
         0.32514E-02
         0.26474E-02
         0.27195E-02
         0.42594E-02
         0.36409E-02
         0.42594E-02
         0.32091E-02
         0.29603E-02
         0.34605E-02
         0.32630E-02
         0.37081E-02
         0.32091E-02
         0.30721E-02
         0.35213E-02
         0.26765E-02
         0.26765E-02
         0.24588E-02
         0.27579E-02
         0.42594E-02
         0.35213E-02
         0.42594E-02
         0.34782E-02
         0.27281E-02
         0.31833E-02
         0.32514E-02
         0.27006E-02
         0.27826E-02
         0.27826E-02
         0.27015E-02
         0.31910E-02
         0.31910E-02
         0.37081E-02
         0.36232E-02
         0.28218E-02
         0.31700E-02
         0.33474E-02
         0.33474E-02
         0.32072E-02
         0.29836E-02
         0.32821E-02
         0.27281E-02
         0.31005E-02
         0.31833E-02
         0.32514E-02
         0.32514E-02
         0.30045E-02
         0.27195E-02
         0.27006E-02
         0.27826E-02
         0.27826E-02
         0.27015E-02
         0.31910E-02
         0.31910E-02
         0.32630E-02
         0.34605E-02
         0.37081E-02
         0.37081E-02
         0.36232E-02
         0.28218E-02
         0.29202E-02
         0.32512E-02
         0.32512E-02
         0.32072E-02
         0.29836E-02
         0.32821E-02
         0.32821E-02
         0.42435E-02
         0.35199E-02
         0.37685E-02
         0.42435E-02
         0.37685E-02
         0.37685E-02
         0.30108E-02
         0.32093E-02
         0.42435E-02
         0.32093E-02
         0.24163E-02
         0.30054E-02
         0.32525E-02
         0.26461E-02
         0.27196E-02
         0.42586E-02
         0.36399E-02
         0.42586E-02
         0.32093E-02
         0.29591E-02
         0.34601E-02
         0.32630E-02
         0.37077E-02
         0.32093E-02
         0.30710E-02
         0.35215E-02
         0.26750E-02
         0.26750E-02
         0.24583E-02
         0.27572E-02
         0.42586E-02
         0.35215E-02
         0.42586E-02
         0.34793E-02
         0.27282E-02
         0.31836E-02
         0.32525E-02
         0.27010E-02
         0.27826E-02
         0.27826E-02
         0.27016E-02
         0.31912E-02
         0.31912E-02
         0.37077E-02
         0.36231E-02
         0.28215E-02
         0.31705E-02
         0.33473E-02
         0.33473E-02
         0.32080E-02
         0.29835E-02
         0.32819E-02
         0.27282E-02
         0.30996E-02
         0.31836E-02
         0.32525E-02
         0.32525E-02
         0.30054E-02
         0.27196E-02
         0.27010E-02
         0.27826E-02
         0.27826E-02
         0.27016E-02
         0.31912E-02
         0.31912E-02
         0.32630E-02
         0.34601E-02
         0.37077E-02
         0.37077E-02
         0.36231E-02
         0.28215E-02
         0.29212E-02
         0.32524E-02
         0.32524E-02
         0.32080E-02
         0.29835E-02
         0.32819E-02
         0.32819E-02
         0.42436E-02
         0.35198E-02
         0.37690E-02
         0.42436E-02
         0.37690E-02
         0.37690E-02
         0.30110E-02
         0.32095E-02
         0.42436E-02
         0.32095E-02
         0.24162E-02
         0.30064E-02
         0.32536E-02
         0.26449E-02
         0.27196E-02
         0.42577E-02
         0.36390E-02
         0.42577E-02
         0.32096E-02
         0.29578E-02
         0.34596E-02
         0.32631E-02
         0.37074E-02
         0.32096E-02
         0.30699E-02
         0.35217E-02
         0.26735E-02
         0.26735E-02
         0.24578E-02
         0.27566E-02
         0.42577E-02
         0.35217E-02
         0.42577E-02
         0.34804E-02
         0.27283E-02
         0.31839E-02
         0.32536E-02
         0.27013E-02
         0.27826E-02
         0.27826E-02
         0.27017E-02
         0.31915E-02
         0.31915E-02
         0.37074E-02
         0.36230E-02
         0.28211E-02
         0.31710E-02
         0.33472E-02
         0.33472E-02
         0.32089E-02
         0.29834E-02
         0.32817E-02
         0.27283E-02
         0.30986E-02
         0.31839E-02
         0.32536E-02
         0.32536E-02
         0.30064E-02
         0.27196E-02
         0.27013E-02
         0.27826E-02
         0.27826E-02
         0.27017E-02
         0.31915E-02
         0.31915E-02
         0.32631E-02
         0.34596E-02
         0.37074E-02
         0.37074E-02
         0.36230E-02
         0.28211E-02
         0.29221E-02
         0.32535E-02
         0.32535E-02
         0.32089E-02
         0.29834E-02
         0.32817E-02
         0.32817E-02
         0.42437E-02
         0.35198E-02
         0.37695E-02
         0.42437E-02
         0.37695E-02
         0.37695E-02
         0.30112E-02
         0.32097E-02
         0.42437E-02
         0.32097E-02
         0.24160E-02
         0.30073E-02
         0.32547E-02
         0.26437E-02
         0.27197E-02
         0.42569E-02
         0.36381E-02
         0.42569E-02
         0.32098E-02
         0.29566E-02
         0.34592E-02
         0.32632E-02
         0.37070E-02
         0.32098E-02
         0.30688E-02
         0.35219E-02
         0.26721E-02
         0.26721E-02
         0.24573E-02
         0.27560E-02
         0.42569E-02
         0.35219E-02
         0.42569E-02
         0.34815E-02
         0.27284E-02
         0.31843E-02
         0.32547E-02
         0.27017E-02
         0.27826E-02
         0.27826E-02
         0.27018E-02
         0.31917E-02
         0.31917E-02
         0.37070E-02
         0.36229E-02
         0.28208E-02
         0.31716E-02
         0.33471E-02
         0.33471E-02
         0.32097E-02
         0.29833E-02
         0.32815E-02
         0.27284E-02
         0.30977E-02
         0.31843E-02
         0.32547E-02
         0.32547E-02
         0.30073E-02
         0.27197E-02
         0.27017E-02
         0.27826E-02
         0.27826E-02
         0.27018E-02
         0.31917E-02
         0.31917E-02
         0.32632E-02
         0.34592E-02
         0.37070E-02
         0.37070E-02
         0.36229E-02
         0.28208E-02
         0.29231E-02
         0.32546E-02
         0.32546E-02
         0.32097E-02
         0.29833E-02
         0.32815E-02
         0.32815E-02
         0.42439E-02
         0.35198E-02
         0.37701E-02
         0.42439E-02
         0.37701E-02
         0.37701E-02
         0.30113E-02
         0.32099E-02
         0.42439E-02
         0.32099E-02
         0.24159E-02
         0.30082E-02
         0.32558E-02
         0.26425E-02
         0.27197E-02
         0.42560E-02
         0.36371E-02
         0.42560E-02
         0.32100E-02
         0.29554E-02
         0.34588E-02
         0.32633E-02
         0.37066E-02
         0.32100E-02
         0.30677E-02
         0.35221E-02
         0.26706E-02
         0.26706E-02
         0.24568E-02
         0.27553E-02
         0.42560E-02
         0.35221E-02
         0.42560E-02
         0.34827E-02
         0.27284E-02
         0.31846E-02
         0.32558E-02
         0.27021E-02
         0.27826E-02
         0.27826E-02
         0.27019E-02
         0.31920E-02
         0.31920E-02
         0.37066E-02
         0.36227E-02
         0.28205E-02
         0.31721E-02
         0.33470E-02
         0.33470E-02
         0.32106E-02
         0.29831E-02
         0.32813E-02
         0.27284E-02
         0.30968E-02
         0.31846E-02
         0.32558E-02
         0.32558E-02
         0.30082E-02
         0.27197E-02
         0.27021E-02
         0.27826E-02
         0.27826E-02
         0.27019E-02
         0.31920E-02
         0.31920E-02
         0.32633E-02
         0.34588E-02
         0.37066E-02
         0.37066E-02
         0.36227E-02
         0.28205E-02
         0.29241E-02
         0.32557E-02
         0.32557E-02
         0.32106E-02
         0.29831E-02
         0.32813E-02
         0.32813E-02
         0.42440E-02
         0.35198E-02
         0.37706E-02
         0.42440E-02
         0.37706E-02
         0.37706E-02
         0.30115E-02
         0.32101E-02
         0.42440E-02
         0.32101E-02
         0.24158E-02
         0.30091E-02
         0.32568E-02
         0.26412E-02
         0.27198E-02
         0.42552E-02
         0.36362E-02
         0.42552E-02
         0.32102E-02
         0.29541E-02
         0.34583E-02
         0.32633E-02
         0.37062E-02
         0.32102E-02
         0.30665E-02
         0.35223E-02
         0.26692E-02
         0.26692E-02
         0.24563E-02
         0.27546E-02
         0.42552E-02
         0.35223E-02
         0.42552E-02
         0.34838E-02
         0.27285E-02
         0.31849E-02
         0.32568E-02
         0.27025E-02
         0.27826E-02
         0.27826E-02
         0.27020E-02
         0.31922E-02
         0.31922E-02
         0.37062E-02
         0.36226E-02
         0.28202E-02
         0.31726E-02
         0.33469E-02
         0.33469E-02
         0.32114E-02
         0.29830E-02
         0.32811E-02
         0.27285E-02
         0.30958E-02
         0.31849E-02
         0.32568E-02
         0.32568E-02
         0.30091E-02
         0.27198E-02
         0.27025E-02
         0.27826E-02
         0.27826E-02
         0.27020E-02
         0.31922E-02
         0.31922E-02
         0.32633E-02
         0.34583E-02
         0.37062E-02
         0.37062E-02
         0.36226E-02
         0.28202E-02
         0.29250E-02
         0.32568E-02
         0.32568E-02
         0.32114E-02
         0.29830E-02
         0.32811E-02
         0.32811E-02
         0.42441E-02
         0.35198E-02
         0.37711E-02
         0.42441E-02
         0.37711E-02
         0.37711E-02
         0.30117E-02
         0.32103E-02
         0.42441E-02
         0.32103E-02
         0.24156E-02
         0.30101E-02
         0.32579E-02
         0.26400E-02
         0.27198E-02
         0.42543E-02
         0.36353E-02
         0.42543E-02
         0.32104E-02
         0.29529E-02
         0.34579E-02
         0.32634E-02
         0.37058E-02
         0.32104E-02
         0.30654E-02
         0.35225E-02
         0.26677E-02
         0.26677E-02
         0.24558E-02
         0.27540E-02
         0.42543E-02
         0.35225E-02
         0.42543E-02
         0.34849E-02
         0.27286E-02
         0.31852E-02
         0.32579E-02
         0.27029E-02
         0.27826E-02
         0.27826E-02
         0.27021E-02
         0.31924E-02
         0.31924E-02
         0.37058E-02
         0.36225E-02
         0.28198E-02
         0.31731E-02
         0.33468E-02
         0.33468E-02
         0.32123E-02
         0.29829E-02
         0.32809E-02
         0.27286E-02
         0.30949E-02
         0.31852E-02
         0.32579E-02
         0.32579E-02
         0.30101E-02
         0.27198E-02
         0.27029E-02
         0.27826E-02
         0.27826E-02
         0.27021E-02
         0.31924E-02
         0.31924E-02
         0.32634E-02
         0.34579E-02
         0.37058E-02
         0.37058E-02
         0.36225E-02
         0.28198E-02
         0.29260E-02
         0.32579E-02
         0.32579E-02
         0.32123E-02
         0.29829E-02
         0.32809E-02
         0.32809E-02
         0.42443E-02
         0.35197E-02
         0.37716E-02
         0.42443E-02
         0.37716E-02
         0.37716E-02
         0.30119E-02
         0.32105E-02
         0.42443E-02
         0.32105E-02
         0.24155E-02
         0.30110E-02
         0.32590E-02
         0.26388E-02
         0.27199E-02
         0.42535E-02
         0.36343E-02
         0.42535E-02
         0.32106E-02
         0.29517E-02
         0.34575E-02
         0.32635E-02
         0.37055E-02
         0.32106E-02
         0.30643E-02
         0.35227E-02
         0.26663E-02
         0.26663E-02
         0.24553E-02
         0.27533E-02
         0.42535E-02
         0.35227E-02
         0.42535E-02
         0.34860E-02
         0.27286E-02
         0.31855E-02
         0.32590E-02
         0.27032E-02
         0.27826E-02
         0.27826E-02
         0.27022E-02
         0.31927E-02
         0.31927E-02
         0.37055E-02
         0.36224E-02
         0.28195E-02
         0.31737E-02
         0.33467E-02
         0.33467E-02
         0.32132E-02
         0.29828E-02
         0.32807E-02
         0.27286E-02
         0.30939E-02
         0.31855E-02
         0.32590E-02
         0.32590E-02
         0.30110E-02
         0.27199E-02
         0.27032E-02
         0.27826E-02
         0.27826E-02
         0.27022E-02
         0.31927E-02
         0.31927E-02
         0.32635E-02
         0.34575E-02
         0.37055E-02
         0.37055E-02
         0.36224E-02
         0.28195E-02
         0.29269E-02
         0.32591E-02
         0.32591E-02
         0.32132E-02
         0.29828E-02
         0.32807E-02
         0.32807E-02
         0.42444E-02
         0.35197E-02
         0.37721E-02
         0.42444E-02
         0.37721E-02
         0.37721E-02
         0.30121E-02
         0.32107E-02
         0.42444E-02
         0.32107E-02
         0.24154E-02
         0.30119E-02
         0.32601E-02
         0.26376E-02
         0.27199E-02
         0.42527E-02
         0.36334E-02
         0.42527E-02
         0.32108E-02
         0.29504E-02
         0.34571E-02
         0.32636E-02
         0.37051E-02
         0.32108E-02
         0.30632E-02
         0.35229E-02
         0.26648E-02
         0.26648E-02
         0.24552E-02
         0.27527E-02
         0.42527E-02
         0.35229E-02
         0.42527E-02
         0.34871E-02
         0.27287E-02
         0.31858E-02
         0.32601E-02
         0.27036E-02
         0.27825E-02
         0.27825E-02
         0.27023E-02
         0.31929E-02
         0.31929E-02
         0.37051E-02
         0.36223E-02
         0.28192E-02
         0.31742E-02
         0.33466E-02
         0.33466E-02
         0.32140E-02
         0.29827E-02
         0.32805E-02
         0.27287E-02
         0.30930E-02
         0.31858E-02
         0.32601E-02
         0.32601E-02
         0.30119E-02
         0.27199E-02
         0.27036E-02
         0.27825E-02
         0.27825E-02
         0.27023E-02
         0.31929E-02
         0.31929E-02
         0.32636E-02
         0.34571E-02
         0.37051E-02
         0.37051E-02
         0.36223E-02
         0.28192E-02
         0.29279E-02
         0.32602E-02
         0.32602E-02
         0.32140E-02
         0.29827E-02
         0.32805E-02
         0.32805E-02
         0.42445E-02
         0.35197E-02
         0.37726E-02
         0.42445E-02
         0.37726E-02
         0.37726E-02
         0.30123E-02
         0.32108E-02
         0.42445E-02
         0.32108E-02
         0.24152E-02
         0.30129E-02
         0.32611E-02
         0.26363E-02
         0.27200E-02
         0.42518E-02
         0.36325E-02
         0.42518E-02
         0.32110E-02
         0.29492E-02
         0.34566E-02
         0.32636E-02
         0.37047E-02
         0.32110E-02
         0.30621E-02
         0.35231E-02
         0.26633E-02
         0.26633E-02
         0.24554E-02
         0.27520E-02
         0.42518E-02
         0.35231E-02
         0.42518E-02
         0.34882E-02
         0.27288E-02
         0.31861E-02
         0.32611E-02
         0.27040E-02
         0.27825E-02
         0.27825E-02
         0.27024E-02
         0.31932E-02
         0.31932E-02
         0.37047E-02
         0.36222E-02
         0.28189E-02
         0.31747E-02
         0.33465E-02
         0.33465E-02
         0.32149E-02
         0.29826E-02
         0.32803E-02
         0.27288E-02
         0.30921E-02
         0.31861E-02
         0.32611E-02
         0.32611E-02
         0.30129E-02
         0.27200E-02
         0.27040E-02
         0.27825E-02
         0.27825E-02
         0.27024E-02
         0.31932E-02
         0.31932E-02
         0.32636E-02
         0.34566E-02
         0.37047E-02
         0.37047E-02
         0.36222E-02
         0.28189E-02
         0.29289E-02
         0.32613E-02
         0.32613E-02
         0.32149E-02
         0.29826E-02
         0.32803E-02
         0.32803E-02
         0.42447E-02
         0.35196E-02
         0.37732E-02
         0.42447E-02
         0.37732E-02
         0.37732E-02
         0.30125E-02
         0.32111E-02
         0.42447E-02
         0.32111E-02
         0.24151E-02
         0.30138E-02
         0.32622E-02
         0.26351E-02
         0.27200E-02
         0.42510E-02
         0.36315E-02
         0.42510E-02
         0.32112E-02
         0.29480E-02
         0.34562E-02
         0.32637E-02
         0.37043E-02
         0.32112E-02
         0.30610E-02
         0.35233E-02
         0.26619E-02
         0.26619E-02
         0.24557E-02
         0.27514E-02
         0.42510E-02
         0.35233E-02
         0.42510E-02
         0.34894E-02
         0.27289E-02
         0.31864E-02
         0.32622E-02
         0.27044E-02
         0.27825E-02
         0.27825E-02
         0.27025E-02
         0.31934E-02
         0.31934E-02
         0.37043E-02
         0.36220E-02
         0.28186E-02
         0.31753E-02
         0.33464E-02
         0.33464E-02
         0.32157E-02
         0.29824E-02
         0.32801E-02
         0.27289E-02
         0.30911E-02
         0.31864E-02
         0.32622E-02
         0.32622E-02
         0.30138E-02
         0.27200E-02
         0.27044E-02
         0.27825E-02
         0.27825E-02
         0.27025E-02
         0.31934E-02
         0.31934E-02
         0.32637E-02
         0.34562E-02
         0.37043E-02
         0.37043E-02
         0.36220E-02
         0.28186E-02
         0.29298E-02
         0.32624E-02
         0.32624E-02
         0.32157E-02
         0.29824E-02
         0.32801E-02
         0.32801E-02
         0.42448E-02
         0.35196E-02
         0.37737E-02
         0.42448E-02
         0.37737E-02
         0.37737E-02
         0.30126E-02
         0.32112E-02
         0.42448E-02
         0.32112E-02
         0.24150E-02
         0.30147E-02
         0.32633E-02
         0.26339E-02
         0.27200E-02
         0.42501E-02
         0.36306E-02
         0.42501E-02
         0.32114E-02
         0.29467E-02
         0.34558E-02
         0.32638E-02
         0.37039E-02
         0.32114E-02
         0.30598E-02
         0.35235E-02
         0.26604E-02
         0.26604E-02
         0.24559E-02
         0.27507E-02
         0.42501E-02
         0.35235E-02
         0.42501E-02
         0.34905E-02
         0.27289E-02
         0.31867E-02
         0.32633E-02
         0.27048E-02
         0.27825E-02
         0.27825E-02
         0.27026E-02
         0.31937E-02
         0.31937E-02
         0.37039E-02
         0.36219E-02
         0.28183E-02
         0.31758E-02
         0.33463E-02
         0.33463E-02
         0.32166E-02
         0.29823E-02
         0.32799E-02
         0.27289E-02
         0.30902E-02
         0.31867E-02
         0.32633E-02
         0.32633E-02
         0.30147E-02
         0.27200E-02
         0.27048E-02
         0.27825E-02
         0.27825E-02
         0.27026E-02
         0.31937E-02
         0.31937E-02
         0.32638E-02
         0.34558E-02
         0.37039E-02
         0.37039E-02
         0.36219E-02
         0.28183E-02
         0.29308E-02
         0.32635E-02
         0.32635E-02
         0.32166E-02
         0.29823E-02
         0.32799E-02
         0.32799E-02
         0.42448E-02
         0.35196E-02
         0.37737E-02
         0.42448E-02
         0.37737E-02
         0.37737E-02
         0.30126E-02
         0.32112E-02
         0.42448E-02
         0.32112E-02
         0.24148E-02
         0.30147E-02
         0.32633E-02
         0.26327E-02
         0.27200E-02
         0.42493E-02
         0.36297E-02
         0.42493E-02
         0.32114E-02
         0.29455E-02
         0.34553E-02
         0.32638E-02
         0.37036E-02
         0.32114E-02
         0.30587E-02
         0.35235E-02
         0.26590E-02
         0.26590E-02
         0.24559E-02
         0.27501E-02
         0.42493E-02
         0.35235E-02
         0.42493E-02
         0.34905E-02
         0.27289E-02
         0.31867E-02
         0.32633E-02
         0.27048E-02
         0.27825E-02
         0.27825E-02
         0.27026E-02
         0.31937E-02
         0.31937E-02
         0.37036E-02
         0.36218E-02
         0.28180E-02
         0.31758E-02
         0.33462E-02
         0.33462E-02
         0.32166E-02
         0.29822E-02
         0.32797E-02
         0.27289E-02
         0.30892E-02
         0.31867E-02
         0.32633E-02
         0.32633E-02
         0.30147E-02
         0.27200E-02
         0.27048E-02
         0.27825E-02
         0.27825E-02
         0.27026E-02
         0.31937E-02
         0.31937E-02
         0.32638E-02
         0.34553E-02
         0.37036E-02
         0.37036E-02
         0.36218E-02
         0.28180E-02
         0.29308E-02
         0.32635E-02
         0.32635E-02
         0.32166E-02
         0.29822E-02
         0.32797E-02
         0.32797E-02
  
SCALARS              physical_window_y  double 1
LOOKUP_TABLE default
         0.43155E-02
         0.43155E-02
         0.43155E-02
         0.43155E-02
         0.43155E-02
         0.43155E-02
         0.43155E-02
         0.43155E-02
         0.34883E-02
         0.34883E-02
         0.34882E-02
         0.34882E-02
         0.32826E-02
         0.32142E-02
         0.32826E-02
         0.32142E-02
         0.37863E-02
         0.31884E-02
         0.37863E-02
         0.31884E-02
         0.27172E-02
         0.33887E-02
         0.37164E-02
         0.27172E-02
         0.33887E-02
         0.37164E-02
         0.27582E-02
         0.28966E-02
         0.27582E-02
         0.28954E-02
         0.37007E-02
         0.35859E-02
         0.37863E-02
         0.37007E-02
         0.35824E-02
         0.37863E-02
         0.29875E-02
         0.29875E-02
         0.29867E-02
         0.29867E-02
         0.28561E-02
         0.26860E-02
         0.28556E-02
         0.26852E-02
         0.29518E-02
         0.28068E-02
         0.29517E-02
         0.28066E-02
         0.29975E-02
         0.29949E-02
         0.37007E-02
         0.37007E-02
         0.28693E-02
         0.28693E-02
         0.28693E-02
         0.28693E-02
         0.27602E-02
         0.26193E-02
         0.27602E-02
         0.26193E-02
         0.37007E-02
         0.37007E-02
         0.37007E-02
         0.37007E-02
         0.37685E-02
         0.37665E-02
         0.37685E-02
         0.37665E-02
         0.30230E-02
         0.37003E-02
         0.30229E-02
         0.37003E-02
         0.37164E-02
         0.37164E-02
         0.31934E-02
         0.31921E-02
         0.32777E-02
         0.32771E-02
         0.32777E-02
         0.32771E-02
         0.27006E-02
         0.25920E-02
         0.27006E-02
         0.25920E-02
         0.25916E-02
         0.25916E-02
         0.29715E-02
         0.29715E-02
         0.29715E-02
         0.29715E-02
         0.26477E-02
         0.29102E-02
         0.26477E-02
         0.29102E-02
         0.34085E-02
         0.34085E-02
         0.35350E-02
         0.35350E-02
         0.35350E-02
         0.35350E-02
         0.29766E-02
         0.32272E-02
         0.29763E-02
         0.32254E-02
         0.29087E-02
         0.29835E-02
         0.29087E-02
         0.29825E-02
         0.37003E-02
         0.37003E-02
         0.37164E-02
         0.37164E-02
         0.37164E-02
         0.37164E-02
         0.33887E-02
         0.33887E-02
         0.28966E-02
         0.28954E-02
         0.31934E-02
         0.31921E-02
         0.32777E-02
         0.32771E-02
         0.32777E-02
         0.32771E-02
         0.27006E-02
         0.27006E-02
         0.25920E-02
         0.25920E-02
         0.25916E-02
         0.25916E-02
         0.26860E-02
         0.26852E-02
         0.28561E-02
         0.28556E-02
         0.29518E-02
         0.29517E-02
         0.29715E-02
         0.29715E-02
         0.29715E-02
         0.29715E-02
         0.26477E-02
         0.26477E-02
         0.27685E-02
         0.27685E-02
         0.34085E-02
         0.34085E-02
         0.35350E-02
         0.35350E-02
         0.35350E-02
         0.35350E-02
         0.29766E-02
         0.29763E-02
         0.31381E-02
         0.31368E-02
         0.31381E-02
         0.31368E-02
         0.43153E-02
         0.43153E-02
         0.43153E-02
         0.43153E-02
         0.34883E-02
         0.34883E-02
         0.32812E-02
         0.32132E-02
         0.37858E-02
         0.31880E-02
         0.27155E-02
         0.33883E-02
         0.37163E-02
         0.27535E-02
         0.28978E-02
         0.37004E-02
         0.35894E-02
         0.37858E-02
         0.29882E-02
         0.29882E-02
         0.28566E-02
         0.26867E-02
         0.29519E-02
         0.28071E-02
         0.30001E-02
         0.37004E-02
         0.28667E-02
         0.28667E-02
         0.27589E-02
         0.26183E-02
         0.37004E-02
         0.37004E-02
         0.37706E-02
         0.37706E-02
         0.30232E-02
         0.36991E-02
         0.37163E-02
         0.31947E-02
         0.32784E-02
         0.32784E-02
         0.27006E-02
         0.25920E-02
         0.25909E-02
         0.29715E-02
         0.29715E-02
         0.26476E-02
         0.29101E-02
         0.34078E-02
         0.35344E-02
         0.35344E-02
         0.29769E-02
         0.32290E-02
         0.29059E-02
         0.29845E-02
         0.36991E-02
         0.37163E-02
         0.37163E-02
         0.33883E-02
         0.28978E-02
         0.31947E-02
         0.32784E-02
         0.32784E-02
         0.27006E-02
         0.25920E-02
         0.25909E-02
         0.26867E-02
         0.28566E-02
         0.29519E-02
         0.29715E-02
         0.29715E-02
         0.26476E-02
         0.27685E-02
         0.34078E-02
         0.35344E-02
         0.35344E-02
         0.29769E-02
         0.31395E-02
         0.31395E-02
         0.43150E-02
         0.43150E-02
         0.43150E-02
         0.43150E-02
         0.34884E-02
         0.34884E-02
         0.32798E-02
         0.32122E-02
         0.37853E-02
         0.31876E-02
         0.27137E-02
         0.33879E-02
         0.37162E-02
         0.27488E-02
         0.28990E-02
         0.37001E-02
         0.35930E-02
         0.37853E-02
         0.29889E-02
         0.29889E-02
         0.28571E-02
         0.26875E-02
         0.29521E-02
         0.28074E-02
         0.30027E-02
         0.37001E-02
         0.28641E-02
         0.28641E-02
         0.27576E-02
         0.26173E-02
         0.37001E-02
         0.37001E-02
         0.37727E-02
         0.37727E-02
         0.30234E-02
         0.36979E-02
         0.37162E-02
         0.31960E-02
         0.32790E-02
         0.32790E-02
         0.27006E-02
         0.25920E-02
         0.25902E-02
         0.29715E-02
         0.29715E-02
         0.26476E-02
         0.29100E-02
         0.34071E-02
         0.35339E-02
         0.35339E-02
         0.29772E-02
         0.32307E-02
         0.29032E-02
         0.29855E-02
         0.36979E-02
         0.37162E-02
         0.37162E-02
         0.33879E-02
         0.28990E-02
         0.31960E-02
         0.32790E-02
         0.32790E-02
         0.27006E-02
         0.25920E-02
         0.25902E-02
         0.26875E-02
         0.28571E-02
         0.29521E-02
         0.29715E-02
         0.29715E-02
         0.26476E-02
         0.27684E-02
         0.34071E-02
         0.35339E-02
         0.35339E-02
         0.29772E-02
         0.31408E-02
         0.31408E-02
         0.43148E-02
         0.43148E-02
         0.43148E-02
         0.43148E-02
         0.34885E-02
         0.34885E-02
         0.32783E-02
         0.32112E-02
         0.37849E-02
         0.31872E-02
         0.27120E-02
         0.33875E-02
         0.37161E-02
         0.27441E-02
         0.29003E-02
         0.36998E-02
         0.35965E-02
         0.37849E-02
         0.29896E-02
         0.29896E-02
         0.28575E-02
         0.26882E-02
         0.29522E-02
         0.28077E-02
         0.30053E-02
         0.36998E-02
         0.28615E-02
         0.28615E-02
         0.27563E-02
         0.26163E-02
         0.36998E-02
         0.36998E-02
         0.37747E-02
         0.37747E-02
         0.30236E-02
         0.36967E-02
         0.37161E-02
         0.31973E-02
         0.32796E-02
         0.32796E-02
         0.27006E-02
         0.25920E-02
         0.25895E-02
         0.29714E-02
         0.29714E-02
         0.26475E-02
         0.29099E-02
         0.34063E-02
         0.35333E-02
         0.35333E-02
         0.29775E-02
         0.32325E-02
         0.29004E-02
         0.29865E-02
         0.36967E-02
         0.37161E-02
         0.37161E-02
         0.33875E-02
         0.29003E-02
         0.31973E-02
         0.32796E-02
         0.32796E-02
         0.27006E-02
         0.25920E-02
         0.25895E-02
         0.26882E-02
         0.28575E-02
         0.29522E-02
         0.29714E-02
         0.29714E-02
         0.26475E-02
         0.27684E-02
         0.34063E-02
         0.35333E-02
         0.35333E-02
         0.29775E-02
         0.31422E-02
         0.31422E-02
         0.43145E-02
         0.43145E-02
         0.43145E-02
         0.43145E-02
         0.34886E-02
         0.34886E-02
         0.32769E-02
         0.32102E-02
         0.37844E-02
         0.31868E-02
         0.27103E-02
         0.33871E-02
         0.37160E-02
         0.27394E-02
         0.29015E-02
         0.36995E-02
         0.36000E-02
         0.37844E-02
         0.29903E-02
         0.29903E-02
         0.28580E-02
         0.26890E-02
         0.29523E-02
         0.28079E-02
         0.30079E-02
         0.36995E-02
         0.28589E-02
         0.28589E-02
         0.27550E-02
         0.26152E-02
         0.36995E-02
         0.36995E-02
         0.37768E-02
         0.37768E-02
         0.30238E-02
         0.36956E-02
         0.37160E-02
         0.31986E-02
         0.32802E-02
         0.32802E-02
         0.27006E-02
         0.25920E-02
         0.25887E-02
         0.29714E-02
         0.29714E-02
         0.26475E-02
         0.29098E-02
         0.34056E-02
         0.35327E-02
         0.35327E-02
         0.29778E-02
         0.32342E-02
         0.28977E-02
         0.29875E-02
         0.36956E-02
         0.37160E-02
         0.37160E-02
         0.33871E-02
         0.29015E-02
         0.31986E-02
         0.32802E-02
         0.32802E-02
         0.27006E-02
         0.25920E-02
         0.25887E-02
         0.26890E-02
         0.28580E-02
         0.29523E-02
         0.29714E-02
         0.29714E-02
         0.26475E-02
         0.27683E-02
         0.34056E-02
         0.35327E-02
         0.35327E-02
         0.29778E-02
         0.31435E-02
         0.31435E-02
         0.43143E-02
         0.43143E-02
         0.43143E-02
         0.43143E-02
         0.34887E-02
         0.34887E-02
         0.32755E-02
         0.32091E-02
         0.37839E-02
         0.31864E-02
         0.27086E-02
         0.33867E-02
         0.37159E-02
         0.27347E-02
         0.29027E-02
         0.36991E-02
         0.36036E-02
         0.37839E-02
         0.29920E-02
         0.29920E-02
         0.28585E-02
         0.26897E-02
         0.29525E-02
         0.28082E-02
         0.30105E-02
         0.36991E-02
         0.28563E-02
         0.28563E-02
         0.27537E-02
         0.26142E-02
         0.36991E-02
         0.36991E-02
         0.37789E-02
         0.37789E-02
         0.30240E-02
         0.36944E-02
         0.37159E-02
         0.31999E-02
         0.32808E-02
         0.32808E-02
         0.27006E-02
         0.25920E-02
         0.25880E-02
         0.29714E-02
         0.29714E-02
         0.26474E-02
         0.29097E-02
         0.34049E-02
         0.35322E-02
         0.35322E-02
         0.29781E-02
         0.32360E-02
         0.28949E-02
         0.29885E-02
         0.36944E-02
         0.37159E-02
         0.37159E-02
         0.33867E-02
         0.29027E-02
         0.31999E-02
         0.32808E-02
         0.32808E-02
         0.27006E-02
         0.25920E-02
         0.25880E-02
         0.26897E-02
         0.28585E-02
         0.29525E-02
         0.29714E-02
         0.29714E-02
         0.26474E-02
         0.27683E-02
         0.34049E-02
         0.35322E-02
         0.35322E-02
         0.29781E-02
         0.31449E-02
         0.31449E-02
         0.43140E-02
         0.43140E-02
         0.43140E-02
         0.43140E-02
         0.34888E-02
         0.34888E-02
         0.32740E-02
         0.32081E-02
         0.37834E-02
         0.31860E-02
         0.27069E-02
         0.33863E-02
         0.37158E-02
         0.27299E-02
         0.29039E-02
         0.36988E-02
         0.36071E-02
         0.37834E-02
         0.29946E-02
         0.29946E-02
         0.28589E-02
         0.26905E-02
         0.29526E-02
         0.28085E-02
         0.30131E-02
         0.36988E-02
         0.28538E-02
         0.28538E-02
         0.27524E-02
         0.26132E-02
         0.36988E-02
         0.36988E-02
         0.37809E-02
         0.37809E-02
         0.30241E-02
         0.36932E-02
         0.37158E-02
         0.32012E-02
         0.32814E-02
         0.32814E-02
         0.27006E-02
         0.25920E-02
         0.25873E-02
         0.29714E-02
         0.29714E-02
         0.26473E-02
         0.29097E-02
         0.34041E-02
         0.35316E-02
         0.35316E-02
         0.29784E-02
         0.32378E-02
         0.28921E-02
         0.29895E-02
         0.36932E-02
         0.37158E-02
         0.37158E-02
         0.33863E-02
         0.29039E-02
         0.32012E-02
         0.32814E-02
         0.32814E-02
         0.27006E-02
         0.25920E-02
         0.25873E-02
         0.26905E-02
         0.28589E-02
         0.29526E-02
         0.29714E-02
         0.29714E-02
         0.26473E-02
         0.27683E-02
         0.34041E-02
         0.35316E-02
         0.35316E-02
         0.29784E-02
         0.31463E-02
         0.31463E-02
         0.43138E-02
         0.43138E-02
         0.43138E-02
         0.43138E-02
         0.34888E-02
         0.34888E-02
         0.32726E-02
         0.32071E-02
         0.37830E-02
         0.31856E-02
         0.27051E-02
         0.33859E-02
         0.37157E-02
         0.27252E-02
         0.29051E-02
         0.36985E-02
         0.36106E-02
         0.37830E-02
         0.29972E-02
         0.29972E-02
         0.28594E-02
         0.26912E-02
         0.29528E-02
         0.28087E-02
         0.30156E-02
         0.36985E-02
         0.28512E-02
         0.28512E-02
         0.27512E-02
         0.26122E-02
         0.36985E-02
         0.36985E-02
         0.37830E-02
         0.37830E-02
         0.30243E-02
         0.36920E-02
         0.37157E-02
         0.32025E-02
         0.32821E-02
         0.32821E-02
         0.27006E-02
         0.25920E-02
         0.25866E-02
         0.29714E-02
         0.29714E-02
         0.26473E-02
         0.29096E-02
         0.34034E-02
         0.35310E-02
         0.35310E-02
         0.29787E-02
         0.32396E-02
         0.28894E-02
         0.29905E-02
         0.36920E-02
         0.37157E-02
         0.37157E-02
         0.33859E-02
         0.29051E-02
         0.32025E-02
         0.32821E-02
         0.32821E-02
         0.27006E-02
         0.25920E-02
         0.25866E-02
         0.26912E-02
         0.28594E-02
         0.29528E-02
         0.29714E-02
         0.29714E-02
         0.26473E-02
         0.27682E-02
         0.34034E-02
         0.35310E-02
         0.35310E-02
         0.29787E-02
         0.31476E-02
         0.31476E-02
         0.43135E-02
         0.43135E-02
         0.43135E-02
         0.43135E-02
         0.34889E-02
         0.34889E-02
         0.32712E-02
         0.32061E-02
         0.37825E-02
         0.31852E-02
         0.27034E-02
         0.33856E-02
         0.37156E-02
         0.27205E-02
         0.29063E-02
         0.36982E-02
         0.36142E-02
         0.37851E-02
         0.29998E-02
         0.29998E-02
         0.28599E-02
         0.26920E-02
         0.29529E-02
         0.28090E-02
         0.30182E-02
         0.36982E-02
         0.28486E-02
         0.28486E-02
         0.27499E-02
         0.26112E-02
         0.36982E-02
         0.36982E-02
         0.37851E-02
         0.37851E-02
         0.30245E-02
         0.36908E-02
         0.37156E-02
         0.32038E-02
         0.32827E-02
         0.32827E-02
         0.27006E-02
         0.25920E-02
         0.25859E-02
         0.29714E-02
         0.29714E-02
         0.26472E-02
         0.29095E-02
         0.34027E-02
         0.35304E-02
         0.35304E-02
         0.29790E-02
         0.32413E-02
         0.28866E-02
         0.29915E-02
         0.36908E-02
         0.37156E-02
         0.37156E-02
         0.33856E-02
         0.29063E-02
         0.32038E-02
         0.32827E-02
         0.32827E-02
         0.27006E-02
         0.25920E-02
         0.25859E-02
         0.26920E-02
         0.28599E-02
         0.29529E-02
         0.29714E-02
         0.29714E-02
         0.26472E-02
         0.27682E-02
         0.34027E-02
         0.35304E-02
         0.35304E-02
         0.29790E-02
         0.31490E-02
         0.31490E-02
         0.43133E-02
         0.43133E-02
         0.43133E-02
         0.43133E-02
         0.34890E-02
         0.34890E-02
         0.32698E-02
         0.32051E-02
         0.37820E-02
         0.31848E-02
         0.27017E-02
         0.33851E-02
         0.37155E-02
         0.27158E-02
         0.29075E-02
         0.36979E-02
         0.36177E-02
         0.37871E-02
         0.30024E-02
         0.30024E-02
         0.28603E-02
         0.26927E-02
         0.29530E-02
         0.28093E-02
         0.30208E-02
         0.36979E-02
         0.28460E-02
         0.28460E-02
         0.27486E-02
         0.26101E-02
         0.36979E-02
         0.36979E-02
         0.37871E-02
         0.37871E-02
         0.30247E-02
         0.36896E-02
         0.37155E-02
         0.32051E-02
         0.32833E-02
         0.32833E-02
         0.27006E-02
         0.25920E-02
         0.25851E-02
         0.29714E-02
         0.29714E-02
         0.26472E-02
         0.29094E-02
         0.34019E-02
         0.35299E-02
         0.35299E-02
         0.29793E-02
         0.32431E-02
         0.28838E-02
         0.29925E-02
         0.36896E-02
         0.37155E-02
         0.37155E-02
         0.33851E-02
         0.29075E-02
         0.32051E-02
         0.32833E-02
         0.32833E-02
         0.27006E-02
         0.25920E-02
         0.25851E-02
         0.26927E-02
         0.28603E-02
         0.29530E-02
         0.29714E-02
         0.29714E-02
         0.26472E-02
         0.27681E-02
         0.34019E-02
         0.35299E-02
         0.35299E-02
         0.29793E-02
         0.31503E-02
         0.31503E-02
         0.43130E-02
         0.43130E-02
         0.43130E-02
         0.43130E-02
         0.34891E-02
         0.34891E-02
         0.32683E-02
         0.32041E-02
         0.37816E-02
         0.31844E-02
         0.27000E-02
         0.33848E-02
         0.37154E-02
         0.27111E-02
         0.29087E-02
         0.36976E-02
         0.36213E-02
         0.37892E-02
         0.30050E-02
         0.30050E-02
         0.28608E-02
         0.26935E-02
         0.29532E-02
         0.28096E-02
         0.30234E-02
         0.36976E-02
         0.28434E-02
         0.28434E-02
         0.27472E-02
         0.26091E-02
         0.36976E-02
         0.36976E-02
         0.37892E-02
         0.37892E-02
         0.30249E-02
         0.36885E-02
         0.37154E-02
         0.32064E-02
         0.32839E-02
         0.32839E-02
         0.27006E-02
         0.25920E-02
         0.25844E-02
         0.29714E-02
         0.29714E-02
         0.26471E-02
         0.29094E-02
         0.34012E-02
         0.35293E-02
         0.35293E-02
         0.29797E-02
         0.32449E-02
         0.28811E-02
         0.29935E-02
         0.36885E-02
         0.37154E-02
         0.37154E-02
         0.33848E-02
         0.29087E-02
         0.32064E-02
         0.32839E-02
         0.32839E-02
         0.27006E-02
         0.25920E-02
         0.25844E-02
         0.26935E-02
         0.28608E-02
         0.29532E-02
         0.29714E-02
         0.29714E-02
         0.26471E-02
         0.27681E-02
         0.34012E-02
         0.35293E-02
         0.35293E-02
         0.29797E-02
         0.31517E-02
         0.31517E-02
         0.43128E-02
         0.43128E-02
         0.43128E-02
         0.43128E-02
         0.34892E-02
         0.34892E-02
         0.32669E-02
         0.32031E-02
         0.37811E-02
         0.31840E-02
         0.26982E-02
         0.33844E-02
         0.37152E-02
         0.27063E-02
         0.29099E-02
         0.36973E-02
         0.36248E-02
         0.37913E-02
         0.30076E-02
         0.30076E-02
         0.28613E-02
         0.26942E-02
         0.29533E-02
         0.28099E-02
         0.30260E-02
         0.36973E-02
         0.28408E-02
         0.28408E-02
         0.27460E-02
         0.26081E-02
         0.36973E-02
         0.36973E-02
         0.37913E-02
         0.37913E-02
         0.30250E-02
         0.36873E-02
         0.37152E-02
         0.32077E-02
         0.32845E-02
         0.32845E-02
         0.27006E-02
         0.25920E-02
         0.25837E-02
         0.29714E-02
         0.29714E-02
         0.26471E-02
         0.29093E-02
         0.34005E-02
         0.35287E-02
         0.35287E-02
         0.29800E-02
         0.32467E-02
         0.28783E-02
         0.29945E-02
         0.36873E-02
         0.37152E-02
         0.37152E-02
         0.33844E-02
         0.29099E-02
         0.32077E-02
         0.32845E-02
         0.32845E-02
         0.27006E-02
         0.25920E-02
         0.25837E-02
         0.26942E-02
         0.28613E-02
         0.29533E-02
         0.29714E-02
         0.29714E-02
         0.26471E-02
         0.27681E-02
         0.34005E-02
         0.35287E-02
         0.35287E-02
         0.29800E-02
         0.31530E-02
         0.31530E-02
         0.43125E-02
         0.43125E-02
         0.43125E-02
         0.43125E-02
         0.34893E-02
         0.34893E-02
         0.32655E-02
         0.32021E-02
         0.37806E-02
         0.31836E-02
         0.26965E-02
         0.33840E-02
         0.37151E-02
         0.27016E-02
         0.29111E-02
         0.36969E-02
         0.36283E-02
         0.37933E-02
         0.30102E-02
         0.30102E-02
         0.28617E-02
         0.26950E-02
         0.29535E-02
         0.28101E-02
         0.30286E-02
         0.36969E-02
         0.28382E-02
         0.28382E-02
         0.27447E-02
         0.26071E-02
         0.36969E-02
         0.36969E-02
         0.37933E-02
         0.37933E-02
         0.30252E-02
         0.36861E-02
         0.37151E-02
         0.32090E-02
         0.32852E-02
         0.32852E-02
         0.27006E-02
         0.25920E-02
         0.25830E-02
         0.29714E-02
         0.29714E-02
         0.26470E-02
         0.29092E-02
         0.33997E-02
         0.35282E-02
         0.35282E-02
         0.29803E-02
         0.32484E-02
         0.28755E-02
         0.29955E-02
         0.36861E-02
         0.37151E-02
         0.37151E-02
         0.33840E-02
         0.29111E-02
         0.32090E-02
         0.32852E-02
         0.32852E-02
         0.27006E-02
         0.25920E-02
         0.25830E-02
         0.26950E-02
         0.28617E-02
         0.29535E-02
         0.29714E-02
         0.29714E-02
         0.26470E-02
         0.27680E-02
         0.33997E-02
         0.35282E-02
         0.35282E-02
         0.29803E-02
         0.31544E-02
         0.31544E-02
         0.43123E-02
         0.43123E-02
         0.43123E-02
         0.43123E-02
         0.34893E-02
         0.34893E-02
         0.32640E-02
         0.32011E-02
         0.37801E-02
         0.31832E-02
         0.26948E-02
         0.33836E-02
         0.37150E-02
         0.26969E-02
         0.29123E-02
         0.36966E-02
         0.36319E-02
         0.37954E-02
         0.30128E-02
         0.30128E-02
         0.28622E-02
         0.26957E-02
         0.29536E-02
         0.28104E-02
         0.30312E-02
         0.36966E-02
         0.28357E-02
         0.28357E-02
         0.27434E-02
         0.26061E-02
         0.36966E-02
         0.36966E-02
         0.37954E-02
         0.37954E-02
         0.30254E-02
         0.36849E-02
         0.37150E-02
         0.32103E-02
         0.32858E-02
         0.32858E-02
         0.27006E-02
         0.25920E-02
         0.25823E-02
         0.29714E-02
         0.29714E-02
         0.26470E-02
         0.29091E-02
         0.33990E-02
         0.35276E-02
         0.35276E-02
         0.29806E-02
         0.32502E-02
         0.28728E-02
         0.29965E-02
         0.36849E-02
         0.37150E-02
         0.37150E-02
         0.33836E-02
         0.29123E-02
         0.32103E-02
         0.32858E-02
         0.32858E-02
         0.27006E-02
         0.25920E-02
         0.25823E-02
         0.26957E-02
         0.28622E-02
         0.29536E-02
         0.29714E-02
         0.29714E-02
         0.26470E-02
         0.27680E-02
         0.33990E-02
         0.35276E-02
         0.35276E-02
         0.29806E-02
         0.31557E-02
         0.31557E-02
         0.43120E-02
         0.43120E-02
         0.43120E-02
         0.43120E-02
         0.34894E-02
         0.34894E-02
         0.32626E-02
         0.32001E-02
         0.37797E-02
         0.31828E-02
         0.26931E-02
         0.33832E-02
         0.37149E-02
         0.26922E-02
         0.29135E-02
         0.36963E-02
         0.36354E-02
         0.37975E-02
         0.30154E-02
         0.30154E-02
         0.28627E-02
         0.26965E-02
         0.29537E-02
         0.28107E-02
         0.30338E-02
         0.36963E-02
         0.28331E-02
         0.28331E-02
         0.27421E-02
         0.26051E-02
         0.36963E-02
         0.36963E-02
         0.37975E-02
         0.37975E-02
         0.30256E-02
         0.36838E-02
         0.37149E-02
         0.32116E-02
         0.32864E-02
         0.32864E-02
         0.27006E-02
         0.25920E-02
         0.25815E-02
         0.29714E-02
         0.29714E-02
         0.26469E-02
         0.29090E-02
         0.33983E-02
         0.35270E-02
         0.35270E-02
         0.29809E-02
         0.32519E-02
         0.28700E-02
         0.29975E-02
         0.36838E-02
         0.37149E-02
         0.37149E-02
         0.33832E-02
         0.29135E-02
         0.32116E-02
         0.32864E-02
         0.32864E-02
         0.27006E-02
         0.25920E-02
         0.25815E-02
         0.26965E-02
         0.28627E-02
         0.29537E-02
         0.29714E-02
         0.29714E-02
         0.26469E-02
         0.27680E-02
         0.33983E-02
         0.35270E-02
         0.35270E-02
         0.29809E-02
         0.31571E-02
         0.31571E-02
         0.43118E-02
         0.43118E-02
         0.43118E-02
         0.43118E-02
         0.34895E-02
         0.34895E-02
         0.32612E-02
         0.31990E-02
         0.37792E-02
         0.31824E-02
         0.26913E-02
         0.33828E-02
         0.37148E-02
         0.26875E-02
         0.29148E-02
         0.36960E-02
         0.36390E-02
         0.37995E-02
         0.30180E-02
         0.30180E-02
         0.28631E-02
         0.26972E-02
         0.29539E-02
         0.28110E-02
         0.30364E-02
         0.36960E-02
         0.28305E-02
         0.28305E-02
         0.27408E-02
         0.26040E-02
         0.36960E-02
         0.36960E-02
         0.37995E-02
         0.37995E-02
         0.30258E-02
         0.36826E-02
         0.37148E-02
         0.32129E-02
         0.32870E-02
         0.32870E-02
         0.27006E-02
         0.25920E-02
         0.25808E-02
         0.29713E-02
         0.29713E-02
         0.26468E-02
         0.29089E-02
         0.33975E-02
         0.35264E-02
         0.35264E-02
         0.29812E-02
         0.32537E-02
         0.28672E-02
         0.29985E-02
         0.36826E-02
         0.37148E-02
         0.37148E-02
         0.33828E-02
         0.29148E-02
         0.32129E-02
         0.32870E-02
         0.32870E-02
         0.27006E-02
         0.25920E-02
         0.25808E-02
         0.26972E-02
         0.28631E-02
         0.29539E-02
         0.29713E-02
         0.29713E-02
         0.26468E-02
         0.27679E-02
         0.33975E-02
         0.35264E-02
         0.35264E-02
         0.29812E-02
         0.31585E-02
         0.31585E-02
         0.43115E-02
         0.43115E-02
         0.43115E-02
         0.43115E-02
         0.34896E-02
         0.34896E-02
         0.32597E-02
         0.31980E-02
         0.37787E-02
         0.31820E-02
         0.26896E-02
         0.33824E-02
         0.37147E-02
         0.26827E-02
         0.29160E-02
         0.36957E-02
         0.36425E-02
         0.38016E-02
         0.30206E-02
         0.30206E-02
         0.28636E-02
         0.26980E-02
         0.29540E-02
         0.28112E-02
         0.30390E-02
         0.36957E-02
         0.28279E-02
         0.28279E-02
         0.27395E-02
         0.26030E-02
         0.36957E-02
         0.36957E-02
         0.38016E-02
         0.38016E-02
         0.30260E-02
         0.36814E-02
         0.37147E-02
         0.32141E-02
         0.32876E-02
         0.32876E-02
         0.27006E-02
         0.25920E-02
         0.25801E-02
         0.29713E-02
         0.29713E-02
         0.26468E-02
         0.29089E-02
         0.33968E-02
         0.35259E-02
         0.35259E-02
         0.29815E-02
         0.32555E-02
         0.28645E-02
         0.29995E-02
         0.36814E-02
         0.37147E-02
         0.37147E-02
         0.33824E-02
         0.29160E-02
         0.32141E-02
         0.32876E-02
         0.32876E-02
         0.27006E-02
         0.25920E-02
         0.25801E-02
         0.26980E-02
         0.28636E-02
         0.29540E-02
         0.29713E-02
         0.29713E-02
         0.26468E-02
         0.27679E-02
         0.33968E-02
         0.35259E-02
         0.35259E-02
         0.29815E-02
         0.31598E-02
         0.31598E-02
         0.43113E-02
         0.43113E-02
         0.43113E-02
         0.43113E-02
         0.34897E-02
         0.34897E-02
         0.32583E-02
         0.31970E-02
         0.37783E-02
         0.31816E-02
         0.26879E-02
         0.33820E-02
         0.37146E-02
         0.26780E-02
         0.29172E-02
         0.36954E-02
         0.36460E-02
         0.38037E-02
         0.30232E-02
         0.30232E-02
         0.28641E-02
         0.26987E-02
         0.29542E-02
         0.28115E-02
         0.30416E-02
         0.36954E-02
         0.28253E-02
         0.28253E-02
         0.27382E-02
         0.26020E-02
         0.36954E-02
         0.36954E-02
         0.38037E-02
         0.38037E-02
         0.30261E-02
         0.36802E-02
         0.37146E-02
         0.32154E-02
         0.32882E-02
         0.32882E-02
         0.27006E-02
         0.25921E-02
         0.25794E-02
         0.29713E-02
         0.29713E-02
         0.26467E-02
         0.29088E-02
         0.33961E-02
         0.35253E-02
         0.35253E-02
         0.29818E-02
         0.32573E-02
         0.28617E-02
         0.30005E-02
         0.36802E-02
         0.37146E-02
         0.37146E-02
         0.33820E-02
         0.29172E-02
         0.32154E-02
         0.32882E-02
         0.32882E-02
         0.27006E-02
         0.25921E-02
         0.25794E-02
         0.26987E-02
         0.28641E-02
         0.29542E-02
         0.29713E-02
         0.29713E-02
         0.26467E-02
         0.27678E-02
         0.33961E-02
         0.35253E-02
         0.35253E-02
         0.29818E-02
         0.31612E-02
         0.31612E-02
         0.43110E-02
         0.43110E-02
         0.43110E-02
         0.43110E-02
         0.34898E-02
         0.34898E-02
         0.32569E-02
         0.31960E-02
         0.37778E-02
         0.31812E-02
         0.26862E-02
         0.33816E-02
         0.37145E-02
         0.26733E-02
         0.29184E-02
         0.36950E-02
         0.36495E-02
         0.38057E-02
         0.30258E-02
         0.30258E-02
         0.28645E-02
         0.26995E-02
         0.29543E-02
         0.28118E-02
         0.30442E-02
         0.36950E-02
         0.28227E-02
         0.28227E-02
         0.27369E-02
         0.26010E-02
         0.36950E-02
         0.36950E-02
         0.38057E-02
         0.38057E-02
         0.30263E-02
         0.36790E-02
         0.37145E-02
         0.32167E-02
         0.32889E-02
         0.32889E-02
         0.27006E-02
         0.25921E-02
         0.25787E-02
         0.29713E-02
         0.29713E-02
         0.26467E-02
         0.29087E-02
         0.33953E-02
         0.35247E-02
         0.35247E-02
         0.29821E-02
         0.32590E-02
         0.28589E-02
         0.30015E-02
         0.36790E-02
         0.37145E-02
         0.37145E-02
         0.33816E-02
         0.29184E-02
         0.32167E-02
         0.32889E-02
         0.32889E-02
         0.27006E-02
         0.25921E-02
         0.25787E-02
         0.26995E-02
         0.28645E-02
         0.29543E-02
         0.29713E-02
         0.29713E-02
         0.26467E-02
         0.27678E-02
         0.33953E-02
         0.35247E-02
         0.35247E-02
         0.29821E-02
         0.31625E-02
         0.31625E-02
         0.43108E-02
         0.43108E-02
         0.43108E-02
         0.43108E-02
         0.34898E-02
         0.34898E-02
         0.32555E-02
         0.31950E-02
         0.37773E-02
         0.31808E-02
         0.26845E-02
         0.33812E-02
         0.37144E-02
         0.26686E-02
         0.29196E-02
         0.36948E-02
         0.36531E-02
         0.38078E-02
         0.30285E-02
         0.30285E-02
         0.28650E-02
         0.27002E-02
         0.29544E-02
         0.28120E-02
         0.30467E-02
         0.36948E-02
         0.28201E-02
         0.28201E-02
         0.27356E-02
         0.26000E-02
         0.36948E-02
         0.36948E-02
         0.38078E-02
         0.38078E-02
         0.30265E-02
         0.36779E-02
         0.37144E-02
         0.32181E-02
         0.32895E-02
         0.32895E-02
         0.27006E-02
         0.25921E-02
         0.25779E-02
         0.29713E-02
         0.29713E-02
         0.26466E-02
         0.29086E-02
         0.33946E-02
         0.35242E-02
         0.35242E-02
         0.29824E-02
         0.32608E-02
         0.28562E-02
         0.30025E-02
         0.36779E-02
         0.37144E-02
         0.37144E-02
         0.33812E-02
         0.29196E-02
         0.32181E-02
         0.32895E-02
         0.32895E-02
         0.27006E-02
         0.25921E-02
         0.25779E-02
         0.27002E-02
         0.28650E-02
         0.29544E-02
         0.29713E-02
         0.29713E-02
         0.26466E-02
         0.27678E-02
         0.33946E-02
         0.35242E-02
         0.35242E-02
         0.29824E-02
         0.31639E-02
         0.31639E-02
         0.43105E-02
         0.43105E-02
         0.43105E-02
         0.43105E-02
         0.34899E-02
         0.34899E-02
         0.32540E-02
         0.31940E-02
         0.37768E-02
         0.31804E-02
         0.26827E-02
         0.33808E-02
         0.37143E-02
         0.26639E-02
         0.29208E-02
         0.36944E-02
         0.36566E-02
         0.38099E-02
         0.30311E-02
         0.30311E-02
         0.28655E-02
         0.27010E-02
         0.29546E-02
         0.28123E-02
         0.30493E-02
         0.36944E-02
         0.28175E-02
         0.28175E-02
         0.27343E-02
         0.25990E-02
         0.36944E-02
         0.36944E-02
         0.38099E-02
         0.38099E-02
         0.30267E-02
         0.36767E-02
         0.37143E-02
         0.32193E-02
         0.32901E-02
         0.32901E-02
         0.27006E-02
         0.25921E-02
         0.25772E-02
         0.29713E-02
         0.29713E-02
         0.26466E-02
         0.29085E-02
         0.33939E-02
         0.35236E-02
         0.35236E-02
         0.29827E-02
         0.32626E-02
         0.28534E-02
         0.30035E-02
         0.36767E-02
         0.37143E-02
         0.37143E-02
         0.33808E-02
         0.29208E-02
         0.32193E-02
         0.32901E-02
         0.32901E-02
         0.27006E-02
         0.25921E-02
         0.25772E-02
         0.27010E-02
         0.28655E-02
         0.29546E-02
         0.29713E-02
         0.29713E-02
         0.26466E-02
         0.27677E-02
         0.33939E-02
         0.35236E-02
         0.35236E-02
         0.29827E-02
         0.31652E-02
         0.31652E-02
         0.43103E-02
         0.43103E-02
         0.43103E-02
         0.43103E-02
         0.34900E-02
         0.34900E-02
         0.32526E-02
         0.31930E-02
         0.37764E-02
         0.31800E-02
         0.26810E-02
         0.33804E-02
         0.37142E-02
         0.26591E-02
         0.29220E-02
         0.36941E-02
         0.36602E-02
         0.38119E-02
         0.30337E-02
         0.30337E-02
         0.28660E-02
         0.27017E-02
         0.29547E-02
         0.28126E-02
         0.30519E-02
         0.36941E-02
         0.28150E-02
         0.28150E-02
         0.27330E-02
         0.25979E-02
         0.36941E-02
         0.36941E-02
         0.38119E-02
         0.38119E-02
         0.30269E-02
         0.36755E-02
         0.37142E-02
         0.32206E-02
         0.32907E-02
         0.32907E-02
         0.27006E-02
         0.25921E-02
         0.25765E-02
         0.29713E-02
         0.29713E-02
         0.26465E-02
         0.29085E-02
         0.33931E-02
         0.35230E-02
         0.35230E-02
         0.29830E-02
         0.32643E-02
         0.28507E-02
         0.30045E-02
         0.36755E-02
         0.37142E-02
         0.37142E-02
         0.33804E-02
         0.29220E-02
         0.32206E-02
         0.32907E-02
         0.32907E-02
         0.27006E-02
         0.25921E-02
         0.25765E-02
         0.27017E-02
         0.28660E-02
         0.29547E-02
         0.29713E-02
         0.29713E-02
         0.26465E-02
         0.27677E-02
         0.33931E-02
         0.35230E-02
         0.35230E-02
         0.29830E-02
         0.31666E-02
         0.31666E-02
         0.43100E-02
         0.43100E-02
         0.43100E-02
         0.43100E-02
         0.34901E-02
         0.34901E-02
         0.32512E-02
         0.31920E-02
         0.37759E-02
         0.31796E-02
         0.26793E-02
         0.33800E-02
         0.37141E-02
         0.26544E-02
         0.29232E-02
         0.36938E-02
         0.36637E-02
         0.38140E-02
         0.30363E-02
         0.30363E-02
         0.28664E-02
         0.27025E-02
         0.29548E-02
         0.28129E-02
         0.30545E-02
         0.36938E-02
         0.28124E-02
         0.28124E-02
         0.27317E-02
         0.25969E-02
         0.36938E-02
         0.36938E-02
         0.38140E-02
         0.38140E-02
         0.30271E-02
         0.36743E-02
         0.37141E-02
         0.32219E-02
         0.32913E-02
         0.32913E-02
         0.27006E-02
         0.25921E-02
         0.25758E-02
         0.29713E-02
         0.29713E-02
         0.26465E-02
         0.29084E-02
         0.33924E-02
         0.35224E-02
         0.35224E-02
         0.29833E-02
         0.32661E-02
         0.28479E-02
         0.30055E-02
         0.36743E-02
         0.37141E-02
         0.37141E-02
         0.33800E-02
         0.29232E-02
         0.32219E-02
         0.32913E-02
         0.32913E-02
         0.27006E-02
         0.25921E-02
         0.25758E-02
         0.27025E-02
         0.28664E-02
         0.29548E-02
         0.29713E-02
         0.29713E-02
         0.26465E-02
         0.27677E-02
         0.33924E-02
         0.35224E-02
         0.35224E-02
         0.29833E-02
         0.31680E-02
         0.31680E-02
         0.43098E-02
         0.43098E-02
         0.43098E-02
         0.43098E-02
         0.34901E-02
         0.34901E-02
         0.32498E-02
         0.31910E-02
         0.37754E-02
         0.31792E-02
         0.26776E-02
         0.33796E-02
         0.37140E-02
         0.26497E-02
         0.29232E-02
         0.36935E-02
         0.36637E-02
         0.38140E-02
         0.30363E-02
         0.30363E-02
         0.28664E-02
         0.27025E-02
         0.29548E-02
         0.28129E-02
         0.30545E-02
         0.36935E-02
         0.28098E-02
         0.28098E-02
         0.27304E-02
         0.25959E-02
         0.36935E-02
         0.36935E-02
         0.38140E-02
         0.38140E-02
         0.30271E-02
         0.36731E-02
         0.37140E-02
         0.32219E-02
         0.32913E-02
         0.32913E-02
         0.27006E-02
         0.25921E-02
         0.25751E-02
         0.29713E-02
         0.29713E-02
         0.26464E-02
         0.29083E-02
         0.33916E-02
         0.35219E-02
         0.35219E-02
         0.29833E-02
         0.32661E-02
         0.28451E-02
         0.30055E-02
         0.36731E-02
         0.37140E-02
         0.37140E-02
         0.33796E-02
         0.29232E-02
         0.32219E-02
         0.32913E-02
         0.32913E-02
         0.27006E-02
         0.25921E-02
         0.25751E-02
         0.27025E-02
         0.28664E-02
         0.29548E-02
         0.29713E-02
         0.29713E-02
         0.26464E-02
         0.27676E-02
         0.33916E-02
         0.35219E-02
         0.35219E-02
         0.29833E-02
         0.31680E-02
         0.31680E-02
  
SCALARS              physical_window_z  double 1
LOOKUP_TABLE default
         0.26928E-02
         0.26928E-02
         0.26928E-02
         0.26928E-02
         0.26928E-02
         0.26928E-02
         0.26928E-02
         0.26928E-02
         0.26928E-02
         0.26928E-02
         0.26928E-02
         0.26928E-02
         0.26928E-02
         0.26928E-02
         0.26928E-02
         0.26928E-02
         0.26928E-02
         0.26928E-02
         0.26928E-02
         0.26928E-02
         0.26928E-02
         0.26928E-02
         0.26928E-02
         0.26928E-02
         0.26928E-02
         0.26928E-02
         0.26928E-02
         0.26928E-02
         0.26928E-02
         0.26928E-02
         0.26928E-02
         0.26928E-02
         0.26928E-02
         0.26928E-02
         0.26928E-02
         0.26928E-02
         0.26928E-02
         0.26928E-02
         0.26928E-02
         0.26928E-02
         0.26928E-02
         0.26928E-02
         0.26928E-02
         0.26928E-02
         0.26928E-02
         0.26928E-02
         0.26928E-02
         0.26928E-02
         0.26928E-02
         0.26928E-02
         0.26928E-02
         0.26928E-02
         0.26928E-02
         0.26928E-02
         0.26928E-02
         0.26928E-02
         0.26928E-02
         0.26928E-02
         0.26928E-02
         0.26928E-02
         0.26928E-02
         0.26928E-02
         0.26928E-02
         0.26928E-02
         0.26928E-02
         0.26928E-02
         0.26928E-02
         0.26928E-02
         0.26928E-02
         0.26928E-02
         0.26928E-02
         0.26928E-02
         0.26928E-02
         0.26928E-02
         0.26928E-02
         0.26928E-02
         0.26928E-02
         0.26928E-02
         0.26928E-02
         0.26928E-02
         0.26928E-02
         0.26928E-02
         0.26928E-02
         0.26928E-02
         0.26928E-02
         0.26928E-02
         0.26928E-02
         0.26928E-02
         0.26928E-02
         0.26928E-02
         0.26928E-02
         0.26928E-02
         0.26928E-02
         0.26928E-02
         0.26928E-02
         0.26928E-02
         0.26928E-02
         0.26928E-02
         0.26928E-02
         0.26928E-02
         0.26928E-02
         0.26928E-02
         0.26928E-02
         0.26928E-02
         0.26928E-02
         0.26928E-02
         0.26928E-02
         0.26928E-02
         0.26928E-02
         0.26928E-02
         0.26928E-02
         0.26928E-02
         0.26928E-02
         0.26928E-02
         0.26928E-02
         0.26928E-02
         0.26928E-02
         0.26928E-02
         0.26928E-02
         0.26928E-02
         0.26928E-02
         0.26928E-02
         0.26928E-02
         0.26928E-02
         0.26928E-02
         0.26928E-02
         0.26928E-02
         0.26928E-02
         0.26928E-02
         0.26928E-02
         0.26928E-02
         0.26928E-02
         0.26928E-02
         0.26928E-02
         0.26928E-02
         0.26928E-02
         0.26928E-02
         0.26928E-02
         0.26928E-02
         0.26928E-02
         0.26928E-02
         0.26928E-02
         0.26928E-02
         0.26928E-02
         0.26928E-02
         0.26928E-02
         0.26928E-02
         0.26928E-02
         0.26928E-02
         0.26928E-02
         0.26928E-02
         0.26928E-02
         0.26928E-02
         0.26928E-02
         0.26928E-02
         0.26928E-02
         0.26927E-02
         0.26927E-02
         0.26927E-02
         0.26927E-02
         0.26927E-02
         0.26927E-02
         0.26927E-02
         0.26927E-02
         0.26927E-02
         0.26927E-02
         0.26927E-02
         0.26927E-02
         0.26927E-02
         0.26927E-02
         0.26927E-02
         0.26927E-02
         0.26927E-02
         0.26927E-02
         0.26927E-02
         0.26927E-02
         0.26927E-02
         0.26927E-02
         0.26927E-02
         0.26927E-02
         0.26927E-02
         0.26927E-02
         0.26927E-02
         0.26927E-02
         0.26927E-02
         0.26927E-02
         0.26927E-02
         0.26927E-02
         0.26927E-02
         0.26927E-02
         0.26927E-02
         0.26927E-02
         0.26927E-02
         0.26927E-02
         0.26927E-02
         0.26927E-02
         0.26927E-02
         0.26927E-02
         0.26927E-02
         0.26927E-02
         0.26927E-02
         0.26927E-02
         0.26927E-02
         0.26927E-02
         0.26927E-02
         0.26927E-02
         0.26927E-02
         0.26927E-02
         0.26927E-02
         0.26927E-02
         0.26927E-02
         0.26927E-02
         0.26927E-02
         0.26927E-02
         0.26927E-02
         0.26927E-02
         0.26927E-02
         0.26927E-02
         0.26927E-02
         0.26927E-02
         0.26927E-02
         0.26927E-02
         0.26927E-02
         0.26927E-02
         0.26927E-02
         0.26927E-02
         0.26927E-02
         0.26927E-02
         0.26927E-02
         0.26927E-02
         0.26927E-02
         0.26927E-02
         0.26927E-02
         0.26927E-02
         0.26927E-02
         0.26927E-02
         0.26927E-02
         0.26927E-02
         0.26927E-02
         0.26927E-02
         0.26927E-02
         0.26927E-02
         0.26927E-02
         0.26927E-02
         0.26927E-02
         0.26927E-02
         0.26927E-02
         0.26927E-02
         0.26927E-02
         0.26927E-02
         0.26927E-02
         0.26927E-02
         0.26927E-02
         0.26927E-02
         0.26927E-02
         0.26927E-02
         0.26927E-02
         0.26927E-02
         0.26927E-02
         0.26927E-02
         0.26927E-02
         0.26927E-02
         0.26927E-02
         0.26927E-02
         0.26927E-02
         0.26927E-02
         0.26927E-02
         0.26927E-02
         0.26927E-02
         0.26927E-02
         0.26927E-02
         0.26927E-02
         0.26927E-02
         0.26927E-02
         0.26927E-02
         0.26927E-02
         0.26927E-02
         0.26927E-02
         0.26927E-02
         0.26927E-02
         0.26927E-02
         0.26927E-02
         0.26927E-02
         0.26927E-02
         0.26927E-02
         0.26927E-02
         0.26927E-02
         0.26927E-02
         0.26927E-02
         0.26927E-02
         0.26927E-02
         0.26927E-02
         0.26927E-02
         0.26927E-02
         0.26927E-02
         0.26927E-02
         0.26927E-02
         0.26927E-02
         0.26927E-02
         0.26927E-02
         0.26927E-02
         0.26927E-02
         0.26927E-02
         0.26927E-02
         0.26927E-02
         0.26927E-02
         0.26927E-02
         0.26927E-02
         0.26927E-02
         0.26927E-02
         0.26927E-02
         0.26927E-02
         0.26927E-02
         0.26927E-02
         0.26927E-02
         0.26927E-02
         0.26927E-02
         0.26927E-02
         0.26927E-02
         0.26927E-02
         0.26927E-02
         0.26927E-02
         0.26927E-02
         0.26927E-02
         0.26927E-02
         0.26927E-02
         0.26927E-02
         0.26927E-02
         0.26927E-02
         0.26927E-02
         0.26927E-02
         0.26927E-02
         0.26927E-02
         0.26927E-02
         0.26927E-02
         0.26927E-02
         0.26927E-02
         0.26927E-02
         0.26927E-02
         0.26927E-02
         0.26927E-02
         0.26927E-02
         0.26927E-02
         0.26927E-02
         0.26927E-02
         0.26927E-02
         0.26927E-02
         0.26927E-02
         0.26927E-02
         0.26927E-02
         0.26927E-02
         0.26927E-02
         0.26927E-02
         0.26927E-02
         0.26927E-02
         0.26927E-02
         0.26927E-02
         0.26927E-02
         0.26927E-02
         0.26927E-02
         0.26927E-02
         0.26927E-02
         0.26927E-02
         0.26927E-02
         0.26927E-02
         0.26927E-02
         0.26927E-02
         0.26927E-02
         0.26927E-02
         0.26927E-02
         0.26927E-02
         0.26927E-02
         0.26927E-02
         0.26927E-02
         0.26927E-02
         0.26927E-02
         0.26927E-02
         0.26927E-02
         0.26927E-02
         0.26927E-02
         0.26927E-02
         0.26927E-02
         0.26927E-02
         0.26927E-02
         0.26927E-02
         0.26927E-02
         0.26927E-02
         0.26927E-02
         0.26927E-02
         0.26927E-02
         0.26927E-02
         0.26927E-02
         0.26927E-02
         0.26927E-02
         0.26927E-02
         0.26927E-02
         0.26927E-02
         0.26927E-02
         0.26927E-02
         0.26927E-02
         0.26927E-02
         0.26927E-02
         0.26927E-02
         0.26927E-02
         0.26927E-02
         0.26927E-02
         0.26927E-02
         0.26927E-02
         0.26927E-02
         0.26927E-02
         0.26927E-02
         0.26927E-02
         0.26927E-02
         0.26927E-02
         0.26927E-02
         0.26927E-02
         0.26927E-02
         0.26927E-02
         0.26927E-02
         0.26927E-02
         0.26927E-02
         0.26927E-02
         0.26927E-02
         0.26927E-02
         0.26927E-02
         0.26927E-02
         0.26927E-02
         0.26927E-02
         0.26927E-02
         0.26927E-02
         0.26927E-02
         0.26927E-02
         0.26927E-02
         0.26927E-02
         0.26927E-02
         0.26927E-02
         0.26927E-02
         0.26927E-02
         0.26927E-02
         0.26927E-02
         0.26927E-02
         0.26927E-02
         0.26927E-02
         0.26927E-02
         0.26927E-02
         0.26927E-02
         0.26927E-02
         0.26927E-02
         0.26927E-02
         0.26927E-02
         0.26927E-02
         0.26927E-02
         0.26927E-02
         0.26927E-02
         0.26927E-02
         0.26927E-02
         0.26927E-02
         0.26927E-02
         0.26927E-02
         0.26927E-02
         0.26927E-02
         0.26927E-02
         0.26927E-02
         0.26927E-02
         0.26927E-02
         0.26927E-02
         0.26927E-02
         0.26927E-02
         0.26927E-02
         0.26927E-02
         0.26927E-02
         0.26927E-02
         0.26927E-02
         0.26927E-02
         0.26927E-02
         0.26927E-02
         0.26927E-02
         0.26927E-02
         0.26927E-02
         0.26927E-02
         0.26927E-02
         0.26927E-02
         0.26927E-02
         0.26927E-02
         0.26927E-02
         0.26927E-02
         0.26927E-02
         0.26927E-02
         0.26927E-02
         0.26927E-02
         0.26927E-02
         0.26927E-02
         0.26927E-02
         0.26927E-02
         0.26927E-02
         0.26927E-02
         0.26927E-02
         0.26927E-02
         0.26927E-02
         0.26927E-02
         0.26927E-02
         0.26927E-02
         0.26927E-02
         0.26927E-02
         0.26927E-02
         0.26927E-02
         0.26927E-02
         0.26927E-02
         0.26927E-02
         0.26927E-02
         0.26927E-02
         0.26927E-02
         0.26927E-02
         0.26927E-02
         0.26927E-02
         0.26927E-02
         0.26927E-02
         0.26927E-02
         0.26927E-02
         0.26927E-02
         0.26927E-02
         0.26927E-02
         0.26927E-02
         0.26927E-02
         0.26927E-02
         0.26927E-02
         0.26927E-02
         0.26927E-02
         0.26927E-02
         0.26927E-02
         0.26927E-02
         0.26927E-02
         0.26927E-02
         0.26927E-02
         0.26927E-02
         0.26927E-02
         0.26927E-02
         0.26927E-02
         0.26927E-02
         0.26927E-02
         0.26927E-02
         0.26927E-02
         0.26927E-02
         0.26927E-02
         0.26927E-02
         0.26927E-02
         0.26927E-02
         0.26927E-02
         0.26927E-02
         0.26927E-02
         0.26927E-02
         0.26927E-02
         0.26927E-02
         0.26927E-02
         0.26927E-02
         0.26927E-02
         0.26927E-02
         0.26927E-02
         0.26927E-02
         0.26927E-02
         0.26927E-02
         0.26927E-02
         0.26927E-02
         0.26927E-02
         0.26927E-02
         0.26927E-02
         0.26927E-02
         0.26927E-02
         0.26927E-02
         0.26927E-02
         0.26927E-02
         0.26927E-02
         0.26927E-02
         0.26927E-02
         0.26927E-02
         0.26927E-02
         0.26927E-02
         0.26927E-02
         0.26927E-02
         0.26927E-02
         0.26927E-02
         0.26927E-02
         0.26927E-02
         0.26927E-02
         0.26927E-02
         0.26927E-02
         0.26927E-02
         0.26927E-02
         0.26927E-02
         0.26927E-02
         0.26927E-02
         0.26927E-02
         0.26927E-02
         0.26927E-02
         0.26927E-02
         0.26927E-02
         0.26927E-02
         0.26927E-02
         0.26927E-02
         0.26927E-02
         0.26927E-02
         0.26927E-02
         0.26927E-02
         0.26927E-02
         0.26927E-02
         0.26927E-02
         0.26927E-02
         0.26927E-02
         0.26927E-02
         0.26927E-02
         0.26927E-02
         0.26927E-02
         0.26927E-02
         0.26927E-02
         0.26927E-02
         0.26927E-02
         0.26927E-02
         0.26927E-02
         0.26927E-02
         0.26927E-02
         0.26927E-02
         0.26927E-02
         0.26927E-02
         0.26927E-02
         0.26927E-02
         0.26927E-02
         0.26927E-02
         0.26927E-02
         0.26927E-02
         0.26927E-02
         0.26927E-02
         0.26927E-02
         0.26927E-02
         0.26927E-02
         0.26927E-02
         0.26927E-02
         0.26927E-02
         0.26927E-02
         0.26927E-02
         0.26927E-02
         0.26927E-02
         0.26927E-02
         0.26927E-02
         0.26927E-02
         0.26927E-02
         0.26927E-02
         0.26927E-02
         0.26927E-02
         0.26927E-02
         0.26927E-02
         0.26927E-02
         0.26927E-02
         0.26927E-02
         0.26927E-02
         0.26927E-02
         0.26927E-02
         0.26927E-02
         0.26927E-02
         0.26927E-02
         0.26927E-02
         0.26927E-02
         0.26927E-02
         0.26927E-02
         0.26927E-02
         0.26927E-02
         0.26927E-02
         0.26927E-02
         0.26927E-02
         0.26927E-02
         0.26927E-02
         0.26927E-02
         0.26927E-02
         0.26927E-02
         0.26927E-02
         0.26927E-02
         0.26927E-02
         0.26927E-02
         0.26927E-02
         0.26927E-02
         0.26927E-02
         0.26927E-02
         0.26927E-02
         0.26927E-02
         0.26927E-02
         0.26927E-02
         0.26927E-02
         0.26927E-02
         0.26927E-02
         0.26927E-02
         0.26927E-02
         0.26927E-02
         0.26927E-02
         0.26927E-02
         0.26927E-02
         0.26927E-02
         0.26927E-02
         0.26927E-02
         0.26927E-02
         0.26927E-02
         0.26927E-02
         0.26927E-02
         0.26927E-02
         0.26927E-02
         0.26927E-02
         0.26927E-02
         0.26927E-02
         0.26927E-02
         0.26927E-02
         0.26927E-02
         0.26927E-02
         0.26927E-02
         0.26927E-02
         0.26927E-02
         0.26927E-02
         0.26927E-02
         0.26927E-02
         0.26927E-02
         0.26927E-02
         0.26927E-02
         0.26927E-02
         0.26927E-02
         0.26927E-02
         0.26927E-02
         0.26927E-02
         0.26927E-02
         0.26927E-02
         0.26927E-02
         0.26927E-02
         0.26927E-02
         0.26927E-02
         0.26927E-02
         0.26927E-02
         0.26927E-02
         0.26927E-02
         0.26927E-02
         0.26927E-02
         0.26927E-02
         0.26927E-02
         0.26927E-02
         0.26927E-02
         0.26927E-02
         0.26927E-02
         0.26927E-02
         0.26927E-02
         0.26927E-02
         0.26927E-02
         0.26927E-02
         0.26927E-02
         0.26927E-02
         0.26927E-02
         0.26927E-02
         0.26927E-02
         0.26927E-02
         0.26927E-02
         0.26927E-02
         0.26927E-02
         0.26927E-02
         0.26927E-02
         0.26927E-02
         0.26927E-02
         0.26927E-02
         0.26927E-02
         0.26927E-02
         0.26927E-02
         0.26927E-02
         0.26927E-02
         0.26927E-02
         0.26927E-02
         0.26927E-02
         0.26927E-02
         0.26927E-02
         0.26927E-02
         0.26927E-02
         0.26927E-02
         0.26927E-02
         0.26927E-02
         0.26927E-02
         0.26927E-02
         0.26927E-02
         0.26927E-02
         0.26927E-02
         0.26927E-02
         0.26927E-02
         0.26927E-02
         0.26927E-02
         0.26927E-02
         0.26927E-02
         0.26927E-02
         0.26927E-02
         0.26927E-02
         0.26927E-02
         0.26927E-02
         0.26927E-02
         0.26927E-02
         0.26927E-02
         0.26927E-02
         0.26927E-02
         0.26927E-02
         0.26927E-02
         0.26927E-02
         0.26927E-02
         0.26927E-02
         0.26927E-02
         0.26927E-02
         0.26927E-02
         0.26927E-02
         0.26927E-02
         0.26927E-02
         0.26927E-02
         0.26927E-02
         0.26927E-02
         0.26927E-02
         0.26927E-02
         0.26927E-02
         0.26927E-02
         0.26927E-02
         0.26927E-02
         0.26927E-02
         0.26927E-02
         0.26927E-02
         0.26927E-02
         0.26927E-02
         0.26927E-02
         0.26927E-02
         0.26927E-02
         0.26927E-02
         0.26927E-02
         0.26927E-02
         0.26927E-02
         0.26927E-02
         0.26927E-02
         0.26927E-02
         0.26927E-02
         0.26927E-02
         0.26927E-02
         0.26927E-02
         0.26927E-02
         0.26927E-02
         0.26927E-02
         0.26927E-02
         0.26927E-02
         0.26927E-02
         0.26927E-02
         0.26927E-02
         0.26927E-02
         0.26927E-02
         0.26927E-02
         0.26927E-02
         0.26927E-02
         0.26927E-02
         0.26927E-02
         0.26927E-02
         0.26927E-02
         0.26927E-02
         0.26927E-02
         0.26927E-02
         0.26927E-02
         0.26927E-02
         0.26927E-02
         0.26927E-02
         0.26927E-02
         0.26927E-02
         0.26927E-02
         0.26927E-02
         0.26927E-02
         0.26927E-02
         0.26927E-02
         0.26927E-02
         0.26927E-02
         0.26927E-02
         0.26927E-02
         0.26927E-02
         0.26927E-02
         0.26927E-02
         0.26927E-02
         0.26927E-02
         0.26927E-02
         0.26927E-02
         0.26927E-02
         0.26927E-02
         0.26927E-02
         0.26927E-02
         0.26927E-02
         0.26927E-02
         0.26927E-02
         0.26927E-02
         0.26927E-02
         0.26927E-02
         0.26927E-02
         0.26927E-02
         0.26927E-02
         0.26927E-02
         0.26927E-02
         0.26927E-02
         0.26927E-02
         0.26927E-02
         0.26927E-02
         0.26927E-02
         0.26927E-02
         0.26927E-02
         0.26927E-02
         0.26927E-02
         0.26927E-02
         0.26927E-02
         0.26927E-02
         0.26927E-02
         0.26927E-02
         0.26927E-02
         0.26927E-02
         0.26927E-02
         0.26927E-02
         0.26927E-02
         0.26927E-02
         0.26927E-02
         0.26927E-02
         0.26927E-02
         0.26927E-02
         0.26927E-02
         0.26927E-02
         0.26927E-02
         0.26927E-02
         0.26927E-02
         0.26927E-02
         0.26927E-02
         0.26927E-02
         0.26927E-02
         0.26927E-02
         0.26927E-02
         0.26927E-02
         0.26927E-02
         0.26927E-02
         0.26927E-02
         0.26927E-02
         0.26927E-02
         0.26927E-02
         0.26927E-02
         0.26927E-02
         0.26927E-02
         0.26927E-02
         0.26927E-02
         0.26927E-02
         0.26927E-02
         0.26927E-02
         0.26927E-02
         0.26927E-02
         0.26927E-02
         0.26927E-02
         0.26927E-02
         0.26927E-02
         0.26927E-02
         0.26927E-02
         0.26927E-02
         0.26927E-02
         0.26927E-02
         0.26927E-02
         0.26927E-02
         0.26927E-02
         0.26927E-02
         0.26927E-02
         0.26927E-02
         0.26927E-02
         0.26927E-02
         0.26927E-02
         0.26927E-02
         0.26927E-02
         0.26927E-02
         0.26927E-02
         0.26927E-02
         0.26927E-02
         0.26927E-02
         0.26927E-02
         0.26927E-02
         0.26927E-02
         0.26927E-02
         0.26927E-02
         0.26927E-02
         0.26927E-02
         0.26927E-02
         0.26927E-02
         0.26927E-02
         0.26927E-02
         0.26927E-02
         0.26927E-02
         0.26927E-02
         0.26927E-02
         0.26927E-02
         0.26927E-02
         0.26927E-02
         0.26927E-02
         0.26927E-02
         0.26927E-02
         0.26927E-02
         0.26927E-02
         0.26927E-02
         0.26927E-02
         0.26927E-02
         0.26927E-02
         0.26927E-02
         0.26927E-02
         0.26927E-02
         0.26927E-02
         0.26927E-02
         0.26927E-02
         0.26927E-02
         0.26927E-02
         0.26927E-02
         0.26927E-02
         0.26927E-02
         0.26927E-02
         0.26927E-02
         0.26927E-02
         0.26927E-02
         0.26927E-02
         0.26927E-02
         0.26927E-02
         0.26927E-02
         0.26927E-02
         0.26927E-02
         0.26927E-02
         0.26927E-02
         0.26927E-02
         0.26927E-02
         0.26927E-02
         0.26927E-02
         0.26927E-02
         0.26927E-02
         0.26927E-02
         0.26927E-02
         0.26927E-02
         0.26927E-02
         0.26927E-02
         0.26927E-02
         0.26927E-02
         0.26927E-02
         0.26927E-02
         0.26927E-02
         0.26927E-02
         0.26927E-02
         0.26927E-02
         0.26927E-02
         0.26927E-02
         0.26927E-02
         0.26927E-02
         0.26927E-02
         0.26927E-02
         0.26927E-02
         0.26927E-02
         0.26927E-02
         0.26927E-02
         0.26927E-02
         0.26927E-02
         0.26927E-02
         0.26927E-02
         0.26927E-02
         0.26927E-02
         0.26927E-02
         0.26927E-02
         0.26927E-02
         0.26927E-02
         0.26927E-02
         0.26927E-02
         0.26927E-02
         0.26927E-02
         0.26927E-02
         0.26927E-02
         0.26927E-02
         0.26927E-02
         0.26927E-02
         0.26927E-02
         0.26927E-02
         0.26927E-02
         0.26927E-02
         0.26927E-02
         0.26927E-02
         0.26927E-02
         0.26927E-02
         0.26927E-02
         0.26927E-02
         0.26927E-02
         0.26927E-02
         0.26927E-02
         0.26927E-02
         0.26927E-02
         0.26927E-02
         0.26927E-02
         0.26927E-02
         0.26927E-02
         0.26927E-02
         0.26927E-02
         0.26927E-02
         0.26927E-02
         0.26927E-02
         0.26927E-02
         0.26927E-02
         0.26927E-02
         0.26927E-02
         0.26927E-02
         0.26927E-02
         0.26927E-02
         0.26927E-02
         0.26927E-02
         0.26927E-02
         0.26927E-02
         0.26927E-02
         0.26927E-02
         0.26927E-02
         0.26927E-02
         0.26927E-02
         0.26927E-02
         0.26927E-02
         0.26927E-02
         0.26927E-02
         0.26927E-02
         0.26927E-02
         0.26927E-02
         0.26927E-02
         0.26927E-02
         0.26927E-02
         0.26927E-02
         0.26927E-02
         0.26927E-02
         0.26927E-02
         0.26927E-02
         0.26927E-02
         0.26927E-02
         0.26927E-02
         0.26927E-02
         0.26927E-02
         0.26927E-02
         0.26927E-02
         0.26927E-02
         0.26927E-02
         0.26927E-02
         0.26927E-02
         0.26927E-02
         0.26927E-02
         0.26927E-02
         0.26927E-02
         0.26927E-02
         0.26927E-02
         0.26927E-02
         0.26927E-02
         0.26927E-02
         0.26927E-02
         0.26927E-02
         0.26927E-02
         0.26927E-02
         0.26927E-02
         0.26927E-02
         0.26927E-02
         0.26927E-02
         0.26927E-02
         0.26927E-02
         0.26927E-02
         0.26927E-02
         0.26927E-02
         0.26927E-02
         0.26927E-02
         0.26927E-02
         0.26927E-02
         0.26927E-02
         0.26927E-02
         0.26927E-02
         0.26927E-02
         0.26927E-02
         0.26927E-02
         0.26927E-02
         0.26927E-02
         0.26927E-02
         0.26927E-02
         0.26927E-02
         0.26927E-02
         0.26927E-02
         0.26927E-02
         0.26927E-02
         0.26927E-02
         0.26927E-02
         0.26927E-02
         0.26927E-02
         0.26927E-02
         0.26927E-02
         0.26927E-02
         0.26927E-02
         0.26927E-02
         0.26927E-02
         0.26927E-02
         0.26927E-02
         0.26927E-02
         0.26927E-02
         0.26927E-02
         0.26927E-02
         0.26927E-02
         0.26927E-02
         0.26927E-02
         0.26927E-02
         0.26927E-02
         0.26927E-02
         0.26927E-02
         0.26927E-02
         0.26927E-02
         0.26927E-02
         0.26927E-02
         0.26927E-02
         0.26927E-02
         0.26927E-02
         0.26927E-02
         0.26927E-02
         0.26927E-02
         0.26927E-02
         0.26927E-02
         0.26927E-02
         0.26927E-02
         0.26927E-02
         0.26927E-02
         0.26927E-02
         0.26927E-02
         0.26927E-02
         0.26927E-02
         0.26927E-02
         0.26927E-02
         0.26927E-02
         0.26927E-02
         0.26927E-02
         0.26927E-02
         0.26927E-02
         0.26927E-02
         0.26927E-02
         0.26927E-02
         0.26927E-02
         0.26927E-02
         0.26927E-02
         0.26927E-02
         0.26927E-02
         0.26927E-02
         0.26927E-02
         0.26927E-02
         0.26927E-02
         0.26927E-02
         0.26927E-02
         0.26927E-02
         0.26927E-02
         0.26927E-02
         0.26927E-02
         0.26927E-02
         0.26927E-02
         0.26927E-02
         0.26927E-02
         0.26927E-02
         0.26927E-02
         0.26927E-02
         0.26927E-02
         0.26927E-02
         0.26927E-02
         0.26927E-02
         0.26927E-02
         0.26927E-02
         0.26927E-02
         0.26927E-02
         0.26927E-02
         0.26927E-02
         0.26927E-02
         0.26927E-02
         0.26927E-02
         0.26927E-02
         0.26927E-02
         0.26927E-02
         0.26927E-02
         0.26927E-02
         0.26927E-02
         0.26927E-02
         0.26927E-02
         0.26927E-02
         0.26927E-02
         0.26927E-02
         0.26927E-02
         0.26927E-02
         0.26927E-02
         0.26927E-02
         0.26927E-02
         0.26927E-02
         0.26927E-02
         0.26927E-02
         0.26927E-02
         0.26927E-02
         0.26927E-02
         0.26927E-02
         0.26927E-02
         0.26927E-02
         0.26927E-02
         0.26927E-02
         0.26927E-02
         0.26927E-02
         0.26927E-02
         0.26927E-02
         0.26927E-02
         0.26927E-02
         0.26927E-02
         0.26927E-02
         0.26927E-02
         0.26927E-02
         0.26927E-02
         0.26927E-02
         0.26927E-02
         0.26927E-02
         0.26927E-02
         0.26927E-02
         0.26927E-02
         0.26927E-02
         0.26927E-02
         0.26927E-02
         0.26927E-02
         0.26927E-02
         0.26927E-02
         0.26927E-02
         0.26927E-02
         0.26927E-02
         0.26927E-02
         0.26927E-02
         0.26927E-02
         0.26927E-02
         0.26927E-02
         0.26927E-02
         0.26927E-02
         0.26927E-02
         0.26927E-02
         0.26927E-02
         0.26927E-02
         0.26927E-02
         0.26927E-02
         0.26927E-02
         0.26927E-02
         0.26927E-02
         0.26927E-02
         0.26927E-02
         0.26927E-02
         0.26927E-02
         0.26927E-02
         0.26927E-02
         0.26927E-02
         0.26927E-02
         0.26927E-02
         0.26927E-02
         0.26927E-02
         0.26927E-02
         0.26927E-02
         0.26927E-02
         0.26927E-02
         0.26927E-02
         0.26927E-02
         0.26927E-02
         0.26927E-02
         0.26927E-02
         0.26927E-02
         0.26927E-02
         0.26927E-02
         0.26927E-02
         0.26927E-02
         0.26927E-02
         0.26927E-02
         0.26927E-02
         0.26927E-02
         0.26927E-02
         0.26927E-02
         0.26927E-02
         0.26927E-02
         0.26927E-02
         0.26927E-02
         0.26927E-02
         0.26927E-02
         0.26927E-02
         0.26927E-02
         0.26927E-02
         0.26927E-02
         0.26927E-02
         0.26927E-02
         0.26927E-02
         0.26927E-02
         0.26927E-02
         0.26927E-02
         0.26927E-02
         0.26927E-02
         0.26927E-02
         0.26927E-02
         0.26927E-02
         0.26927E-02
         0.26927E-02
         0.26927E-02
         0.26927E-02
         0.26927E-02
         0.26927E-02
         0.26927E-02
         0.26927E-02
         0.26927E-02
         0.26927E-02
         0.26927E-02
         0.26927E-02
         0.26927E-02
         0.26927E-02
         0.26927E-02
         0.26927E-02
         0.26927E-02
         0.26927E-02
         0.26927E-02
         0.26927E-02
         0.26927E-02
         0.26927E-02
         0.26927E-02
         0.26927E-02
         0.26927E-02
         0.26927E-02
         0.26927E-02
         0.26927E-02
         0.26927E-02
         0.26927E-02
         0.26927E-02
         0.26927E-02
         0.26927E-02
         0.26927E-02
         0.26927E-02
         0.26927E-02
         0.26927E-02
         0.26927E-02
         0.26927E-02
         0.26927E-02
         0.26927E-02
         0.26927E-02
         0.26927E-02
         0.26927E-02
         0.26927E-02
         0.26927E-02
         0.26927E-02
         0.26927E-02
         0.26927E-02
         0.26927E-02
         0.26927E-02
         0.26927E-02
         0.26927E-02
         0.26927E-02
         0.26927E-02
         0.26927E-02
         0.26927E-02
         0.26927E-02
         0.26927E-02
         0.26927E-02
         0.26927E-02
         0.26927E-02
         0.26927E-02
         0.26927E-02
         0.26927E-02
         0.26927E-02
         0.26927E-02
         0.26927E-02
         0.26927E-02
         0.26927E-02
         0.26927E-02
         0.26927E-02
         0.26927E-02
         0.26927E-02
         0.26927E-02
         0.26927E-02
         0.26927E-02
         0.26927E-02
         0.26927E-02
         0.26927E-02
         0.26927E-02
         0.26927E-02
         0.26927E-02
         0.26927E-02
         0.26927E-02
         0.26927E-02
         0.26927E-02
         0.26927E-02
         0.26927E-02
         0.26927E-02
         0.26927E-02
         0.26927E-02
         0.26927E-02
         0.26927E-02
         0.26927E-02
         0.26927E-02
         0.26927E-02
         0.26927E-02
         0.26927E-02
         0.26927E-02
         0.26927E-02
         0.26927E-02
         0.26927E-02
         0.26927E-02
         0.26927E-02
         0.26927E-02
         0.26927E-02
         0.26927E-02
         0.26927E-02
         0.26927E-02
         0.26927E-02
         0.26927E-02
         0.26927E-02
         0.26927E-02
         0.26927E-02
         0.26927E-02
         0.26927E-02
         0.26927E-02
         0.26927E-02
         0.26927E-02
         0.26927E-02
         0.26927E-02
         0.26927E-02
         0.26927E-02
         0.26927E-02
         0.26927E-02
         0.26927E-02
         0.26927E-02
         0.26927E-02
         0.26927E-02
         0.26927E-02
         0.26927E-02
         0.26927E-02
         0.26927E-02
         0.26927E-02
         0.26927E-02
         0.26927E-02
         0.26927E-02
         0.26927E-02
         0.26927E-02
         0.26927E-02
         0.26927E-02
         0.26927E-02
         0.26927E-02
         0.26927E-02
         0.26927E-02
         0.26927E-02
         0.26927E-02
         0.26927E-02
         0.26927E-02
         0.26927E-02
         0.26927E-02
         0.26927E-02
         0.26927E-02
         0.26927E-02
         0.26927E-02
         0.26927E-02
         0.26927E-02
         0.26927E-02
         0.26927E-02
         0.26927E-02
         0.26927E-02
         0.26927E-02
         0.26927E-02
         0.26927E-02
         0.26927E-02
         0.26927E-02
         0.26927E-02
         0.26927E-02
         0.26927E-02
         0.26927E-02
         0.26927E-02
         0.26927E-02
         0.26927E-02
         0.26927E-02
         0.26927E-02
         0.26927E-02
         0.26927E-02
         0.26927E-02
         0.26927E-02
         0.26927E-02
         0.26927E-02
         0.26927E-02
         0.26927E-02
         0.26927E-02
         0.26927E-02
         0.26927E-02
         0.26927E-02
         0.26927E-02
         0.26927E-02
         0.26927E-02
         0.26927E-02
         0.26927E-02
         0.26927E-02
         0.26927E-02
         0.26927E-02
         0.26927E-02
         0.26927E-02
         0.26927E-02
         0.26927E-02
         0.26927E-02
         0.26927E-02
         0.26927E-02
         0.26927E-02
         0.26927E-02
         0.26927E-02
         0.26927E-02
         0.26927E-02
         0.26927E-02
         0.26927E-02
         0.26927E-02
         0.26927E-02
         0.26927E-02
         0.26927E-02
         0.26927E-02
         0.26927E-02
         0.26927E-02
         0.26927E-02
         0.26927E-02
         0.26927E-02
         0.26927E-02
         0.26927E-02
         0.26927E-02
         0.26927E-02
         0.26927E-02
         0.26927E-02
         0.26927E-02
         0.26927E-02
         0.26927E-02
         0.26927E-02
         0.26927E-02
         0.26927E-02
         0.26927E-02
         0.26927E-02
         0.26927E-02
         0.26927E-02
         0.26927E-02
         0.26927E-02
         0.26927E-02
         0.26927E-02
         0.26927E-02
         0.26927E-02
         0.26927E-02
         0.26927E-02
         0.26927E-02
         0.26927E-02
         0.26927E-02
         0.26927E-02
         0.26927E-02
         0.26927E-02
         0.26927E-02
         0.26927E-02
         0.26927E-02
         0.26927E-02
         0.26927E-02
         0.26927E-02
         0.26927E-02
         0.26927E-02
         0.26927E-02
         0.26927E-02
         0.26927E-02
         0.26927E-02
         0.26927E-02
         0.26927E-02
         0.26927E-02
         0.26927E-02
         0.26927E-02
         0.26927E-02
         0.26927E-02
         0.26927E-02
         0.26927E-02
         0.26927E-02
         0.26927E-02
         0.26927E-02
         0.26927E-02
         0.26927E-02
         0.26927E-02
         0.26927E-02
         0.26927E-02
         0.26927E-02
         0.26927E-02
         0.26927E-02
         0.26927E-02
         0.26927E-02
         0.26927E-02
         0.26927E-02
         0.26927E-02
         0.26927E-02
         0.26927E-02
         0.26927E-02
         0.26927E-02
         0.26927E-02
         0.26927E-02
         0.26927E-02
         0.26927E-02
         0.26927E-02
         0.26927E-02
         0.26927E-02
         0.26927E-02
         0.26927E-02
         0.26927E-02
         0.26927E-02
         0.26927E-02
         0.26927E-02
         0.26927E-02
         0.26927E-02
         0.26927E-02
         0.26927E-02
         0.26927E-02
         0.26927E-02
         0.26927E-02
         0.26927E-02
         0.26927E-02
         0.26927E-02
         0.26927E-02
         0.26927E-02
         0.26927E-02
         0.26927E-02
         0.26927E-02
         0.26927E-02
         0.26927E-02
         0.26927E-02
         0.26927E-02
         0.26927E-02
         0.26927E-02
         0.26927E-02
         0.26927E-02
         0.26927E-02
         0.26927E-02
         0.26927E-02
         0.26927E-02
         0.26927E-02
         0.26927E-02
         0.26927E-02
         0.26927E-02
         0.26927E-02
         0.26927E-02
         0.26927E-02
         0.26927E-02
         0.26927E-02
         0.26927E-02
         0.26927E-02
         0.26927E-02
         0.26927E-02
         0.26927E-02
         0.26927E-02
         0.26927E-02
         0.26927E-02
         0.26927E-02
         0.26927E-02
         0.26927E-02
         0.26927E-02
         0.26927E-02
         0.26927E-02
         0.26927E-02
         0.26927E-02
         0.26927E-02
         0.26927E-02
         0.26927E-02
         0.26927E-02
         0.26927E-02
         0.26927E-02
         0.26927E-02
         0.26927E-02
         0.26927E-02
         0.26927E-02
         0.26927E-02
         0.26927E-02
         0.26927E-02
         0.26927E-02
         0.26927E-02
         0.26927E-02
         0.26927E-02
         0.26927E-02
         0.26927E-02
         0.26927E-02
         0.26927E-02
         0.26927E-02
         0.26927E-02
         0.26927E-02
         0.26927E-02
         0.26927E-02
         0.26927E-02
         0.26927E-02
         0.26927E-02
         0.26927E-02
         0.26927E-02
         0.26927E-02
         0.26927E-02
         0.26927E-02
         0.26927E-02
         0.26927E-02
         0.26927E-02
         0.26927E-02
         0.26927E-02
         0.26927E-02
         0.26927E-02
         0.26927E-02
         0.26927E-02
         0.26927E-02
         0.26927E-02
         0.26927E-02
         0.26927E-02
         0.26927E-02
         0.26927E-02
         0.26927E-02
         0.26927E-02
         0.26927E-02
         0.26927E-02
         0.26927E-02
         0.26928E-02
         0.26928E-02
         0.26928E-02
         0.26928E-02
         0.26928E-02
         0.26928E-02
         0.26928E-02
         0.26928E-02
         0.26928E-02
         0.26928E-02
         0.26928E-02
         0.26928E-02
         0.26928E-02
         0.26928E-02
         0.26928E-02
         0.26928E-02
         0.26928E-02
         0.26928E-02
         0.26928E-02
         0.26928E-02
         0.26928E-02
         0.26928E-02
         0.26928E-02
         0.26928E-02
         0.26928E-02
         0.26928E-02
         0.26928E-02
         0.26928E-02
         0.26928E-02
         0.26928E-02
         0.26928E-02
         0.26928E-02
         0.26928E-02
         0.26928E-02
         0.26928E-02
         0.26928E-02
         0.26928E-02
         0.26928E-02
         0.26928E-02
         0.26928E-02
         0.26928E-02
         0.26928E-02
         0.26928E-02
         0.26928E-02
         0.26928E-02
         0.26928E-02
         0.26928E-02
         0.26928E-02
         0.26928E-02
         0.26928E-02
         0.26928E-02
         0.26928E-02
         0.26928E-02
         0.26928E-02
         0.26928E-02
         0.26928E-02
         0.26928E-02
         0.26928E-02
         0.26928E-02
         0.26928E-02
         0.26928E-02
         0.26928E-02
         0.26928E-02
         0.26928E-02
         0.26928E-02
         0.26928E-02
         0.26928E-02
         0.26928E-02
         0.26928E-02
         0.26928E-02
         0.26928E-02
         0.26928E-02
         0.26928E-02
         0.26928E-02
         0.26928E-02
         0.26928E-02
         0.26928E-02
         0.26928E-02
         0.26928E-02
         0.26928E-02
         0.26928E-02
         0.26928E-02
         0.26928E-02
         0.26928E-02
         0.26928E-02
         0.26928E-02
         0.26928E-02
         0.26928E-02
         0.26928E-02
         0.26928E-02
         0.26928E-02
         0.26928E-02
         0.26928E-02
         0.26928E-02
         0.26928E-02
         0.26928E-02
         0.26928E-02
         0.26928E-02
         0.26928E-02
         0.26928E-02
         0.26928E-02
         0.26928E-02
         0.26928E-02
         0.26928E-02
         0.26928E-02
         0.26928E-02
         0.26928E-02
         0.26928E-02
         0.26928E-02
         0.26928E-02
         0.26928E-02
         0.26928E-02
         0.26928E-02
         0.26928E-02
         0.26928E-02
         0.26928E-02
         0.26928E-02
         0.26928E-02
         0.26928E-02
         0.26928E-02
         0.26928E-02
         0.26928E-02
         0.26928E-02
         0.26928E-02
         0.26928E-02
         0.26928E-02
         0.26928E-02
         0.26928E-02
         0.26928E-02
         0.26928E-02
         0.26928E-02
         0.26928E-02
         0.26928E-02
         0.26928E-02
         0.26928E-02
         0.26928E-02
         0.26928E-02
         0.26928E-02
         0.26928E-02
         0.26928E-02
         0.26928E-02
         0.26928E-02
         0.26928E-02
         0.26928E-02
         0.26928E-02
         0.26928E-02
         0.26928E-02
         0.26928E-02
         0.26928E-02
         0.26928E-02
         0.26928E-02
         0.26928E-02
         0.26928E-02
         0.26928E-02
         0.26928E-02
         0.26928E-02
  
SCALARS                   nodal_volume  double 1
LOOKUP_TABLE default
         0.91140E-09
         0.72412E-09
         0.77574E-09
         0.13316E-08
         0.45570E-09
         0.36211E-09
         0.38787E-09
         0.66566E-09
         0.71537E-09
         0.91211E-09
         0.35767E-09
         0.45600E-09
         0.51195E-09
         0.61532E-09
         0.25605E-09
         0.30776E-09
         0.10101E-08
         0.74536E-09
         0.50500E-09
         0.37281E-09
         0.30273E-09
         0.57012E-09
         0.62699E-09
         0.15144E-09
         0.28509E-09
         0.31352E-09
         0.51329E-09
         0.64933E-09
         0.25683E-09
         0.32471E-09
         0.12026E-08
         0.93909E-09
         0.11935E-08
         0.60122E-09
         0.46945E-09
         0.59663E-09
         0.70296E-09
         0.80270E-09
         0.35149E-09
         0.40134E-09
         0.75859E-09
         0.84013E-09
         0.37932E-09
         0.42007E-09
         0.64542E-09
         0.40086E-09
         0.32274E-09
         0.20045E-09
         0.76288E-09
         0.38153E-09
         0.63346E-09
         0.31675E-09
         0.66583E-09
         0.33318E-09
         0.68008E-09
         0.34022E-09
         0.58930E-09
         0.71738E-09
         0.29472E-09
         0.35874E-09
         0.90938E-09
         0.64302E-09
         0.45469E-09
         0.32154E-09
         0.10152E-08
         0.50747E-09
         0.88120E-09
         0.44042E-09
         0.40077E-09
         0.61872E-09
         0.20039E-09
         0.30940E-09
         0.70206E-09
         0.35106E-09
         0.74172E-09
         0.37089E-09
         0.71539E-09
         0.35770E-09
         0.56226E-09
         0.28113E-09
         0.35349E-09
         0.58452E-09
         0.17675E-09
         0.29229E-09
         0.77354E-09
         0.38679E-09
         0.62469E-09
         0.31238E-09
         0.54957E-09
         0.27483E-09
         0.36009E-09
         0.61365E-09
         0.18007E-09
         0.30685E-09
         0.83268E-09
         0.41635E-09
         0.87287E-09
         0.43642E-09
         0.70438E-09
         0.35217E-09
         0.43365E-09
         0.74413E-09
         0.21683E-09
         0.37198E-09
         0.27660E-09
         0.35144E-09
         0.13833E-09
         0.17573E-09
         0.32921E-09
         0.16465E-09
         0.38764E-09
         0.19382E-09
         0.37797E-09
         0.18897E-09
         0.36707E-09
         0.18352E-09
         0.39112E-09
         0.19552E-09
         0.41268E-09
         0.20627E-09
         0.38876E-09
         0.19433E-09
         0.30402E-09
         0.15200E-09
         0.24796E-09
         0.12398E-09
         0.31999E-09
         0.16000E-09
         0.42608E-09
         0.21303E-09
         0.46805E-09
         0.23401E-09
         0.44933E-09
         0.22466E-09
         0.40550E-09
         0.20276E-09
         0.36826E-09
         0.18414E-09
         0.29911E-09
         0.14956E-09
         0.25178E-09
         0.12591E-09
         0.32888E-09
         0.16445E-09
         0.43529E-09
         0.21765E-09
         0.44963E-09
         0.22482E-09
         0.36384E-09
         0.18194E-09
         0.29543E-09
         0.14774E-09
         0.36126E-09
         0.18063E-09
         0.42771E-09
         0.21386E-09
         0.91143E-09
         0.72396E-09
         0.77579E-09
         0.13322E-08
         0.71547E-09
         0.91237E-09
         0.51167E-09
         0.61494E-09
         0.10105E-08
         0.74486E-09
         0.30244E-09
         0.57001E-09
         0.62694E-09
         0.51257E-09
         0.64918E-09
         0.12029E-08
         0.93950E-09
         0.11941E-08
         0.70298E-09
         0.80279E-09
         0.75855E-09
         0.84015E-09
         0.64535E-09
         0.40081E-09
         0.76254E-09
         0.63339E-09
         0.66483E-09
         0.67941E-09
         0.58904E-09
         0.71721E-09
         0.90946E-09
         0.64293E-09
         0.10157E-08
         0.88199E-09
         0.40076E-09
         0.61859E-09
         0.70195E-09
         0.74166E-09
         0.71543E-09
         0.56228E-09
         0.35349E-09
         0.58443E-09
         0.77349E-09
         0.62459E-09
         0.54943E-09
         0.35999E-09
         0.61359E-09
         0.83268E-09
         0.87299E-09
         0.70451E-09
         0.43366E-09
         0.74449E-09
         0.27651E-09
         0.35143E-09
         0.32904E-09
         0.38765E-09
         0.37805E-09
         0.36714E-09
         0.39129E-09
         0.41297E-09
         0.38899E-09
         0.30408E-09
         0.24798E-09
         0.31999E-09
         0.42613E-09
         0.46815E-09
         0.44938E-09
         0.40548E-09
         0.36823E-09
         0.29908E-09
         0.25174E-09
         0.32885E-09
         0.43527E-09
         0.44962E-09
         0.36376E-09
         0.29536E-09
         0.36130E-09
         0.42769E-09
         0.91151E-09
         0.72383E-09
         0.77587E-09
         0.13329E-08
         0.71560E-09
         0.91267E-09
         0.51142E-09
         0.61459E-09
         0.10109E-08
         0.74439E-09
         0.30216E-09
         0.56992E-09
         0.62691E-09
         0.51187E-09
         0.64906E-09
         0.12033E-08
         0.93995E-09
         0.11947E-08
         0.70302E-09
         0.80291E-09
         0.75853E-09
         0.84020E-09
         0.64530E-09
         0.40078E-09
         0.76223E-09
         0.63335E-09
         0.66385E-09
         0.67875E-09
         0.58880E-09
         0.71706E-09
         0.90957E-09
         0.64286E-09
         0.10162E-08
         0.88281E-09
         0.40076E-09
         0.61849E-09
         0.70188E-09
         0.74162E-09
         0.71550E-09
         0.56232E-09
         0.35350E-09
         0.58436E-09
         0.77347E-09
         0.62452E-09
         0.54931E-09
         0.35990E-09
         0.61355E-09
         0.83270E-09
         0.87315E-09
         0.70467E-09
         0.43368E-09
         0.74487E-09
         0.27643E-09
         0.35143E-09
         0.32889E-09
         0.38767E-09
         0.37814E-09
         0.36723E-09
         0.39147E-09
         0.41328E-09
         0.38923E-09
         0.30416E-09
         0.24800E-09
         0.32001E-09
         0.42620E-09
         0.46826E-09
         0.44944E-09
         0.40548E-09
         0.36821E-09
         0.29906E-09
         0.25171E-09
         0.32883E-09
         0.43527E-09
         0.44963E-09
         0.36369E-09
         0.29530E-09
         0.36135E-09
         0.42769E-09
         0.91156E-09
         0.72368E-09
         0.77594E-09
         0.13335E-08
         0.71571E-09
         0.91295E-09
         0.51115E-09
         0.61422E-09
         0.10112E-08
         0.74389E-09
         0.30187E-09
         0.56982E-09
         0.62686E-09
         0.51116E-09
         0.64892E-09
         0.12036E-08
         0.94038E-09
         0.11953E-08
         0.70304E-09
         0.80300E-09
         0.75850E-09
         0.84023E-09
         0.64523E-09
         0.40073E-09
         0.76190E-09
         0.63330E-09
         0.66285E-09
         0.67809E-09
         0.58855E-09
         0.71689E-09
         0.90966E-09
         0.64278E-09
         0.10168E-08
         0.88361E-09
         0.40076E-09
         0.61837E-09
         0.70178E-09
         0.74156E-09
         0.71554E-09
         0.56234E-09
         0.35350E-09
         0.58428E-09
         0.77343E-09
         0.62442E-09
         0.54918E-09
         0.35981E-09
         0.61349E-09
         0.83271E-09
         0.87328E-09
         0.70481E-09
         0.43369E-09
         0.74524E-09
         0.27634E-09
         0.35142E-09
         0.32873E-09
         0.38768E-09
         0.37823E-09
         0.36731E-09
         0.39163E-09
         0.41358E-09
         0.38945E-09
         0.30422E-09
         0.24802E-09
         0.32001E-09
         0.42625E-09
         0.46837E-09
         0.44949E-09
         0.40546E-09
         0.36819E-09
         0.29904E-09
         0.25167E-09
         0.32881E-09
         0.43526E-09
         0.44963E-09
         0.36362E-09
         0.29523E-09
         0.36139E-09
         0.42768E-09
         0.91161E-09
         0.72353E-09
         0.77600E-09
         0.13341E-08
         0.71583E-09
         0.91323E-09
         0.51088E-09
         0.61386E-09
         0.10116E-08
         0.74341E-09
         0.30158E-09
         0.56972E-09
         0.62682E-09
         0.51045E-09
         0.64879E-09
         0.12040E-08
         0.94081E-09
         0.11959E-08
         0.70307E-09
         0.80310E-09
         0.75847E-09
         0.84027E-09
         0.64517E-09
         0.40069E-09
         0.76158E-09
         0.63325E-09
         0.66186E-09
         0.67742E-09
         0.58831E-09
         0.71673E-09
         0.90975E-09
         0.64270E-09
         0.10173E-08
         0.88441E-09
         0.40075E-09
         0.61825E-09
         0.70169E-09
         0.74151E-09
         0.71559E-09
         0.56237E-09
         0.35350E-09
         0.58420E-09
         0.77339E-09
         0.62433E-09
         0.54905E-09
         0.35972E-09
         0.61344E-09
         0.83272E-09
         0.87341E-09
         0.70496E-09
         0.43370E-09
         0.74562E-09
         0.27626E-09
         0.35142E-09
         0.32857E-09
         0.38770E-09
         0.37832E-09
         0.36739E-09
         0.39181E-09
         0.41387E-09
         0.38968E-09
         0.30429E-09
         0.24804E-09
         0.32002E-09
         0.42631E-09
         0.46847E-09
         0.44954E-09
         0.40545E-09
         0.36816E-09
         0.29901E-09
         0.25163E-09
         0.32878E-09
         0.43525E-09
         0.44963E-09
         0.36354E-09
         0.29517E-09
         0.36144E-09
         0.42766E-09
         0.91167E-09
         0.72338E-09
         0.77607E-09
         0.13348E-08
         0.71594E-09
         0.91351E-09
         0.51062E-09
         0.61349E-09
         0.10119E-08
         0.74292E-09
         0.30129E-09
         0.56962E-09
         0.62678E-09
         0.50974E-09
         0.64865E-09
         0.12044E-08
         0.94125E-09
         0.11965E-08
         0.70310E-09
         0.80321E-09
         0.75844E-09
         0.84031E-09
         0.64511E-09
         0.40065E-09
         0.76125E-09
         0.63320E-09
         0.66087E-09
         0.67676E-09
         0.58806E-09
         0.71657E-09
         0.90984E-09
         0.64263E-09
         0.10179E-08
         0.88522E-09
         0.40075E-09
         0.61813E-09
         0.70160E-09
         0.74146E-09
         0.71564E-09
         0.56240E-09
         0.35350E-09
         0.58412E-09
         0.77336E-09
         0.62425E-09
         0.54892E-09
         0.35963E-09
         0.61339E-09
         0.83274E-09
         0.87355E-09
         0.70511E-09
         0.43371E-09
         0.74599E-09
         0.27618E-09
         0.35141E-09
         0.32841E-09
         0.38771E-09
         0.37841E-09
         0.36747E-09
         0.39198E-09
         0.41417E-09
         0.38992E-09
         0.30436E-09
         0.24806E-09
         0.32003E-09
         0.42637E-09
         0.46858E-09
         0.44960E-09
         0.40544E-09
         0.36814E-09
         0.29899E-09
         0.25159E-09
         0.32876E-09
         0.43525E-09
         0.44963E-09
         0.36347E-09
         0.29511E-09
         0.36148E-09
         0.42766E-09
         0.91171E-09
         0.72323E-09
         0.77613E-09
         0.13354E-08
         0.71606E-09
         0.91379E-09
         0.51035E-09
         0.61313E-09
         0.10123E-08
         0.74243E-09
         0.30101E-09
         0.56952E-09
         0.62674E-09
         0.50903E-09
         0.64851E-09
         0.12047E-08
         0.94167E-09
         0.11971E-08
         0.70312E-09
         0.80331E-09
         0.75840E-09
         0.84034E-09
         0.64504E-09
         0.40061E-09
         0.76092E-09
         0.63314E-09
         0.65988E-09
         0.67609E-09
         0.58781E-09
         0.71641E-09
         0.90993E-09
         0.64255E-09
         0.10184E-08
         0.88601E-09
         0.40075E-09
         0.61801E-09
         0.70151E-09
         0.74140E-09
         0.71569E-09
         0.56243E-09
         0.35350E-09
         0.58404E-09
         0.77332E-09
         0.62416E-09
         0.54879E-09
         0.35953E-09
         0.61334E-09
         0.83274E-09
         0.87368E-09
         0.70525E-09
         0.43372E-09
         0.74636E-09
         0.27609E-09
         0.35141E-09
         0.32825E-09
         0.38772E-09
         0.37849E-09
         0.36754E-09
         0.39215E-09
         0.41447E-09
         0.39014E-09
         0.30443E-09
         0.24808E-09
         0.32004E-09
         0.42642E-09
         0.46868E-09
         0.44965E-09
         0.40543E-09
         0.36812E-09
         0.29897E-09
         0.25155E-09
         0.32874E-09
         0.43524E-09
         0.44963E-09
         0.36340E-09
         0.29504E-09
         0.36153E-09
         0.42764E-09
         0.91176E-09
         0.72308E-09
         0.77620E-09
         0.13360E-08
         0.71617E-09
         0.91407E-09
         0.51008E-09
         0.61276E-09
         0.10126E-08
         0.74195E-09
         0.30072E-09
         0.56942E-09
         0.62670E-09
         0.50832E-09
         0.64838E-09
         0.12051E-08
         0.94210E-09
         0.11977E-08
         0.70314E-09
         0.80341E-09
         0.75837E-09
         0.84038E-09
         0.64498E-09
         0.40056E-09
         0.76060E-09
         0.63309E-09
         0.65888E-09
         0.67542E-09
         0.58756E-09
         0.71624E-09
         0.91002E-09
         0.64247E-09
         0.10189E-08
         0.88682E-09
         0.40074E-09
         0.61790E-09
         0.70142E-09
         0.74135E-09
         0.71574E-09
         0.56245E-09
         0.35351E-09
         0.58396E-09
         0.77328E-09
         0.62407E-09
         0.54866E-09
         0.35944E-09
         0.61329E-09
         0.83275E-09
         0.87382E-09
         0.70539E-09
         0.43373E-09
         0.74673E-09
         0.27601E-09
         0.35140E-09
         0.32809E-09
         0.38774E-09
         0.37858E-09
         0.36762E-09
         0.39232E-09
         0.41477E-09
         0.39037E-09
         0.30450E-09
         0.24810E-09
         0.32005E-09
         0.42648E-09
         0.46879E-09
         0.44970E-09
         0.40541E-09
         0.36809E-09
         0.29894E-09
         0.25151E-09
         0.32871E-09
         0.43523E-09
         0.44963E-09
         0.36333E-09
         0.29497E-09
         0.36157E-09
         0.42763E-09
         0.91182E-09
         0.72293E-09
         0.77627E-09
         0.13367E-08
         0.71629E-09
         0.91436E-09
         0.50982E-09
         0.61240E-09
         0.10130E-08
         0.74146E-09
         0.30043E-09
         0.56932E-09
         0.62666E-09
         0.50762E-09
         0.64825E-09
         0.12054E-08
         0.94253E-09
         0.11983E-08
         0.70317E-09
         0.80351E-09
         0.75834E-09
         0.84041E-09
         0.64491E-09
         0.40053E-09
         0.76028E-09
         0.63304E-09
         0.65790E-09
         0.67476E-09
         0.58731E-09
         0.71609E-09
         0.91012E-09
         0.64239E-09
         0.10195E-08
         0.88762E-09
         0.40074E-09
         0.61778E-09
         0.70133E-09
         0.74130E-09
         0.71579E-09
         0.56249E-09
         0.35351E-09
         0.58388E-09
         0.77324E-09
         0.62398E-09
         0.54853E-09
         0.35935E-09
         0.61324E-09
         0.83277E-09
         0.87396E-09
         0.70554E-09
         0.43375E-09
         0.74711E-09
         0.27592E-09
         0.35140E-09
         0.32793E-09
         0.38775E-09
         0.37867E-09
         0.36770E-09
         0.39249E-09
         0.41507E-09
         0.39061E-09
         0.30457E-09
         0.24812E-09
         0.32006E-09
         0.42654E-09
         0.46890E-09
         0.44975E-09
         0.40540E-09
         0.36807E-09
         0.29892E-09
         0.25148E-09
         0.32869E-09
         0.43522E-09
         0.44963E-09
         0.36325E-09
         0.29491E-09
         0.36162E-09
         0.42762E-09
         0.91187E-09
         0.72278E-09
         0.77633E-09
         0.13373E-08
         0.71640E-09
         0.91463E-09
         0.50955E-09
         0.61204E-09
         0.10134E-08
         0.74098E-09
         0.30015E-09
         0.56922E-09
         0.62662E-09
         0.50691E-09
         0.64811E-09
         0.12058E-08
         0.94296E-09
         0.11989E-08
         0.70320E-09
         0.80361E-09
         0.75831E-09
         0.84045E-09
         0.64485E-09
         0.40048E-09
         0.75995E-09
         0.63298E-09
         0.65690E-09
         0.67409E-09
         0.58706E-09
         0.71592E-09
         0.91020E-09
         0.64231E-09
         0.10200E-08
         0.88843E-09
         0.40074E-09
         0.61766E-09
         0.70124E-09
         0.74124E-09
         0.71584E-09
         0.56251E-09
         0.35351E-09
         0.58380E-09
         0.77320E-09
         0.62389E-09
         0.54840E-09
         0.35926E-09
         0.61318E-09
         0.83277E-09
         0.87409E-09
         0.70568E-09
         0.43376E-09
         0.74748E-09
         0.27584E-09
         0.35139E-09
         0.32777E-09
         0.38777E-09
         0.37876E-09
         0.36778E-09
         0.39266E-09
         0.41536E-09
         0.39084E-09
         0.30464E-09
         0.24814E-09
         0.32006E-09
         0.42659E-09
         0.46900E-09
         0.44980E-09
         0.40539E-09
         0.36805E-09
         0.29890E-09
         0.25144E-09
         0.32867E-09
         0.43521E-09
         0.44963E-09
         0.36318E-09
         0.29485E-09
         0.36166E-09
         0.42761E-09
         0.91192E-09
         0.72263E-09
         0.77640E-09
         0.13380E-08
         0.71652E-09
         0.91491E-09
         0.50928E-09
         0.61167E-09
         0.10137E-08
         0.74049E-09
         0.29986E-09
         0.56912E-09
         0.62657E-09
         0.50620E-09
         0.64797E-09
         0.12061E-08
         0.94339E-09
         0.11995E-08
         0.70322E-09
         0.80371E-09
         0.75827E-09
         0.84048E-09
         0.64478E-09
         0.40044E-09
         0.75962E-09
         0.63293E-09
         0.65591E-09
         0.67343E-09
         0.58681E-09
         0.71576E-09
         0.91029E-09
         0.64223E-09
         0.10205E-08
         0.88923E-09
         0.40073E-09
         0.61754E-09
         0.70114E-09
         0.74119E-09
         0.71588E-09
         0.56254E-09
         0.35351E-09
         0.58372E-09
         0.77316E-09
         0.62380E-09
         0.54827E-09
         0.35917E-09
         0.61313E-09
         0.83278E-09
         0.87422E-09
         0.70582E-09
         0.43377E-09
         0.74785E-09
         0.27575E-09
         0.35138E-09
         0.32761E-09
         0.38778E-09
         0.37885E-09
         0.36786E-09
         0.39283E-09
         0.41566E-09
         0.39107E-09
         0.30470E-09
         0.24816E-09
         0.32007E-09
         0.42665E-09
         0.46911E-09
         0.44985E-09
         0.40538E-09
         0.36802E-09
         0.29887E-09
         0.25140E-09
         0.32864E-09
         0.43520E-09
         0.44963E-09
         0.36310E-09
         0.29478E-09
         0.36170E-09
         0.42760E-09
         0.91198E-09
         0.72248E-09
         0.77646E-09
         0.13386E-08
         0.71663E-09
         0.91520E-09
         0.50901E-09
         0.61131E-09
         0.10141E-08
         0.74000E-09
         0.29957E-09
         0.56902E-09
         0.62653E-09
         0.50549E-09
         0.64784E-09
         0.12065E-08
         0.94382E-09
         0.12002E-08
         0.70325E-09
         0.80381E-09
         0.75824E-09
         0.84052E-09
         0.64472E-09
         0.40040E-09
         0.75929E-09
         0.63288E-09
         0.65492E-09
         0.67276E-09
         0.58657E-09
         0.71560E-09
         0.91038E-09
         0.64216E-09
         0.10211E-08
         0.89003E-09
         0.40073E-09
         0.61742E-09
         0.70105E-09
         0.74114E-09
         0.71593E-09
         0.56257E-09
         0.35351E-09
         0.58364E-09
         0.77313E-09
         0.62371E-09
         0.54814E-09
         0.35908E-09
         0.61308E-09
         0.83280E-09
         0.87436E-09
         0.70597E-09
         0.43378E-09
         0.74823E-09
         0.27567E-09
         0.35138E-09
         0.32745E-09
         0.38779E-09
         0.37893E-09
         0.36794E-09
         0.39300E-09
         0.41596E-09
         0.39130E-09
         0.30477E-09
         0.24818E-09
         0.32008E-09
         0.42671E-09
         0.46921E-09
         0.44991E-09
         0.40537E-09
         0.36800E-09
         0.29885E-09
         0.25136E-09
         0.32862E-09
         0.43520E-09
         0.44963E-09
         0.36303E-09
         0.29472E-09
         0.36175E-09
         0.42759E-09
         0.91203E-09
         0.72233E-09
         0.77653E-09
         0.13392E-08
         0.71675E-09
         0.91547E-09
         0.50875E-09
         0.61094E-09
         0.10144E-08
         0.73952E-09
         0.29928E-09
         0.56892E-09
         0.62649E-09
         0.50478E-09
         0.64770E-09
         0.12068E-08
         0.94424E-09
         0.12008E-08
         0.70327E-09
         0.80391E-09
         0.75821E-09
         0.84055E-09
         0.64465E-09
         0.40035E-09
         0.75896E-09
         0.63282E-09
         0.65393E-09
         0.67210E-09
         0.58632E-09
         0.71543E-09
         0.91047E-09
         0.64208E-09
         0.10216E-08
         0.89084E-09
         0.40073E-09
         0.61730E-09
         0.70096E-09
         0.74108E-09
         0.71598E-09
         0.56259E-09
         0.35351E-09
         0.58356E-09
         0.77309E-09
         0.62362E-09
         0.54801E-09
         0.35898E-09
         0.61303E-09
         0.83281E-09
         0.87449E-09
         0.70611E-09
         0.43379E-09
         0.74860E-09
         0.27558E-09
         0.35137E-09
         0.32729E-09
         0.38781E-09
         0.37902E-09
         0.36802E-09
         0.39317E-09
         0.41625E-09
         0.39153E-09
         0.30484E-09
         0.24820E-09
         0.32009E-09
         0.42677E-09
         0.46932E-09
         0.44996E-09
         0.40536E-09
         0.36798E-09
         0.29883E-09
         0.25132E-09
         0.32859E-09
         0.43519E-09
         0.44963E-09
         0.36296E-09
         0.29465E-09
         0.36179E-09
         0.42758E-09
         0.91208E-09
         0.72218E-09
         0.77659E-09
         0.13399E-08
         0.71686E-09
         0.91576E-09
         0.50848E-09
         0.61058E-09
         0.10148E-08
         0.73903E-09
         0.29900E-09
         0.56882E-09
         0.62645E-09
         0.50408E-09
         0.64757E-09
         0.12072E-08
         0.94467E-09
         0.12014E-08
         0.70330E-09
         0.80401E-09
         0.75818E-09
         0.84059E-09
         0.64459E-09
         0.40031E-09
         0.75864E-09
         0.63277E-09
         0.65294E-09
         0.67143E-09
         0.58607E-09
         0.71527E-09
         0.91057E-09
         0.64200E-09
         0.10221E-08
         0.89164E-09
         0.40072E-09
         0.61719E-09
         0.70087E-09
         0.74103E-09
         0.71603E-09
         0.56262E-09
         0.35352E-09
         0.58348E-09
         0.77305E-09
         0.62354E-09
         0.54788E-09
         0.35889E-09
         0.61298E-09
         0.83282E-09
         0.87463E-09
         0.70626E-09
         0.43380E-09
         0.74897E-09
         0.27550E-09
         0.35137E-09
         0.32713E-09
         0.38782E-09
         0.37911E-09
         0.36810E-09
         0.39334E-09
         0.41655E-09
         0.39176E-09
         0.30491E-09
         0.24822E-09
         0.32010E-09
         0.42682E-09
         0.46942E-09
         0.45001E-09
         0.40534E-09
         0.36796E-09
         0.29881E-09
         0.25128E-09
         0.32857E-09
         0.43518E-09
         0.44963E-09
         0.36288E-09
         0.29459E-09
         0.36184E-09
         0.42757E-09
         0.91214E-09
         0.72204E-09
         0.77666E-09
         0.13405E-08
         0.71698E-09
         0.91604E-09
         0.50822E-09
         0.61022E-09
         0.10151E-08
         0.73855E-09
         0.29871E-09
         0.56872E-09
         0.62641E-09
         0.50337E-09
         0.64743E-09
         0.12075E-08
         0.94510E-09
         0.12020E-08
         0.70333E-09
         0.80411E-09
         0.75815E-09
         0.84063E-09
         0.64453E-09
         0.40027E-09
         0.75831E-09
         0.63272E-09
         0.65196E-09
         0.67077E-09
         0.58582E-09
         0.71511E-09
         0.91066E-09
         0.64192E-09
         0.10227E-08
         0.89245E-09
         0.40072E-09
         0.61707E-09
         0.70078E-09
         0.74098E-09
         0.71608E-09
         0.56265E-09
         0.35352E-09
         0.58340E-09
         0.77301E-09
         0.62345E-09
         0.54775E-09
         0.35880E-09
         0.61293E-09
         0.83283E-09
         0.87476E-09
         0.70641E-09
         0.43382E-09
         0.74935E-09
         0.27541E-09
         0.35136E-09
         0.32697E-09
         0.38784E-09
         0.37920E-09
         0.36818E-09
         0.39352E-09
         0.41685E-09
         0.39199E-09
         0.30498E-09
         0.24824E-09
         0.32011E-09
         0.42688E-09
         0.46953E-09
         0.45007E-09
         0.40533E-09
         0.36793E-09
         0.29878E-09
         0.25124E-09
         0.32855E-09
         0.43517E-09
         0.44963E-09
         0.36281E-09
         0.29452E-09
         0.36188E-09
         0.42756E-09
         0.91219E-09
         0.72188E-09
         0.77672E-09
         0.13412E-08
         0.71709E-09
         0.91632E-09
         0.50795E-09
         0.60986E-09
         0.10155E-08
         0.73806E-09
         0.29842E-09
         0.56862E-09
         0.62636E-09
         0.50266E-09
         0.64730E-09
         0.12079E-08
         0.94552E-09
         0.12026E-08
         0.70335E-09
         0.80421E-09
         0.75811E-09
         0.84066E-09
         0.64446E-09
         0.40023E-09
         0.75798E-09
         0.63267E-09
         0.65096E-09
         0.67010E-09
         0.58557E-09
         0.71494E-09
         0.91074E-09
         0.64184E-09
         0.10232E-08
         0.89325E-09
         0.40072E-09
         0.61695E-09
         0.70069E-09
         0.74092E-09
         0.71612E-09
         0.56268E-09
         0.35352E-09
         0.58332E-09
         0.77297E-09
         0.62336E-09
         0.54762E-09
         0.35871E-09
         0.61287E-09
         0.83284E-09
         0.87489E-09
         0.70655E-09
         0.43383E-09
         0.74972E-09
         0.27533E-09
         0.35136E-09
         0.32681E-09
         0.38785E-09
         0.37929E-09
         0.36825E-09
         0.39369E-09
         0.41715E-09
         0.39222E-09
         0.30505E-09
         0.24826E-09
         0.32011E-09
         0.42694E-09
         0.46963E-09
         0.45011E-09
         0.40532E-09
         0.36791E-09
         0.29876E-09
         0.25120E-09
         0.32853E-09
         0.43516E-09
         0.44962E-09
         0.36274E-09
         0.29445E-09
         0.36192E-09
         0.42755E-09
         0.91224E-09
         0.72173E-09
         0.77679E-09
         0.13418E-08
         0.71720E-09
         0.91660E-09
         0.50768E-09
         0.60949E-09
         0.10158E-08
         0.73758E-09
         0.29814E-09
         0.56852E-09
         0.62632E-09
         0.50195E-09
         0.64716E-09
         0.12082E-08
         0.94595E-09
         0.12032E-08
         0.70337E-09
         0.80431E-09
         0.75808E-09
         0.84069E-09
         0.64440E-09
         0.40018E-09
         0.75766E-09
         0.63262E-09
         0.64998E-09
         0.66943E-09
         0.58532E-09
         0.71478E-09
         0.91083E-09
         0.64176E-09
         0.10238E-08
         0.89406E-09
         0.40071E-09
         0.61683E-09
         0.70059E-09
         0.74087E-09
         0.71617E-09
         0.56270E-09
         0.35352E-09
         0.58324E-09
         0.77294E-09
         0.62327E-09
         0.54749E-09
         0.35861E-09
         0.61282E-09
         0.83284E-09
         0.87503E-09
         0.70669E-09
         0.43384E-09
         0.75009E-09
         0.27524E-09
         0.35135E-09
         0.32665E-09
         0.38786E-09
         0.37937E-09
         0.36833E-09
         0.39386E-09
         0.41745E-09
         0.39245E-09
         0.30512E-09
         0.24828E-09
         0.32012E-09
         0.42699E-09
         0.46974E-09
         0.45017E-09
         0.40531E-09
         0.36788E-09
         0.29873E-09
         0.25117E-09
         0.32850E-09
         0.43515E-09
         0.44962E-09
         0.36266E-09
         0.29439E-09
         0.36197E-09
         0.42754E-09
         0.91230E-09
         0.72159E-09
         0.77686E-09
         0.13425E-08
         0.71732E-09
         0.91688E-09
         0.50742E-09
         0.60913E-09
         0.10162E-08
         0.73710E-09
         0.29785E-09
         0.56842E-09
         0.62628E-09
         0.50125E-09
         0.64703E-09
         0.12086E-08
         0.94638E-09
         0.12038E-08
         0.70340E-09
         0.80441E-09
         0.75805E-09
         0.84073E-09
         0.64433E-09
         0.40014E-09
         0.75733E-09
         0.63257E-09
         0.64899E-09
         0.66877E-09
         0.58508E-09
         0.71462E-09
         0.91093E-09
         0.64169E-09
         0.10243E-08
         0.89487E-09
         0.40071E-09
         0.61671E-09
         0.70051E-09
         0.74082E-09
         0.71622E-09
         0.56273E-09
         0.35352E-09
         0.58316E-09
         0.77290E-09
         0.62318E-09
         0.54737E-09
         0.35852E-09
         0.61277E-09
         0.83286E-09
         0.87517E-09
         0.70684E-09
         0.43385E-09
         0.75047E-09
         0.27516E-09
         0.35135E-09
         0.32649E-09
         0.38788E-09
         0.37946E-09
         0.36841E-09
         0.39403E-09
         0.41775E-09
         0.39268E-09
         0.30519E-09
         0.24830E-09
         0.32013E-09
         0.42705E-09
         0.46985E-09
         0.45022E-09
         0.40530E-09
         0.36786E-09
         0.29871E-09
         0.25113E-09
         0.32848E-09
         0.43515E-09
         0.44962E-09
         0.36259E-09
         0.29433E-09
         0.36201E-09
         0.42753E-09
         0.91235E-09
         0.72143E-09
         0.77692E-09
         0.13431E-08
         0.71743E-09
         0.91716E-09
         0.50715E-09
         0.60877E-09
         0.10165E-08
         0.73661E-09
         0.29757E-09
         0.56832E-09
         0.62624E-09
         0.50054E-09
         0.64689E-09
         0.12089E-08
         0.94680E-09
         0.12044E-08
         0.70342E-09
         0.80450E-09
         0.75802E-09
         0.84076E-09
         0.64427E-09
         0.40010E-09
         0.75700E-09
         0.63251E-09
         0.64800E-09
         0.66810E-09
         0.58482E-09
         0.71445E-09
         0.91101E-09
         0.64161E-09
         0.10248E-08
         0.89567E-09
         0.40071E-09
         0.61659E-09
         0.70041E-09
         0.74077E-09
         0.71627E-09
         0.56276E-09
         0.35352E-09
         0.58308E-09
         0.77286E-09
         0.62309E-09
         0.54723E-09
         0.35843E-09
         0.61272E-09
         0.83287E-09
         0.87530E-09
         0.70698E-09
         0.43386E-09
         0.75084E-09
         0.27507E-09
         0.35134E-09
         0.32633E-09
         0.38789E-09
         0.37955E-09
         0.36849E-09
         0.39420E-09
         0.41804E-09
         0.39291E-09
         0.30525E-09
         0.24832E-09
         0.32014E-09
         0.42711E-09
         0.46995E-09
         0.45027E-09
         0.40528E-09
         0.36784E-09
         0.29869E-09
         0.25109E-09
         0.32845E-09
         0.43514E-09
         0.44962E-09
         0.36252E-09
         0.29426E-09
         0.36206E-09
         0.42751E-09
         0.91240E-09
         0.72128E-09
         0.77698E-09
         0.13437E-08
         0.71755E-09
         0.91744E-09
         0.50688E-09
         0.60841E-09
         0.10169E-08
         0.73612E-09
         0.29728E-09
         0.56822E-09
         0.62619E-09
         0.49984E-09
         0.64676E-09
         0.12093E-08
         0.94723E-09
         0.12050E-08
         0.70345E-09
         0.80460E-09
         0.75798E-09
         0.84080E-09
         0.64420E-09
         0.40006E-09
         0.75667E-09
         0.63246E-09
         0.64701E-09
         0.66744E-09
         0.58457E-09
         0.71429E-09
         0.91110E-09
         0.64153E-09
         0.10254E-08
         0.89648E-09
         0.40070E-09
         0.61647E-09
         0.70032E-09
         0.74071E-09
         0.71632E-09
         0.56279E-09
         0.35353E-09
         0.58300E-09
         0.77282E-09
         0.62300E-09
         0.54710E-09
         0.35834E-09
         0.61266E-09
         0.83288E-09
         0.87543E-09
         0.70713E-09
         0.43387E-09
         0.75122E-09
         0.27499E-09
         0.35133E-09
         0.32617E-09
         0.38790E-09
         0.37964E-09
         0.36857E-09
         0.39437E-09
         0.41834E-09
         0.39314E-09
         0.30532E-09
         0.24834E-09
         0.32014E-09
         0.42716E-09
         0.47005E-09
         0.45032E-09
         0.40527E-09
         0.36781E-09
         0.29866E-09
         0.25105E-09
         0.32843E-09
         0.43513E-09
         0.44962E-09
         0.36244E-09
         0.29419E-09
         0.36210E-09
         0.42750E-09
         0.91246E-09
         0.72114E-09
         0.77705E-09
         0.13444E-08
         0.71767E-09
         0.91773E-09
         0.50662E-09
         0.60805E-09
         0.10173E-08
         0.73564E-09
         0.29700E-09
         0.56812E-09
         0.62616E-09
         0.49914E-09
         0.64663E-09
         0.12097E-08
         0.94766E-09
         0.12056E-08
         0.70348E-09
         0.80471E-09
         0.75796E-09
         0.84084E-09
         0.64414E-09
         0.40002E-09
         0.75635E-09
         0.63241E-09
         0.64603E-09
         0.66678E-09
         0.58433E-09
         0.71413E-09
         0.91120E-09
         0.64146E-09
         0.10259E-08
         0.89729E-09
         0.40070E-09
         0.61636E-09
         0.70023E-09
         0.74067E-09
         0.71637E-09
         0.56282E-09
         0.35353E-09
         0.58293E-09
         0.77279E-09
         0.62291E-09
         0.54698E-09
         0.35825E-09
         0.61261E-09
         0.83289E-09
         0.87557E-09
         0.70728E-09
         0.43389E-09
         0.75160E-09
         0.27491E-09
         0.35133E-09
         0.32601E-09
         0.38792E-09
         0.37972E-09
         0.36865E-09
         0.39454E-09
         0.41864E-09
         0.39337E-09
         0.30539E-09
         0.24836E-09
         0.32015E-09
         0.42722E-09
         0.47016E-09
         0.45038E-09
         0.40526E-09
         0.36779E-09
         0.29864E-09
         0.25101E-09
         0.32841E-09
         0.43512E-09
         0.44962E-09
         0.36237E-09
         0.29413E-09
         0.36215E-09
         0.42750E-09
         0.91249E-09
         0.72097E-09
         0.77710E-09
         0.13450E-08
         0.71777E-09
         0.91799E-09
         0.50634E-09
         0.60767E-09
         0.10176E-08
         0.73514E-09
         0.29670E-09
         0.56801E-09
         0.62610E-09
         0.49842E-09
         0.64648E-09
         0.12100E-08
         0.94806E-09
         0.12062E-08
         0.70349E-09
         0.80479E-09
         0.75791E-09
         0.84086E-09
         0.64406E-09
         0.39997E-09
         0.75600E-09
         0.63234E-09
         0.64503E-09
         0.66610E-09
         0.58407E-09
         0.71395E-09
         0.91127E-09
         0.64136E-09
         0.10264E-08
         0.89808E-09
         0.40069E-09
         0.61622E-09
         0.70012E-09
         0.74060E-09
         0.71641E-09
         0.56283E-09
         0.35352E-09
         0.58283E-09
         0.77273E-09
         0.62281E-09
         0.54684E-09
         0.35815E-09
         0.61255E-09
         0.83288E-09
         0.87569E-09
         0.70741E-09
         0.43389E-09
         0.75195E-09
         0.27482E-09
         0.35132E-09
         0.32584E-09
         0.38793E-09
         0.37980E-09
         0.36872E-09
         0.39470E-09
         0.41893E-09
         0.39360E-09
         0.30545E-09
         0.24837E-09
         0.32016E-09
         0.42727E-09
         0.47026E-09
         0.45042E-09
         0.40524E-09
         0.36776E-09
         0.29861E-09
         0.25097E-09
         0.32838E-09
         0.43510E-09
         0.44961E-09
         0.36229E-09
         0.29406E-09
         0.36218E-09
         0.42748E-09
         0.91256E-09
         0.72083E-09
         0.77718E-09
         0.13457E-08
         0.71789E-09
         0.91829E-09
         0.50608E-09
         0.60732E-09
         0.10180E-08
         0.73467E-09
         0.29642E-09
         0.56792E-09
         0.62607E-09
         0.49772E-09
         0.64636E-09
         0.12103E-08
         0.94850E-09
         0.12068E-08
         0.70352E-09
         0.80490E-09
         0.75789E-09
         0.84091E-09
         0.64401E-09
         0.39993E-09
         0.75569E-09
         0.63230E-09
         0.64405E-09
         0.66544E-09
         0.58382E-09
         0.71379E-09
         0.91137E-09
         0.64129E-09
         0.10270E-08
         0.89890E-09
         0.40069E-09
         0.61611E-09
         0.70004E-09
         0.74056E-09
         0.71646E-09
         0.56287E-09
         0.35353E-09
         0.58276E-09
         0.77271E-09
         0.62273E-09
         0.54672E-09
         0.35806E-09
         0.61251E-09
         0.83291E-09
         0.87583E-09
         0.70756E-09
         0.43391E-09
         0.75234E-09
         0.27474E-09
         0.35132E-09
         0.32569E-09
         0.38794E-09
         0.37990E-09
         0.36881E-09
         0.39488E-09
         0.41923E-09
         0.39383E-09
         0.30553E-09
         0.24840E-09
         0.32017E-09
         0.42734E-09
         0.47037E-09
         0.45048E-09
         0.40524E-09
         0.36774E-09
         0.29859E-09
         0.25093E-09
         0.32836E-09
         0.43510E-09
         0.44962E-09
         0.36222E-09
         0.29400E-09
         0.36223E-09
         0.42747E-09
         0.45631E-09
         0.36039E-09
         0.38862E-09
         0.67302E-09
         0.35899E-09
         0.45923E-09
         0.25298E-09
         0.30358E-09
         0.50909E-09
         0.36723E-09
         0.14815E-09
         0.28394E-09
         0.31303E-09
         0.24869E-09
         0.32316E-09
         0.60528E-09
         0.47437E-09
         0.60357E-09
         0.35178E-09
         0.40249E-09
         0.37895E-09
         0.42048E-09
         0.32200E-09
         0.19996E-09
         0.37777E-09
         0.31615E-09
         0.32179E-09
         0.33257E-09
         0.29186E-09
         0.35687E-09
         0.45572E-09
         0.32064E-09
         0.51365E-09
         0.44967E-09
         0.20035E-09
         0.30804E-09
         0.35001E-09
         0.37028E-09
         0.35826E-09
         0.28145E-09
         0.17677E-09
         0.29137E-09
         0.38636E-09
         0.31135E-09
         0.27333E-09
         0.17901E-09
         0.30625E-09
         0.41647E-09
         0.43797E-09
         0.35383E-09
         0.21697E-09
         0.37628E-09
         0.13735E-09
         0.17566E-09
         0.16281E-09
         0.19398E-09
         0.18998E-09
         0.18443E-09
         0.19749E-09
         0.20970E-09
         0.19698E-09
         0.15279E-09
         0.12421E-09
         0.16009E-09
         0.21369E-09
         0.23522E-09
         0.22526E-09
         0.20262E-09
         0.18387E-09
         0.14930E-09
         0.12546E-09
         0.16418E-09
         0.21756E-09
         0.22482E-09
         0.18110E-09
         0.14699E-09
         0.18113E-09
         0.21374E-09
  
SCALARS               pre_disp_force_x  double 1
LOOKUP_TABLE default
         0.00000E+00
         0.00000E+00
         0.00000E+00
         0.00000E+00
         0.00000E+00
         0.00000E+00
         0.00000E+00
         0.00000E+00
         0.00000E+00
         0.00000E+00
         0.00000E+00
         0.00000E+00
         0.00000E+00
         0.00000E+00
         0.00000E+00
         0.00000E+00
         0.00000E+00
         0.00000E+00
         0.00000E+00
         0.00000E+00
         0.00000E+00
         0.00000E+00
         0.00000E+00
         0.00000E+00
         0.00000E+00
         0.00000E+00
         0.00000E+00
         0.00000E+00
         0.00000E+00
         0.00000E+00
         0.00000E+00
         0.00000E+00
         0.00000E+00
         0.00000E+00
         0.00000E+00
         0.00000E+00
         0.00000E+00
         0.00000E+00
         0.00000E+00
         0.00000E+00
         0.00000E+00
         0.00000E+00
         0.00000E+00
         0.00000E+00
         0.00000E+00
         0.00000E+00
         0.00000E+00
         0.00000E+00
         0.00000E+00
         0.00000E+00
         0.00000E+00
         0.00000E+00
         0.00000E+00
         0.00000E+00
         0.00000E+00
         0.00000E+00
         0.00000E+00
         0.00000E+00
         0.00000E+00
         0.00000E+00
         0.00000E+00
         0.00000E+00
         0.00000E+00
         0.00000E+00
         0.00000E+00
         0.00000E+00
         0.00000E+00
         0.00000E+00
         0.00000E+00
         0.00000E+00
         0.00000E+00
         0.00000E+00
         0.00000E+00
         0.00000E+00
         0.00000E+00
         0.00000E+00
         0.00000E+00
         0.00000E+00
         0.00000E+00
         0.00000E+00
         0.00000E+00
         0.00000E+00
         0.00000E+00
         0.00000E+00
         0.00000E+00
         0.00000E+00
         0.00000E+00
         0.00000E+00
         0.00000E+00
         0.00000E+00
         0.00000E+00
         0.00000E+00
         0.00000E+00
         0.00000E+00
         0.00000E+00
         0.00000E+00
         0.00000E+00
         0.00000E+00
         0.00000E+00
         0.00000E+00
         0.00000E+00
         0.00000E+00
         0.00000E+00
         0.00000E+00
         0.00000E+00
         0.00000E+00
         0.00000E+00
         0.00000E+00
         0.00000E+00
         0.00000E+00
         0.00000E+00
         0.00000E+00
         0.00000E+00
         0.00000E+00
         0.00000E+00
         0.00000E+00
         0.00000E+00
         0.00000E+00
         0.00000E+00
         0.00000E+00
         0.00000E+00
         0.00000E+00
         0.00000E+00
         0.00000E+00
         0.00000E+00
         0.00000E+00
         0.00000E+00
         0.00000E+00
         0.00000E+00
         0.00000E+00
         0.00000E+00
         0.00000E+00
         0.00000E+00
         0.00000E+00
         0.00000E+00
         0.00000E+00
         0.00000E+00
         0.00000E+00
         0.00000E+00
         0.00000E+00
         0.00000E+00
         0.00000E+00
         0.00000E+00
         0.00000E+00
         0.00000E+00
         0.00000E+00
         0.00000E+00
         0.00000E+00
         0.00000E+00
         0.00000E+00
         0.00000E+00
         0.00000E+00
         0.00000E+00
         0.00000E+00
         0.00000E+00
         0.00000E+00
         0.00000E+00
         0.00000E+00
         0.00000E+00
         0.00000E+00
         0.00000E+00
         0.00000E+00
         0.00000E+00
         0.00000E+00
         0.00000E+00
         0.00000E+00
         0.00000E+00
         0.00000E+00
         0.00000E+00
         0.00000E+00
         0.00000E+00
         0.00000E+00
         0.00000E+00
         0.00000E+00
         0.00000E+00
         0.00000E+00
         0.00000E+00
         0.00000E+00
         0.00000E+00
         0.00000E+00
         0.00000E+00
         0.00000E+00
         0.00000E+00
         0.00000E+00
         0.00000E+00
         0.00000E+00
         0.00000E+00
         0.00000E+00
         0.00000E+00
         0.00000E+00
         0.00000E+00
         0.00000E+00
         0.00000E+00
         0.00000E+00
         0.00000E+00
         0.00000E+00
         0.00000E+00
         0.00000E+00
         0.00000E+00
         0.00000E+00
         0.00000E+00
         0.00000E+00
         0.00000E+00
         0.00000E+00
         0.00000E+00
         0.00000E+00
         0.00000E+00
         0.00000E+00
         0.00000E+00
         0.00000E+00
         0.00000E+00
         0.00000E+00
         0.00000E+00
         0.00000E+00
         0.00000E+00
         0.00000E+00
         0.00000E+00
         0.00000E+00
         0.00000E+00
         0.00000E+00
         0.00000E+00
         0.00000E+00
         0.00000E+00
         0.00000E+00
         0.00000E+00
         0.00000E+00
         0.00000E+00
         0.00000E+00
         0.00000E+00
         0.00000E+00
         0.00000E+00
         0.00000E+00
         0.00000E+00
         0.00000E+00
         0.00000E+00
         0.00000E+00
         0.00000E+00
         0.00000E+00
         0.00000E+00
         0.00000E+00
         0.00000E+00
         0.00000E+00
         0.00000E+00
         0.00000E+00
         0.00000E+00
         0.00000E+00
         0.00000E+00
         0.00000E+00
         0.00000E+00
         0.00000E+00
         0.00000E+00
         0.00000E+00
         0.00000E+00
         0.00000E+00
         0.00000E+00
         0.00000E+00
         0.00000E+00
         0.00000E+00
         0.00000E+00
         0.00000E+00
         0.00000E+00
         0.00000E+00
         0.00000E+00
         0.00000E+00
         0.00000E+00
         0.00000E+00
         0.00000E+00
         0.00000E+00
         0.00000E+00
         0.00000E+00
         0.00000E+00
         0.00000E+00
         0.00000E+00
         0.00000E+00
         0.00000E+00
         0.00000E+00
         0.00000E+00
         0.00000E+00
         0.00000E+00
         0.00000E+00
         0.00000E+00
         0.00000E+00
         0.00000E+00
         0.00000E+00
         0.00000E+00
         0.00000E+00
         0.00000E+00
         0.00000E+00
         0.00000E+00
         0.00000E+00
         0.00000E+00
         0.00000E+00
         0.00000E+00
         0.00000E+00
         0.00000E+00
         0.00000E+00
         0.00000E+00
         0.00000E+00
         0.00000E+00
         0.00000E+00
         0.00000E+00
         0.00000E+00
         0.00000E+00
         0.00000E+00
         0.00000E+00
         0.00000E+00
         0.00000E+00
         0.00000E+00
         0.00000E+00
         0.00000E+00
         0.00000E+00
         0.00000E+00
         0.00000E+00
         0.00000E+00
         0.00000E+00
         0.00000E+00
         0.00000E+00
         0.00000E+00
         0.00000E+00
         0.00000E+00
         0.00000E+00
         0.00000E+00
         0.00000E+00
         0.00000E+00
         0.00000E+00
         0.00000E+00
         0.00000E+00
         0.00000E+00
         0.00000E+00
         0.00000E+00
         0.00000E+00
         0.00000E+00
         0.00000E+00
         0.00000E+00
         0.00000E+00
         0.00000E+00
         0.00000E+00
         0.00000E+00
         0.00000E+00
         0.00000E+00
         0.00000E+00
         0.00000E+00
         0.00000E+00
         0.00000E+00
         0.00000E+00
         0.00000E+00
         0.00000E+00
         0.00000E+00
         0.00000E+00
         0.00000E+00
         0.00000E+00
         0.00000E+00
         0.00000E+00
         0.00000E+00
         0.00000E+00
         0.00000E+00
         0.00000E+00
         0.00000E+00
         0.00000E+00
         0.00000E+00
         0.00000E+00
         0.00000E+00
         0.00000E+00
         0.00000E+00
         0.00000E+00
         0.00000E+00
         0.00000E+00
         0.00000E+00
         0.00000E+00
         0.00000E+00
         0.00000E+00
         0.00000E+00
         0.00000E+00
         0.00000E+00
         0.00000E+00
         0.00000E+00
         0.00000E+00
         0.00000E+00
         0.00000E+00
         0.00000E+00
         0.00000E+00
         0.00000E+00
         0.00000E+00
         0.00000E+00
         0.00000E+00
         0.00000E+00
         0.00000E+00
         0.00000E+00
         0.00000E+00
         0.00000E+00
         0.00000E+00
         0.00000E+00
         0.00000E+00
         0.00000E+00
         0.00000E+00
         0.00000E+00
         0.00000E+00
         0.00000E+00
         0.00000E+00
         0.00000E+00
         0.00000E+00
         0.00000E+00
         0.00000E+00
         0.00000E+00
         0.00000E+00
         0.00000E+00
         0.00000E+00
         0.00000E+00
         0.00000E+00
         0.00000E+00
         0.00000E+00
         0.00000E+00
         0.00000E+00
         0.00000E+00
         0.00000E+00
         0.00000E+00
         0.00000E+00
         0.00000E+00
         0.00000E+00
         0.00000E+00
         0.00000E+00
         0.00000E+00
         0.00000E+00
         0.00000E+00
         0.00000E+00
         0.00000E+00
         0.00000E+00
         0.00000E+00
         0.00000E+00
         0.00000E+00
         0.00000E+00
         0.00000E+00
         0.00000E+00
         0.00000E+00
         0.00000E+00
         0.00000E+00
         0.00000E+00
         0.00000E+00
         0.00000E+00
         0.00000E+00
         0.00000E+00
         0.00000E+00
         0.00000E+00
         0.00000E+00
         0.00000E+00
         0.00000E+00
         0.00000E+00
         0.00000E+00
         0.00000E+00
         0.00000E+00
         0.00000E+00
         0.00000E+00
         0.00000E+00
         0.00000E+00
         0.00000E+00
         0.00000E+00
         0.00000E+00
         0.00000E+00
         0.00000E+00
         0.00000E+00
         0.00000E+00
         0.00000E+00
         0.00000E+00
         0.00000E+00
         0.00000E+00
         0.00000E+00
         0.00000E+00
         0.00000E+00
         0.00000E+00
         0.00000E+00
         0.00000E+00
         0.00000E+00
         0.00000E+00
         0.00000E+00
         0.00000E+00
         0.00000E+00
         0.00000E+00
         0.00000E+00
         0.00000E+00
         0.00000E+00
         0.00000E+00
         0.00000E+00
         0.00000E+00
         0.00000E+00
         0.00000E+00
         0.00000E+00
         0.00000E+00
         0.00000E+00
         0.00000E+00
         0.00000E+00
         0.00000E+00
         0.00000E+00
         0.00000E+00
         0.00000E+00
         0.00000E+00
         0.00000E+00
         0.00000E+00
         0.00000E+00
         0.00000E+00
         0.00000E+00
         0.00000E+00
         0.00000E+00
         0.00000E+00
         0.00000E+00
         0.00000E+00
         0.00000E+00
         0.00000E+00
         0.00000E+00
         0.00000E+00
         0.00000E+00
         0.00000E+00
         0.00000E+00
         0.00000E+00
         0.00000E+00
         0.00000E+00
         0.00000E+00
         0.00000E+00
         0.00000E+00
         0.00000E+00
         0.00000E+00
         0.00000E+00
         0.00000E+00
         0.00000E+00
         0.00000E+00
         0.00000E+00
         0.00000E+00
         0.00000E+00
         0.00000E+00
         0.00000E+00
         0.00000E+00
         0.00000E+00
         0.00000E+00
         0.00000E+00
         0.00000E+00
         0.00000E+00
         0.00000E+00
         0.00000E+00
         0.00000E+00
         0.00000E+00
         0.00000E+00
         0.00000E+00
         0.00000E+00
         0.00000E+00
         0.00000E+00
         0.00000E+00
         0.00000E+00
         0.00000E+00
         0.00000E+00
         0.00000E+00
         0.00000E+00
         0.00000E+00
         0.00000E+00
         0.00000E+00
         0.00000E+00
         0.00000E+00
         0.00000E+00
         0.00000E+00
         0.00000E+00
         0.00000E+00
         0.00000E+00
         0.00000E+00
         0.00000E+00
         0.00000E+00
         0.00000E+00
         0.00000E+00
         0.00000E+00
         0.00000E+00
         0.00000E+00
         0.00000E+00
         0.00000E+00
         0.00000E+00
         0.00000E+00
         0.00000E+00
         0.00000E+00
         0.00000E+00
         0.00000E+00
         0.00000E+00
         0.00000E+00
         0.00000E+00
         0.00000E+00
         0.00000E+00
         0.00000E+00
         0.00000E+00
         0.00000E+00
         0.00000E+00
         0.00000E+00
         0.00000E+00
         0.00000E+00
         0.00000E+00
         0.00000E+00
         0.00000E+00
         0.00000E+00
         0.00000E+00
         0.00000E+00
         0.00000E+00
         0.00000E+00
         0.00000E+00
         0.00000E+00
         0.00000E+00
         0.00000E+00
         0.00000E+00
         0.00000E+00
         0.00000E+00
         0.00000E+00
         0.00000E+00
         0.00000E+00
         0.00000E+00
         0.00000E+00
         0.00000E+00
         0.00000E+00
         0.00000E+00
         0.00000E+00
         0.00000E+00
         0.00000E+00
         0.00000E+00
         0.00000E+00
         0.00000E+00
         0.00000E+00
         0.00000E+00
         0.00000E+00
         0.00000E+00
         0.00000E+00
         0.00000E+00
         0.00000E+00
         0.00000E+00
         0.00000E+00
         0.00000E+00
         0.00000E+00
         0.00000E+00
         0.00000E+00
         0.00000E+00
         0.00000E+00
         0.00000E+00
         0.00000E+00
         0.00000E+00
         0.00000E+00
         0.00000E+00
         0.00000E+00
         0.00000E+00
         0.00000E+00
         0.00000E+00
         0.00000E+00
         0.00000E+00
         0.00000E+00
         0.00000E+00
         0.00000E+00
         0.00000E+00
         0.00000E+00
         0.00000E+00
         0.00000E+00
         0.00000E+00
         0.00000E+00
         0.00000E+00
         0.00000E+00
         0.00000E+00
         0.00000E+00
         0.00000E+00
         0.00000E+00
         0.00000E+00
         0.00000E+00
         0.00000E+00
         0.00000E+00
         0.00000E+00
         0.00000E+00
         0.00000E+00
         0.00000E+00
         0.00000E+00
         0.00000E+00
         0.00000E+00
         0.00000E+00
         0.00000E+00
         0.00000E+00
         0.00000E+00
         0.00000E+00
         0.00000E+00
         0.00000E+00
         0.00000E+00
         0.00000E+00
         0.00000E+00
         0.00000E+00
         0.00000E+00
         0.00000E+00
         0.00000E+00
         0.00000E+00
         0.00000E+00
         0.00000E+00
         0.00000E+00
         0.00000E+00
         0.00000E+00
         0.00000E+00
         0.00000E+00
         0.00000E+00
         0.00000E+00
         0.00000E+00
         0.00000E+00
         0.00000E+00
         0.00000E+00
         0.00000E+00
         0.00000E+00
         0.00000E+00
         0.00000E+00
         0.00000E+00
         0.00000E+00
         0.00000E+00
         0.00000E+00
         0.00000E+00
         0.00000E+00
         0.00000E+00
         0.00000E+00
         0.00000E+00
         0.00000E+00
         0.00000E+00
         0.00000E+00
         0.00000E+00
         0.00000E+00
         0.00000E+00
         0.00000E+00
         0.00000E+00
         0.00000E+00
         0.00000E+00
         0.00000E+00
         0.00000E+00
         0.00000E+00
         0.00000E+00
         0.00000E+00
         0.00000E+00
         0.00000E+00
         0.00000E+00
         0.00000E+00
         0.00000E+00
         0.00000E+00
         0.00000E+00
         0.00000E+00
         0.00000E+00
         0.00000E+00
         0.00000E+00
         0.00000E+00
         0.00000E+00
         0.00000E+00
         0.00000E+00
         0.00000E+00
         0.00000E+00
         0.00000E+00
         0.00000E+00
         0.00000E+00
         0.00000E+00
         0.00000E+00
         0.00000E+00
         0.00000E+00
         0.00000E+00
         0.00000E+00
         0.00000E+00
         0.00000E+00
         0.00000E+00
         0.00000E+00
         0.00000E+00
         0.00000E+00
         0.00000E+00
         0.00000E+00
         0.00000E+00
         0.00000E+00
         0.00000E+00
         0.00000E+00
         0.00000E+00
         0.00000E+00
         0.00000E+00
         0.00000E+00
         0.00000E+00
         0.00000E+00
         0.00000E+00
         0.00000E+00
         0.00000E+00
         0.00000E+00
         0.00000E+00
         0.00000E+00
         0.00000E+00
         0.00000E+00
         0.00000E+00
         0.00000E+00
         0.00000E+00
         0.00000E+00
         0.00000E+00
         0.00000E+00
         0.00000E+00
         0.00000E+00
         0.00000E+00
         0.00000E+00
         0.00000E+00
         0.00000E+00
         0.00000E+00
         0.00000E+00
         0.00000E+00
         0.00000E+00
         0.00000E+00
         0.00000E+00
         0.00000E+00
         0.00000E+00
         0.00000E+00
         0.00000E+00
         0.00000E+00
         0.00000E+00
         0.00000E+00
         0.00000E+00
         0.00000E+00
         0.00000E+00
         0.00000E+00
         0.00000E+00
         0.00000E+00
         0.00000E+00
         0.00000E+00
         0.00000E+00
         0.00000E+00
         0.00000E+00
         0.00000E+00
         0.00000E+00
         0.00000E+00
         0.00000E+00
         0.00000E+00
         0.00000E+00
         0.00000E+00
         0.00000E+00
         0.00000E+00
         0.00000E+00
         0.00000E+00
         0.00000E+00
         0.00000E+00
         0.00000E+00
         0.00000E+00
         0.00000E+00
         0.00000E+00
         0.00000E+00
         0.00000E+00
         0.00000E+00
         0.00000E+00
         0.00000E+00
         0.00000E+00
         0.00000E+00
         0.00000E+00
         0.00000E+00
         0.00000E+00
         0.00000E+00
         0.00000E+00
         0.00000E+00
         0.00000E+00
         0.00000E+00
         0.00000E+00
         0.00000E+00
         0.00000E+00
         0.00000E+00
         0.00000E+00
         0.00000E+00
         0.00000E+00
         0.00000E+00
         0.00000E+00
         0.00000E+00
         0.00000E+00
         0.00000E+00
         0.00000E+00
         0.00000E+00
         0.00000E+00
         0.00000E+00
         0.00000E+00
         0.00000E+00
         0.00000E+00
         0.00000E+00
         0.00000E+00
         0.00000E+00
         0.00000E+00
         0.00000E+00
         0.00000E+00
         0.00000E+00
         0.00000E+00
         0.00000E+00
         0.00000E+00
         0.00000E+00
         0.00000E+00
         0.00000E+00
         0.00000E+00
         0.00000E+00
         0.00000E+00
         0.00000E+00
         0.00000E+00
         0.00000E+00
         0.00000E+00
         0.00000E+00
         0.00000E+00
         0.00000E+00
         0.00000E+00
         0.00000E+00
         0.00000E+00
         0.00000E+00
         0.00000E+00
         0.00000E+00
         0.00000E+00
         0.00000E+00
         0.00000E+00
         0.00000E+00
         0.00000E+00
         0.00000E+00
         0.00000E+00
         0.00000E+00
         0.00000E+00
         0.00000E+00
         0.00000E+00
         0.00000E+00
         0.00000E+00
         0.00000E+00
         0.00000E+00
         0.00000E+00
         0.00000E+00
         0.00000E+00
         0.00000E+00
         0.00000E+00
         0.00000E+00
         0.00000E+00
         0.00000E+00
         0.00000E+00
         0.00000E+00
         0.00000E+00
         0.00000E+00
         0.00000E+00
         0.00000E+00
         0.00000E+00
         0.00000E+00
         0.00000E+00
         0.00000E+00
         0.00000E+00
         0.00000E+00
         0.00000E+00
         0.00000E+00
         0.00000E+00
         0.00000E+00
         0.00000E+00
         0.00000E+00
         0.00000E+00
         0.00000E+00
         0.00000E+00
         0.00000E+00
         0.00000E+00
         0.00000E+00
         0.00000E+00
         0.00000E+00
         0.00000E+00
         0.00000E+00
         0.00000E+00
         0.00000E+00
         0.00000E+00
         0.00000E+00
         0.00000E+00
         0.00000E+00
         0.00000E+00
         0.00000E+00
         0.00000E+00
         0.00000E+00
         0.00000E+00
         0.00000E+00
         0.00000E+00
         0.00000E+00
         0.00000E+00
         0.00000E+00
         0.00000E+00
         0.00000E+00
         0.00000E+00
         0.00000E+00
         0.00000E+00
         0.00000E+00
         0.00000E+00
         0.00000E+00
         0.00000E+00
         0.00000E+00
         0.00000E+00
         0.00000E+00
         0.00000E+00
         0.00000E+00
         0.00000E+00
         0.00000E+00
         0.00000E+00
         0.00000E+00
         0.00000E+00
         0.00000E+00
         0.00000E+00
         0.00000E+00
         0.00000E+00
         0.00000E+00
         0.00000E+00
         0.00000E+00
         0.00000E+00
         0.00000E+00
         0.00000E+00
         0.00000E+00
         0.00000E+00
         0.00000E+00
         0.00000E+00
         0.00000E+00
         0.00000E+00
         0.00000E+00
         0.00000E+00
         0.00000E+00
         0.00000E+00
         0.00000E+00
         0.00000E+00
         0.00000E+00
         0.00000E+00
         0.00000E+00
         0.00000E+00
         0.00000E+00
         0.00000E+00
         0.00000E+00
         0.00000E+00
         0.00000E+00
         0.00000E+00
         0.00000E+00
         0.00000E+00
         0.00000E+00
         0.00000E+00
         0.00000E+00
         0.00000E+00
         0.00000E+00
         0.00000E+00
         0.00000E+00
         0.00000E+00
         0.00000E+00
         0.00000E+00
         0.00000E+00
         0.00000E+00
         0.00000E+00
         0.00000E+00
         0.00000E+00
         0.00000E+00
         0.00000E+00
         0.00000E+00
         0.00000E+00
         0.00000E+00
         0.00000E+00
         0.00000E+00
         0.00000E+00
         0.00000E+00
         0.00000E+00
         0.00000E+00
         0.00000E+00
         0.00000E+00
         0.00000E+00
         0.00000E+00
         0.00000E+00
         0.00000E+00
         0.00000E+00
         0.00000E+00
         0.00000E+00
         0.00000E+00
         0.00000E+00
         0.00000E+00
         0.00000E+00
         0.00000E+00
         0.00000E+00
         0.00000E+00
         0.00000E+00
         0.00000E+00
         0.00000E+00
         0.00000E+00
         0.00000E+00
         0.00000E+00
         0.00000E+00
         0.00000E+00
         0.00000E+00
         0.00000E+00
         0.00000E+00
         0.00000E+00
         0.00000E+00
         0.00000E+00
         0.00000E+00
         0.00000E+00
         0.00000E+00
         0.00000E+00
         0.00000E+00
         0.00000E+00
         0.00000E+00
         0.00000E+00
         0.00000E+00
         0.00000E+00
         0.00000E+00
         0.00000E+00
         0.00000E+00
         0.00000E+00
         0.00000E+00
         0.00000E+00
         0.00000E+00
         0.00000E+00
         0.00000E+00
         0.00000E+00
         0.00000E+00
         0.00000E+00
         0.00000E+00
         0.00000E+00
         0.00000E+00
         0.00000E+00
         0.00000E+00
         0.00000E+00
         0.00000E+00
         0.00000E+00
         0.00000E+00
         0.00000E+00
         0.00000E+00
         0.00000E+00
         0.00000E+00
         0.00000E+00
         0.00000E+00
         0.00000E+00
         0.00000E+00
         0.00000E+00
         0.00000E+00
         0.00000E+00
         0.00000E+00
         0.00000E+00
         0.00000E+00
         0.00000E+00
         0.00000E+00
         0.00000E+00
         0.00000E+00
         0.00000E+00
         0.00000E+00
         0.00000E+00
         0.00000E+00
         0.00000E+00
         0.00000E+00
         0.00000E+00
         0.00000E+00
         0.00000E+00
         0.00000E+00
         0.00000E+00
         0.00000E+00
         0.00000E+00
         0.00000E+00
         0.00000E+00
         0.00000E+00
         0.00000E+00
         0.00000E+00
         0.00000E+00
         0.00000E+00
         0.00000E+00
         0.00000E+00
         0.00000E+00
         0.00000E+00
         0.00000E+00
         0.00000E+00
         0.00000E+00
         0.00000E+00
         0.00000E+00
         0.00000E+00
         0.00000E+00
         0.00000E+00
         0.00000E+00
         0.00000E+00
         0.00000E+00
         0.00000E+00
         0.00000E+00
         0.00000E+00
         0.00000E+00
         0.00000E+00
         0.00000E+00
         0.00000E+00
         0.00000E+00
         0.00000E+00
         0.00000E+00
         0.00000E+00
         0.00000E+00
         0.00000E+00
         0.00000E+00
         0.00000E+00
         0.00000E+00
         0.00000E+00
         0.00000E+00
         0.00000E+00
         0.00000E+00
         0.00000E+00
         0.00000E+00
         0.00000E+00
         0.00000E+00
         0.00000E+00
         0.00000E+00
         0.00000E+00
         0.00000E+00
         0.00000E+00
         0.00000E+00
         0.00000E+00
         0.00000E+00
         0.00000E+00
         0.00000E+00
         0.00000E+00
         0.00000E+00
         0.00000E+00
         0.00000E+00
         0.00000E+00
         0.00000E+00
         0.00000E+00
         0.00000E+00
         0.00000E+00
         0.00000E+00
         0.00000E+00
         0.00000E+00
         0.00000E+00
         0.00000E+00
         0.00000E+00
         0.00000E+00
         0.00000E+00
         0.00000E+00
         0.00000E+00
         0.00000E+00
         0.00000E+00
         0.00000E+00
         0.00000E+00
         0.00000E+00
         0.00000E+00
         0.00000E+00
         0.00000E+00
         0.00000E+00
         0.00000E+00
         0.00000E+00
         0.00000E+00
         0.00000E+00
         0.00000E+00
         0.00000E+00
         0.00000E+00
         0.00000E+00
         0.00000E+00
         0.00000E+00
         0.00000E+00
         0.00000E+00
         0.00000E+00
         0.00000E+00
         0.00000E+00
         0.00000E+00
         0.00000E+00
         0.00000E+00
         0.00000E+00
         0.00000E+00
         0.00000E+00
         0.00000E+00
         0.00000E+00
         0.00000E+00
         0.00000E+00
         0.00000E+00
         0.00000E+00
         0.00000E+00
         0.00000E+00
         0.00000E+00
         0.00000E+00
         0.00000E+00
         0.00000E+00
         0.00000E+00
         0.00000E+00
         0.00000E+00
         0.00000E+00
         0.00000E+00
         0.00000E+00
         0.00000E+00
         0.00000E+00
         0.00000E+00
         0.00000E+00
         0.00000E+00
         0.00000E+00
         0.00000E+00
         0.00000E+00
         0.00000E+00
         0.00000E+00
         0.00000E+00
         0.00000E+00
         0.00000E+00
         0.00000E+00
         0.00000E+00
         0.00000E+00
         0.00000E+00
         0.00000E+00
         0.00000E+00
         0.00000E+00
         0.00000E+00
         0.00000E+00
         0.00000E+00
         0.00000E+00
         0.00000E+00
         0.00000E+00
         0.00000E+00
         0.00000E+00
         0.00000E+00
         0.00000E+00
         0.00000E+00
         0.00000E+00
         0.00000E+00
         0.00000E+00
         0.00000E+00
         0.00000E+00
         0.00000E+00
         0.00000E+00
         0.00000E+00
         0.00000E+00
         0.00000E+00
         0.00000E+00
         0.00000E+00
         0.00000E+00
         0.00000E+00
         0.00000E+00
         0.00000E+00
         0.00000E+00
         0.00000E+00
         0.00000E+00
         0.00000E+00
         0.00000E+00
         0.00000E+00
         0.00000E+00
         0.00000E+00
         0.00000E+00
         0.00000E+00
         0.00000E+00
         0.00000E+00
         0.00000E+00
         0.00000E+00
         0.00000E+00
         0.00000E+00
         0.00000E+00
         0.00000E+00
         0.00000E+00
         0.00000E+00
         0.00000E+00
         0.00000E+00
         0.00000E+00
         0.00000E+00
         0.00000E+00
         0.00000E+00
         0.00000E+00
         0.00000E+00
         0.00000E+00
         0.00000E+00
         0.00000E+00
         0.00000E+00
         0.00000E+00
         0.00000E+00
         0.00000E+00
         0.00000E+00
         0.00000E+00
         0.00000E+00
         0.00000E+00
         0.00000E+00
         0.00000E+00
         0.00000E+00
         0.00000E+00
         0.00000E+00
         0.00000E+00
         0.00000E+00
         0.00000E+00
         0.00000E+00
         0.00000E+00
         0.00000E+00
         0.00000E+00
         0.00000E+00
         0.00000E+00
         0.00000E+00
         0.00000E+00
         0.00000E+00
         0.00000E+00
         0.00000E+00
         0.00000E+00
         0.00000E+00
         0.00000E+00
         0.00000E+00
         0.00000E+00
         0.00000E+00
         0.00000E+00
         0.00000E+00
         0.00000E+00
         0.00000E+00
         0.00000E+00
         0.00000E+00
         0.00000E+00
         0.00000E+00
         0.00000E+00
         0.00000E+00
         0.00000E+00
         0.00000E+00
         0.00000E+00
         0.00000E+00
         0.00000E+00
         0.00000E+00
         0.00000E+00
         0.00000E+00
         0.00000E+00
         0.00000E+00
         0.00000E+00
         0.00000E+00
         0.00000E+00
         0.00000E+00
         0.00000E+00
         0.00000E+00
         0.00000E+00
         0.00000E+00
         0.00000E+00
         0.00000E+00
         0.00000E+00
         0.00000E+00
         0.00000E+00
         0.00000E+00
         0.00000E+00
         0.00000E+00
         0.00000E+00
         0.00000E+00
         0.00000E+00
         0.00000E+00
         0.00000E+00
         0.00000E+00
         0.00000E+00
         0.00000E+00
         0.00000E+00
         0.00000E+00
         0.00000E+00
         0.00000E+00
         0.00000E+00
         0.00000E+00
         0.00000E+00
         0.00000E+00
         0.00000E+00
         0.00000E+00
         0.00000E+00
         0.00000E+00
         0.00000E+00
         0.00000E+00
         0.00000E+00
         0.00000E+00
         0.00000E+00
         0.00000E+00
         0.00000E+00
         0.00000E+00
         0.00000E+00
         0.00000E+00
         0.00000E+00
         0.00000E+00
         0.00000E+00
         0.00000E+00
         0.00000E+00
         0.00000E+00
         0.00000E+00
         0.00000E+00
         0.00000E+00
         0.00000E+00
         0.00000E+00
         0.00000E+00
         0.00000E+00
         0.00000E+00
         0.00000E+00
         0.00000E+00
         0.00000E+00
         0.00000E+00
         0.00000E+00
         0.00000E+00
         0.00000E+00
         0.00000E+00
         0.00000E+00
         0.00000E+00
         0.00000E+00
         0.00000E+00
         0.00000E+00
         0.00000E+00
         0.00000E+00
         0.00000E+00
         0.00000E+00
         0.00000E+00
         0.00000E+00
         0.00000E+00
         0.00000E+00
         0.00000E+00
         0.00000E+00
         0.00000E+00
         0.00000E+00
         0.00000E+00
         0.00000E+00
         0.00000E+00
         0.00000E+00
         0.00000E+00
         0.00000E+00
         0.00000E+00
         0.00000E+00
         0.00000E+00
         0.00000E+00
         0.00000E+00
         0.00000E+00
         0.00000E+00
         0.00000E+00
         0.00000E+00
         0.00000E+00
         0.00000E+00
         0.00000E+00
         0.00000E+00
         0.00000E+00
         0.00000E+00
         0.00000E+00
         0.00000E+00
         0.00000E+00
         0.00000E+00
         0.00000E+00
         0.00000E+00
         0.00000E+00
         0.00000E+00
         0.00000E+00
         0.00000E+00
         0.00000E+00
         0.00000E+00
         0.00000E+00
         0.00000E+00
         0.00000E+00
         0.00000E+00
         0.00000E+00
         0.00000E+00
         0.00000E+00
         0.00000E+00
         0.00000E+00
         0.00000E+00
         0.00000E+00
         0.00000E+00
         0.00000E+00
         0.00000E+00
         0.00000E+00
         0.00000E+00
         0.00000E+00
         0.00000E+00
         0.00000E+00
         0.00000E+00
         0.00000E+00
         0.00000E+00
         0.00000E+00
         0.00000E+00
         0.00000E+00
         0.00000E+00
         0.00000E+00
         0.00000E+00
         0.00000E+00
         0.00000E+00
         0.00000E+00
         0.00000E+00
         0.00000E+00
         0.00000E+00
         0.00000E+00
         0.00000E+00
         0.00000E+00
         0.00000E+00
         0.00000E+00
         0.00000E+00
         0.00000E+00
         0.00000E+00
         0.00000E+00
         0.00000E+00
         0.00000E+00
         0.00000E+00
         0.00000E+00
         0.00000E+00
         0.00000E+00
         0.00000E+00
         0.00000E+00
         0.00000E+00
         0.00000E+00
         0.00000E+00
         0.00000E+00
         0.00000E+00
         0.00000E+00
         0.00000E+00
         0.00000E+00
         0.00000E+00
         0.00000E+00
         0.00000E+00
         0.00000E+00
         0.00000E+00
         0.00000E+00
         0.00000E+00
         0.00000E+00
         0.00000E+00
         0.00000E+00
         0.00000E+00
         0.00000E+00
         0.00000E+00
         0.00000E+00
         0.00000E+00
         0.00000E+00
         0.00000E+00
         0.00000E+00
         0.00000E+00
         0.00000E+00
         0.00000E+00
         0.00000E+00
         0.00000E+00
         0.00000E+00
         0.00000E+00
         0.00000E+00
         0.00000E+00
         0.00000E+00
         0.00000E+00
         0.00000E+00
         0.00000E+00
         0.00000E+00
         0.00000E+00
         0.00000E+00
         0.00000E+00
         0.00000E+00
         0.00000E+00
         0.00000E+00
         0.00000E+00
         0.00000E+00
         0.00000E+00
         0.00000E+00
         0.00000E+00
         0.00000E+00
         0.00000E+00
         0.00000E+00
         0.00000E+00
         0.00000E+00
         0.00000E+00
         0.00000E+00
         0.00000E+00
         0.00000E+00
         0.00000E+00
         0.00000E+00
         0.00000E+00
         0.00000E+00
         0.00000E+00
         0.00000E+00
         0.00000E+00
         0.00000E+00
         0.00000E+00
         0.00000E+00
         0.00000E+00
         0.00000E+00
         0.00000E+00
         0.00000E+00
         0.00000E+00
         0.00000E+00
         0.00000E+00
         0.00000E+00
         0.00000E+00
         0.00000E+00
         0.00000E+00
         0.00000E+00
         0.00000E+00
         0.00000E+00
         0.00000E+00
         0.00000E+00
         0.00000E+00
         0.00000E+00
         0.00000E+00
         0.00000E+00
         0.00000E+00
         0.00000E+00
         0.00000E+00
         0.00000E+00
         0.00000E+00
         0.00000E+00
         0.00000E+00
         0.00000E+00
         0.00000E+00
         0.00000E+00
         0.00000E+00
         0.00000E+00
         0.00000E+00
         0.00000E+00
         0.00000E+00
         0.00000E+00
         0.00000E+00
         0.00000E+00
         0.00000E+00
         0.00000E+00
         0.00000E+00
         0.00000E+00
         0.00000E+00
         0.00000E+00
         0.00000E+00
         0.00000E+00
         0.00000E+00
         0.00000E+00
         0.00000E+00
         0.00000E+00
         0.00000E+00
         0.00000E+00
         0.00000E+00
         0.00000E+00
         0.00000E+00
         0.00000E+00
         0.00000E+00
         0.00000E+00
         0.00000E+00
         0.00000E+00
         0.00000E+00
         0.00000E+00
         0.00000E+00
         0.00000E+00
         0.00000E+00
         0.00000E+00
         0.00000E+00
         0.00000E+00
         0.00000E+00
         0.00000E+00
         0.00000E+00
         0.00000E+00
         0.00000E+00
         0.00000E+00
         0.00000E+00
         0.00000E+00
         0.00000E+00
         0.00000E+00
         0.00000E+00
         0.00000E+00
         0.00000E+00
         0.00000E+00
         0.00000E+00
         0.00000E+00
         0.00000E+00
         0.00000E+00
         0.00000E+00
         0.00000E+00
         0.00000E+00
         0.00000E+00
         0.00000E+00
         0.00000E+00
         0.00000E+00
         0.00000E+00
         0.00000E+00
         0.00000E+00
         0.00000E+00
         0.00000E+00
         0.00000E+00
         0.00000E+00
         0.00000E+00
         0.00000E+00
         0.00000E+00
         0.00000E+00
         0.00000E+00
         0.00000E+00
         0.00000E+00
         0.00000E+00
         0.00000E+00
         0.00000E+00
         0.00000E+00
         0.00000E+00
         0.00000E+00
         0.00000E+00
         0.00000E+00
         0.00000E+00
         0.00000E+00
         0.00000E+00
         0.00000E+00
         0.00000E+00
         0.00000E+00
         0.00000E+00
         0.00000E+00
         0.00000E+00
         0.00000E+00
         0.00000E+00
         0.00000E+00
         0.00000E+00
         0.00000E+00
         0.00000E+00
         0.00000E+00
         0.00000E+00
         0.00000E+00
         0.00000E+00
         0.00000E+00
         0.00000E+00
         0.00000E+00
         0.00000E+00
         0.00000E+00
         0.00000E+00
         0.00000E+00
         0.00000E+00
         0.00000E+00
         0.00000E+00
         0.00000E+00
         0.00000E+00
         0.00000E+00
         0.00000E+00
         0.00000E+00
         0.00000E+00
         0.00000E+00
         0.00000E+00
         0.00000E+00
         0.00000E+00
         0.00000E+00
         0.00000E+00
         0.00000E+00
         0.00000E+00
         0.00000E+00
         0.00000E+00
         0.00000E+00
         0.00000E+00
         0.00000E+00
         0.00000E+00
         0.00000E+00
         0.00000E+00
         0.00000E+00
         0.00000E+00
         0.00000E+00
         0.00000E+00
         0.00000E+00
         0.00000E+00
         0.00000E+00
         0.00000E+00
         0.00000E+00
         0.00000E+00
         0.00000E+00
         0.00000E+00
         0.00000E+00
         0.00000E+00
         0.00000E+00
         0.00000E+00
         0.00000E+00
         0.00000E+00
         0.00000E+00
         0.00000E+00
         0.00000E+00
         0.00000E+00
         0.00000E+00
         0.00000E+00
         0.00000E+00
         0.00000E+00
         0.00000E+00
         0.00000E+00
         0.00000E+00
         0.00000E+00
         0.00000E+00
         0.00000E+00
         0.00000E+00
         0.00000E+00
         0.00000E+00
         0.00000E+00
         0.00000E+00
         0.00000E+00
         0.00000E+00
         0.00000E+00
         0.00000E+00
         0.00000E+00
         0.00000E+00
         0.00000E+00
         0.00000E+00
         0.00000E+00
         0.00000E+00
         0.00000E+00
         0.00000E+00
         0.00000E+00
         0.00000E+00
         0.00000E+00
         0.00000E+00
         0.00000E+00
         0.00000E+00
         0.00000E+00
         0.00000E+00
         0.00000E+00
         0.00000E+00
         0.00000E+00
         0.00000E+00
         0.00000E+00
         0.00000E+00
         0.00000E+00
         0.00000E+00
         0.00000E+00
         0.00000E+00
         0.00000E+00
         0.00000E+00
         0.00000E+00
         0.00000E+00
         0.00000E+00
         0.00000E+00
         0.00000E+00
         0.00000E+00
         0.00000E+00
         0.00000E+00
         0.00000E+00
         0.00000E+00
         0.00000E+00
         0.00000E+00
         0.00000E+00
         0.00000E+00
         0.00000E+00
         0.00000E+00
         0.00000E+00
         0.00000E+00
         0.00000E+00
         0.00000E+00
         0.00000E+00
         0.00000E+00
         0.00000E+00
         0.00000E+00
         0.00000E+00
         0.00000E+00
         0.00000E+00
         0.00000E+00
         0.00000E+00
         0.00000E+00
         0.00000E+00
         0.00000E+00
         0.00000E+00
         0.00000E+00
         0.00000E+00
         0.00000E+00
         0.00000E+00
         0.00000E+00
         0.00000E+00
         0.00000E+00
         0.00000E+00
         0.00000E+00
         0.00000E+00
         0.00000E+00
         0.00000E+00
         0.00000E+00
         0.00000E+00
         0.00000E+00
         0.00000E+00
         0.00000E+00
         0.00000E+00
         0.00000E+00
         0.00000E+00
         0.00000E+00
         0.00000E+00
         0.00000E+00
         0.00000E+00
         0.00000E+00
         0.00000E+00
         0.00000E+00
         0.00000E+00
         0.00000E+00
         0.00000E+00
         0.00000E+00
         0.00000E+00
         0.00000E+00
         0.00000E+00
         0.00000E+00
         0.00000E+00
         0.00000E+00
         0.00000E+00
         0.00000E+00
         0.00000E+00
         0.00000E+00
         0.00000E+00
         0.00000E+00
         0.00000E+00
         0.00000E+00
         0.00000E+00
         0.00000E+00
         0.00000E+00
         0.00000E+00
         0.00000E+00
         0.00000E+00
         0.00000E+00
         0.00000E+00
         0.00000E+00
         0.00000E+00
         0.00000E+00
         0.00000E+00
         0.00000E+00
  
SCALARS               pre_disp_force_y  double 1
LOOKUP_TABLE default
         0.00000E+00
         0.00000E+00
         0.00000E+00
         0.00000E+00
         0.00000E+00
         0.00000E+00
         0.00000E+00
         0.00000E+00
         0.00000E+00
         0.00000E+00
         0.00000E+00
         0.00000E+00
         0.00000E+00
         0.00000E+00
         0.00000E+00
         0.00000E+00
         0.00000E+00
         0.00000E+00
         0.00000E+00
         0.00000E+00
         0.00000E+00
         0.00000E+00
         0.00000E+00
         0.00000E+00
         0.00000E+00
         0.00000E+00
         0.00000E+00
         0.00000E+00
         0.00000E+00
         0.00000E+00
         0.00000E+00
         0.00000E+00
         0.00000E+00
         0.00000E+00
         0.00000E+00
         0.00000E+00
         0.00000E+00
         0.00000E+00
         0.00000E+00
         0.00000E+00
         0.00000E+00
         0.00000E+00
         0.00000E+00
         0.00000E+00
         0.00000E+00
         0.00000E+00
         0.00000E+00
         0.00000E+00
         0.00000E+00
         0.00000E+00
         0.00000E+00
         0.00000E+00
         0.00000E+00
         0.00000E+00
         0.00000E+00
         0.00000E+00
         0.00000E+00
         0.00000E+00
         0.00000E+00
         0.00000E+00
         0.00000E+00
         0.00000E+00
         0.00000E+00
         0.00000E+00
         0.00000E+00
         0.00000E+00
         0.00000E+00
         0.00000E+00
         0.00000E+00
         0.00000E+00
         0.00000E+00
         0.00000E+00
         0.00000E+00
         0.00000E+00
         0.00000E+00
         0.00000E+00
         0.00000E+00
         0.00000E+00
         0.00000E+00
         0.00000E+00
         0.00000E+00
         0.00000E+00
         0.00000E+00
         0.00000E+00
         0.00000E+00
         0.00000E+00
         0.00000E+00
         0.00000E+00
         0.00000E+00
         0.00000E+00
         0.00000E+00
         0.00000E+00
         0.00000E+00
         0.00000E+00
         0.00000E+00
         0.00000E+00
         0.00000E+00
         0.00000E+00
         0.00000E+00
         0.00000E+00
         0.00000E+00
         0.00000E+00
         0.00000E+00
         0.00000E+00
         0.00000E+00
         0.00000E+00
         0.00000E+00
         0.00000E+00
         0.00000E+00
         0.00000E+00
         0.00000E+00
         0.00000E+00
         0.00000E+00
         0.00000E+00
         0.00000E+00
         0.00000E+00
         0.00000E+00
         0.00000E+00
         0.00000E+00
         0.00000E+00
         0.00000E+00
         0.00000E+00
         0.00000E+00
         0.00000E+00
         0.00000E+00
         0.00000E+00
         0.00000E+00
         0.00000E+00
         0.00000E+00
         0.00000E+00
         0.00000E+00
         0.00000E+00
         0.00000E+00
         0.00000E+00
         0.00000E+00
         0.00000E+00
         0.00000E+00
         0.00000E+00
         0.00000E+00
         0.00000E+00
         0.00000E+00
         0.00000E+00
         0.00000E+00
         0.00000E+00
         0.00000E+00
         0.00000E+00
         0.00000E+00
         0.00000E+00
         0.00000E+00
         0.00000E+00
         0.00000E+00
         0.00000E+00
         0.00000E+00
         0.00000E+00
         0.00000E+00
         0.00000E+00
         0.00000E+00
         0.00000E+00
         0.00000E+00
         0.00000E+00
         0.00000E+00
         0.00000E+00
         0.00000E+00
         0.00000E+00
         0.00000E+00
         0.00000E+00
         0.00000E+00
         0.00000E+00
         0.00000E+00
         0.00000E+00
         0.00000E+00
         0.00000E+00
         0.00000E+00
         0.00000E+00
         0.00000E+00
         0.00000E+00
         0.00000E+00
         0.00000E+00
         0.00000E+00
         0.00000E+00
         0.00000E+00
         0.00000E+00
         0.00000E+00
         0.00000E+00
         0.00000E+00
         0.00000E+00
         0.00000E+00
         0.00000E+00
         0.00000E+00
         0.00000E+00
         0.00000E+00
         0.00000E+00
         0.00000E+00
         0.00000E+00
         0.00000E+00
         0.00000E+00
         0.00000E+00
         0.00000E+00
         0.00000E+00
         0.00000E+00
         0.00000E+00
         0.00000E+00
         0.00000E+00
         0.00000E+00
         0.00000E+00
         0.00000E+00
         0.00000E+00
         0.00000E+00
         0.00000E+00
         0.00000E+00
         0.00000E+00
         0.00000E+00
         0.00000E+00
         0.00000E+00
         0.00000E+00
         0.00000E+00
         0.00000E+00
         0.00000E+00
         0.00000E+00
         0.00000E+00
         0.00000E+00
         0.00000E+00
         0.00000E+00
         0.00000E+00
         0.00000E+00
         0.00000E+00
         0.00000E+00
         0.00000E+00
         0.00000E+00
         0.00000E+00
         0.00000E+00
         0.00000E+00
         0.00000E+00
         0.00000E+00
         0.00000E+00
         0.00000E+00
         0.00000E+00
         0.00000E+00
         0.00000E+00
         0.00000E+00
         0.00000E+00
         0.00000E+00
         0.00000E+00
         0.00000E+00
         0.00000E+00
         0.00000E+00
         0.00000E+00
         0.00000E+00
         0.00000E+00
         0.00000E+00
         0.00000E+00
         0.00000E+00
         0.00000E+00
         0.00000E+00
         0.00000E+00
         0.00000E+00
         0.00000E+00
         0.00000E+00
         0.00000E+00
         0.00000E+00
         0.00000E+00
         0.00000E+00
         0.00000E+00
         0.00000E+00
         0.00000E+00
         0.00000E+00
         0.00000E+00
         0.00000E+00
         0.00000E+00
         0.00000E+00
         0.00000E+00
         0.00000E+00
         0.00000E+00
         0.00000E+00
         0.00000E+00
         0.00000E+00
         0.00000E+00
         0.00000E+00
         0.00000E+00
         0.00000E+00
         0.00000E+00
         0.00000E+00
         0.00000E+00
         0.00000E+00
         0.00000E+00
         0.00000E+00
         0.00000E+00
         0.00000E+00
         0.00000E+00
         0.00000E+00
         0.00000E+00
         0.00000E+00
         0.00000E+00
         0.00000E+00
         0.00000E+00
         0.00000E+00
         0.00000E+00
         0.00000E+00
         0.00000E+00
         0.00000E+00
         0.00000E+00
         0.00000E+00
         0.00000E+00
         0.00000E+00
         0.00000E+00
         0.00000E+00
         0.00000E+00
         0.00000E+00
         0.00000E+00
         0.00000E+00
         0.00000E+00
         0.00000E+00
         0.00000E+00
         0.00000E+00
         0.00000E+00
         0.00000E+00
         0.00000E+00
         0.00000E+00
         0.00000E+00
         0.00000E+00
         0.00000E+00
         0.00000E+00
         0.00000E+00
         0.00000E+00
         0.00000E+00
         0.00000E+00
         0.00000E+00
         0.00000E+00
         0.00000E+00
         0.00000E+00
         0.00000E+00
         0.00000E+00
         0.00000E+00
         0.00000E+00
         0.00000E+00
         0.00000E+00
         0.00000E+00
         0.00000E+00
         0.00000E+00
         0.00000E+00
         0.00000E+00
         0.00000E+00
         0.00000E+00
         0.00000E+00
         0.00000E+00
         0.00000E+00
         0.00000E+00
         0.00000E+00
         0.00000E+00
         0.00000E+00
         0.00000E+00
         0.00000E+00
         0.00000E+00
         0.00000E+00
         0.00000E+00
         0.00000E+00
         0.00000E+00
         0.00000E+00
         0.00000E+00
         0.00000E+00
         0.00000E+00
         0.00000E+00
         0.00000E+00
         0.00000E+00
         0.00000E+00
         0.00000E+00
         0.00000E+00
         0.00000E+00
         0.00000E+00
         0.00000E+00
         0.00000E+00
         0.00000E+00
         0.00000E+00
         0.00000E+00
         0.00000E+00
         0.00000E+00
         0.00000E+00
         0.00000E+00
         0.00000E+00
         0.00000E+00
         0.00000E+00
         0.00000E+00
         0.00000E+00
         0.00000E+00
         0.00000E+00
         0.00000E+00
         0.00000E+00
         0.00000E+00
         0.00000E+00
         0.00000E+00
         0.00000E+00
         0.00000E+00
         0.00000E+00
         0.00000E+00
         0.00000E+00
         0.00000E+00
         0.00000E+00
         0.00000E+00
         0.00000E+00
         0.00000E+00
         0.00000E+00
         0.00000E+00
         0.00000E+00
         0.00000E+00
         0.00000E+00
         0.00000E+00
         0.00000E+00
         0.00000E+00
         0.00000E+00
         0.00000E+00
         0.00000E+00
         0.00000E+00
         0.00000E+00
         0.00000E+00
         0.00000E+00
         0.00000E+00
         0.00000E+00
         0.00000E+00
         0.00000E+00
         0.00000E+00
         0.00000E+00
         0.00000E+00
         0.00000E+00
         0.00000E+00
         0.00000E+00
         0.00000E+00
         0.00000E+00
         0.00000E+00
         0.00000E+00
         0.00000E+00
         0.00000E+00
         0.00000E+00
         0.00000E+00
         0.00000E+00
         0.00000E+00
         0.00000E+00
         0.00000E+00
         0.00000E+00
         0.00000E+00
         0.00000E+00
         0.00000E+00
         0.00000E+00
         0.00000E+00
         0.00000E+00
         0.00000E+00
         0.00000E+00
         0.00000E+00
         0.00000E+00
         0.00000E+00
         0.00000E+00
         0.00000E+00
         0.00000E+00
         0.00000E+00
         0.00000E+00
         0.00000E+00
         0.00000E+00
         0.00000E+00
         0.00000E+00
         0.00000E+00
         0.00000E+00
         0.00000E+00
         0.00000E+00
         0.00000E+00
         0.00000E+00
         0.00000E+00
         0.00000E+00
         0.00000E+00
         0.00000E+00
         0.00000E+00
         0.00000E+00
         0.00000E+00
         0.00000E+00
         0.00000E+00
         0.00000E+00
         0.00000E+00
         0.00000E+00
         0.00000E+00
         0.00000E+00
         0.00000E+00
         0.00000E+00
         0.00000E+00
         0.00000E+00
         0.00000E+00
         0.00000E+00
         0.00000E+00
         0.00000E+00
         0.00000E+00
         0.00000E+00
         0.00000E+00
         0.00000E+00
         0.00000E+00
         0.00000E+00
         0.00000E+00
         0.00000E+00
         0.00000E+00
         0.00000E+00
         0.00000E+00
         0.00000E+00
         0.00000E+00
         0.00000E+00
         0.00000E+00
         0.00000E+00
         0.00000E+00
         0.00000E+00
         0.00000E+00
         0.00000E+00
         0.00000E+00
         0.00000E+00
         0.00000E+00
         0.00000E+00
         0.00000E+00
         0.00000E+00
         0.00000E+00
         0.00000E+00
         0.00000E+00
         0.00000E+00
         0.00000E+00
         0.00000E+00
         0.00000E+00
         0.00000E+00
         0.00000E+00
         0.00000E+00
         0.00000E+00
         0.00000E+00
         0.00000E+00
         0.00000E+00
         0.00000E+00
         0.00000E+00
         0.00000E+00
         0.00000E+00
         0.00000E+00
         0.00000E+00
         0.00000E+00
         0.00000E+00
         0.00000E+00
         0.00000E+00
         0.00000E+00
         0.00000E+00
         0.00000E+00
         0.00000E+00
         0.00000E+00
         0.00000E+00
         0.00000E+00
         0.00000E+00
         0.00000E+00
         0.00000E+00
         0.00000E+00
         0.00000E+00
         0.00000E+00
         0.00000E+00
         0.00000E+00
         0.00000E+00
         0.00000E+00
         0.00000E+00
         0.00000E+00
         0.00000E+00
         0.00000E+00
         0.00000E+00
         0.00000E+00
         0.00000E+00
         0.00000E+00
         0.00000E+00
         0.00000E+00
         0.00000E+00
         0.00000E+00
         0.00000E+00
         0.00000E+00
         0.00000E+00
         0.00000E+00
         0.00000E+00
         0.00000E+00
         0.00000E+00
         0.00000E+00
         0.00000E+00
         0.00000E+00
         0.00000E+00
         0.00000E+00
         0.00000E+00
         0.00000E+00
         0.00000E+00
         0.00000E+00
         0.00000E+00
         0.00000E+00
         0.00000E+00
         0.00000E+00
         0.00000E+00
         0.00000E+00
         0.00000E+00
         0.00000E+00
         0.00000E+00
         0.00000E+00
         0.00000E+00
         0.00000E+00
         0.00000E+00
         0.00000E+00
         0.00000E+00
         0.00000E+00
         0.00000E+00
         0.00000E+00
         0.00000E+00
         0.00000E+00
         0.00000E+00
         0.00000E+00
         0.00000E+00
         0.00000E+00
         0.00000E+00
         0.00000E+00
         0.00000E+00
         0.00000E+00
         0.00000E+00
         0.00000E+00
         0.00000E+00
         0.00000E+00
         0.00000E+00
         0.00000E+00
         0.00000E+00
         0.00000E+00
         0.00000E+00
         0.00000E+00
         0.00000E+00
         0.00000E+00
         0.00000E+00
         0.00000E+00
         0.00000E+00
         0.00000E+00
         0.00000E+00
         0.00000E+00
         0.00000E+00
         0.00000E+00
         0.00000E+00
         0.00000E+00
         0.00000E+00
         0.00000E+00
         0.00000E+00
         0.00000E+00
         0.00000E+00
         0.00000E+00
         0.00000E+00
         0.00000E+00
         0.00000E+00
         0.00000E+00
         0.00000E+00
         0.00000E+00
         0.00000E+00
         0.00000E+00
         0.00000E+00
         0.00000E+00
         0.00000E+00
         0.00000E+00
         0.00000E+00
         0.00000E+00
         0.00000E+00
         0.00000E+00
         0.00000E+00
         0.00000E+00
         0.00000E+00
         0.00000E+00
         0.00000E+00
         0.00000E+00
         0.00000E+00
         0.00000E+00
         0.00000E+00
         0.00000E+00
         0.00000E+00
         0.00000E+00
         0.00000E+00
         0.00000E+00
         0.00000E+00
         0.00000E+00
         0.00000E+00
         0.00000E+00
         0.00000E+00
         0.00000E+00
         0.00000E+00
         0.00000E+00
         0.00000E+00
         0.00000E+00
         0.00000E+00
         0.00000E+00
         0.00000E+00
         0.00000E+00
         0.00000E+00
         0.00000E+00
         0.00000E+00
         0.00000E+00
         0.00000E+00
         0.00000E+00
         0.00000E+00
         0.00000E+00
         0.00000E+00
         0.00000E+00
         0.00000E+00
         0.00000E+00
         0.00000E+00
         0.00000E+00
         0.00000E+00
         0.00000E+00
         0.00000E+00
         0.00000E+00
         0.00000E+00
         0.00000E+00
         0.00000E+00
         0.00000E+00
         0.00000E+00
         0.00000E+00
         0.00000E+00
         0.00000E+00
         0.00000E+00
         0.00000E+00
         0.00000E+00
         0.00000E+00
         0.00000E+00
         0.00000E+00
         0.00000E+00
         0.00000E+00
         0.00000E+00
         0.00000E+00
         0.00000E+00
         0.00000E+00
         0.00000E+00
         0.00000E+00
         0.00000E+00
         0.00000E+00
         0.00000E+00
         0.00000E+00
         0.00000E+00
         0.00000E+00
         0.00000E+00
         0.00000E+00
         0.00000E+00
         0.00000E+00
         0.00000E+00
         0.00000E+00
         0.00000E+00
         0.00000E+00
         0.00000E+00
         0.00000E+00
         0.00000E+00
         0.00000E+00
         0.00000E+00
         0.00000E+00
         0.00000E+00
         0.00000E+00
         0.00000E+00
         0.00000E+00
         0.00000E+00
         0.00000E+00
         0.00000E+00
         0.00000E+00
         0.00000E+00
         0.00000E+00
         0.00000E+00
         0.00000E+00
         0.00000E+00
         0.00000E+00
         0.00000E+00
         0.00000E+00
         0.00000E+00
         0.00000E+00
         0.00000E+00
         0.00000E+00
         0.00000E+00
         0.00000E+00
         0.00000E+00
         0.00000E+00
         0.00000E+00
         0.00000E+00
         0.00000E+00
         0.00000E+00
         0.00000E+00
         0.00000E+00
         0.00000E+00
         0.00000E+00
         0.00000E+00
         0.00000E+00
         0.00000E+00
         0.00000E+00
         0.00000E+00
         0.00000E+00
         0.00000E+00
         0.00000E+00
         0.00000E+00
         0.00000E+00
         0.00000E+00
         0.00000E+00
         0.00000E+00
         0.00000E+00
         0.00000E+00
         0.00000E+00
         0.00000E+00
         0.00000E+00
         0.00000E+00
         0.00000E+00
         0.00000E+00
         0.00000E+00
         0.00000E+00
         0.00000E+00
         0.00000E+00
         0.00000E+00
         0.00000E+00
         0.00000E+00
         0.00000E+00
         0.00000E+00
         0.00000E+00
         0.00000E+00
         0.00000E+00
         0.00000E+00
         0.00000E+00
         0.00000E+00
         0.00000E+00
         0.00000E+00
         0.00000E+00
         0.00000E+00
         0.00000E+00
         0.00000E+00
         0.00000E+00
         0.00000E+00
         0.00000E+00
         0.00000E+00
         0.00000E+00
         0.00000E+00
         0.00000E+00
         0.00000E+00
         0.00000E+00
         0.00000E+00
         0.00000E+00
         0.00000E+00
         0.00000E+00
         0.00000E+00
         0.00000E+00
         0.00000E+00
         0.00000E+00
         0.00000E+00
         0.00000E+00
         0.00000E+00
         0.00000E+00
         0.00000E+00
         0.00000E+00
         0.00000E+00
         0.00000E+00
         0.00000E+00
         0.00000E+00
         0.00000E+00
         0.00000E+00
         0.00000E+00
         0.00000E+00
         0.00000E+00
         0.00000E+00
         0.00000E+00
         0.00000E+00
         0.00000E+00
         0.00000E+00
         0.00000E+00
         0.00000E+00
         0.00000E+00
         0.00000E+00
         0.00000E+00
         0.00000E+00
         0.00000E+00
         0.00000E+00
         0.00000E+00
         0.00000E+00
         0.00000E+00
         0.00000E+00
         0.00000E+00
         0.00000E+00
         0.00000E+00
         0.00000E+00
         0.00000E+00
         0.00000E+00
         0.00000E+00
         0.00000E+00
         0.00000E+00
         0.00000E+00
         0.00000E+00
         0.00000E+00
         0.00000E+00
         0.00000E+00
         0.00000E+00
         0.00000E+00
         0.00000E+00
         0.00000E+00
         0.00000E+00
         0.00000E+00
         0.00000E+00
         0.00000E+00
         0.00000E+00
         0.00000E+00
         0.00000E+00
         0.00000E+00
         0.00000E+00
         0.00000E+00
         0.00000E+00
         0.00000E+00
         0.00000E+00
         0.00000E+00
         0.00000E+00
         0.00000E+00
         0.00000E+00
         0.00000E+00
         0.00000E+00
         0.00000E+00
         0.00000E+00
         0.00000E+00
         0.00000E+00
         0.00000E+00
         0.00000E+00
         0.00000E+00
         0.00000E+00
         0.00000E+00
         0.00000E+00
         0.00000E+00
         0.00000E+00
         0.00000E+00
         0.00000E+00
         0.00000E+00
         0.00000E+00
         0.00000E+00
         0.00000E+00
         0.00000E+00
         0.00000E+00
         0.00000E+00
         0.00000E+00
         0.00000E+00
         0.00000E+00
         0.00000E+00
         0.00000E+00
         0.00000E+00
         0.00000E+00
         0.00000E+00
         0.00000E+00
         0.00000E+00
         0.00000E+00
         0.00000E+00
         0.00000E+00
         0.00000E+00
         0.00000E+00
         0.00000E+00
         0.00000E+00
         0.00000E+00
         0.00000E+00
         0.00000E+00
         0.00000E+00
         0.00000E+00
         0.00000E+00
         0.00000E+00
         0.00000E+00
         0.00000E+00
         0.00000E+00
         0.00000E+00
         0.00000E+00
         0.00000E+00
         0.00000E+00
         0.00000E+00
         0.00000E+00
         0.00000E+00
         0.00000E+00
         0.00000E+00
         0.00000E+00
         0.00000E+00
         0.00000E+00
         0.00000E+00
         0.00000E+00
         0.00000E+00
         0.00000E+00
         0.00000E+00
         0.00000E+00
         0.00000E+00
         0.00000E+00
         0.00000E+00
         0.00000E+00
         0.00000E+00
         0.00000E+00
         0.00000E+00
         0.00000E+00
         0.00000E+00
         0.00000E+00
         0.00000E+00
         0.00000E+00
         0.00000E+00
         0.00000E+00
         0.00000E+00
         0.00000E+00
         0.00000E+00
         0.00000E+00
         0.00000E+00
         0.00000E+00
         0.00000E+00
         0.00000E+00
         0.00000E+00
         0.00000E+00
         0.00000E+00
         0.00000E+00
         0.00000E+00
         0.00000E+00
         0.00000E+00
         0.00000E+00
         0.00000E+00
         0.00000E+00
         0.00000E+00
         0.00000E+00
         0.00000E+00
         0.00000E+00
         0.00000E+00
         0.00000E+00
         0.00000E+00
         0.00000E+00
         0.00000E+00
         0.00000E+00
         0.00000E+00
         0.00000E+00
         0.00000E+00
         0.00000E+00
         0.00000E+00
         0.00000E+00
         0.00000E+00
         0.00000E+00
         0.00000E+00
         0.00000E+00
         0.00000E+00
         0.00000E+00
         0.00000E+00
         0.00000E+00
         0.00000E+00
         0.00000E+00
         0.00000E+00
         0.00000E+00
         0.00000E+00
         0.00000E+00
         0.00000E+00
         0.00000E+00
         0.00000E+00
         0.00000E+00
         0.00000E+00
         0.00000E+00
         0.00000E+00
         0.00000E+00
         0.00000E+00
         0.00000E+00
         0.00000E+00
         0.00000E+00
         0.00000E+00
         0.00000E+00
         0.00000E+00
         0.00000E+00
         0.00000E+00
         0.00000E+00
         0.00000E+00
         0.00000E+00
         0.00000E+00
         0.00000E+00
         0.00000E+00
         0.00000E+00
         0.00000E+00
         0.00000E+00
         0.00000E+00
         0.00000E+00
         0.00000E+00
         0.00000E+00
         0.00000E+00
         0.00000E+00
         0.00000E+00
         0.00000E+00
         0.00000E+00
         0.00000E+00
         0.00000E+00
         0.00000E+00
         0.00000E+00
         0.00000E+00
         0.00000E+00
         0.00000E+00
         0.00000E+00
         0.00000E+00
         0.00000E+00
         0.00000E+00
         0.00000E+00
         0.00000E+00
         0.00000E+00
         0.00000E+00
         0.00000E+00
         0.00000E+00
         0.00000E+00
         0.00000E+00
         0.00000E+00
         0.00000E+00
         0.00000E+00
         0.00000E+00
         0.00000E+00
         0.00000E+00
         0.00000E+00
         0.00000E+00
         0.00000E+00
         0.00000E+00
         0.00000E+00
         0.00000E+00
         0.00000E+00
         0.00000E+00
         0.00000E+00
         0.00000E+00
         0.00000E+00
         0.00000E+00
         0.00000E+00
         0.00000E+00
         0.00000E+00
         0.00000E+00
         0.00000E+00
         0.00000E+00
         0.00000E+00
         0.00000E+00
         0.00000E+00
         0.00000E+00
         0.00000E+00
         0.00000E+00
         0.00000E+00
         0.00000E+00
         0.00000E+00
         0.00000E+00
         0.00000E+00
         0.00000E+00
         0.00000E+00
         0.00000E+00
         0.00000E+00
         0.00000E+00
         0.00000E+00
         0.00000E+00
         0.00000E+00
         0.00000E+00
         0.00000E+00
         0.00000E+00
         0.00000E+00
         0.00000E+00
         0.00000E+00
         0.00000E+00
         0.00000E+00
         0.00000E+00
         0.00000E+00
         0.00000E+00
         0.00000E+00
         0.00000E+00
         0.00000E+00
         0.00000E+00
         0.00000E+00
         0.00000E+00
         0.00000E+00
         0.00000E+00
         0.00000E+00
         0.00000E+00
         0.00000E+00
         0.00000E+00
         0.00000E+00
         0.00000E+00
         0.00000E+00
         0.00000E+00
         0.00000E+00
         0.00000E+00
         0.00000E+00
         0.00000E+00
         0.00000E+00
         0.00000E+00
         0.00000E+00
         0.00000E+00
         0.00000E+00
         0.00000E+00
         0.00000E+00
         0.00000E+00
         0.00000E+00
         0.00000E+00
         0.00000E+00
         0.00000E+00
         0.00000E+00
         0.00000E+00
         0.00000E+00
         0.00000E+00
         0.00000E+00
         0.00000E+00
         0.00000E+00
         0.00000E+00
         0.00000E+00
         0.00000E+00
         0.00000E+00
         0.00000E+00
         0.00000E+00
         0.00000E+00
         0.00000E+00
         0.00000E+00
         0.00000E+00
         0.00000E+00
         0.00000E+00
         0.00000E+00
         0.00000E+00
         0.00000E+00
         0.00000E+00
         0.00000E+00
         0.00000E+00
         0.00000E+00
         0.00000E+00
         0.00000E+00
         0.00000E+00
         0.00000E+00
         0.00000E+00
         0.00000E+00
         0.00000E+00
         0.00000E+00
         0.00000E+00
         0.00000E+00
         0.00000E+00
         0.00000E+00
         0.00000E+00
         0.00000E+00
         0.00000E+00
         0.00000E+00
         0.00000E+00
         0.00000E+00
         0.00000E+00
         0.00000E+00
         0.00000E+00
         0.00000E+00
         0.00000E+00
         0.00000E+00
         0.00000E+00
         0.00000E+00
         0.00000E+00
         0.00000E+00
         0.00000E+00
         0.00000E+00
         0.00000E+00
         0.00000E+00
         0.00000E+00
         0.00000E+00
         0.00000E+00
         0.00000E+00
         0.00000E+00
         0.00000E+00
         0.00000E+00
         0.00000E+00
         0.00000E+00
         0.00000E+00
         0.00000E+00
         0.00000E+00
         0.00000E+00
         0.00000E+00
         0.00000E+00
         0.00000E+00
         0.00000E+00
         0.00000E+00
         0.00000E+00
         0.00000E+00
         0.00000E+00
         0.00000E+00
         0.00000E+00
         0.00000E+00
         0.00000E+00
         0.00000E+00
         0.00000E+00
         0.00000E+00
         0.00000E+00
         0.00000E+00
         0.00000E+00
         0.00000E+00
         0.00000E+00
         0.00000E+00
         0.00000E+00
         0.00000E+00
         0.00000E+00
         0.00000E+00
         0.00000E+00
         0.00000E+00
         0.00000E+00
         0.00000E+00
         0.00000E+00
         0.00000E+00
         0.00000E+00
         0.00000E+00
         0.00000E+00
         0.00000E+00
         0.00000E+00
         0.00000E+00
         0.00000E+00
         0.00000E+00
         0.00000E+00
         0.00000E+00
         0.00000E+00
         0.00000E+00
         0.00000E+00
         0.00000E+00
         0.00000E+00
         0.00000E+00
         0.00000E+00
         0.00000E+00
         0.00000E+00
         0.00000E+00
         0.00000E+00
         0.00000E+00
         0.00000E+00
         0.00000E+00
         0.00000E+00
         0.00000E+00
         0.00000E+00
         0.00000E+00
         0.00000E+00
         0.00000E+00
         0.00000E+00
         0.00000E+00
         0.00000E+00
         0.00000E+00
         0.00000E+00
         0.00000E+00
         0.00000E+00
         0.00000E+00
         0.00000E+00
         0.00000E+00
         0.00000E+00
         0.00000E+00
         0.00000E+00
         0.00000E+00
         0.00000E+00
         0.00000E+00
         0.00000E+00
         0.00000E+00
         0.00000E+00
         0.00000E+00
         0.00000E+00
         0.00000E+00
         0.00000E+00
         0.00000E+00
         0.00000E+00
         0.00000E+00
         0.00000E+00
         0.00000E+00
         0.00000E+00
         0.00000E+00
         0.00000E+00
         0.00000E+00
         0.00000E+00
         0.00000E+00
         0.00000E+00
         0.00000E+00
         0.00000E+00
         0.00000E+00
         0.00000E+00
         0.00000E+00
         0.00000E+00
         0.00000E+00
         0.00000E+00
         0.00000E+00
         0.00000E+00
         0.00000E+00
         0.00000E+00
         0.00000E+00
         0.00000E+00
         0.00000E+00
         0.00000E+00
         0.00000E+00
         0.00000E+00
         0.00000E+00
         0.00000E+00
         0.00000E+00
         0.00000E+00
         0.00000E+00
         0.00000E+00
         0.00000E+00
         0.00000E+00
         0.00000E+00
         0.00000E+00
         0.00000E+00
         0.00000E+00
         0.00000E+00
         0.00000E+00
         0.00000E+00
         0.00000E+00
         0.00000E+00
         0.00000E+00
         0.00000E+00
         0.00000E+00
         0.00000E+00
         0.00000E+00
         0.00000E+00
         0.00000E+00
         0.00000E+00
         0.00000E+00
         0.00000E+00
         0.00000E+00
         0.00000E+00
         0.00000E+00
         0.00000E+00
         0.00000E+00
         0.00000E+00
         0.00000E+00
         0.00000E+00
         0.00000E+00
         0.00000E+00
         0.00000E+00
         0.00000E+00
         0.00000E+00
         0.00000E+00
         0.00000E+00
         0.00000E+00
         0.00000E+00
         0.00000E+00
         0.00000E+00
         0.00000E+00
         0.00000E+00
         0.00000E+00
         0.00000E+00
         0.00000E+00
         0.00000E+00
         0.00000E+00
         0.00000E+00
         0.00000E+00
         0.00000E+00
         0.00000E+00
         0.00000E+00
         0.00000E+00
         0.00000E+00
         0.00000E+00
         0.00000E+00
         0.00000E+00
         0.00000E+00
         0.00000E+00
         0.00000E+00
         0.00000E+00
         0.00000E+00
         0.00000E+00
         0.00000E+00
         0.00000E+00
         0.00000E+00
         0.00000E+00
         0.00000E+00
         0.00000E+00
         0.00000E+00
         0.00000E+00
         0.00000E+00
         0.00000E+00
         0.00000E+00
         0.00000E+00
         0.00000E+00
         0.00000E+00
         0.00000E+00
         0.00000E+00
         0.00000E+00
         0.00000E+00
         0.00000E+00
         0.00000E+00
         0.00000E+00
         0.00000E+00
         0.00000E+00
         0.00000E+00
         0.00000E+00
         0.00000E+00
         0.00000E+00
         0.00000E+00
         0.00000E+00
         0.00000E+00
         0.00000E+00
         0.00000E+00
         0.00000E+00
         0.00000E+00
         0.00000E+00
         0.00000E+00
         0.00000E+00
         0.00000E+00
         0.00000E+00
         0.00000E+00
         0.00000E+00
         0.00000E+00
         0.00000E+00
         0.00000E+00
         0.00000E+00
         0.00000E+00
         0.00000E+00
         0.00000E+00
         0.00000E+00
         0.00000E+00
         0.00000E+00
         0.00000E+00
         0.00000E+00
         0.00000E+00
         0.00000E+00
         0.00000E+00
         0.00000E+00
         0.00000E+00
         0.00000E+00
         0.00000E+00
         0.00000E+00
         0.00000E+00
         0.00000E+00
         0.00000E+00
         0.00000E+00
         0.00000E+00
         0.00000E+00
         0.00000E+00
         0.00000E+00
         0.00000E+00
         0.00000E+00
         0.00000E+00
         0.00000E+00
         0.00000E+00
         0.00000E+00
         0.00000E+00
         0.00000E+00
         0.00000E+00
         0.00000E+00
         0.00000E+00
         0.00000E+00
         0.00000E+00
         0.00000E+00
         0.00000E+00
         0.00000E+00
         0.00000E+00
         0.00000E+00
         0.00000E+00
         0.00000E+00
         0.00000E+00
         0.00000E+00
         0.00000E+00
         0.00000E+00
         0.00000E+00
         0.00000E+00
         0.00000E+00
         0.00000E+00
         0.00000E+00
         0.00000E+00
         0.00000E+00
         0.00000E+00
         0.00000E+00
         0.00000E+00
         0.00000E+00
         0.00000E+00
         0.00000E+00
         0.00000E+00
         0.00000E+00
         0.00000E+00
         0.00000E+00
         0.00000E+00
         0.00000E+00
         0.00000E+00
         0.00000E+00
         0.00000E+00
         0.00000E+00
         0.00000E+00
         0.00000E+00
         0.00000E+00
         0.00000E+00
         0.00000E+00
         0.00000E+00
         0.00000E+00
         0.00000E+00
         0.00000E+00
         0.00000E+00
         0.00000E+00
         0.00000E+00
         0.00000E+00
         0.00000E+00
         0.00000E+00
         0.00000E+00
         0.00000E+00
         0.00000E+00
         0.00000E+00
         0.00000E+00
         0.00000E+00
         0.00000E+00
         0.00000E+00
         0.00000E+00
         0.00000E+00
         0.00000E+00
         0.00000E+00
         0.00000E+00
         0.00000E+00
         0.00000E+00
         0.00000E+00
         0.00000E+00
         0.00000E+00
         0.00000E+00
         0.00000E+00
         0.00000E+00
         0.00000E+00
         0.00000E+00
         0.00000E+00
         0.00000E+00
         0.00000E+00
         0.00000E+00
         0.00000E+00
         0.00000E+00
         0.00000E+00
         0.00000E+00
         0.00000E+00
         0.00000E+00
         0.00000E+00
         0.00000E+00
         0.00000E+00
         0.00000E+00
         0.00000E+00
         0.00000E+00
         0.00000E+00
         0.00000E+00
         0.00000E+00
         0.00000E+00
         0.00000E+00
         0.00000E+00
         0.00000E+00
         0.00000E+00
         0.00000E+00
         0.00000E+00
         0.00000E+00
         0.00000E+00
         0.00000E+00
         0.00000E+00
         0.00000E+00
         0.00000E+00
         0.00000E+00
         0.00000E+00
         0.00000E+00
         0.00000E+00
         0.00000E+00
         0.00000E+00
         0.00000E+00
         0.00000E+00
         0.00000E+00
         0.00000E+00
         0.00000E+00
         0.00000E+00
         0.00000E+00
         0.00000E+00
         0.00000E+00
         0.00000E+00
         0.00000E+00
         0.00000E+00
         0.00000E+00
         0.00000E+00
         0.00000E+00
         0.00000E+00
         0.00000E+00
         0.00000E+00
         0.00000E+00
         0.00000E+00
         0.00000E+00
         0.00000E+00
         0.00000E+00
         0.00000E+00
         0.00000E+00
         0.00000E+00
         0.00000E+00
         0.00000E+00
         0.00000E+00
         0.00000E+00
         0.00000E+00
         0.00000E+00
         0.00000E+00
         0.00000E+00
         0.00000E+00
         0.00000E+00
         0.00000E+00
         0.00000E+00
         0.00000E+00
         0.00000E+00
         0.00000E+00
         0.00000E+00
         0.00000E+00
         0.00000E+00
         0.00000E+00
         0.00000E+00
         0.00000E+00
         0.00000E+00
         0.00000E+00
         0.00000E+00
         0.00000E+00
         0.00000E+00
         0.00000E+00
         0.00000E+00
         0.00000E+00
         0.00000E+00
         0.00000E+00
         0.00000E+00
         0.00000E+00
         0.00000E+00
         0.00000E+00
         0.00000E+00
         0.00000E+00
         0.00000E+00
         0.00000E+00
         0.00000E+00
         0.00000E+00
         0.00000E+00
         0.00000E+00
         0.00000E+00
         0.00000E+00
         0.00000E+00
         0.00000E+00
         0.00000E+00
         0.00000E+00
         0.00000E+00
         0.00000E+00
         0.00000E+00
         0.00000E+00
         0.00000E+00
         0.00000E+00
         0.00000E+00
         0.00000E+00
         0.00000E+00
         0.00000E+00
         0.00000E+00
         0.00000E+00
         0.00000E+00
         0.00000E+00
         0.00000E+00
         0.00000E+00
         0.00000E+00
         0.00000E+00
         0.00000E+00
         0.00000E+00
         0.00000E+00
         0.00000E+00
         0.00000E+00
         0.00000E+00
         0.00000E+00
         0.00000E+00
         0.00000E+00
         0.00000E+00
         0.00000E+00
         0.00000E+00
         0.00000E+00
         0.00000E+00
         0.00000E+00
         0.00000E+00
         0.00000E+00
         0.00000E+00
         0.00000E+00
         0.00000E+00
         0.00000E+00
         0.00000E+00
         0.00000E+00
         0.00000E+00
         0.00000E+00
         0.00000E+00
         0.00000E+00
         0.00000E+00
         0.00000E+00
         0.00000E+00
         0.00000E+00
         0.00000E+00
         0.00000E+00
         0.00000E+00
         0.00000E+00
         0.00000E+00
         0.00000E+00
         0.00000E+00
         0.00000E+00
         0.00000E+00
         0.00000E+00
         0.00000E+00
         0.00000E+00
         0.00000E+00
         0.00000E+00
         0.00000E+00
         0.00000E+00
         0.00000E+00
         0.00000E+00
         0.00000E+00
         0.00000E+00
         0.00000E+00
         0.00000E+00
         0.00000E+00
         0.00000E+00
         0.00000E+00
         0.00000E+00
         0.00000E+00
         0.00000E+00
         0.00000E+00
         0.00000E+00
         0.00000E+00
         0.00000E+00
         0.00000E+00
         0.00000E+00
         0.00000E+00
         0.00000E+00
         0.00000E+00
         0.00000E+00
         0.00000E+00
         0.00000E+00
         0.00000E+00
         0.00000E+00
         0.00000E+00
         0.00000E+00
         0.00000E+00
         0.00000E+00
         0.00000E+00
         0.00000E+00
         0.00000E+00
         0.00000E+00
         0.00000E+00
         0.00000E+00
         0.00000E+00
         0.00000E+00
         0.00000E+00
         0.00000E+00
         0.00000E+00
         0.00000E+00
         0.00000E+00
         0.00000E+00
         0.00000E+00
         0.00000E+00
         0.00000E+00
         0.00000E+00
         0.00000E+00
         0.00000E+00
         0.00000E+00
         0.00000E+00
         0.00000E+00
         0.00000E+00
         0.00000E+00
         0.00000E+00
         0.00000E+00
         0.00000E+00
         0.00000E+00
         0.00000E+00
         0.00000E+00
         0.00000E+00
         0.00000E+00
         0.00000E+00
         0.00000E+00
         0.00000E+00
         0.00000E+00
         0.00000E+00
         0.00000E+00
         0.00000E+00
         0.00000E+00
         0.00000E+00
         0.00000E+00
         0.00000E+00
         0.00000E+00
         0.00000E+00
         0.00000E+00
         0.00000E+00
         0.00000E+00
         0.00000E+00
         0.00000E+00
         0.00000E+00
         0.00000E+00
         0.00000E+00
         0.00000E+00
         0.00000E+00
         0.00000E+00
         0.00000E+00
         0.00000E+00
         0.00000E+00
         0.00000E+00
         0.00000E+00
         0.00000E+00
         0.00000E+00
         0.00000E+00
         0.00000E+00
         0.00000E+00
         0.00000E+00
         0.00000E+00
         0.00000E+00
         0.00000E+00
         0.00000E+00
         0.00000E+00
         0.00000E+00
         0.00000E+00
         0.00000E+00
         0.00000E+00
         0.00000E+00
         0.00000E+00
         0.00000E+00
         0.00000E+00
         0.00000E+00
         0.00000E+00
         0.00000E+00
         0.00000E+00
         0.00000E+00
         0.00000E+00
         0.00000E+00
         0.00000E+00
         0.00000E+00
         0.00000E+00
         0.00000E+00
         0.00000E+00
         0.00000E+00
         0.00000E+00
         0.00000E+00
         0.00000E+00
         0.00000E+00
         0.00000E+00
         0.00000E+00
         0.00000E+00
         0.00000E+00
         0.00000E+00
         0.00000E+00
         0.00000E+00
         0.00000E+00
         0.00000E+00
         0.00000E+00
         0.00000E+00
         0.00000E+00
         0.00000E+00
         0.00000E+00
         0.00000E+00
         0.00000E+00
         0.00000E+00
         0.00000E+00
         0.00000E+00
         0.00000E+00
         0.00000E+00
         0.00000E+00
         0.00000E+00
         0.00000E+00
         0.00000E+00
         0.00000E+00
         0.00000E+00
         0.00000E+00
         0.00000E+00
         0.00000E+00
         0.00000E+00
         0.00000E+00
         0.00000E+00
         0.00000E+00
         0.00000E+00
         0.00000E+00
         0.00000E+00
         0.00000E+00
         0.00000E+00
         0.00000E+00
         0.00000E+00
         0.00000E+00
         0.00000E+00
         0.00000E+00
         0.00000E+00
         0.00000E+00
         0.00000E+00
         0.00000E+00
         0.00000E+00
         0.00000E+00
         0.00000E+00
         0.00000E+00
         0.00000E+00
         0.00000E+00
         0.00000E+00
         0.00000E+00
         0.00000E+00
         0.00000E+00
         0.00000E+00
         0.00000E+00
         0.00000E+00
         0.00000E+00
         0.00000E+00
         0.00000E+00
         0.00000E+00
         0.00000E+00
         0.00000E+00
  
SCALARS               pre_disp_force_z  double 1
LOOKUP_TABLE default
         0.00000E+00
         0.00000E+00
         0.00000E+00
         0.00000E+00
        -0.00000E+00
        -0.00000E+00
        -0.00000E+00
        -0.00000E+00
         0.00000E+00
         0.00000E+00
        -0.00000E+00
        -0.00000E+00
         0.00000E+00
         0.00000E+00
        -0.00000E+00
        -0.00000E+00
         0.00000E+00
         0.00000E+00
        -0.00000E+00
        -0.00000E+00
         0.00000E+00
         0.00000E+00
         0.00000E+00
        -0.00000E+00
        -0.00000E+00
        -0.00000E+00
         0.00000E+00
         0.00000E+00
        -0.00000E+00
        -0.00000E+00
         0.00000E+00
         0.00000E+00
         0.00000E+00
        -0.00000E+00
        -0.00000E+00
        -0.00000E+00
         0.00000E+00
         0.00000E+00
        -0.00000E+00
        -0.00000E+00
         0.00000E+00
         0.00000E+00
        -0.00000E+00
        -0.00000E+00
         0.00000E+00
         0.00000E+00
        -0.00000E+00
        -0.00000E+00
         0.00000E+00
        -0.00000E+00
         0.00000E+00
        -0.00000E+00
         0.00000E+00
        -0.00000E+00
         0.00000E+00
        -0.00000E+00
         0.00000E+00
         0.00000E+00
        -0.00000E+00
        -0.00000E+00
         0.00000E+00
         0.00000E+00
        -0.00000E+00
        -0.00000E+00
         0.00000E+00
        -0.00000E+00
         0.00000E+00
        -0.00000E+00
         0.00000E+00
         0.00000E+00
        -0.00000E+00
        -0.00000E+00
         0.00000E+00
        -0.00000E+00
         0.00000E+00
        -0.00000E+00
         0.00000E+00
        -0.00000E+00
         0.00000E+00
        -0.00000E+00
         0.00000E+00
         0.00000E+00
        -0.00000E+00
        -0.00000E+00
         0.00000E+00
        -0.00000E+00
         0.00000E+00
        -0.00000E+00
         0.00000E+00
        -0.00000E+00
         0.00000E+00
         0.00000E+00
        -0.00000E+00
        -0.00000E+00
         0.00000E+00
        -0.00000E+00
         0.00000E+00
        -0.00000E+00
         0.00000E+00
        -0.00000E+00
         0.00000E+00
         0.00000E+00
        -0.00000E+00
        -0.00000E+00
         0.00000E+00
         0.00000E+00
        -0.00000E+00
        -0.00000E+00
         0.00000E+00
        -0.00000E+00
         0.00000E+00
        -0.00000E+00
         0.00000E+00
        -0.00000E+00
         0.00000E+00
        -0.00000E+00
         0.00000E+00
        -0.00000E+00
         0.00000E+00
        -0.00000E+00
         0.00000E+00
        -0.00000E+00
         0.00000E+00
        -0.00000E+00
         0.00000E+00
        -0.00000E+00
         0.00000E+00
        -0.00000E+00
         0.00000E+00
        -0.00000E+00
         0.00000E+00
        -0.00000E+00
         0.00000E+00
        -0.00000E+00
         0.00000E+00
        -0.00000E+00
         0.00000E+00
        -0.00000E+00
         0.00000E+00
        -0.00000E+00
         0.00000E+00
        -0.00000E+00
         0.00000E+00
        -0.00000E+00
         0.00000E+00
        -0.00000E+00
         0.00000E+00
        -0.00000E+00
         0.00000E+00
        -0.00000E+00
         0.00000E+00
        -0.00000E+00
         0.00000E+00
        -0.00000E+00
         0.00000E+00
        -0.00000E+00
         0.00000E+00
         0.00000E+00
         0.00000E+00
         0.00000E+00
         0.00000E+00
         0.00000E+00
         0.00000E+00
         0.00000E+00
         0.00000E+00
         0.00000E+00
         0.00000E+00
         0.00000E+00
         0.00000E+00
         0.00000E+00
         0.00000E+00
         0.00000E+00
         0.00000E+00
         0.00000E+00
         0.00000E+00
         0.00000E+00
         0.00000E+00
         0.00000E+00
         0.00000E+00
         0.00000E+00
         0.00000E+00
         0.00000E+00
         0.00000E+00
         0.00000E+00
         0.00000E+00
         0.00000E+00
         0.00000E+00
         0.00000E+00
         0.00000E+00
         0.00000E+00
         0.00000E+00
         0.00000E+00
         0.00000E+00
         0.00000E+00
         0.00000E+00
         0.00000E+00
         0.00000E+00
         0.00000E+00
         0.00000E+00
         0.00000E+00
         0.00000E+00
         0.00000E+00
         0.00000E+00
         0.00000E+00
         0.00000E+00
         0.00000E+00
         0.00000E+00
         0.00000E+00
         0.00000E+00
         0.00000E+00
         0.00000E+00
         0.00000E+00
         0.00000E+00
         0.00000E+00
         0.00000E+00
         0.00000E+00
         0.00000E+00
         0.00000E+00
         0.00000E+00
         0.00000E+00
         0.00000E+00
         0.00000E+00
         0.00000E+00
         0.00000E+00
         0.00000E+00
         0.00000E+00
         0.00000E+00
         0.00000E+00
         0.00000E+00
         0.00000E+00
         0.00000E+00
         0.00000E+00
         0.00000E+00
         0.00000E+00
         0.00000E+00
         0.00000E+00
         0.00000E+00
         0.00000E+00
         0.00000E+00
         0.00000E+00
         0.00000E+00
         0.00000E+00
         0.00000E+00
         0.00000E+00
         0.00000E+00
         0.00000E+00
         0.00000E+00
         0.00000E+00
         0.00000E+00
         0.00000E+00
         0.00000E+00
         0.00000E+00
         0.00000E+00
         0.00000E+00
         0.00000E+00
         0.00000E+00
         0.00000E+00
         0.00000E+00
         0.00000E+00
         0.00000E+00
         0.00000E+00
         0.00000E+00
         0.00000E+00
         0.00000E+00
         0.00000E+00
         0.00000E+00
         0.00000E+00
         0.00000E+00
         0.00000E+00
         0.00000E+00
         0.00000E+00
         0.00000E+00
         0.00000E+00
         0.00000E+00
         0.00000E+00
         0.00000E+00
         0.00000E+00
         0.00000E+00
         0.00000E+00
         0.00000E+00
         0.00000E+00
         0.00000E+00
         0.00000E+00
         0.00000E+00
         0.00000E+00
         0.00000E+00
         0.00000E+00
         0.00000E+00
         0.00000E+00
         0.00000E+00
         0.00000E+00
         0.00000E+00
         0.00000E+00
         0.00000E+00
         0.00000E+00
         0.00000E+00
         0.00000E+00
         0.00000E+00
         0.00000E+00
         0.00000E+00
         0.00000E+00
         0.00000E+00
         0.00000E+00
         0.00000E+00
         0.00000E+00
         0.00000E+00
         0.00000E+00
         0.00000E+00
         0.00000E+00
         0.00000E+00
         0.00000E+00
         0.00000E+00
         0.00000E+00
         0.00000E+00
         0.00000E+00
         0.00000E+00
         0.00000E+00
         0.00000E+00
         0.00000E+00
         0.00000E+00
         0.00000E+00
         0.00000E+00
         0.00000E+00
         0.00000E+00
         0.00000E+00
         0.00000E+00
         0.00000E+00
         0.00000E+00
         0.00000E+00
         0.00000E+00
         0.00000E+00
         0.00000E+00
         0.00000E+00
         0.00000E+00
         0.00000E+00
         0.00000E+00
         0.00000E+00
         0.00000E+00
         0.00000E+00
         0.00000E+00
         0.00000E+00
         0.00000E+00
         0.00000E+00
         0.00000E+00
         0.00000E+00
         0.00000E+00
         0.00000E+00
         0.00000E+00
         0.00000E+00
         0.00000E+00
         0.00000E+00
         0.00000E+00
         0.00000E+00
         0.00000E+00
         0.00000E+00
         0.00000E+00
         0.00000E+00
         0.00000E+00
         0.00000E+00
         0.00000E+00
         0.00000E+00
         0.00000E+00
         0.00000E+00
         0.00000E+00
         0.00000E+00
         0.00000E+00
         0.00000E+00
         0.00000E+00
         0.00000E+00
         0.00000E+00
         0.00000E+00
         0.00000E+00
         0.00000E+00
         0.00000E+00
         0.00000E+00
         0.00000E+00
         0.00000E+00
         0.00000E+00
         0.00000E+00
         0.00000E+00
         0.00000E+00
         0.00000E+00
         0.00000E+00
         0.00000E+00
         0.00000E+00
         0.00000E+00
         0.00000E+00
         0.00000E+00
         0.00000E+00
         0.00000E+00
         0.00000E+00
         0.00000E+00
         0.00000E+00
         0.00000E+00
         0.00000E+00
         0.00000E+00
         0.00000E+00
         0.00000E+00
         0.00000E+00
         0.00000E+00
         0.00000E+00
         0.00000E+00
         0.00000E+00
         0.00000E+00
         0.00000E+00
         0.00000E+00
         0.00000E+00
         0.00000E+00
         0.00000E+00
         0.00000E+00
         0.00000E+00
         0.00000E+00
         0.00000E+00
         0.00000E+00
         0.00000E+00
         0.00000E+00
         0.00000E+00
         0.00000E+00
         0.00000E+00
         0.00000E+00
         0.00000E+00
         0.00000E+00
         0.00000E+00
         0.00000E+00
         0.00000E+00
         0.00000E+00
         0.00000E+00
         0.00000E+00
         0.00000E+00
         0.00000E+00
         0.00000E+00
         0.00000E+00
         0.00000E+00
         0.00000E+00
         0.00000E+00
         0.00000E+00
         0.00000E+00
         0.00000E+00
         0.00000E+00
         0.00000E+00
         0.00000E+00
         0.00000E+00
         0.00000E+00
         0.00000E+00
         0.00000E+00
         0.00000E+00
         0.00000E+00
         0.00000E+00
         0.00000E+00
         0.00000E+00
         0.00000E+00
         0.00000E+00
         0.00000E+00
         0.00000E+00
         0.00000E+00
         0.00000E+00
         0.00000E+00
         0.00000E+00
         0.00000E+00
         0.00000E+00
         0.00000E+00
         0.00000E+00
         0.00000E+00
         0.00000E+00
         0.00000E+00
         0.00000E+00
         0.00000E+00
         0.00000E+00
         0.00000E+00
         0.00000E+00
         0.00000E+00
         0.00000E+00
         0.00000E+00
         0.00000E+00
         0.00000E+00
         0.00000E+00
         0.00000E+00
         0.00000E+00
         0.00000E+00
         0.00000E+00
         0.00000E+00
         0.00000E+00
         0.00000E+00
         0.00000E+00
         0.00000E+00
         0.00000E+00
         0.00000E+00
         0.00000E+00
         0.00000E+00
         0.00000E+00
         0.00000E+00
         0.00000E+00
         0.00000E+00
         0.00000E+00
         0.00000E+00
         0.00000E+00
         0.00000E+00
         0.00000E+00
         0.00000E+00
         0.00000E+00
         0.00000E+00
         0.00000E+00
         0.00000E+00
         0.00000E+00
         0.00000E+00
         0.00000E+00
         0.00000E+00
         0.00000E+00
         0.00000E+00
         0.00000E+00
         0.00000E+00
         0.00000E+00
         0.00000E+00
         0.00000E+00
         0.00000E+00
         0.00000E+00
         0.00000E+00
         0.00000E+00
         0.00000E+00
         0.00000E+00
         0.00000E+00
         0.00000E+00
         0.00000E+00
         0.00000E+00
         0.00000E+00
         0.00000E+00
         0.00000E+00
         0.00000E+00
         0.00000E+00
         0.00000E+00
         0.00000E+00
         0.00000E+00
         0.00000E+00
         0.00000E+00
         0.00000E+00
         0.00000E+00
         0.00000E+00
         0.00000E+00
         0.00000E+00
         0.00000E+00
         0.00000E+00
         0.00000E+00
         0.00000E+00
         0.00000E+00
         0.00000E+00
         0.00000E+00
         0.00000E+00
         0.00000E+00
         0.00000E+00
         0.00000E+00
         0.00000E+00
         0.00000E+00
         0.00000E+00
         0.00000E+00
         0.00000E+00
         0.00000E+00
         0.00000E+00
         0.00000E+00
         0.00000E+00
         0.00000E+00
         0.00000E+00
         0.00000E+00
         0.00000E+00
         0.00000E+00
         0.00000E+00
         0.00000E+00
         0.00000E+00
         0.00000E+00
         0.00000E+00
         0.00000E+00
         0.00000E+00
         0.00000E+00
         0.00000E+00
         0.00000E+00
         0.00000E+00
         0.00000E+00
         0.00000E+00
         0.00000E+00
         0.00000E+00
         0.00000E+00
         0.00000E+00
         0.00000E+00
         0.00000E+00
         0.00000E+00
         0.00000E+00
         0.00000E+00
         0.00000E+00
         0.00000E+00
         0.00000E+00
         0.00000E+00
         0.00000E+00
         0.00000E+00
         0.00000E+00
         0.00000E+00
         0.00000E+00
         0.00000E+00
         0.00000E+00
         0.00000E+00
         0.00000E+00
         0.00000E+00
         0.00000E+00
         0.00000E+00
         0.00000E+00
         0.00000E+00
         0.00000E+00
         0.00000E+00
         0.00000E+00
         0.00000E+00
         0.00000E+00
         0.00000E+00
         0.00000E+00
         0.00000E+00
         0.00000E+00
         0.00000E+00
         0.00000E+00
         0.00000E+00
         0.00000E+00
         0.00000E+00
         0.00000E+00
         0.00000E+00
         0.00000E+00
         0.00000E+00
         0.00000E+00
         0.00000E+00
         0.00000E+00
         0.00000E+00
         0.00000E+00
         0.00000E+00
         0.00000E+00
         0.00000E+00
         0.00000E+00
         0.00000E+00
         0.00000E+00
         0.00000E+00
         0.00000E+00
         0.00000E+00
         0.00000E+00
         0.00000E+00
         0.00000E+00
         0.00000E+00
         0.00000E+00
         0.00000E+00
         0.00000E+00
         0.00000E+00
         0.00000E+00
         0.00000E+00
         0.00000E+00
         0.00000E+00
         0.00000E+00
         0.00000E+00
         0.00000E+00
         0.00000E+00
         0.00000E+00
         0.00000E+00
         0.00000E+00
         0.00000E+00
         0.00000E+00
         0.00000E+00
         0.00000E+00
         0.00000E+00
         0.00000E+00
         0.00000E+00
         0.00000E+00
         0.00000E+00
         0.00000E+00
         0.00000E+00
         0.00000E+00
         0.00000E+00
         0.00000E+00
         0.00000E+00
         0.00000E+00
         0.00000E+00
         0.00000E+00
         0.00000E+00
         0.00000E+00
         0.00000E+00
         0.00000E+00
         0.00000E+00
         0.00000E+00
         0.00000E+00
         0.00000E+00
         0.00000E+00
         0.00000E+00
         0.00000E+00
         0.00000E+00
         0.00000E+00
         0.00000E+00
         0.00000E+00
         0.00000E+00
         0.00000E+00
         0.00000E+00
         0.00000E+00
         0.00000E+00
         0.00000E+00
         0.00000E+00
         0.00000E+00
         0.00000E+00
         0.00000E+00
         0.00000E+00
         0.00000E+00
         0.00000E+00
         0.00000E+00
         0.00000E+00
         0.00000E+00
         0.00000E+00
         0.00000E+00
         0.00000E+00
         0.00000E+00
         0.00000E+00
         0.00000E+00
         0.00000E+00
         0.00000E+00
         0.00000E+00
         0.00000E+00
         0.00000E+00
         0.00000E+00
         0.00000E+00
         0.00000E+00
         0.00000E+00
         0.00000E+00
         0.00000E+00
         0.00000E+00
         0.00000E+00
         0.00000E+00
         0.00000E+00
         0.00000E+00
         0.00000E+00
         0.00000E+00
         0.00000E+00
         0.00000E+00
         0.00000E+00
         0.00000E+00
         0.00000E+00
         0.00000E+00
         0.00000E+00
         0.00000E+00
         0.00000E+00
         0.00000E+00
         0.00000E+00
         0.00000E+00
         0.00000E+00
         0.00000E+00
         0.00000E+00
         0.00000E+00
         0.00000E+00
         0.00000E+00
         0.00000E+00
         0.00000E+00
         0.00000E+00
         0.00000E+00
         0.00000E+00
         0.00000E+00
         0.00000E+00
         0.00000E+00
         0.00000E+00
         0.00000E+00
         0.00000E+00
         0.00000E+00
         0.00000E+00
         0.00000E+00
         0.00000E+00
         0.00000E+00
         0.00000E+00
         0.00000E+00
         0.00000E+00
         0.00000E+00
         0.00000E+00
         0.00000E+00
         0.00000E+00
         0.00000E+00
         0.00000E+00
         0.00000E+00
         0.00000E+00
         0.00000E+00
         0.00000E+00
         0.00000E+00
         0.00000E+00
         0.00000E+00
         0.00000E+00
         0.00000E+00
         0.00000E+00
         0.00000E+00
         0.00000E+00
         0.00000E+00
         0.00000E+00
         0.00000E+00
         0.00000E+00
         0.00000E+00
         0.00000E+00
         0.00000E+00
         0.00000E+00
         0.00000E+00
         0.00000E+00
         0.00000E+00
         0.00000E+00
         0.00000E+00
         0.00000E+00
         0.00000E+00
         0.00000E+00
         0.00000E+00
         0.00000E+00
         0.00000E+00
         0.00000E+00
         0.00000E+00
         0.00000E+00
         0.00000E+00
         0.00000E+00
         0.00000E+00
         0.00000E+00
         0.00000E+00
         0.00000E+00
         0.00000E+00
         0.00000E+00
         0.00000E+00
         0.00000E+00
         0.00000E+00
         0.00000E+00
         0.00000E+00
         0.00000E+00
         0.00000E+00
         0.00000E+00
         0.00000E+00
         0.00000E+00
         0.00000E+00
         0.00000E+00
         0.00000E+00
         0.00000E+00
         0.00000E+00
         0.00000E+00
         0.00000E+00
         0.00000E+00
         0.00000E+00
         0.00000E+00
         0.00000E+00
         0.00000E+00
         0.00000E+00
         0.00000E+00
         0.00000E+00
         0.00000E+00
         0.00000E+00
         0.00000E+00
         0.00000E+00
         0.00000E+00
         0.00000E+00
         0.00000E+00
         0.00000E+00
         0.00000E+00
         0.00000E+00
         0.00000E+00
         0.00000E+00
         0.00000E+00
         0.00000E+00
         0.00000E+00
         0.00000E+00
         0.00000E+00
         0.00000E+00
         0.00000E+00
         0.00000E+00
         0.00000E+00
         0.00000E+00
         0.00000E+00
         0.00000E+00
         0.00000E+00
         0.00000E+00
         0.00000E+00
         0.00000E+00
         0.00000E+00
         0.00000E+00
         0.00000E+00
         0.00000E+00
         0.00000E+00
         0.00000E+00
         0.00000E+00
         0.00000E+00
         0.00000E+00
         0.00000E+00
         0.00000E+00
         0.00000E+00
         0.00000E+00
         0.00000E+00
         0.00000E+00
         0.00000E+00
         0.00000E+00
         0.00000E+00
         0.00000E+00
         0.00000E+00
         0.00000E+00
         0.00000E+00
         0.00000E+00
         0.00000E+00
         0.00000E+00
         0.00000E+00
         0.00000E+00
         0.00000E+00
         0.00000E+00
         0.00000E+00
         0.00000E+00
         0.00000E+00
         0.00000E+00
         0.00000E+00
         0.00000E+00
         0.00000E+00
         0.00000E+00
         0.00000E+00
         0.00000E+00
         0.00000E+00
         0.00000E+00
         0.00000E+00
         0.00000E+00
         0.00000E+00
         0.00000E+00
         0.00000E+00
         0.00000E+00
         0.00000E+00
         0.00000E+00
         0.00000E+00
         0.00000E+00
         0.00000E+00
         0.00000E+00
         0.00000E+00
         0.00000E+00
         0.00000E+00
         0.00000E+00
         0.00000E+00
         0.00000E+00
         0.00000E+00
         0.00000E+00
         0.00000E+00
         0.00000E+00
         0.00000E+00
         0.00000E+00
         0.00000E+00
         0.00000E+00
         0.00000E+00
         0.00000E+00
         0.00000E+00
         0.00000E+00
         0.00000E+00
         0.00000E+00
         0.00000E+00
         0.00000E+00
         0.00000E+00
         0.00000E+00
         0.00000E+00
         0.00000E+00
         0.00000E+00
         0.00000E+00
         0.00000E+00
         0.00000E+00
         0.00000E+00
         0.00000E+00
         0.00000E+00
         0.00000E+00
         0.00000E+00
         0.00000E+00
         0.00000E+00
         0.00000E+00
         0.00000E+00
         0.00000E+00
         0.00000E+00
         0.00000E+00
         0.00000E+00
         0.00000E+00
         0.00000E+00
         0.00000E+00
         0.00000E+00
         0.00000E+00
         0.00000E+00
         0.00000E+00
         0.00000E+00
         0.00000E+00
         0.00000E+00
         0.00000E+00
         0.00000E+00
         0.00000E+00
         0.00000E+00
         0.00000E+00
         0.00000E+00
         0.00000E+00
         0.00000E+00
         0.00000E+00
         0.00000E+00
         0.00000E+00
         0.00000E+00
         0.00000E+00
         0.00000E+00
         0.00000E+00
         0.00000E+00
         0.00000E+00
         0.00000E+00
         0.00000E+00
         0.00000E+00
         0.00000E+00
         0.00000E+00
         0.00000E+00
         0.00000E+00
         0.00000E+00
         0.00000E+00
         0.00000E+00
         0.00000E+00
         0.00000E+00
         0.00000E+00
         0.00000E+00
         0.00000E+00
         0.00000E+00
         0.00000E+00
         0.00000E+00
         0.00000E+00
         0.00000E+00
         0.00000E+00
         0.00000E+00
         0.00000E+00
         0.00000E+00
         0.00000E+00
         0.00000E+00
         0.00000E+00
         0.00000E+00
         0.00000E+00
         0.00000E+00
         0.00000E+00
         0.00000E+00
         0.00000E+00
         0.00000E+00
         0.00000E+00
         0.00000E+00
         0.00000E+00
         0.00000E+00
         0.00000E+00
         0.00000E+00
         0.00000E+00
         0.00000E+00
         0.00000E+00
         0.00000E+00
         0.00000E+00
         0.00000E+00
         0.00000E+00
         0.00000E+00
         0.00000E+00
         0.00000E+00
         0.00000E+00
         0.00000E+00
         0.00000E+00
         0.00000E+00
         0.00000E+00
         0.00000E+00
         0.00000E+00
         0.00000E+00
         0.00000E+00
         0.00000E+00
         0.00000E+00
         0.00000E+00
         0.00000E+00
         0.00000E+00
         0.00000E+00
         0.00000E+00
         0.00000E+00
         0.00000E+00
         0.00000E+00
         0.00000E+00
         0.00000E+00
         0.00000E+00
         0.00000E+00
         0.00000E+00
         0.00000E+00
         0.00000E+00
         0.00000E+00
         0.00000E+00
         0.00000E+00
         0.00000E+00
         0.00000E+00
         0.00000E+00
         0.00000E+00
         0.00000E+00
         0.00000E+00
         0.00000E+00
         0.00000E+00
         0.00000E+00
         0.00000E+00
         0.00000E+00
         0.00000E+00
         0.00000E+00
         0.00000E+00
         0.00000E+00
         0.00000E+00
         0.00000E+00
         0.00000E+00
         0.00000E+00
         0.00000E+00
         0.00000E+00
         0.00000E+00
         0.00000E+00
         0.00000E+00
         0.00000E+00
         0.00000E+00
         0.00000E+00
         0.00000E+00
         0.00000E+00
         0.00000E+00
         0.00000E+00
         0.00000E+00
         0.00000E+00
         0.00000E+00
         0.00000E+00
         0.00000E+00
         0.00000E+00
         0.00000E+00
         0.00000E+00
         0.00000E+00
         0.00000E+00
         0.00000E+00
         0.00000E+00
         0.00000E+00
         0.00000E+00
         0.00000E+00
         0.00000E+00
         0.00000E+00
         0.00000E+00
         0.00000E+00
         0.00000E+00
         0.00000E+00
         0.00000E+00
         0.00000E+00
         0.00000E+00
         0.00000E+00
         0.00000E+00
         0.00000E+00
         0.00000E+00
         0.00000E+00
         0.00000E+00
         0.00000E+00
         0.00000E+00
         0.00000E+00
         0.00000E+00
         0.00000E+00
         0.00000E+00
         0.00000E+00
         0.00000E+00
         0.00000E+00
         0.00000E+00
         0.00000E+00
         0.00000E+00
         0.00000E+00
         0.00000E+00
         0.00000E+00
         0.00000E+00
         0.00000E+00
         0.00000E+00
         0.00000E+00
         0.00000E+00
         0.00000E+00
         0.00000E+00
         0.00000E+00
         0.00000E+00
         0.00000E+00
         0.00000E+00
         0.00000E+00
         0.00000E+00
         0.00000E+00
         0.00000E+00
         0.00000E+00
         0.00000E+00
         0.00000E+00
         0.00000E+00
         0.00000E+00
         0.00000E+00
         0.00000E+00
         0.00000E+00
         0.00000E+00
         0.00000E+00
         0.00000E+00
         0.00000E+00
         0.00000E+00
         0.00000E+00
         0.00000E+00
         0.00000E+00
         0.00000E+00
         0.00000E+00
         0.00000E+00
         0.00000E+00
         0.00000E+00
         0.00000E+00
         0.00000E+00
         0.00000E+00
         0.00000E+00
         0.00000E+00
         0.00000E+00
         0.00000E+00
         0.00000E+00
         0.00000E+00
         0.00000E+00
         0.00000E+00
         0.00000E+00
         0.00000E+00
         0.00000E+00
         0.00000E+00
         0.00000E+00
         0.00000E+00
         0.00000E+00
         0.00000E+00
         0.00000E+00
         0.00000E+00
         0.00000E+00
         0.00000E+00
         0.00000E+00
         0.00000E+00
         0.00000E+00
         0.00000E+00
         0.00000E+00
         0.00000E+00
         0.00000E+00
         0.00000E+00
         0.00000E+00
         0.00000E+00
         0.00000E+00
         0.00000E+00
         0.00000E+00
         0.00000E+00
         0.00000E+00
         0.00000E+00
         0.00000E+00
         0.00000E+00
         0.00000E+00
         0.00000E+00
         0.00000E+00
         0.00000E+00
         0.00000E+00
         0.00000E+00
         0.00000E+00
         0.00000E+00
         0.00000E+00
         0.00000E+00
         0.00000E+00
         0.00000E+00
         0.00000E+00
         0.00000E+00
         0.00000E+00
         0.00000E+00
         0.00000E+00
         0.00000E+00
         0.00000E+00
         0.00000E+00
         0.00000E+00
         0.00000E+00
         0.00000E+00
         0.00000E+00
         0.00000E+00
         0.00000E+00
         0.00000E+00
         0.00000E+00
         0.00000E+00
         0.00000E+00
         0.00000E+00
         0.00000E+00
         0.00000E+00
         0.00000E+00
         0.00000E+00
         0.00000E+00
         0.00000E+00
         0.00000E+00
         0.00000E+00
         0.00000E+00
         0.00000E+00
         0.00000E+00
         0.00000E+00
         0.00000E+00
         0.00000E+00
         0.00000E+00
         0.00000E+00
         0.00000E+00
         0.00000E+00
         0.00000E+00
         0.00000E+00
         0.00000E+00
         0.00000E+00
         0.00000E+00
         0.00000E+00
         0.00000E+00
         0.00000E+00
         0.00000E+00
         0.00000E+00
         0.00000E+00
         0.00000E+00
         0.00000E+00
         0.00000E+00
         0.00000E+00
         0.00000E+00
         0.00000E+00
         0.00000E+00
         0.00000E+00
         0.00000E+00
         0.00000E+00
         0.00000E+00
         0.00000E+00
         0.00000E+00
         0.00000E+00
         0.00000E+00
         0.00000E+00
         0.00000E+00
         0.00000E+00
         0.00000E+00
         0.00000E+00
         0.00000E+00
         0.00000E+00
         0.00000E+00
         0.00000E+00
         0.00000E+00
         0.00000E+00
         0.00000E+00
         0.00000E+00
         0.00000E+00
         0.00000E+00
         0.00000E+00
         0.00000E+00
         0.00000E+00
         0.00000E+00
         0.00000E+00
         0.00000E+00
         0.00000E+00
         0.00000E+00
         0.00000E+00
         0.00000E+00
         0.00000E+00
         0.00000E+00
         0.00000E+00
         0.00000E+00
         0.00000E+00
         0.00000E+00
         0.00000E+00
         0.00000E+00
         0.00000E+00
         0.00000E+00
         0.00000E+00
         0.00000E+00
         0.00000E+00
         0.00000E+00
         0.00000E+00
         0.00000E+00
         0.00000E+00
         0.00000E+00
         0.00000E+00
         0.00000E+00
         0.00000E+00
         0.00000E+00
         0.00000E+00
         0.00000E+00
         0.00000E+00
         0.00000E+00
         0.00000E+00
         0.00000E+00
         0.00000E+00
         0.00000E+00
         0.00000E+00
         0.00000E+00
         0.00000E+00
         0.00000E+00
         0.00000E+00
         0.00000E+00
         0.00000E+00
         0.00000E+00
         0.00000E+00
         0.00000E+00
         0.00000E+00
         0.00000E+00
         0.00000E+00
         0.00000E+00
         0.00000E+00
         0.00000E+00
         0.00000E+00
         0.00000E+00
         0.00000E+00
         0.00000E+00
         0.00000E+00
         0.00000E+00
         0.00000E+00
         0.00000E+00
         0.00000E+00
         0.00000E+00
         0.00000E+00
         0.00000E+00
         0.00000E+00
         0.00000E+00
         0.00000E+00
         0.00000E+00
         0.00000E+00
         0.00000E+00
         0.00000E+00
         0.00000E+00
         0.00000E+00
         0.00000E+00
         0.00000E+00
         0.00000E+00
         0.00000E+00
         0.00000E+00
         0.00000E+00
         0.00000E+00
         0.00000E+00
         0.00000E+00
         0.00000E+00
         0.00000E+00
         0.00000E+00
         0.00000E+00
         0.00000E+00
         0.00000E+00
         0.00000E+00
         0.00000E+00
         0.00000E+00
         0.00000E+00
         0.00000E+00
         0.00000E+00
         0.00000E+00
         0.00000E+00
         0.00000E+00
         0.00000E+00
         0.00000E+00
         0.00000E+00
         0.00000E+00
         0.00000E+00
         0.00000E+00
         0.00000E+00
         0.00000E+00
         0.00000E+00
         0.00000E+00
         0.00000E+00
         0.00000E+00
         0.00000E+00
         0.00000E+00
         0.00000E+00
         0.00000E+00
         0.00000E+00
         0.00000E+00
         0.00000E+00
         0.00000E+00
         0.00000E+00
         0.00000E+00
         0.00000E+00
         0.00000E+00
         0.00000E+00
         0.00000E+00
         0.00000E+00
         0.00000E+00
         0.00000E+00
         0.00000E+00
         0.00000E+00
         0.00000E+00
         0.00000E+00
         0.00000E+00
         0.00000E+00
         0.00000E+00
         0.00000E+00
         0.00000E+00
         0.00000E+00
         0.00000E+00
         0.00000E+00
         0.00000E+00
         0.00000E+00
         0.00000E+00
         0.00000E+00
         0.00000E+00
         0.00000E+00
         0.00000E+00
         0.00000E+00
         0.00000E+00
         0.00000E+00
         0.00000E+00
         0.00000E+00
         0.00000E+00
         0.00000E+00
         0.00000E+00
         0.00000E+00
         0.00000E+00
         0.00000E+00
         0.00000E+00
         0.00000E+00
         0.00000E+00
         0.00000E+00
         0.00000E+00
         0.00000E+00
         0.00000E+00
         0.00000E+00
         0.00000E+00
         0.00000E+00
         0.00000E+00
         0.00000E+00
         0.00000E+00
         0.00000E+00
         0.00000E+00
         0.00000E+00
         0.00000E+00
         0.00000E+00
         0.00000E+00
         0.00000E+00
         0.00000E+00
         0.00000E+00
         0.00000E+00
         0.00000E+00
         0.00000E+00
         0.00000E+00
         0.00000E+00
         0.00000E+00
         0.00000E+00
         0.00000E+00
         0.00000E+00
         0.00000E+00
         0.00000E+00
         0.00000E+00
         0.00000E+00
         0.00000E+00
         0.00000E+00
         0.00000E+00
         0.00000E+00
         0.00000E+00
         0.00000E+00
         0.00000E+00
         0.00000E+00
         0.00000E+00
         0.00000E+00
         0.00000E+00
         0.00000E+00
         0.00000E+00
         0.00000E+00
         0.00000E+00
         0.00000E+00
         0.00000E+00
         0.00000E+00
         0.00000E+00
         0.00000E+00
         0.00000E+00
         0.00000E+00
         0.00000E+00
         0.00000E+00
         0.00000E+00
         0.00000E+00
         0.00000E+00
         0.00000E+00
         0.00000E+00
         0.00000E+00
         0.00000E+00
         0.00000E+00
         0.00000E+00
         0.00000E+00
         0.00000E+00
         0.00000E+00
         0.00000E+00
         0.00000E+00
         0.00000E+00
         0.00000E+00
         0.00000E+00
         0.00000E+00
         0.00000E+00
         0.00000E+00
         0.00000E+00
         0.00000E+00
         0.00000E+00
         0.00000E+00
         0.00000E+00
         0.00000E+00
         0.00000E+00
         0.00000E+00
         0.00000E+00
         0.00000E+00
         0.00000E+00
         0.00000E+00
         0.00000E+00
         0.00000E+00
         0.00000E+00
         0.00000E+00
         0.00000E+00
         0.00000E+00
         0.00000E+00
         0.00000E+00
         0.00000E+00
         0.00000E+00
         0.00000E+00
         0.00000E+00
         0.00000E+00
         0.00000E+00
         0.00000E+00
         0.00000E+00
         0.00000E+00
         0.00000E+00
         0.00000E+00
         0.00000E+00
         0.00000E+00
         0.00000E+00
         0.00000E+00
         0.00000E+00
         0.00000E+00
         0.00000E+00
         0.00000E+00
         0.00000E+00
         0.00000E+00
         0.00000E+00
         0.00000E+00
         0.00000E+00
         0.00000E+00
         0.00000E+00
         0.00000E+00
         0.00000E+00
         0.00000E+00
         0.00000E+00
         0.00000E+00
         0.00000E+00
         0.00000E+00
         0.00000E+00
         0.00000E+00
         0.00000E+00
         0.00000E+00
         0.00000E+00
         0.00000E+00
         0.00000E+00
         0.00000E+00
         0.00000E+00
         0.00000E+00
         0.00000E+00
         0.00000E+00
         0.00000E+00
         0.00000E+00
         0.00000E+00
         0.00000E+00
         0.00000E+00
         0.00000E+00
         0.00000E+00
         0.00000E+00
         0.00000E+00
         0.00000E+00
         0.00000E+00
         0.00000E+00
         0.00000E+00
         0.00000E+00
         0.00000E+00
         0.00000E+00
         0.00000E+00
         0.00000E+00
         0.00000E+00
         0.00000E+00
         0.00000E+00
         0.00000E+00
         0.00000E+00
         0.00000E+00
         0.00000E+00
         0.00000E+00
         0.00000E+00
         0.00000E+00
         0.00000E+00
         0.00000E+00
         0.00000E+00
         0.00000E+00
         0.00000E+00
         0.00000E+00
         0.00000E+00
         0.00000E+00
         0.00000E+00
         0.00000E+00
         0.00000E+00
         0.00000E+00
         0.00000E+00
         0.00000E+00
         0.00000E+00
         0.00000E+00
         0.00000E+00
         0.00000E+00
         0.00000E+00
         0.00000E+00
         0.00000E+00
         0.00000E+00
         0.00000E+00
         0.00000E+00
         0.00000E+00
         0.00000E+00
         0.00000E+00
         0.00000E+00
         0.00000E+00
         0.00000E+00
         0.00000E+00
         0.00000E+00
         0.00000E+00
         0.00000E+00
         0.00000E+00
         0.00000E+00
         0.00000E+00
         0.00000E+00
         0.00000E+00
         0.00000E+00
         0.00000E+00
         0.00000E+00
         0.00000E+00
         0.00000E+00
         0.00000E+00
         0.00000E+00
         0.00000E+00
         0.00000E+00
         0.00000E+00
         0.00000E+00
         0.00000E+00
         0.00000E+00
         0.00000E+00
         0.00000E+00
         0.00000E+00
         0.00000E+00
         0.00000E+00
         0.00000E+00
         0.00000E+00
         0.00000E+00
         0.00000E+00
         0.00000E+00
         0.00000E+00
         0.00000E+00
         0.00000E+00
         0.00000E+00
         0.00000E+00
         0.00000E+00
         0.00000E+00
         0.00000E+00
         0.00000E+00
         0.00000E+00
         0.00000E+00
         0.00000E+00
         0.00000E+00
         0.00000E+00
         0.00000E+00
         0.00000E+00
         0.00000E+00
         0.00000E+00
         0.00000E+00
         0.00000E+00
         0.00000E+00
         0.00000E+00
         0.00000E+00
         0.00000E+00
         0.00000E+00
         0.00000E+00
         0.00000E+00
         0.00000E+00
         0.00000E+00
         0.00000E+00
         0.00000E+00
         0.00000E+00
         0.00000E+00
         0.00000E+00
         0.00000E+00
         0.00000E+00
         0.00000E+00
         0.00000E+00
         0.00000E+00
         0.00000E+00
         0.00000E+00
         0.00000E+00
         0.00000E+00
         0.00000E+00
         0.00000E+00
         0.00000E+00
         0.00000E+00
         0.00000E+00
         0.00000E+00
         0.00000E+00
         0.00000E+00
         0.00000E+00
         0.00000E+00
         0.00000E+00
         0.00000E+00
         0.00000E+00
         0.00000E+00
         0.00000E+00
         0.00000E+00
         0.00000E+00
         0.00000E+00
         0.00000E+00
         0.00000E+00
         0.00000E+00
         0.00000E+00
         0.00000E+00
         0.00000E+00
         0.00000E+00
         0.00000E+00
         0.00000E+00
         0.00000E+00
         0.00000E+00
         0.00000E+00
         0.00000E+00
         0.00000E+00
         0.00000E+00
         0.00000E+00
         0.00000E+00
         0.00000E+00
         0.00000E+00
         0.00000E+00
         0.00000E+00
         0.00000E+00
         0.00000E+00
         0.00000E+00
         0.00000E+00
         0.00000E+00
         0.00000E+00
         0.00000E+00
         0.00000E+00
         0.00000E+00
         0.00000E+00
         0.00000E+00
         0.00000E+00
         0.00000E+00
         0.00000E+00
         0.00000E+00
         0.00000E+00
         0.00000E+00
         0.00000E+00
         0.00000E+00
         0.00000E+00
         0.00000E+00
         0.00000E+00
         0.00000E+00
         0.00000E+00
         0.00000E+00
         0.00000E+00
         0.00000E+00
         0.00000E+00
         0.00000E+00
         0.00000E+00
         0.00000E+00
         0.00000E+00
         0.00000E+00
         0.00000E+00
         0.00000E+00
         0.00000E+00
         0.00000E+00
         0.00000E+00
         0.00000E+00
         0.00000E+00
         0.00000E+00
         0.00000E+00
         0.00000E+00
         0.00000E+00
         0.00000E+00
         0.00000E+00
         0.00000E+00
         0.00000E+00
         0.00000E+00
         0.00000E+00
         0.00000E+00
         0.00000E+00
         0.00000E+00
         0.00000E+00
         0.00000E+00
         0.00000E+00
         0.00000E+00
         0.00000E+00
         0.00000E+00
         0.00000E+00
         0.00000E+00
         0.00000E+00
         0.00000E+00
         0.00000E+00
         0.00000E+00
         0.00000E+00
         0.00000E+00
         0.00000E+00
         0.00000E+00
         0.00000E+00
         0.00000E+00
         0.00000E+00
         0.00000E+00
         0.00000E+00
         0.00000E+00
         0.00000E+00
         0.00000E+00
         0.00000E+00
         0.00000E+00
         0.00000E+00
         0.00000E+00
         0.00000E+00
         0.00000E+00
         0.00000E+00
         0.00000E+00
         0.00000E+00
         0.00000E+00
         0.00000E+00
         0.00000E+00
         0.00000E+00
         0.00000E+00
         0.00000E+00
         0.00000E+00
         0.00000E+00
         0.00000E+00
         0.00000E+00
         0.00000E+00
         0.00000E+00
         0.00000E+00
         0.00000E+00
         0.00000E+00
         0.00000E+00
         0.00000E+00
         0.00000E+00
         0.00000E+00
         0.00000E+00
         0.00000E+00
         0.00000E+00
         0.00000E+00
         0.00000E+00
         0.00000E+00
         0.00000E+00
         0.00000E+00
         0.00000E+00
         0.00000E+00
         0.00000E+00
         0.00000E+00
         0.00000E+00
         0.00000E+00
         0.00000E+00
         0.00000E+00
         0.00000E+00
         0.00000E+00
         0.00000E+00
         0.00000E+00
         0.00000E+00
         0.00000E+00
         0.00000E+00
         0.00000E+00
         0.00000E+00
         0.00000E+00
         0.00000E+00
         0.00000E+00
         0.00000E+00
         0.00000E+00
         0.00000E+00
         0.00000E+00
         0.00000E+00
         0.00000E+00
         0.00000E+00
         0.00000E+00
         0.00000E+00
         0.00000E+00
         0.00000E+00
         0.00000E+00
         0.00000E+00
         0.00000E+00
         0.00000E+00
         0.00000E+00
         0.00000E+00
         0.00000E+00
         0.00000E+00
         0.00000E+00
         0.00000E+00
         0.00000E+00
         0.00000E+00
         0.00000E+00
         0.00000E+00
         0.00000E+00
         0.00000E+00
         0.00000E+00
         0.00000E+00
         0.00000E+00
  
SCALARS                      stress_xx  double 1
LOOKUP_TABLE default
        -0.52341E+10
        -0.58274E+10
        -0.54512E+10
        -0.47748E+10
        -0.49187E+02
        -0.55156E+02
        -0.52814E+02
        -0.47979E+02
        -0.58481E+10
        -0.56474E+10
        -0.49599E+02
        -0.47999E+02
        -0.66828E+10
        -0.67143E+10
        -0.58934E+02
        -0.55413E+02
        -0.48741E+10
        -0.66682E+10
        -0.43546E+02
        -0.48299E+02
        -0.73224E+10
        -0.78282E+10
        -0.70225E+10
        -0.58410E+02
        -0.51010E+02
        -0.52674E+02
        -0.78087E+10
        -0.85442E+10
        -0.56037E+02
        -0.47257E+02
        -0.49067E+10
        -0.56895E+10
        -0.41443E+10
        -0.47819E+02
        -0.44455E+02
        -0.43222E+02
        -0.53601E+10
        -0.63541E+10
        -0.50590E+02
        -0.46164E+02
        -0.57544E+10
        -0.65201E+10
        -0.43725E+02
        -0.38709E+02
        -0.51035E+10
        -0.48140E+10
        -0.47916E+02
        -0.53539E+02
        -0.71314E+10
        -0.46810E+02
        -0.48706E+10
        -0.55004E+02
        -0.80211E+10
        -0.49433E+02
        -0.82524E+10
        -0.47416E+02
        -0.82488E+10
        -0.74250E+10
        -0.48311E+02
        -0.47050E+02
        -0.49228E+10
        -0.52241E+10
        -0.48444E+02
        -0.54766E+02
        -0.47342E+10
        -0.46745E+02
        -0.50927E+10
        -0.51017E+02
        -0.60326E+10
        -0.61262E+10
        -0.49109E+02
        -0.51457E+02
        -0.63377E+10
        -0.51889E+02
        -0.88047E+10
        -0.40996E+02
        -0.89330E+10
        -0.39793E+02
        -0.88692E+10
        -0.41958E+02
        -0.85148E+10
        -0.81454E+10
        -0.39976E+02
        -0.41677E+02
        -0.73984E+10
        -0.38817E+02
        -0.51188E+10
        -0.50903E+02
        -0.54766E+10
        -0.52098E+02
        -0.57695E+10
        -0.59301E+10
        -0.50031E+02
        -0.50615E+02
        -0.57321E+10
        -0.45973E+02
        -0.55913E+10
        -0.45317E+02
        -0.57186E+10
        -0.48512E+02
        -0.57636E+10
        -0.56347E+10
        -0.47574E+02
        -0.48969E+02
        -0.64684E+10
        -0.61309E+10
        -0.36936E+02
        -0.34741E+02
        -0.65324E+10
        -0.35269E+02
        -0.61428E+10
        -0.33817E+02
        -0.65273E+10
        -0.33346E+02
        -0.73750E+10
        -0.31512E+02
        -0.81924E+10
        -0.27995E+02
        -0.86794E+10
        -0.25208E+02
        -0.87290E+10
        -0.25033E+02
        -0.87136E+10
        -0.27147E+02
        -0.81852E+10
        -0.28531E+02
        -0.71927E+10
        -0.26052E+02
        -0.60949E+10
        -0.23483E+02
        -0.54485E+10
        -0.23456E+02
        -0.48072E+10
        -0.26218E+02
        -0.43822E+10
        -0.29895E+02
        -0.43979E+10
        -0.32116E+02
        -0.54282E+10
        -0.34685E+02
        -0.61426E+10
        -0.37160E+02
        -0.63874E+10
        -0.34041E+02
        -0.60054E+10
        -0.29863E+02
        -0.58056E+10
        -0.29771E+02
        -0.61403E+10
        -0.32573E+02
        -0.61351E+10
        -0.34725E+02
        -0.58828E+10
        -0.32954E+02
        -0.55535E+10
        -0.31858E+02
        -0.18959E+11
        -0.19251E+11
        -0.19212E+11
        -0.18832E+11
        -0.19527E+11
        -0.19179E+11
        -0.19609E+11
        -0.19386E+11
        -0.18893E+11
        -0.19202E+11
        -0.19844E+11
        -0.19915E+11
        -0.19725E+11
        -0.19712E+11
        -0.19835E+11
        -0.18850E+11
        -0.18922E+11
        -0.18721E+11
        -0.19282E+11
        -0.19181E+11
        -0.19325E+11
        -0.19230E+11
        -0.19405E+11
        -0.19360E+11
        -0.19190E+11
        -0.19202E+11
        -0.19491E+11
        -0.19465E+11
        -0.19676E+11
        -0.19356E+11
        -0.18886E+11
        -0.19255E+11
        -0.18888E+11
        -0.19132E+11
        -0.19964E+11
        -0.19703E+11
        -0.19577E+11
        -0.19725E+11
        -0.19744E+11
        -0.19982E+11
        -0.20153E+11
        -0.19733E+11
        -0.19319E+11
        -0.19376E+11
        -0.19589E+11
        -0.19955E+11
        -0.19643E+11
        -0.19301E+11
        -0.19325E+11
        -0.19590E+11
        -0.19856E+11
        -0.19497E+11
        -0.20559E+11
        -0.20255E+11
        -0.20306E+11
        -0.20234E+11
        -0.20253E+11
        -0.20417E+11
        -0.20584E+11
        -0.20638E+11
        -0.20615E+11
        -0.20631E+11
        -0.20701E+11
        -0.20269E+11
        -0.20103E+11
        -0.20038E+11
        -0.19927E+11
        -0.19843E+11
        -0.19847E+11
        -0.19990E+11
        -0.20458E+11
        -0.20348E+11
        -0.20188E+11
        -0.20189E+11
        -0.20218E+11
        -0.20371E+11
        -0.20144E+11
        -0.20059E+11
         0.25959E+06
         0.13610E+06
         0.17597E+06
         0.27476E+06
        -0.26619E+05
         0.18075E+06
        -0.10198E+06
        -0.25783E+06
         0.38433E+06
        -0.27432E+06
        -0.31449E+06
        -0.21934E+05
        -0.16324E+06
        -0.89963E+06
        -0.36469E+06
        -0.78612E+05
         0.15911E+06
         0.26189E+06
         0.13994E+04
         0.15181E+05
        -0.66686E+06
        -0.48284E+06
        -0.78623E+06
        -0.11421E+06
        -0.28894E+06
        -0.36491E+05
        -0.11292E+07
        -0.73303E+06
        -0.39678E+06
        -0.27845E+06
        -0.15232E+05
        -0.51924E+05
         0.23907E+06
         0.40514E+06
        -0.58208E+06
        -0.22956E+06
        -0.23279E+06
        -0.46979E+06
        -0.23449E+06
        -0.17398E+06
        -0.52009E+06
        -0.72789E+06
        -0.65371E+06
        -0.58476E+06
        -0.40685E+06
        -0.16235E+06
        -0.10474E+06
        -0.10204E+06
         0.16019E+06
         0.25719E+06
        -0.82878E+05
         0.27652E+04
        -0.15365E+07
        -0.81907E+06
        -0.98851E+06
        -0.20771E+06
         0.49826E+06
         0.10186E+07
         0.86428E+06
         0.91182E+06
         0.69659E+06
         0.25444E+06
        -0.36861E+06
        -0.80199E+06
        -0.10074E+07
        -0.72304E+06
        -0.12204E+07
        -0.14911E+07
        -0.12112E+07
        -0.10086E+07
        -0.44319E+06
         0.17764E+06
         0.14231E+06
        -0.28393E+05
        -0.40509E+06
        -0.84030E+06
        -0.90284E+06
        -0.63680E+06
         0.24209E+06
         0.11811E+06
         0.15817E+06
         0.25871E+06
        -0.47190E+05
         0.16185E+06
        -0.12183E+06
        -0.27738E+06
         0.36584E+06
        -0.29599E+06
        -0.33644E+06
        -0.53166E+05
        -0.18913E+06
        -0.92034E+06
        -0.39565E+06
        -0.97801E+05
         0.13822E+06
         0.24612E+06
        -0.19635E+05
        -0.67520E+04
        -0.69241E+06
        -0.50748E+06
        -0.81213E+06
        -0.13568E+06
        -0.31292E+06
        -0.56969E+05
        -0.11505E+07
        -0.75503E+06
        -0.42080E+06
        -0.30315E+06
        -0.33741E+05
        -0.71281E+05
         0.22300E+06
         0.38884E+06
        -0.60789E+06
        -0.24963E+06
        -0.25328E+06
        -0.50053E+06
        -0.26155E+06
        -0.20017E+06
        -0.55039E+06
        -0.75707E+06
        -0.68117E+06
        -0.60860E+06
        -0.42855E+06
        -0.18854E+06
        -0.12623E+06
        -0.12256E+06
         0.14154E+06
         0.23851E+06
        -0.10606E+06
        -0.15849E+05
        -0.15910E+07
        -0.87231E+06
        -0.10410E+07
        -0.25805E+06
         0.44496E+06
         0.95902E+06
         0.80484E+06
         0.85190E+06
         0.63624E+06
         0.19256E+06
        -0.43020E+06
        -0.85888E+06
        -0.10545E+07
        -0.76692E+06
        -0.12667E+07
        -0.15406E+07
        -0.12618E+07
        -0.10618E+07
        -0.49638E+06
         0.12126E+06
         0.89408E+05
        -0.76100E+05
        -0.45288E+06
        -0.88931E+06
        -0.95248E+06
        -0.68738E+06
         0.24598E+06
         0.12164E+06
         0.16193E+06
         0.26293E+06
        -0.41355E+05
         0.16739E+06
        -0.11800E+06
        -0.27252E+06
         0.36887E+06
        -0.29503E+06
        -0.33185E+06
        -0.47291E+05
        -0.18442E+06
        -0.91375E+06
        -0.38781E+06
        -0.10199E+06
         0.13688E+06
         0.25051E+06
        -0.24811E+05
        -0.10839E+05
        -0.69649E+06
        -0.50899E+06
        -0.82910E+06
        -0.15116E+06
        -0.32327E+06
        -0.71324E+05
        -0.11465E+07
        -0.75779E+06
        -0.43066E+06
        -0.32042E+06
        -0.34052E+05
        -0.75667E+05
         0.22781E+06
         0.39417E+06
        -0.60154E+06
        -0.24429E+06
        -0.24858E+06
        -0.49563E+06
        -0.25758E+06
        -0.19912E+06
        -0.55135E+06
        -0.76791E+06
        -0.69596E+06
        -0.62453E+06
        -0.43213E+06
        -0.18486E+06
        -0.12228E+06
        -0.11806E+06
         0.14672E+06
         0.24434E+06
        -0.99236E+05
        -0.91920E+04
        -0.15747E+07
        -0.85762E+06
        -0.10246E+07
        -0.24558E+06
         0.45431E+06
         0.96826E+06
         0.81660E+06
         0.86360E+06
         0.64824E+06
         0.20500E+06
        -0.42292E+06
        -0.85912E+06
        -0.10537E+07
        -0.75880E+06
        -0.12613E+07
        -0.15507E+07
        -0.12727E+07
        -0.10589E+07
        -0.48167E+06
         0.13821E+06
         0.10458E+06
        -0.60831E+05
        -0.43558E+06
        -0.87486E+06
        -0.94076E+06
        -0.67612E+06
         0.24334E+06
         0.12010E+06
         0.16042E+06
         0.26035E+06
        -0.42971E+05
         0.16612E+06
        -0.11989E+06
        -0.27475E+06
         0.36351E+06
        -0.30427E+06
        -0.33402E+06
        -0.50595E+05
        -0.18666E+06
        -0.91513E+06
        -0.39149E+06
        -0.11738E+06
         0.12446E+06
         0.24777E+06
        -0.43194E+05
        -0.29283E+05
        -0.71584E+06
        -0.52601E+06
        -0.86869E+06
        -0.18579E+06
        -0.35172E+06
        -0.10400E+06
        -0.11523E+07
        -0.77557E+06
        -0.46011E+06
        -0.36175E+06
        -0.43246E+05
        -0.93126E+05
         0.22565E+06
         0.39151E+06
        -0.60512E+06
        -0.24610E+06
        -0.25009E+06
        -0.50160E+06
        -0.26449E+06
        -0.21124E+06
        -0.56859E+06
        -0.80097E+06
        -0.73613E+06
        -0.66223E+06
        -0.45002E+06
        -0.19536E+06
        -0.12917E+06
        -0.12197E+06
         0.14360E+06
         0.24085E+06
        -0.10256E+06
        -0.10258E+05
        -0.15823E+07
        -0.86279E+06
        -0.10328E+07
        -0.25284E+06
         0.44949E+06
         0.96260E+06
         0.80711E+06
         0.85329E+06
         0.63846E+06
         0.19306E+06
        -0.44189E+06
        -0.88971E+06
        -0.10823E+07
        -0.77228E+06
        -0.12767E+07
        -0.15928E+07
        -0.13173E+07
        -0.10799E+07
        -0.49157E+06
         0.12870E+06
         0.97447E+05
        -0.69288E+05
        -0.44430E+06
        -0.88085E+06
        -0.94536E+06
        -0.68074E+06
         0.23868E+06
         0.11700E+06
         0.15781E+06
         0.25768E+06
        -0.44895E+05
         0.16419E+06
        -0.12273E+06
        -0.27870E+06
         0.35710E+06
        -0.31387E+06
        -0.33634E+06
        -0.52684E+05
        -0.18915E+06
        -0.91679E+06
        -0.39315E+06
        -0.12797E+06
         0.11455E+06
         0.24524E+06
        -0.55290E+05
        -0.42537E+05
        -0.72826E+06
        -0.53823E+06
        -0.89303E+06
        -0.20724E+06
        -0.37226E+06
        -0.12492E+06
        -0.11574E+07
        -0.78834E+06
        -0.48052E+06
        -0.38922E+06
        -0.52855E+05
        -0.10582E+06
         0.22107E+06
         0.38780E+06
        -0.60881E+06
        -0.24848E+06
        -0.25244E+06
        -0.50613E+06
        -0.27029E+06
        -0.22054E+06
        -0.58081E+06
        -0.82336E+06
        -0.76254E+06
        -0.68614E+06
        -0.46172E+06
        -0.20225E+06
        -0.13529E+06
        -0.12817E+06
         0.13812E+06
         0.23567E+06
        -0.10787E+06
        -0.12671E+05
        -0.15891E+07
        -0.86729E+06
        -0.10398E+07
        -0.25849E+06
         0.44727E+06
         0.96092E+06
         0.80305E+06
         0.84646E+06
         0.63016E+06
         0.18569E+06
        -0.45342E+06
        -0.91086E+06
        -0.11017E+07
        -0.78270E+06
        -0.12875E+07
        -0.16201E+07
        -0.13485E+07
        -0.10949E+07
        -0.49602E+06
         0.12006E+06
         0.87968E+05
        -0.78996E+05
        -0.45559E+06
        -0.89061E+06
        -0.95143E+06
        -0.68535E+06
         0.22766E+06
         0.11106E+06
         0.15523E+06
         0.25983E+06
        -0.41711E+05
         0.16818E+06
        -0.12476E+06
        -0.28587E+06
         0.34813E+06
        -0.32686E+06
        -0.33435E+06
        -0.45805E+05
        -0.18676E+06
        -0.91469E+06
        -0.38417E+06
        -0.12662E+06
         0.11202E+06
         0.24974E+06
        -0.52809E+05
        -0.40493E+05
        -0.72448E+06
        -0.53388E+06
        -0.89252E+06
        -0.20767E+06
        -0.38110E+06
        -0.12787E+06
        -0.11587E+07
        -0.78962E+06
        -0.47972E+06
        -0.39026E+06
        -0.64258E+05
        -0.11250E+06
         0.21314E+06
         0.38688E+06
        -0.60619E+06
        -0.24800E+06
        -0.25277E+06
        -0.50115E+06
        -0.26625E+06
        -0.21615E+06
        -0.57513E+06
        -0.82034E+06
        -0.75983E+06
        -0.68754E+06
        -0.46303E+06
        -0.20334E+06
        -0.14058E+06
        -0.14054E+06
         0.12460E+06
         0.22860E+06
        -0.10949E+06
        -0.99566E+04
        -0.15756E+07
        -0.85337E+06
        -0.10284E+07
        -0.25093E+06
         0.45530E+06
         0.97175E+06
         0.81528E+06
         0.85810E+06
         0.64367E+06
         0.20355E+06
        -0.43785E+06
        -0.90144E+06
        -0.10914E+07
        -0.77198E+06
        -0.12772E+07
        -0.16118E+07
        -0.13424E+07
        -0.10889E+07
        -0.48872E+06
         0.12505E+06
         0.86954E+05
        -0.85737E+05
        -0.45991E+06
        -0.88828E+06
        -0.94473E+06
        -0.67580E+06
         0.21105E+06
         0.10055E+06
         0.14909E+06
         0.25820E+06
        -0.43611E+05
         0.16833E+06
        -0.13291E+06
        -0.30020E+06
         0.33300E+06
        -0.34608E+06
        -0.33954E+06
        -0.48550E+05
        -0.19110E+06
        -0.92050E+06
        -0.38587E+06
        -0.13015E+06
         0.10384E+06
         0.24906E+06
        -0.54928E+05
        -0.43490E+05
        -0.72610E+06
        -0.53505E+06
        -0.89448E+06
        -0.21027E+06
        -0.39354E+06
        -0.13316E+06
        -0.11673E+07
        -0.79607E+06
        -0.48222E+06
        -0.39362E+06
        -0.80032E+05
        -0.12345E+06
         0.20085E+06
         0.38193E+06
        -0.61048E+06
        -0.25205E+06
        -0.25750E+06
        -0.50588E+06
        -0.27055E+06
        -0.21865E+06
        -0.57635E+06
        -0.82127E+06
        -0.76020E+06
        -0.69109E+06
        -0.46943E+06
        -0.21314E+06
        -0.15279E+06
        -0.15907E+06
         0.10528E+06
         0.21620E+06
        -0.11667E+06
        -0.11274E+05
        -0.15812E+07
        -0.85764E+06
        -0.10316E+07
        -0.25474E+06
         0.44984E+06
         0.96510E+06
         0.80977E+06
         0.85334E+06
         0.63905E+06
         0.20006E+06
        -0.44064E+06
        -0.90482E+06
        -0.10920E+07
        -0.77279E+06
        -0.12795E+07
        -0.16132E+07
        -0.13449E+07
        -0.10983E+07
        -0.50275E+06
         0.10948E+06
         0.69611E+05
        -0.10716E+06
        -0.47865E+06
        -0.89822E+06
        -0.95012E+06
        -0.68008E+06
         0.20617E+06
         0.96643E+05
         0.14656E+06
         0.25600E+06
        -0.45690E+05
         0.16647E+06
        -0.13717E+06
        -0.30489E+06
         0.32853E+06
        -0.35179E+06
        -0.34321E+06
        -0.52378E+05
        -0.19538E+06
        -0.92315E+06
        -0.38890E+06
        -0.13337E+06
         0.10036E+06
         0.24711E+06
        -0.56870E+05
        -0.45819E+05
        -0.72873E+06
        -0.53784E+06
        -0.89705E+06
        -0.21226E+06
        -0.39803E+06
        -0.13616E+06
        -0.11710E+07
        -0.79941E+06
        -0.48628E+06
        -0.39683E+06
        -0.85420E+05
        -0.12777E+06
         0.19717E+06
         0.37916E+06
        -0.61416E+06
        -0.25418E+06
        -0.26035E+06
        -0.51176E+06
        -0.27547E+06
        -0.22353E+06
        -0.58160E+06
        -0.82565E+06
        -0.76282E+06
        -0.69428E+06
        -0.47318E+06
        -0.21770E+06
        -0.15678E+06
        -0.16375E+06
         0.10054E+06
         0.21192E+06
        -0.12106E+06
        -0.13212E+05
        -0.15888E+07
        -0.86511E+06
        -0.10366E+07
        -0.26001E+06
         0.44351E+06
         0.95946E+06
         0.80397E+06
         0.84530E+06
         0.62862E+06
         0.18904E+06
        -0.45063E+06
        -0.90932E+06
        -0.10956E+07
        -0.78036E+06
        -0.12876E+07
        -0.16209E+07
        -0.13548E+07
        -0.11079E+07
        -0.51071E+06
         0.10297E+06
         0.64384E+05
        -0.11428E+06
        -0.48800E+06
        -0.90701E+06
        -0.95757E+06
        -0.68751E+06
         0.20918E+06
         0.99256E+05
         0.14847E+06
         0.25665E+06
        -0.42732E+05
         0.16752E+06
        -0.13467E+06
        -0.30077E+06
         0.33138E+06
        -0.34806E+06
        -0.34047E+06
        -0.48687E+05
        -0.19292E+06
        -0.91796E+06
        -0.38270E+06
        -0.13032E+06
         0.10312E+06
         0.24924E+06
        -0.53224E+05
        -0.42556E+05
        -0.72487E+06
        -0.53435E+06
        -0.89338E+06
        -0.20872E+06
        -0.39501E+06
        -0.13285E+06
        -0.11659E+07
        -0.79509E+06
        -0.48363E+06
        -0.39393E+06
        -0.82843E+05
        -0.12524E+06
         0.19961E+06
         0.38012E+06
        -0.61067E+06
        -0.25135E+06
        -0.25794E+06
        -0.50812E+06
        -0.27283E+06
        -0.22131E+06
        -0.57833E+06
        -0.82240E+06
        -0.75916E+06
        -0.69098E+06
        -0.47043E+06
        -0.21470E+06
        -0.15409E+06
        -0.16069E+06
         0.10376E+06
         0.21439E+06
        -0.11898E+06
        -0.11443E+05
        -0.15773E+07
        -0.85378E+06
        -0.10298E+07
        -0.25725E+06
         0.44920E+06
         0.96823E+06
         0.81371E+06
         0.85216E+06
         0.63137E+06
         0.19319E+06
        -0.44322E+06
        -0.89880E+06
        -0.10865E+07
        -0.77446E+06
        -0.12821E+07
        -0.16145E+07
        -0.13482E+07
        -0.10997E+07
        -0.50292E+06
         0.11202E+06
         0.73771E+05
        -0.10594E+06
        -0.48089E+06
        -0.90079E+06
        -0.95139E+06
        -0.68087E+06
         0.20834E+06
         0.99011E+05
         0.14795E+06
         0.25518E+06
        -0.42893E+05
         0.16670E+06
        -0.13542E+06
        -0.30172E+06
         0.32915E+06
        -0.35022E+06
        -0.34198E+06
        -0.51038E+05
        -0.19373E+06
        -0.91870E+06
        -0.38590E+06
        -0.13250E+06
         0.10077E+06
         0.24715E+06
        -0.54828E+05
        -0.44348E+05
        -0.72616E+06
        -0.53611E+06
        -0.89472E+06
        -0.21003E+06
        -0.39641E+06
        -0.13409E+06
        -0.11671E+07
        -0.79531E+06
        -0.48497E+06
        -0.39547E+06
        -0.84768E+05
        -0.12654E+06
         0.19779E+06
         0.37808E+06
        -0.61222E+06
        -0.25222E+06
        -0.25852E+06
        -0.51325E+06
        -0.27575E+06
        -0.22398E+06
        -0.58098E+06
        -0.82436E+06
        -0.76141E+06
        -0.69181E+06
        -0.47117E+06
        -0.21612E+06
        -0.15593E+06
        -0.16290E+06
         0.10193E+06
         0.21275E+06
        -0.12061E+06
        -0.12111E+05
        -0.15806E+07
        -0.85632E+06
        -0.10350E+07
        -0.26181E+06
         0.44864E+06
         0.96498E+06
         0.80618E+06
         0.84373E+06
         0.62657E+06
         0.18587E+06
        -0.45123E+06
        -0.90277E+06
        -0.10911E+07
        -0.77700E+06
        -0.12846E+07
        -0.16168E+07
        -0.13484E+07
        -0.11013E+07
        -0.50515E+06
         0.10589E+06
         0.66289E+05
        -0.11172E+06
        -0.48369E+06
        -0.90218E+06
        -0.95474E+06
        -0.68564E+06
         0.20607E+06
         0.97006E+05
         0.14649E+06
         0.25432E+06
        -0.44255E+05
         0.16630E+06
        -0.13731E+06
        -0.30334E+06
         0.32712E+06
        -0.35238E+06
        -0.34370E+06
        -0.54135E+05
        -0.19577E+06
        -0.91900E+06
        -0.38917E+06
        -0.13534E+06
         0.98853E+05
         0.24600E+06
        -0.56798E+05
        -0.45673E+05
        -0.72786E+06
        -0.53791E+06
        -0.89675E+06
        -0.21207E+06
        -0.39779E+06
        -0.13644E+06
        -0.11681E+07
        -0.79602E+06
        -0.48646E+06
        -0.39662E+06
        -0.87380E+05
        -0.12869E+06
         0.19693E+06
         0.37772E+06
        -0.61551E+06
        -0.25385E+06
        -0.26000E+06
        -0.51823E+06
        -0.27897E+06
        -0.22636E+06
        -0.58258E+06
        -0.82610E+06
        -0.76348E+06
        -0.69347E+06
        -0.47262E+06
        -0.21805E+06
        -0.15763E+06
        -0.16482E+06
         0.10019E+06
         0.21131E+06
        -0.12215E+06
        -0.11841E+05
        -0.15872E+07
        -0.86176E+06
        -0.10390E+07
        -0.26319E+06
         0.44691E+06
         0.95842E+06
         0.79672E+06
         0.83611E+06
         0.62159E+06
         0.18062E+06
        -0.45450E+06
        -0.90668E+06
        -0.10968E+07
        -0.78079E+06
        -0.12887E+07
        -0.16215E+07
        -0.13514E+07
        -0.11050E+07
        -0.50961E+06
         0.10082E+06
         0.60626E+05
        -0.11762E+06
        -0.48781E+06
        -0.90618E+06
        -0.95983E+06
        -0.69107E+06
         0.20746E+06
         0.97811E+05
         0.14718E+06
         0.25551E+06
        -0.42147E+05
         0.16834E+06
        -0.13579E+06
        -0.30035E+06
         0.32842E+06
        -0.35076E+06
        -0.34111E+06
        -0.51636E+05
        -0.19515E+06
        -0.91416E+06
        -0.38340E+06
        -0.13384E+06
         0.99778E+05
         0.24812E+06
        -0.54604E+05
        -0.43045E+05
        -0.72475E+06
        -0.53478E+06
        -0.89429E+06
        -0.20990E+06
        -0.39643E+06
        -0.13434E+06
        -0.11648E+07
        -0.79320E+06
        -0.48344E+06
        -0.39345E+06
        -0.85422E+05
        -0.12696E+06
         0.19980E+06
         0.38006E+06
        -0.61348E+06
        -0.25198E+06
        -0.25893E+06
        -0.51537E+06
        -0.27634E+06
        -0.22292E+06
        -0.57891E+06
        -0.82373E+06
        -0.76055E+06
        -0.69141E+06
        -0.47088E+06
        -0.21636E+06
        -0.15597E+06
        -0.16302E+06
         0.10233E+06
         0.21342E+06
        -0.11998E+06
        -0.87867E+04
        -0.15788E+07
        -0.85262E+06
        -0.10303E+07
        -0.25901E+06
         0.44561E+06
         0.95886E+06
         0.80347E+06
         0.84349E+06
         0.62670E+06
         0.18831E+06
        -0.44722E+06
        -0.90320E+06
        -0.10907E+07
        -0.77460E+06
        -0.12831E+07
        -0.16172E+07
        -0.13484E+07
        -0.11012E+07
        -0.50604E+06
         0.10627E+06
         0.67125E+05
        -0.11142E+06
        -0.48230E+06
        -0.90160E+06
        -0.95312E+06
        -0.68327E+06
         0.20638E+06
         0.96201E+05
         0.14577E+06
         0.25386E+06
        -0.43536E+05
         0.16700E+06
        -0.13812E+06
        -0.30177E+06
         0.32679E+06
        -0.35342E+06
        -0.34363E+06
        -0.55467E+05
        -0.19909E+06
        -0.91546E+06
        -0.38567E+06
        -0.13623E+06
         0.97390E+05
         0.24589E+06
        -0.57019E+05
        -0.45171E+05
        -0.72794E+06
        -0.53806E+06
        -0.89773E+06
        -0.21226E+06
        -0.39914E+06
        -0.13640E+06
        -0.11680E+07
        -0.79639E+06
        -0.48659E+06
        -0.39543E+06
        -0.87882E+05
        -0.12899E+06
         0.19750E+06
         0.37821E+06
        -0.61662E+06
        -0.25393E+06
        -0.26145E+06
        -0.52075E+06
        -0.28131E+06
        -0.22720E+06
        -0.58383E+06
        -0.82847E+06
        -0.76401E+06
        -0.69492E+06
        -0.47370E+06
        -0.21919E+06
        -0.15843E+06
        -0.16597E+06
         0.10006E+06
         0.21180E+06
        -0.12208E+06
        -0.96978E+04
        -0.15852E+07
        -0.85820E+06
        -0.10367E+07
        -0.26647E+06
         0.43697E+06
         0.95049E+06
         0.79834E+06
         0.83688E+06
         0.61822E+06
         0.17984E+06
        -0.45756E+06
        -0.91340E+06
        -0.10974E+07
        -0.78153E+06
        -0.12892E+07
        -0.16241E+07
        -0.13590E+07
        -0.11108E+07
        -0.51077E+06
         0.99586E+05
         0.60358E+05
        -0.11489E+06
        -0.48454E+06
        -0.90656E+06
        -0.95999E+06
        -0.69016E+06
         0.20614E+06
         0.95657E+05
         0.14533E+06
         0.25333E+06
        -0.43407E+05
         0.16689E+06
        -0.13873E+06
        -0.30150E+06
         0.32687E+06
        -0.35343E+06
        -0.34395E+06
        -0.56059E+05
        -0.19988E+06
        -0.91402E+06
        -0.38529E+06
        -0.13708E+06
         0.97192E+05
         0.24551E+06
        -0.57251E+05
        -0.45259E+05
        -0.72851E+06
        -0.53853E+06
        -0.89852E+06
        -0.21270E+06
        -0.39950E+06
        -0.13699E+06
        -0.11674E+07
        -0.79667E+06
        -0.48770E+06
        -0.39593E+06
        -0.89354E+05
        -0.12978E+06
         0.19682E+06
         0.37785E+06
        -0.61761E+06
        -0.25442E+06
        -0.26212E+06
        -0.52352E+06
        -0.28431E+06
        -0.22917E+06
        -0.58454E+06
        -0.82929E+06
        -0.76458E+06
        -0.69542E+06
        -0.47407E+06
        -0.21982E+06
        -0.15919E+06
        -0.16720E+06
         0.99208E+05
         0.21150E+06
        -0.12235E+06
        -0.91414E+04
        -0.15854E+07
        -0.85800E+06
        -0.10383E+07
        -0.26934E+06
         0.43686E+06
         0.95033E+06
         0.79625E+06
         0.83134E+06
         0.61212E+06
         0.17647E+06
        -0.45788E+06
        -0.91437E+06
        -0.10991E+07
        -0.78421E+06
        -0.12924E+07
        -0.16264E+07
        -0.13604E+07
        -0.11121E+07
        -0.51206E+06
         0.97169E+05
         0.57416E+05
        -0.11678E+06
        -0.48459E+06
        -0.90715E+06
        -0.96305E+06
        -0.69299E+06
         0.21065E+06
         0.10065E+06
         0.14951E+06
         0.25650E+06
        -0.37887E+05
         0.17111E+06
        -0.13312E+06
        -0.29566E+06
         0.33028E+06
        -0.34914E+06
        -0.33788E+06
        -0.47982E+05
        -0.19329E+06
        -0.90662E+06
        -0.37679E+06
        -0.13328E+06
         0.10106E+06
         0.24936E+06
        -0.52447E+05
        -0.39946E+05
        -0.72178E+06
        -0.53238E+06
        -0.89242E+06
        -0.20799E+06
        -0.39444E+06
        -0.13231E+06
        -0.11609E+07
        -0.78948E+06
        -0.48142E+06
        -0.39000E+06
        -0.85044E+05
        -0.12497E+06
         0.20102E+06
         0.38096E+06
        -0.61161E+06
        -0.24936E+06
        -0.25696E+06
        -0.51880E+06
        -0.27874E+06
        -0.22330E+06
        -0.57827E+06
        -0.82336E+06
        -0.75902E+06
        -0.68926E+06
        -0.46805E+06
        -0.21328E+06
        -0.15399E+06
        -0.16243E+06
         0.10348E+06
         0.21527E+06
        -0.11798E+06
        -0.45987E+04
        -0.15701E+07
        -0.84278E+06
        -0.10254E+07
        -0.26009E+06
         0.44825E+06
         0.96470E+06
         0.80825E+06
         0.84034E+06
         0.62241E+06
         0.18771E+06
        -0.44777E+06
        -0.90251E+06
        -0.10898E+07
        -0.77388E+06
        -0.12806E+07
        -0.16141E+07
        -0.13464E+07
        -0.10970E+07
        -0.49909E+06
         0.11064E+06
         0.68941E+05
        -0.10824E+06
        -0.47503E+06
        -0.89591E+06
        -0.95091E+06
        -0.68079E+06
         0.20869E+06
         0.99197E+05
         0.14820E+06
         0.25446E+06
        -0.39718E+05
         0.16972E+06
        -0.13522E+06
        -0.29763E+06
         0.32795E+06
        -0.35248E+06
        -0.34035E+06
        -0.50944E+05
        -0.19514E+06
        -0.90809E+06
        -0.38015E+06
        -0.13622E+06
         0.98124E+05
         0.24756E+06
        -0.55636E+05
        -0.42583E+05
        -0.72387E+06
        -0.53537E+06
        -0.89456E+06
        -0.21084E+06
        -0.39761E+06
        -0.13523E+06
        -0.11637E+07
        -0.79160E+06
        -0.48237E+06
        -0.39142E+06
        -0.86936E+05
        -0.12728E+06
         0.19956E+06
         0.37871E+06
        -0.61558E+06
        -0.25109E+06
        -0.25813E+06
        -0.52485E+06
        -0.28287E+06
        -0.22541E+06
        -0.58144E+06
        -0.82713E+06
        -0.76299E+06
        -0.69183E+06
        -0.47048E+06
        -0.21594E+06
        -0.15603E+06
        -0.16414E+06
         0.10158E+06
         0.21281E+06
        -0.12053E+06
        -0.55671E+04
        -0.15797E+07
        -0.85086E+06
        -0.10328E+07
        -0.26403E+06
         0.44697E+06
         0.96096E+06
         0.80003E+06
         0.83045E+06
         0.61300E+06
         0.17928E+06
        -0.45774E+06
        -0.91391E+06
        -0.10978E+07
        -0.77782E+06
        -0.12826E+07
        -0.16154E+07
        -0.13502E+07
        -0.11038E+07
        -0.50406E+06
         0.10463E+06
         0.63535E+05
        -0.11435E+06
        -0.48148E+06
        -0.90003E+06
        -0.95482E+06
        -0.68731E+06
         0.20544E+06
         0.95521E+05
         0.14462E+06
         0.25175E+06
        -0.42861E+05
         0.16677E+06
        -0.13855E+06
        -0.30005E+06
         0.32463E+06
        -0.35846E+06
        -0.34338E+06
        -0.55693E+05
        -0.19900E+06
        -0.90963E+06
        -0.38446E+06
        -0.13971E+06
         0.93805E+05
         0.24545E+06
        -0.58251E+05
        -0.43792E+05
        -0.72648E+06
        -0.53886E+06
        -0.89712E+06
        -0.21329E+06
        -0.40316E+06
        -0.13809E+06
        -0.11703E+07
        -0.79520E+06
        -0.47493E+06
        -0.38722E+06
        -0.90070E+05
        -0.13054E+06
         0.19812E+06
         0.37717E+06
        -0.62001E+06
        -0.25408E+06
        -0.26109E+06
        -0.53364E+06
        -0.28694E+06
        -0.22002E+06
        -0.58187E+06
        -0.83117E+06
        -0.76824E+06
        -0.69464E+06
        -0.47363E+06
        -0.22024E+06
        -0.15961E+06
        -0.16710E+06
         0.99379E+05
         0.21084E+06
        -0.12277E+06
        -0.70115E+04
        -0.15861E+07
        -0.85671E+06
        -0.10378E+07
        -0.26846E+06
         0.44084E+06
         0.95082E+06
         0.78846E+06
         0.81941E+06
         0.60352E+06
         0.17710E+06
        -0.47514E+06
        -0.94126E+06
        -0.11090E+07
        -0.78404E+06
        -0.12882E+07
        -0.16204E+07
        -0.13563E+07
        -0.11109E+07
        -0.51227E+06
         0.95235E+05
         0.57320E+05
        -0.12019E+06
        -0.48806E+06
        -0.90496E+06
        -0.96250E+06
        -0.69598E+06
         0.20974E+06
         0.10011E+06
         0.14916E+06
         0.25561E+06
        -0.37022E+05
         0.17130E+06
        -0.13367E+06
        -0.29430E+06
         0.32698E+06
        -0.35936E+06
        -0.33792E+06
        -0.49678E+05
        -0.19417E+06
        -0.90257E+06
        -0.37683E+06
        -0.13587E+06
         0.96364E+05
         0.24907E+06
        -0.52708E+05
        -0.35136E+05
        -0.72086E+06
        -0.53348E+06
        -0.89223E+06
        -0.20821E+06
        -0.40198E+06
        -0.13300E+06
        -0.11714E+07
        -0.79064E+06
        -0.45101E+06
        -0.36876E+06
        -0.86447E+05
        -0.12566E+06
         0.20223E+06
         0.38129E+06
        -0.61355E+06
        -0.24845E+06
        -0.25621E+06
        -0.53350E+06
        -0.28049E+06
        -0.19863E+06
        -0.56962E+06
        -0.82512E+06
        -0.76503E+06
        -0.68935E+06
        -0.46774E+06
        -0.21297E+06
        -0.15420E+06
        -0.16275E+06
         0.10406E+06
         0.21596E+06
        -0.11701E+06
        -0.18222E+04
        -0.15705E+07
        -0.84126E+06
        -0.10219E+07
        -0.25744E+06
         0.44797E+06
         0.95897E+06
         0.79971E+06
         0.83070E+06
         0.61608E+06
         0.20153E+06
        -0.48077E+06
        -0.96328E+06
        -0.11082E+07
        -0.77546E+06
        -0.12811E+07
        -0.16144E+07
        -0.13487E+07
        -0.10983E+07
        -0.49679E+06
         0.10965E+06
         0.69814E+05
        -0.10739E+06
        -0.47347E+06
        -0.89155E+06
        -0.95166E+06
        -0.68468E+06
         0.19346E+06
         0.83177E+05
         0.13273E+06
         0.23985E+06
        -0.56246E+05
         0.15332E+06
        -0.15248E+06
        -0.31283E+06
         0.30915E+06
        -0.38276E+06
        -0.35868E+06
        -0.78717E+05
        -0.22006E+06
        -0.92302E+06
        -0.40639E+06
        -0.15267E+06
         0.77042E+05
         0.23335E+06
        -0.71319E+05
        -0.52636E+05
        -0.74490E+06
        -0.55681E+06
        -0.91523E+06
        -0.22614E+06
        -0.42445E+06
        -0.15001E+06
        -0.11970E+07
        -0.81180E+06
        -0.46101E+06
        -0.38141E+06
        -0.10307E+06
        -0.14328E+06
         0.18604E+06
         0.36382E+06
        -0.63877E+06
        -0.26830E+06
        -0.27720E+06
        -0.56704E+06
        -0.30563E+06
        -0.21325E+06
        -0.59407E+06
        -0.85121E+06
        -0.79094E+06
        -0.71067E+06
        -0.48912E+06
        -0.23999E+06
        -0.17499E+06
        -0.18179E+06
         0.85513E+05
         0.19591E+06
        -0.14193E+06
        -0.21033E+05
        -0.16249E+07
        -0.89410E+06
        -0.10769E+07
        -0.31357E+06
         0.39196E+06
         0.90481E+06
         0.74471E+06
         0.77187E+06
         0.56110E+06
         0.15130E+06
        -0.55072E+06
        -0.10394E+07
        -0.11617E+07
        -0.81969E+06
        -0.13277E+07
        -0.16631E+07
        -0.13988E+07
        -0.11547E+07
        -0.55459E+06
         0.54104E+05
         0.18597E+05
        -0.15635E+06
        -0.52360E+06
        -0.94312E+06
        -0.10013E+07
        -0.73402E+06
         0.20270E+06
         0.84330E+05
         0.13578E+06
         0.24579E+06
        -0.49355E+05
         0.15966E+06
        -0.15007E+06
        -0.30090E+06
         0.32073E+06
        -0.36572E+06
        -0.35291E+06
        -0.78249E+05
        -0.22680E+06
        -0.90789E+06
        -0.39274E+06
        -0.14046E+06
         0.89135E+05
         0.24204E+06
        -0.61272E+05
        -0.42089E+05
        -0.73380E+06
        -0.54874E+06
        -0.89877E+06
        -0.21271E+06
        -0.40500E+06
        -0.13750E+06
        -0.11751E+07
        -0.78713E+06
        -0.44111E+06
        -0.36276E+06
        -0.93406E+05
        -0.13547E+06
         0.19111E+06
         0.36128E+06
        -0.63532E+06
        -0.26966E+06
        -0.28308E+06
        -0.55197E+06
        -0.28833E+06
        -0.19851E+06
        -0.58321E+06
        -0.83696E+06
        -0.77555E+06
        -0.69600E+06
        -0.48109E+06
        -0.23579E+06
        -0.17180E+06
        -0.17382E+06
         0.91807E+05
         0.19631E+06
        -0.14017E+06
        -0.19635E+05
        -0.16039E+07
        -0.86674E+06
        -0.10699E+07
        -0.32568E+06
         0.36685E+06
         0.88941E+06
         0.76983E+06
         0.79753E+06
         0.58165E+06
         0.16352E+06
        -0.54727E+06
        -0.10289E+07
        -0.11415E+07
        -0.80968E+06
        -0.13067E+07
        -0.16328E+07
        -0.13729E+07
        -0.11347E+07
        -0.54592E+06
         0.53097E+05
         0.30075E+05
        -0.14004E+06
        -0.49755E+06
        -0.91166E+06
        -0.97653E+06
        -0.70843E+06
         0.64652E+08
         0.65872E+08
         0.65418E+08
         0.59820E+08
         0.78039E+08
         0.70638E+08
         0.71058E+08
         0.73299E+08
         0.62313E+08
         0.72824E+08
         0.78943E+08
         0.11109E+09
         0.94269E+08
         0.80966E+08
         0.11530E+09
         0.60461E+08
         0.65292E+08
         0.57220E+08
         0.67909E+08
         0.71058E+08
         0.86657E+08
         0.86182E+08
         0.81130E+08
         0.64826E+08
         0.72149E+08
         0.62169E+08
         0.79900E+08
         0.77821E+08
         0.78232E+08
         0.74686E+08
         0.61154E+08
         0.64307E+08
         0.60162E+08
         0.62963E+08
         0.93789E+08
         0.75012E+08
         0.77848E+08
         0.10555E+09
         0.96328E+08
         0.92703E+08
         0.10292E+09
         0.94900E+08
         0.89914E+08
         0.75609E+08
         0.76345E+08
         0.96511E+08
         0.77012E+08
         0.71045E+08
         0.69616E+08
         0.72439E+08
         0.88485E+08
         0.72827E+08
         0.19759E+09
         0.19380E+09
         0.19796E+09
         0.19185E+09
         0.19865E+09
         0.20909E+09
         0.20970E+09
         0.20649E+09
         0.20785E+09
         0.21400E+09
         0.20687E+09
         0.19462E+09
         0.17112E+09
         0.16112E+09
         0.16422E+09
         0.16864E+09
         0.17133E+09
         0.18752E+09
         0.20094E+09
         0.20222E+09
         0.18467E+09
         0.17771E+09
         0.18437E+09
         0.18179E+09
         0.18047E+09
         0.18078E+09
         0.88114E+09
         0.92091E+09
         0.90676E+09
         0.82215E+09
         0.10271E+10
         0.95994E+09
         0.99838E+09
         0.10110E+10
         0.85704E+09
         0.10102E+10
         0.11012E+10
         0.12483E+10
         0.11263E+10
         0.11355E+10
         0.12936E+10
         0.83985E+09
         0.90326E+09
         0.78114E+09
         0.93499E+09
         0.98504E+09
         0.10298E+10
         0.10521E+10
         0.98626E+09
         0.89673E+09
         0.10199E+10
         0.86288E+09
         0.11312E+10
         0.11094E+10
         0.11149E+10
         0.10575E+10
         0.84835E+09
         0.89245E+09
         0.82902E+09
         0.86905E+09
         0.11299E+10
         0.10302E+10
         0.10356E+10
         0.12495E+10
         0.12142E+10
         0.11985E+10
         0.12237E+10
         0.11598E+10
         0.10956E+10
         0.96031E+09
         0.99999E+09
         0.11305E+10
         0.10394E+10
         0.97405E+09
         0.95279E+09
         0.99024E+09
         0.10821E+10
         0.99386E+09
         0.18233E+10
         0.17777E+10
         0.18156E+10
         0.17596E+10
         0.18128E+10
         0.19062E+10
         0.19356E+10
         0.19290E+10
         0.19418E+10
         0.19868E+10
         0.19295E+10
         0.18153E+10
         0.16254E+10
         0.15359E+10
         0.15420E+10
         0.15630E+10
         0.15790E+10
         0.17126E+10
         0.18326E+10
         0.18407E+10
         0.17032E+10
         0.16500E+10
         0.17052E+10
         0.16923E+10
         0.16737E+10
         0.16688E+10
  
SCALARS                      stress_yy  double 1
LOOKUP_TABLE default
        -0.52341E+10
        -0.58274E+10
        -0.54512E+10
        -0.47748E+10
        -0.49187E+02
        -0.55156E+02
        -0.52814E+02
        -0.47979E+02
        -0.58481E+10
        -0.56474E+10
        -0.49599E+02
        -0.47999E+02
        -0.66828E+10
        -0.67143E+10
        -0.58934E+02
        -0.55413E+02
        -0.48741E+10
        -0.66682E+10
        -0.43546E+02
        -0.48299E+02
        -0.73224E+10
        -0.78282E+10
        -0.70225E+10
        -0.58410E+02
        -0.51010E+02
        -0.52674E+02
        -0.78087E+10
        -0.85442E+10
        -0.56037E+02
        -0.47257E+02
        -0.49067E+10
        -0.56895E+10
        -0.41443E+10
        -0.47819E+02
        -0.44455E+02
        -0.43222E+02
        -0.53601E+10
        -0.63541E+10
        -0.50590E+02
        -0.46164E+02
        -0.57544E+10
        -0.65201E+10
        -0.43725E+02
        -0.38709E+02
        -0.51035E+10
        -0.48140E+10
        -0.47916E+02
        -0.53539E+02
        -0.71314E+10
        -0.46810E+02
        -0.48706E+10
        -0.55004E+02
        -0.80211E+10
        -0.49433E+02
        -0.82524E+10
        -0.47416E+02
        -0.82488E+10
        -0.74250E+10
        -0.48311E+02
        -0.47050E+02
        -0.49228E+10
        -0.52241E+10
        -0.48444E+02
        -0.54766E+02
        -0.47342E+10
        -0.46745E+02
        -0.50927E+10
        -0.51017E+02
        -0.60326E+10
        -0.61262E+10
        -0.49109E+02
        -0.51457E+02
        -0.63377E+10
        -0.51889E+02
        -0.88047E+10
        -0.40996E+02
        -0.89330E+10
        -0.39793E+02
        -0.88692E+10
        -0.41958E+02
        -0.85148E+10
        -0.81454E+10
        -0.39976E+02
        -0.41677E+02
        -0.73984E+10
        -0.38817E+02
        -0.51188E+10
        -0.50903E+02
        -0.54766E+10
        -0.52098E+02
        -0.57695E+10
        -0.59301E+10
        -0.50031E+02
        -0.50615E+02
        -0.57321E+10
        -0.45973E+02
        -0.55913E+10
        -0.45317E+02
        -0.57186E+10
        -0.48512E+02
        -0.57636E+10
        -0.56347E+10
        -0.47574E+02
        -0.48969E+02
        -0.64684E+10
        -0.61309E+10
        -0.36936E+02
        -0.34741E+02
        -0.65324E+10
        -0.35269E+02
        -0.61428E+10
        -0.33817E+02
        -0.65273E+10
        -0.33346E+02
        -0.73750E+10
        -0.31512E+02
        -0.81924E+10
        -0.27995E+02
        -0.86794E+10
        -0.25208E+02
        -0.87291E+10
        -0.25033E+02
        -0.87136E+10
        -0.27147E+02
        -0.81852E+10
        -0.28531E+02
        -0.71927E+10
        -0.26052E+02
        -0.60949E+10
        -0.23483E+02
        -0.54485E+10
        -0.23456E+02
        -0.48072E+10
        -0.26218E+02
        -0.43822E+10
        -0.29895E+02
        -0.43979E+10
        -0.32116E+02
        -0.54282E+10
        -0.34685E+02
        -0.61426E+10
        -0.37160E+02
        -0.63874E+10
        -0.34041E+02
        -0.60054E+10
        -0.29863E+02
        -0.58056E+10
        -0.29771E+02
        -0.61403E+10
        -0.32573E+02
        -0.61351E+10
        -0.34725E+02
        -0.58828E+10
        -0.32954E+02
        -0.55534E+10
        -0.31858E+02
        -0.18959E+11
        -0.19251E+11
        -0.19212E+11
        -0.18832E+11
        -0.19527E+11
        -0.19179E+11
        -0.19609E+11
        -0.19386E+11
        -0.18893E+11
        -0.19202E+11
        -0.19844E+11
        -0.19915E+11
        -0.19725E+11
        -0.19712E+11
        -0.19835E+11
        -0.18850E+11
        -0.18922E+11
        -0.18721E+11
        -0.19282E+11
        -0.19181E+11
        -0.19325E+11
        -0.19230E+11
        -0.19405E+11
        -0.19360E+11
        -0.19190E+11
        -0.19202E+11
        -0.19491E+11
        -0.19465E+11
        -0.19676E+11
        -0.19356E+11
        -0.18886E+11
        -0.19255E+11
        -0.18888E+11
        -0.19132E+11
        -0.19964E+11
        -0.19703E+11
        -0.19577E+11
        -0.19725E+11
        -0.19744E+11
        -0.19982E+11
        -0.20153E+11
        -0.19733E+11
        -0.19319E+11
        -0.19376E+11
        -0.19589E+11
        -0.19955E+11
        -0.19643E+11
        -0.19301E+11
        -0.19325E+11
        -0.19590E+11
        -0.19856E+11
        -0.19497E+11
        -0.20559E+11
        -0.20255E+11
        -0.20306E+11
        -0.20234E+11
        -0.20253E+11
        -0.20417E+11
        -0.20584E+11
        -0.20638E+11
        -0.20615E+11
        -0.20631E+11
        -0.20701E+11
        -0.20269E+11
        -0.20103E+11
        -0.20038E+11
        -0.19927E+11
        -0.19843E+11
        -0.19847E+11
        -0.19990E+11
        -0.20458E+11
        -0.20348E+11
        -0.20188E+11
        -0.20189E+11
        -0.20218E+11
        -0.20371E+11
        -0.20144E+11
        -0.20059E+11
        -0.10432E+06
        -0.25526E+05
         0.43097E+05
         0.32829E+06
        -0.53090E+04
         0.32163E+06
        -0.11603E+06
        -0.54893E+06
         0.24243E+06
        -0.53037E+06
        -0.40253E+06
        -0.76571E+06
        -0.28751E+06
        -0.67343E+06
        -0.94813E+06
         0.45286E+05
         0.21041E+06
         0.27729E+06
        -0.89984E+05
         0.39847E+05
        -0.92558E+05
         0.10299E+06
        -0.18012E+06
        -0.71453E+05
        -0.41963E+06
        -0.37935E+05
        -0.90705E+06
        -0.73106E+06
        -0.37684E+06
        -0.37872E+06
         0.24109E+05
        -0.11449E+05
         0.25582E+06
         0.41735E+06
         0.14471E+05
        -0.24947E+05
        -0.75533E+05
        -0.82548E+06
        -0.80116E+06
        -0.59493E+06
        -0.14479E+06
        -0.83835E+05
        -0.81910E+05
        -0.24783E+06
        -0.30765E+06
        -0.66485E+06
        -0.27377E+06
        -0.55966E+05
        -0.40175E+05
        -0.21878E+05
         0.39777E+05
         0.36218E+06
        -0.48855E+06
         0.16560E+06
        -0.55372E+06
        -0.25895E+06
        -0.11229E+06
        -0.44259E+05
        -0.28292E+06
        -0.12954E+06
        -0.26836E+06
        -0.41622E+06
         0.24733E+05
         0.24518E+06
         0.59633E+05
         0.33528E+06
        -0.12735E+06
        -0.54991E+06
        -0.73127E+06
        -0.92686E+06
        -0.12343E+07
        -0.93773E+06
        -0.84188E+06
        -0.98427E+06
        -0.11111E+07
        -0.67007E+06
        -0.26275E+05
         0.25947E+06
        -0.12215E+06
        -0.43558E+05
         0.25189E+05
         0.31221E+06
        -0.26405E+05
         0.30231E+06
        -0.13575E+06
        -0.57011E+06
         0.22342E+06
        -0.55457E+06
        -0.42469E+06
        -0.79677E+06
        -0.31322E+06
        -0.69531E+06
        -0.98009E+06
         0.26469E+05
         0.18967E+06
         0.26142E+06
        -0.11116E+06
         0.17856E+05
        -0.11851E+06
         0.78212E+05
        -0.20605E+06
        -0.92900E+05
        -0.44486E+06
        -0.58354E+05
        -0.92822E+06
        -0.75323E+06
        -0.40044E+06
        -0.40398E+06
         0.58905E+04
        -0.30797E+05
         0.23924E+06
         0.40101E+06
        -0.10986E+05
        -0.45301E+05
        -0.96182E+05
        -0.85655E+06
        -0.82909E+06
        -0.62120E+06
        -0.17499E+06
        -0.11263E+06
        -0.10950E+06
        -0.27191E+06
        -0.32956E+06
        -0.69114E+06
        -0.29537E+06
        -0.76208E+05
        -0.58321E+05
        -0.39826E+05
         0.16420E+05
         0.34255E+06
        -0.54311E+06
         0.11224E+06
        -0.60645E+06
        -0.30929E+06
        -0.16573E+06
        -0.10378E+06
        -0.34225E+06
        -0.18925E+06
        -0.32885E+06
        -0.47816E+06
        -0.36812E+05
         0.18824E+06
         0.12503E+05
         0.29132E+06
        -0.17355E+06
        -0.59948E+06
        -0.78210E+06
        -0.98003E+06
        -0.12876E+07
        -0.99407E+06
        -0.89492E+06
        -0.10321E+07
        -0.11592E+07
        -0.71899E+06
        -0.75763E+05
         0.20914E+06
        -0.11860E+06
        -0.40085E+05
         0.28829E+05
         0.31639E+06
        -0.21107E+05
         0.30744E+06
        -0.13179E+06
        -0.56688E+06
         0.22591E+06
        -0.55616E+06
        -0.42033E+06
        -0.79071E+06
        -0.30832E+06
        -0.68988E+06
        -0.97323E+06
         0.22665E+05
         0.18848E+06
         0.26572E+06
        -0.11649E+06
         0.13715E+05
        -0.12300E+06
         0.76563E+05
        -0.22307E+06
        -0.10837E+06
        -0.45646E+06
        -0.72644E+05
        -0.92405E+06
        -0.75616E+06
        -0.40987E+06
        -0.42180E+06
         0.58830E+04
        -0.35165E+05
         0.24354E+06
         0.40630E+06
        -0.42760E+04
        -0.40237E+05
        -0.91627E+05
        -0.85199E+06
        -0.82598E+06
        -0.62023E+06
        -0.17588E+06
        -0.12306E+06
        -0.12439E+06
        -0.28809E+06
        -0.33337E+06
        -0.68758E+06
        -0.29152E+06
        -0.71440E+05
        -0.52652E+05
        -0.33270E+05
         0.23069E+05
         0.34820E+06
        -0.52678E+06
         0.12680E+06
        -0.59038E+06
        -0.29682E+06
        -0.15651E+06
        -0.94463E+05
        -0.33037E+06
        -0.17735E+06
        -0.31698E+06
        -0.46577E+06
        -0.29486E+05
         0.18792E+06
         0.13266E+05
         0.29938E+06
        -0.16815E+06
        -0.60957E+06
        -0.79317E+06
        -0.97725E+06
        -0.12731E+07
        -0.97709E+06
        -0.87989E+06
        -0.10169E+07
        -0.11421E+07
        -0.70446E+06
        -0.63884E+05
         0.22064E+06
        -0.12158E+06
        -0.41665E+05
         0.27205E+05
         0.31376E+06
        -0.23259E+05
         0.30573E+06
        -0.13355E+06
        -0.57073E+06
         0.22000E+06
        -0.56794E+06
        -0.42271E+06
        -0.79384E+06
        -0.31039E+06
        -0.69244E+06
        -0.97790E+06
         0.76871E+04
         0.17622E+06
         0.26288E+06
        -0.13503E+06
        -0.47841E+04
        -0.14275E+06
         0.59439E+05
        -0.26268E+06
        -0.14298E+06
        -0.48611E+06
        -0.10524E+06
        -0.92982E+06
        -0.77411E+06
        -0.43888E+06
        -0.46361E+06
        -0.29709E+04
        -0.52582E+05
         0.24088E+06
         0.40360E+06
        -0.75116E+04
        -0.42331E+05
        -0.93290E+05
        -0.85830E+06
        -0.83377E+06
        -0.63248E+06
        -0.19310E+06
        -0.15566E+06
        -0.16462E+06
        -0.32612E+06
        -0.35160E+06
        -0.69822E+06
        -0.29855E+06
        -0.75069E+05
        -0.55280E+05
        -0.36025E+05
         0.19569E+05
         0.34611E+06
        -0.53435E+06
         0.12150E+06
        -0.59883E+06
        -0.30408E+06
        -0.16147E+06
        -0.10005E+06
        -0.33975E+06
        -0.18744E+06
        -0.32690E+06
        -0.47776E+06
        -0.48435E+05
         0.15726E+06
        -0.15301E+05
         0.28582E+06
        -0.18338E+06
        -0.65174E+06
        -0.83804E+06
        -0.99832E+06
        -0.12831E+07
        -0.98657E+06
        -0.88716E+06
        -0.10254E+07
        -0.11511E+07
        -0.71037E+06
        -0.68321E+05
         0.21627E+06
        -0.12656E+06
        -0.44812E+05
         0.24482E+05
         0.31105E+06
        -0.25708E+05
         0.30339E+06
        -0.13625E+06
        -0.57630E+06
         0.21304E+06
        -0.58008E+06
        -0.42525E+06
        -0.79575E+06
        -0.31268E+06
        -0.69526E+06
        -0.98055E+06
        -0.24561E+04
         0.16649E+06
         0.26025E+06
        -0.14729E+06
        -0.18093E+05
        -0.15556E+06
         0.47131E+05
        -0.28703E+06
        -0.16440E+06
        -0.50779E+06
        -0.12606E+06
        -0.93484E+06
        -0.78704E+06
        -0.45882E+06
        -0.49152E+06
        -0.12206E+05
        -0.65206E+05
         0.23579E+06
         0.39985E+06
        -0.10857E+05
        -0.44997E+05
        -0.95785E+05
        -0.86319E+06
        -0.84047E+06
        -0.64194E+06
        -0.20532E+06
        -0.17755E+06
        -0.19101E+06
        -0.35044E+06
        -0.36373E+06
        -0.70531E+06
        -0.30482E+06
        -0.81001E+05
        -0.60275E+05
        -0.40472E+05
         0.14094E+05
         0.34269E+06
        -0.54116E+06
         0.11687E+06
        -0.60605E+06
        -0.30973E+06
        -0.16382E+06
        -0.10165E+06
        -0.34370E+06
        -0.19406E+06
        -0.33533E+06
        -0.48518E+06
        -0.59976E+05
         0.13602E+06
        -0.34779E+05
         0.27534E+06
        -0.19414E+06
        -0.67910E+06
        -0.86964E+06
        -0.10134E+07
        -0.12877E+07
        -0.99517E+06
        -0.89678E+06
        -0.10352E+07
        -0.11627E+07
        -0.72004E+06
        -0.74241E+05
         0.21190E+06
        -0.13790E+06
        -0.50776E+05
         0.21792E+05
         0.31317E+06
        -0.23055E+05
         0.30695E+06
        -0.13814E+06
        -0.58504E+06
         0.20351E+06
        -0.59556E+06
        -0.42349E+06
        -0.78869E+06
        -0.31012E+06
        -0.69432E+06
        -0.97257E+06
        -0.65733E+03
         0.16412E+06
         0.26465E+06
        -0.14497E+06
        -0.16098E+05
        -0.15216E+06
         0.51408E+05
        -0.28653E+06
        -0.16478E+06
        -0.51773E+06
        -0.12890E+06
        -0.93601E+06
        -0.78849E+06
        -0.45755E+06
        -0.49297E+06
        -0.23229E+05
        -0.71824E+05
         0.22735E+06
         0.39888E+06
        -0.78727E+04
        -0.44780E+05
        -0.96267E+05
        -0.85856E+06
        -0.83734E+06
        -0.63775E+06
        -0.19967E+06
        -0.17400E+06
        -0.18825E+06
        -0.35228E+06
        -0.36550E+06
        -0.70660E+06
        -0.31030E+06
        -0.93128E+05
        -0.73343E+05
        -0.46829E+05
         0.12312E+05
         0.34442E+06
        -0.52772E+06
         0.13065E+06
        -0.59490E+06
        -0.30218E+06
        -0.15593E+06
        -0.90748E+05
        -0.33136E+06
        -0.18221E+06
        -0.32196E+06
        -0.46737E+06
        -0.44412E+05
         0.14534E+06
        -0.24498E+05
         0.28599E+06
        -0.18375E+06
        -0.67087E+06
        -0.86385E+06
        -0.10075E+07
        -0.12806E+07
        -0.99015E+06
        -0.89794E+06
        -0.10420E+07
        -0.11673E+07
        -0.71762E+06
        -0.67382E+05
         0.22171E+06
        -0.15465E+06
        -0.61251E+05
         0.15534E+05
         0.31148E+06
        -0.25479E+05
         0.30668E+06
        -0.14613E+06
        -0.60085E+06
         0.18781E+06
        -0.61717E+06
        -0.42893E+06
        -0.79127E+06
        -0.31432E+06
        -0.70132E+06
        -0.97527E+06
        -0.37369E+04
         0.15610E+06
         0.26387E+06
        -0.14726E+06
        -0.19142E+05
        -0.15417E+06
         0.50165E+05
        -0.28849E+06
        -0.16735E+06
        -0.53128E+06
        -0.13409E+06
        -0.94459E+06
        -0.79511E+06
        -0.45957E+06
        -0.49671E+06
        -0.38638E+05
        -0.82716E+05
         0.21454E+06
         0.39388E+06
        -0.11803E+05
        -0.49086E+05
        -0.10116E+06
        -0.86367E+06
        -0.84255E+06
        -0.64042E+06
        -0.20093E+06
        -0.17440E+06
        -0.18856E+06
        -0.35626E+06
        -0.37235E+06
        -0.71661E+06
        -0.32280E+06
        -0.11150E+06
        -0.92291E+05
        -0.58541E+05
         0.50139E+04
         0.34211E+06
        -0.53326E+06
         0.12625E+06
        -0.59840E+06
        -0.30599E+06
        -0.16152E+06
        -0.97323E+05
        -0.33676E+06
        -0.18677E+06
        -0.32671E+06
        -0.47090E+06
        -0.47220E+05
         0.14186E+06
        -0.25098E+05
         0.28512E+06
        -0.18601E+06
        -0.67225E+06
        -0.86675E+06
        -0.10171E+07
        -0.12947E+07
        -0.10057E+07
        -0.91544E+06
        -0.10635E+07
        -0.11863E+07
        -0.72747E+06
        -0.72615E+05
         0.21767E+06
        -0.15958E+06
        -0.65118E+05
         0.12882E+05
         0.30923E+06
        -0.28069E+05
         0.30440E+06
        -0.15021E+06
        -0.60695E+06
         0.18277E+06
        -0.62522E+06
        -0.43286E+06
        -0.79494E+06
        -0.31845E+06
        -0.70515E+06
        -0.97930E+06
        -0.65160E+04
         0.15277E+06
         0.26183E+06
        -0.14937E+06
        -0.21513E+05
        -0.15719E+06
         0.47298E+05
        -0.29105E+06
        -0.16930E+06
        -0.53687E+06
        -0.13700E+06
        -0.94825E+06
        -0.79862E+06
        -0.46314E+06
        -0.50029E+06
        -0.43668E+05
        -0.86982E+05
         0.21033E+06
         0.39104E+06
        -0.15116E+05
        -0.51454E+05
        -0.10416E+06
        -0.86994E+06
        -0.84838E+06
        -0.64548E+06
        -0.20620E+06
        -0.17824E+06
        -0.19112E+06
        -0.35986E+06
        -0.37656E+06
        -0.72139E+06
        -0.32714E+06
        -0.11605E+06
        -0.96699E+05
        -0.62133E+05
         0.51387E+03
         0.33922E+06
        -0.54088E+06
         0.11866E+06
        -0.60368E+06
        -0.31127E+06
        -0.16799E+06
        -0.10289E+06
        -0.34244E+06
        -0.19460E+06
        -0.33727E+06
        -0.48196E+06
        -0.57231E+05
         0.13727E+06
        -0.28669E+05
         0.27748E+06
        -0.19401E+06
        -0.67998E+06
        -0.87696E+06
        -0.10268E+07
        -0.13028E+07
        -0.10122E+07
        -0.92082E+06
        -0.10707E+07
        -0.11959E+07
        -0.73615E+06
        -0.79909E+05
         0.21049E+06
        -0.15662E+06
        -0.62462E+05
         0.14674E+05
         0.30982E+06
        -0.25629E+05
         0.30503E+06
        -0.14754E+06
        -0.60425E+06
         0.18504E+06
        -0.62382E+06
        -0.43037E+06
        -0.79108E+06
        -0.31585E+06
        -0.70114E+06
        -0.97411E+06
        -0.30220E+04
         0.15568E+06
         0.26386E+06
        -0.14589E+06
        -0.18295E+05
        -0.15372E+06
         0.50714E+05
        -0.28738E+06
        -0.16572E+06
        -0.53494E+06
        -0.13358E+06
        -0.94301E+06
        -0.79447E+06
        -0.46000E+06
        -0.49776E+06
        -0.40731E+05
        -0.84413E+05
         0.21225E+06
         0.39194E+06
        -0.11253E+05
        -0.48877E+05
        -0.10190E+06
        -0.86670E+06
        -0.84666E+06
        -0.64344E+06
        -0.20297E+06
        -0.17446E+06
        -0.18740E+06
        -0.35698E+06
        -0.37427E+06
        -0.71860E+06
        -0.32477E+06
        -0.11286E+06
        -0.93144E+05
        -0.58989E+05
         0.24802E+04
         0.34001E+06
        -0.52939E+06
         0.12986E+06
        -0.59710E+06
        -0.30851E+06
        -0.16243E+06
        -0.94043E+05
        -0.33258E+06
        -0.18753E+06
        -0.33466E+06
        -0.47785E+06
        -0.49837E+05
         0.14769E+06
        -0.19583E+05
         0.28332E+06
        -0.18842E+06
        -0.67362E+06
        -0.87064E+06
        -0.10188E+07
        -0.12952E+07
        -0.10031E+07
        -0.91160E+06
        -0.10625E+07
        -0.11890E+07
        -0.72984E+06
        -0.73569E+05
         0.21737E+06
        -0.15752E+06
        -0.62659E+05
         0.14035E+05
         0.30830E+06
        -0.26305E+05
         0.30379E+06
        -0.14810E+06
        -0.60663E+06
         0.18224E+06
        -0.62832E+06
        -0.43215E+06
        -0.79327E+06
        -0.31652E+06
        -0.70305E+06
        -0.97830E+06
        -0.47586E+04
         0.15347E+06
         0.26167E+06
        -0.14766E+06
        -0.20129E+05
        -0.15540E+06
         0.48872E+05
        -0.28873E+06
        -0.16699E+06
        -0.53745E+06
        -0.13473E+06
        -0.94418E+06
        -0.79486E+06
        -0.46086E+06
        -0.49968E+06
        -0.42296E+05
        -0.85664E+05
         0.20991E+06
         0.38983E+06
        -0.12436E+05
        -0.49982E+05
        -0.10264E+06
        -0.87222E+06
        -0.85049E+06
        -0.64628E+06
        -0.20565E+06
        -0.17590E+06
        -0.18960E+06
        -0.35823E+06
        -0.37545E+06
        -0.72023E+06
        -0.32694E+06
        -0.11495E+06
        -0.94638E+05
        -0.59948E+05
         0.74107E+03
         0.33837E+06
        -0.53265E+06
         0.12719E+06
        -0.60261E+06
        -0.31308E+06
        -0.16313E+06
        -0.97218E+05
        -0.34000E+06
        -0.19575E+06
        -0.33960E+06
        -0.48521E+06
        -0.57860E+05
         0.14363E+06
        -0.24276E+05
         0.28072E+06
        -0.19083E+06
        -0.67598E+06
        -0.87125E+06
        -0.10205E+07
        -0.12976E+07
        -0.10092E+07
        -0.91924E+06
        -0.10684E+07
        -0.11921E+07
        -0.73113E+06
        -0.76759E+05
         0.21285E+06
        -0.15984E+06
        -0.64614E+05
         0.12458E+05
         0.30738E+06
        -0.28173E+05
         0.30297E+06
        -0.14981E+06
        -0.60965E+06
         0.17963E+06
        -0.63282E+06
        -0.43412E+06
        -0.79619E+06
        -0.31842E+06
        -0.70452E+06
        -0.98258E+06
        -0.71597E+04
         0.15170E+06
         0.26042E+06
        -0.14979E+06
        -0.21500E+05
        -0.15749E+06
         0.47003E+05
        -0.29075E+06
        -0.16899E+06
        -0.53993E+06
        -0.13698E+06
        -0.94502E+06
        -0.79573E+06
        -0.46186E+06
        -0.50121E+06
        -0.44551E+05
        -0.87769E+05
         0.20853E+06
         0.38941E+06
        -0.15355E+05
        -0.51852E+05
        -0.10427E+06
        -0.87760E+06
        -0.85462E+06
        -0.64883E+06
        -0.20727E+06
        -0.17710E+06
        -0.19161E+06
        -0.36030E+06
        -0.37736E+06
        -0.72237E+06
        -0.32899E+06
        -0.11675E+06
        -0.96056E+05
        -0.60709E+05
        -0.91065E+03
         0.33768E+06
        -0.53921E+06
         0.12162E+06
        -0.60684E+06
        -0.31448E+06
        -0.16500E+06
        -0.10370E+06
        -0.34934E+06
        -0.20316E+06
        -0.34472E+06
        -0.49050E+06
        -0.61136E+05
         0.13962E+06
        -0.29913E+05
         0.27686E+06
        -0.19484E+06
        -0.68075E+06
        -0.87461E+06
        -0.10243E+07
        -0.13022E+07
        -0.10142E+07
        -0.92506E+06
        -0.10744E+07
        -0.11964E+07
        -0.73503E+06
        -0.81699E+05
         0.20768E+06
        -0.15849E+06
        -0.63763E+05
         0.13030E+05
         0.30852E+06
        -0.26581E+05
         0.30459E+06
        -0.14811E+06
        -0.60807E+06
         0.18034E+06
        -0.63354E+06
        -0.43179E+06
        -0.79353E+06
        -0.31765E+06
        -0.70083E+06
        -0.97780E+06
        -0.52247E+04
         0.15277E+06
         0.26245E+06
        -0.14776E+06
        -0.18914E+05
        -0.15477E+06
         0.50054E+05
        -0.28828E+06
        -0.16678E+06
        -0.53968E+06
        -0.13478E+06
        -0.94167E+06
        -0.79307E+06
        -0.45835E+06
        -0.49841E+06
        -0.42229E+05
        -0.85995E+05
         0.21087E+06
         0.39168E+06
        -0.12953E+05
        -0.50228E+05
        -0.10335E+06
        -0.87514E+06
        -0.85289E+06
        -0.64556E+06
        -0.20364E+06
        -0.17421E+06
        -0.18862E+06
        -0.35866E+06
        -0.37607E+06
        -0.72089E+06
        -0.32766E+06
        -0.11482E+06
        -0.93580E+05
        -0.57925E+05
         0.11463E+04
         0.33976E+06
        -0.53080E+06
         0.13064E+06
        -0.59844E+06
        -0.31030E+06
        -0.16643E+06
        -0.10318E+06
        -0.34248E+06
        -0.19558E+06
        -0.33974E+06
        -0.48285E+06
        -0.53868E+05
         0.14300E+06
        -0.23838E+05
         0.28298E+06
        -0.18920E+06
        -0.67648E+06
        -0.87191E+06
        -0.10207E+07
        -0.12987E+07
        -0.10087E+07
        -0.91872E+06
        -0.10682E+07
        -0.11912E+07
        -0.73034E+06
        -0.74833E+05
         0.21572E+06
        -0.15962E+06
        -0.65325E+05
         0.11497E+05
         0.30680E+06
        -0.28485E+05
         0.30284E+06
        -0.15026E+06
        -0.61091E+06
         0.17813E+06
        -0.63855E+06
        -0.43456E+06
        -0.79719E+06
        -0.32146E+06
        -0.70329E+06
        -0.98108E+06
        -0.71720E+04
         0.15052E+06
         0.26011E+06
        -0.15034E+06
        -0.21086E+05
        -0.15836E+06
         0.46707E+05
        -0.29172E+06
        -0.16910E+06
        -0.54350E+06
        -0.13675E+06
        -0.94480E+06
        -0.79642E+06
        -0.46101E+06
        -0.50076E+06
        -0.44328E+05
        -0.87979E+05
         0.20806E+06
         0.38977E+06
        -0.15741E+05
        -0.52405E+05
        -0.10602E+06
        -0.88093E+06
        -0.85876E+06
        -0.65001E+06
        -0.20858E+06
        -0.17843E+06
        -0.19201E+06
        -0.36257E+06
        -0.37935E+06
        -0.72392E+06
        -0.33046E+06
        -0.11765E+06
        -0.95527E+05
        -0.58876E+05
        -0.10650E+04
         0.33788E+06
        -0.53729E+06
         0.12494E+06
        -0.60505E+06
        -0.31776E+06
        -0.17521E+06
        -0.11147E+06
        -0.34750E+06
        -0.20198E+06
        -0.34836E+06
        -0.49136E+06
        -0.64221E+05
         0.13271E+06
        -0.30576E+05
         0.27598E+06
        -0.19520E+06
        -0.68348E+06
        -0.88286E+06
        -0.10305E+07
        -0.13036E+07
        -0.10154E+07
        -0.92565E+06
        -0.10718E+07
        -0.11936E+07
        -0.73521E+06
        -0.81551E+05
         0.20908E+06
        -0.15990E+06
        -0.65826E+05
         0.10938E+05
         0.30621E+06
        -0.28861E+05
         0.30230E+06
        -0.15069E+06
        -0.61204E+06
         0.17762E+06
        -0.64091E+06
        -0.43513E+06
        -0.79762E+06
        -0.32210E+06
        -0.70301E+06
        -0.98169E+06
        -0.75827E+04
         0.15047E+06
         0.25964E+06
        -0.15073E+06
        -0.21217E+05
        -0.15932E+06
         0.46160E+05
        -0.29251E+06
        -0.16950E+06
        -0.54499E+06
        -0.13724E+06
        -0.94414E+06
        -0.79686E+06
        -0.46163E+06
        -0.50164E+06
        -0.45439E+05
        -0.88716E+05
         0.20686E+06
         0.38934E+06
        -0.16363E+05
        -0.53139E+05
        -0.10684E+06
        -0.88411E+06
        -0.86265E+06
        -0.65212E+06
        -0.20933E+06
        -0.17873E+06
        -0.19252E+06
        -0.36349E+06
        -0.38017E+06
        -0.72477E+06
        -0.33156E+06
        -0.11875E+06
        -0.96040E+05
        -0.58501E+05
        -0.14498E+04
         0.33748E+06
        -0.53740E+06
         0.12501E+06
        -0.60694E+06
        -0.32065E+06
        -0.17545E+06
        -0.11156E+06
        -0.34947E+06
        -0.20731E+06
        -0.35460E+06
        -0.49476E+06
        -0.64552E+05
         0.13164E+06
        -0.32270E+05
         0.27324E+06
        -0.19833E+06
        -0.68579E+06
        -0.88456E+06
        -0.10319E+07
        -0.13050E+07
        -0.10178E+07
        -0.92875E+06
        -0.10738E+07
        -0.11939E+07
        -0.73570E+06
        -0.84462E+05
         0.20649E+06
        -0.15543E+06
        -0.60789E+05
         0.15000E+05
         0.30932E+06
        -0.23853E+05
         0.30611E+06
        -0.14489E+06
        -0.60761E+06
         0.18045E+06
        -0.63897E+06
        -0.42930E+06
        -0.78938E+06
        -0.31537E+06
        -0.69675E+06
        -0.97419E+06
        -0.33422E+04
         0.15448E+06
         0.26340E+06
        -0.14609E+06
        -0.15950E+05
        -0.15298E+06
         0.52236E+05
        -0.28641E+06
        -0.16475E+06
        -0.54104E+06
        -0.13247E+06
        -0.93753E+06
        -0.78981E+06
        -0.45486E+06
        -0.49609E+06
        -0.40767E+05
        -0.83871E+05
         0.21054E+06
         0.39239E+06
        -0.99994E+04
        -0.48308E+05
        -0.10182E+06
        -0.87981E+06
        -0.85798E+06
        -0.64641E+06
        -0.20309E+06
        -0.17228E+06
        -0.18691E+06
        -0.35775E+06
        -0.37461E+06
        -0.71844E+06
        -0.32670E+06
        -0.11386E+06
        -0.91437E+05
        -0.54050E+05
         0.27951E+04
         0.34104E+06
        -0.52216E+06
         0.14011E+06
        -0.59430E+06
        -0.31140E+06
        -0.16420E+06
        -0.97118E+05
        -0.33735E+06
        -0.19809E+06
        -0.34444E+06
        -0.48355E+06
        -0.54450E+05
         0.14340E+06
        -0.22987E+05
         0.28351E+06
        -0.18652E+06
        -0.67354E+06
        -0.87088E+06
        -0.10169E+07
        -0.12922E+07
        -0.10043E+07
        -0.91739E+06
        -0.10653E+07
        -0.11846E+07
        -0.72436E+06
        -0.72175E+05
         0.21895E+06
        -0.15744E+06
        -0.62185E+05
         0.13568E+05
         0.30722E+06
        -0.26199E+05
         0.30430E+06
        -0.14681E+06
        -0.61099E+06
         0.17753E+06
        -0.64467E+06
        -0.43203E+06
        -0.79217E+06
        -0.31708E+06
        -0.69937E+06
        -0.97854E+06
        -0.58345E+04
         0.15168E+06
         0.26150E+06
        -0.14945E+06
        -0.18631E+05
        -0.15547E+06
         0.49180E+05
        -0.28855E+06
        -0.16756E+06
        -0.54534E+06
        -0.13529E+06
        -0.94032E+06
        -0.79209E+06
        -0.45532E+06
        -0.49789E+06
        -0.42298E+05
        -0.86134E+05
         0.20857E+06
         0.39007E+06
        -0.13603E+05
        -0.50282E+05
        -0.10314E+06
        -0.88628E+06
        -0.86299E+06
        -0.64866E+06
        -0.20629E+06
        -0.17554E+06
        -0.19082E+06
        -0.36074E+06
        -0.37750E+06
        -0.72132E+06
        -0.32907E+06
        -0.11544E+06
        -0.93008E+05
        -0.55846E+05
         0.14038E+03
         0.33910E+06
        -0.53176E+06
         0.13190E+06
        -0.60192E+06
        -0.31535E+06
        -0.16561E+06
        -0.10077E+06
        -0.34545E+06
        -0.20778E+06
        -0.35399E+06
        -0.49202E+06
        -0.64429E+05
         0.13191E+06
        -0.31006E+05
         0.27949E+06
        -0.18837E+06
        -0.67483E+06
        -0.87503E+06
        -0.10239E+07
        -0.12973E+07
        -0.10103E+07
        -0.92296E+06
        -0.10715E+07
        -0.11913E+07
        -0.72839E+06
        -0.75934E+05
         0.21267E+06
        -0.16072E+06
        -0.65814E+05
         0.98695E+04
         0.30444E+06
        -0.29845E+05
         0.30094E+06
        -0.14996E+06
        -0.61480E+06
         0.17361E+06
        -0.65302E+06
        -0.43530E+06
        -0.79675E+06
        -0.32080E+06
        -0.70205E+06
        -0.98385E+06
        -0.88822E+04
         0.14750E+06
         0.25930E+06
        -0.15223E+06
        -0.19886E+05
        -0.15848E+06
         0.45613E+05
        -0.29112E+06
        -0.16997E+06
        -0.55202E+06
        -0.13806E+06
        -0.94681E+06
        -0.79583E+06
        -0.44739E+06
        -0.49406E+06
        -0.45065E+05
        -0.89348E+05
         0.20662E+06
         0.38846E+06
        -0.17667E+05
        -0.53508E+05
        -0.10625E+06
        -0.89551E+06
        -0.86794E+06
        -0.64341E+06
        -0.20677E+06
        -0.17908E+06
        -0.19603E+06
        -0.36396E+06
        -0.38111E+06
        -0.72583E+06
        -0.33300E+06
        -0.11828E+06
        -0.94886E+05
        -0.57144E+05
        -0.22142E+04
         0.33671E+06
        -0.53814E+06
         0.12592E+06
        -0.60714E+06
        -0.31979E+06
        -0.17188E+06
        -0.11084E+06
        -0.35690E+06
        -0.21862E+06
        -0.36360E+06
        -0.49423E+06
        -0.81852E+05
         0.10446E+06
        -0.42277E+05
         0.27322E+06
        -0.19396E+06
        -0.67994E+06
        -0.88150E+06
        -0.10311E+07
        -0.13057E+07
        -0.10196E+07
        -0.92933E+06
        -0.10775E+07
        -0.11981E+07
        -0.73321E+06
        -0.83471E+05
         0.20425E+06
        -0.15647E+06
        -0.61180E+05
         0.14290E+05
         0.30823E+06
        -0.24517E+05
         0.30505E+06
        -0.14489E+06
        -0.61044E+06
         0.17535E+06
        -0.65631E+06
        -0.43008E+06
        -0.79057E+06
        -0.31582E+06
        -0.69613E+06
        -0.97722E+06
        -0.45950E+04
         0.15019E+06
         0.26283E+06
        -0.14685E+06
        -0.11274E+05
        -0.15325E+06
         0.50920E+05
        -0.28622E+06
        -0.16485E+06
        -0.55199E+06
        -0.13287E+06
        -0.94787E+06
        -0.79142E+06
        -0.42298E+06
        -0.47594E+06
        -0.41077E+05
        -0.84425E+05
         0.21022E+06
         0.39252E+06
        -0.10850E+05
        -0.48117E+05
        -0.10152E+06
        -0.89583E+06
        -0.86236E+06
        -0.62213E+06
        -0.19459E+06
        -0.17255E+06
        -0.19278E+06
        -0.35908E+06
        -0.37568E+06
        -0.71878E+06
        -0.32792E+06
        -0.11380E+06
        -0.89870E+05
        -0.51358E+05
         0.34290E+04
         0.34092E+06
        -0.52246E+06
         0.14126E+06
        -0.59152E+06
        -0.30878E+06
        -0.16488E+06
        -0.10261E+06
        -0.34555E+06
        -0.20712E+06
        -0.35117E+06
        -0.46982E+06
        -0.87514E+05
         0.82363E+05
        -0.41461E+05
         0.28172E+06
        -0.18675E+06
        -0.67398E+06
        -0.87422E+06
        -0.10186E+07
        -0.12903E+07
        -0.10052E+07
        -0.91700E+06
        -0.10647E+07
        -0.11838E+07
        -0.71971E+06
        -0.72493E+05
         0.21580E+06
        -0.17279E+06
        -0.78064E+05
        -0.22619E+04
         0.29240E+06
        -0.44254E+05
         0.28665E+06
        -0.16351E+06
        -0.63036E+06
         0.15691E+06
        -0.68212E+06
        -0.45108E+06
        -0.81944E+06
        -0.34157E+06
        -0.71774E+06
        -0.10078E+07
        -0.20960E+05
         0.13100E+06
         0.24701E+06
        -0.16562E+06
        -0.28825E+05
        -0.17768E+06
         0.27510E+05
        -0.30921E+06
        -0.18274E+06
        -0.57561E+06
        -0.14978E+06
        -0.97357E+06
        -0.81273E+06
        -0.43249E+06
        -0.48890E+06
        -0.57331E+05
        -0.10200E+06
         0.19352E+06
         0.37498E+06
        -0.35702E+05
        -0.68202E+05
        -0.12266E+06
        -0.92986E+06
        -0.88834E+06
        -0.63683E+06
        -0.21913E+06
        -0.19819E+06
        -0.21867E+06
        -0.38081E+06
        -0.39751E+06
        -0.74601E+06
        -0.34905E+06
        -0.13272E+06
        -0.10809E+06
        -0.70727E+05
        -0.21606E+05
         0.32073E+06
        -0.57689E+06
         0.88296E+05
        -0.64682E+06
        -0.36492E+06
        -0.22102E+06
        -0.15669E+06
        -0.40043E+06
        -0.26574E+06
        -0.40628E+06
        -0.52008E+06
        -0.15752E+06
         0.61826E+04
        -0.94921E+05
         0.23744E+06
        -0.23334E+06
        -0.72265E+06
        -0.92474E+06
        -0.10752E+07
        -0.13483E+07
        -0.10607E+07
        -0.96837E+06
        -0.11138E+07
        -0.12342E+07
        -0.77118E+06
        -0.12199E+06
         0.16671E+06
        -0.16360E+06
        -0.76864E+05
         0.65905E+03
         0.29828E+06
        -0.37875E+05
         0.29258E+06
        -0.16092E+06
        -0.61981E+06
         0.16787E+06
        -0.66749E+06
        -0.44554E+06
        -0.81881E+06
        -0.34818E+06
        -0.70375E+06
        -0.99513E+06
        -0.83043E+04
         0.14322E+06
         0.25562E+06
        -0.15574E+06
        -0.18326E+05
        -0.16698E+06
         0.35507E+05
        -0.29276E+06
        -0.16927E+06
        -0.55732E+06
        -0.13718E+06
        -0.95165E+06
        -0.78821E+06
        -0.41210E+06
        -0.47056E+06
        -0.47306E+05
        -0.94153E+05
         0.19808E+06
         0.37237E+06
        -0.31888E+05
        -0.69783E+05
        -0.12867E+06
        -0.91529E+06
        -0.87188E+06
        -0.62217E+06
        -0.20839E+06
        -0.18350E+06
        -0.20328E+06
        -0.36655E+06
        -0.38994E+06
        -0.74202E+06
        -0.34620E+06
        -0.12462E+06
        -0.10147E+06
        -0.69666E+05
        -0.19957E+05
         0.32118E+06
        -0.55588E+06
         0.11553E+06
        -0.64004E+06
        -0.37703E+06
        -0.24628E+06
        -0.17202E+06
        -0.37519E+06
        -0.23987E+06
        -0.38586E+06
        -0.50788E+06
        -0.15415E+06
         0.16552E+05
        -0.74703E+05
         0.24738E+06
        -0.21217E+06
        -0.69239E+06
        -0.89908E+06
        -0.10554E+07
        -0.13398E+07
        -0.10617E+07
        -0.95705E+06
        -0.10976E+07
        -0.12084E+07
        -0.73962E+06
        -0.97076E+05
         0.19254E+06
         0.64298E+08
         0.65710E+08
         0.65282E+08
         0.59873E+08
         0.78050E+08
         0.70771E+08
         0.71047E+08
         0.72993E+08
         0.62158E+08
         0.72527E+08
         0.78849E+08
         0.11038E+09
         0.94152E+08
         0.81170E+08
         0.11471E+09
         0.60594E+08
         0.65347E+08
         0.57233E+08
         0.67814E+08
         0.71082E+08
         0.87207E+08
         0.86746E+08
         0.81717E+08
         0.64870E+08
         0.71995E+08
         0.62169E+08
         0.80125E+08
         0.77820E+08
         0.78261E+08
         0.74577E+08
         0.61201E+08
         0.64349E+08
         0.60169E+08
         0.62974E+08
         0.94366E+08
         0.75213E+08
         0.77995E+08
         0.10520E+09
         0.95771E+08
         0.92301E+08
         0.10329E+09
         0.95531E+08
         0.90468E+08
         0.75927E+08
         0.76431E+08
         0.96025E+08
         0.76840E+08
         0.71095E+08
         0.69421E+08
         0.72172E+08
         0.88600E+08
         0.73169E+08
         0.19862E+09
         0.19478E+09
         0.19838E+09
         0.19180E+09
         0.19804E+09
         0.20804E+09
         0.20857E+09
         0.20546E+09
         0.20690E+09
         0.21334E+09
         0.20726E+09
         0.19565E+09
         0.17217E+09
         0.16216E+09
         0.16531E+09
         0.16958E+09
         0.17180E+09
         0.18760E+09
         0.20015E+09
         0.20111E+09
         0.18369E+09
         0.17676E+09
         0.18367E+09
         0.18196E+09
         0.18134E+09
         0.18167E+09
         0.88100E+09
         0.92084E+09
         0.90670E+09
         0.82218E+09
         0.10271E+10
         0.95999E+09
         0.99838E+09
         0.10109E+10
         0.85697E+09
         0.10101E+10
         0.11011E+10
         0.12480E+10
         0.11263E+10
         0.11356E+10
         0.12934E+10
         0.83992E+09
         0.90329E+09
         0.78115E+09
         0.93495E+09
         0.98505E+09
         0.10301E+10
         0.10523E+10
         0.98652E+09
         0.89674E+09
         0.10199E+10
         0.86288E+09
         0.11313E+10
         0.11094E+10
         0.11149E+10
         0.10575E+10
         0.84837E+09
         0.89247E+09
         0.82902E+09
         0.86905E+09
         0.11301E+10
         0.10302E+10
         0.10356E+10
         0.12494E+10
         0.12140E+10
         0.11983E+10
         0.12239E+10
         0.11600E+10
         0.10958E+10
         0.96043E+09
         0.10000E+10
         0.11303E+10
         0.10393E+10
         0.97407E+09
         0.95272E+09
         0.99015E+09
         0.10821E+10
         0.99397E+09
         0.18240E+10
         0.17783E+10
         0.18159E+10
         0.17595E+10
         0.18124E+10
         0.19054E+10
         0.19348E+10
         0.19283E+10
         0.19412E+10
         0.19864E+10
         0.19298E+10
         0.18160E+10
         0.16260E+10
         0.15366E+10
         0.15427E+10
         0.15637E+10
         0.15793E+10
         0.17127E+10
         0.18321E+10
         0.18400E+10
         0.17025E+10
         0.16494E+10
         0.17047E+10
         0.16924E+10
         0.16743E+10
         0.16694E+10
  
SCALARS                      stress_zz  double 1
LOOKUP_TABLE default
        -0.47878E+10
        -0.53816E+10
        -0.50051E+10
        -0.43282E+10
        -0.11477E+03
        -0.12870E+03
        -0.12323E+03
        -0.11195E+03
        -0.54023E+10
        -0.52015E+10
        -0.11573E+03
        -0.11200E+03
        -0.62377E+10
        -0.62692E+10
        -0.13751E+03
        -0.12930E+03
        -0.44276E+10
        -0.62231E+10
        -0.10161E+03
        -0.11270E+03
        -0.68778E+10
        -0.73840E+10
        -0.65776E+10
        -0.13629E+03
        -0.11902E+03
        -0.12291E+03
        -0.73644E+10
        -0.81006E+10
        -0.13075E+03
        -0.11027E+03
        -0.44603E+10
        -0.52436E+10
        -0.36973E+10
        -0.11158E+03
        -0.10373E+03
        -0.10085E+03
        -0.49139E+10
        -0.59087E+10
        -0.11804E+03
        -0.10772E+03
        -0.53086E+10
        -0.60749E+10
        -0.10202E+03
        -0.90320E+02
        -0.46572E+10
        -0.43674E+10
        -0.11180E+03
        -0.12493E+03
        -0.66867E+10
        -0.10922E+03
        -0.44241E+10
        -0.12834E+03
        -0.75770E+10
        -0.11534E+03
        -0.78085E+10
        -0.11064E+03
        -0.78049E+10
        -0.69804E+10
        -0.11273E+03
        -0.10978E+03
        -0.44763E+10
        -0.47779E+10
        -0.11304E+03
        -0.12779E+03
        -0.42876E+10
        -0.10907E+03
        -0.46464E+10
        -0.11904E+03
        -0.55870E+10
        -0.56807E+10
        -0.11459E+03
        -0.12007E+03
        -0.58923E+10
        -0.12107E+03
        -0.83613E+10
        -0.95657E+02
        -0.84897E+10
        -0.92849E+02
        -0.84258E+10
        -0.97901E+02
        -0.80712E+10
        -0.77014E+10
        -0.93277E+02
        -0.97247E+02
        -0.69538E+10
        -0.90572E+02
        -0.46725E+10
        -0.11877E+03
        -0.50306E+10
        -0.12156E+03
        -0.53238E+10
        -0.54844E+10
        -0.11674E+03
        -0.11810E+03
        -0.52862E+10
        -0.10727E+03
        -0.51453E+10
        -0.10574E+03
        -0.52727E+10
        -0.11320E+03
        -0.53178E+10
        -0.51888E+10
        -0.11100E+03
        -0.11426E+03
        -0.60233E+10
        -0.56856E+10
        -0.86185E+02
        -0.81061E+02
        -0.60873E+10
        -0.82295E+02
        -0.56975E+10
        -0.78907E+02
        -0.60823E+10
        -0.77808E+02
        -0.69307E+10
        -0.73529E+02
        -0.77488E+10
        -0.65322E+02
        -0.82363E+10
        -0.58819E+02
        -0.82859E+10
        -0.58411E+02
        -0.82705E+10
        -0.63343E+02
        -0.77416E+10
        -0.66572E+02
        -0.67483E+10
        -0.60787E+02
        -0.56497E+10
        -0.54793E+02
        -0.50027E+10
        -0.54731E+02
        -0.43609E+10
        -0.61175E+02
        -0.39356E+10
        -0.69754E+02
        -0.39513E+10
        -0.74937E+02
        -0.49824E+10
        -0.80932E+02
        -0.56973E+10
        -0.86706E+02
        -0.59423E+10
        -0.79429E+02
        -0.55600E+10
        -0.69680E+02
        -0.53601E+10
        -0.69465E+02
        -0.56950E+10
        -0.76003E+02
        -0.56898E+10
        -0.81025E+02
        -0.54373E+10
        -0.76892E+02
        -0.51077E+10
        -0.74336E+02
        -0.19359E+11
        -0.19651E+11
        -0.19612E+11
        -0.19232E+11
        -0.19928E+11
        -0.19579E+11
        -0.20010E+11
        -0.19787E+11
        -0.19292E+11
        -0.19602E+11
        -0.20246E+11
        -0.20317E+11
        -0.20127E+11
        -0.20114E+11
        -0.20237E+11
        -0.19250E+11
        -0.19321E+11
        -0.19120E+11
        -0.19683E+11
        -0.19582E+11
        -0.19726E+11
        -0.19631E+11
        -0.19806E+11
        -0.19761E+11
        -0.19590E+11
        -0.19602E+11
        -0.19892E+11
        -0.19866E+11
        -0.20078E+11
        -0.19757E+11
        -0.19285E+11
        -0.19656E+11
        -0.19288E+11
        -0.19532E+11
        -0.20366E+11
        -0.20104E+11
        -0.19978E+11
        -0.20126E+11
        -0.20145E+11
        -0.20384E+11
        -0.20555E+11
        -0.20134E+11
        -0.19720E+11
        -0.19777E+11
        -0.19990E+11
        -0.20356E+11
        -0.20045E+11
        -0.19702E+11
        -0.19726E+11
        -0.19991E+11
        -0.20257E+11
        -0.19897E+11
        -0.20961E+11
        -0.20657E+11
        -0.20707E+11
        -0.20636E+11
        -0.20654E+11
        -0.20818E+11
        -0.20986E+11
        -0.21040E+11
        -0.21017E+11
        -0.21033E+11
        -0.21103E+11
        -0.20670E+11
        -0.20504E+11
        -0.20439E+11
        -0.20328E+11
        -0.20243E+11
        -0.20247E+11
        -0.20391E+11
        -0.20860E+11
        -0.20750E+11
        -0.20589E+11
        -0.20591E+11
        -0.20619E+11
        -0.20773E+11
        -0.20545E+11
        -0.20460E+11
         0.11751E+07
         0.48786E+06
         0.57485E+06
         0.85369E+06
         0.98646E+06
         0.10985E+07
        -0.15450E+06
         0.20283E+05
         0.11085E+07
        -0.85088E+05
        -0.63357E+06
         0.76905E+06
         0.83087E+06
        -0.12917E+07
         0.39602E+06
         0.48591E+06
         0.56581E+06
         0.68387E+06
         0.13459E+06
         0.13394E+06
         0.58493E+06
         0.87235E+06
         0.30406E+06
        -0.84871E+05
        -0.47113E+06
        -0.50884E+05
        -0.18918E+07
        -0.16953E+07
        -0.83767E+06
        -0.34841E+06
         0.39334E+06
         0.34420E+05
         0.73805E+06
         0.10798E+07
         0.63826E+06
         0.34453E+06
         0.67355E+06
         0.20381E+06
         0.13228E+06
         0.31489E+06
         0.75483E+06
         0.53964E+06
         0.61332E+06
         0.25323E+06
         0.24388E+06
         0.47726E+06
         0.46829E+06
         0.47353E+06
         0.58737E+06
         0.89836E+06
         0.11168E+07
         0.12119E+07
         0.57930E+06
         0.14045E+07
         0.89410E+06
         0.15265E+07
         0.20444E+07
         0.24016E+07
         0.21650E+07
         0.22598E+07
         0.20443E+07
         0.17116E+07
         0.15985E+07
         0.14685E+07
         0.11695E+07
         0.14957E+07
         0.94291E+06
         0.55470E+06
         0.63021E+06
         0.67229E+06
         0.80831E+06
         0.13594E+07
         0.13614E+07
         0.11553E+07
         0.87762E+06
         0.87193E+06
         0.12304E+07
         0.15572E+07
         0.11354E+07
         0.44600E+06
         0.53356E+06
         0.81663E+06
         0.93881E+06
         0.10534E+07
        -0.20006E+06
        -0.25394E+05
         0.10660E+07
        -0.13357E+06
        -0.68505E+06
         0.71960E+06
         0.78451E+06
        -0.13439E+07
         0.34800E+06
         0.44241E+06
         0.51799E+06
         0.64667E+06
         0.85616E+05
         0.82387E+05
         0.53928E+06
         0.82688E+06
         0.25563E+06
        -0.13494E+06
        -0.52547E+06
        -0.98613E+05
        -0.19410E+07
        -0.17471E+07
        -0.89258E+06
        -0.40521E+06
         0.35122E+06
        -0.10807E+05
         0.69941E+06
         0.10420E+07
         0.58970E+06
         0.29700E+06
         0.62664E+06
         0.15290E+06
         0.81046E+05
         0.26245E+06
         0.70428E+06
         0.48870E+06
         0.56476E+06
         0.20393E+06
         0.19507E+06
         0.42939E+06
         0.41804E+06
         0.42590E+06
         0.54317E+06
         0.85393E+06
         0.10710E+07
         0.11649E+07
         0.51407E+06
         0.13411E+07
         0.83204E+06
         0.14671E+07
         0.19819E+07
         0.23325E+07
         0.20957E+07
         0.21888E+07
         0.19723E+07
         0.16385E+07
         0.15257E+07
         0.14011E+07
         0.11119E+07
         0.14416E+07
         0.88690E+06
         0.49542E+06
         0.56990E+06
         0.60989E+06
         0.74530E+06
         0.12930E+07
         0.12979E+07
         0.10976E+07
         0.82022E+06
         0.81294E+06
         0.11710E+07
         0.14967E+07
         0.11456E+07
         0.45433E+06
         0.54256E+06
         0.82687E+06
         0.95116E+06
         0.10652E+07
        -0.19036E+06
        -0.14078E+05
         0.10738E+07
        -0.12930E+06
        -0.67461E+06
         0.72904E+06
         0.79353E+06
        -0.13324E+07
         0.36040E+06
         0.43395E+06
         0.51581E+06
         0.65654E+06
         0.73647E+05
         0.72487E+05
         0.53177E+06
         0.82391E+06
         0.22386E+06
        -0.17107E+06
        -0.54803E+06
        -0.13205E+06
        -0.19311E+07
        -0.17540E+07
        -0.91448E+06
        -0.44473E+06
         0.35160E+06
        -0.21090E+05
         0.70949E+06
         0.10546E+07
         0.60260E+06
         0.30881E+06
         0.63693E+06
         0.16270E+06
         0.90849E+05
         0.26617E+06
         0.70330E+06
         0.47036E+06
         0.53864E+06
         0.17095E+06
         0.18664E+06
         0.43596E+06
         0.42716E+06
         0.43661E+06
         0.55457E+06
         0.86665E+06
         0.10838E+07
         0.11768E+07
         0.53337E+06
         0.13584E+07
         0.85116E+06
         0.14818E+07
         0.19927E+07
         0.23432E+07
         0.21094E+07
         0.22027E+07
         0.19865E+07
         0.16531E+07
         0.15343E+07
         0.14008E+07
         0.11128E+07
         0.14515E+07
         0.89346E+06
         0.48347E+06
         0.55697E+06
         0.61327E+06
         0.76258E+06
         0.13130E+07
         0.13160E+07
         0.11160E+07
         0.84059E+06
         0.83004E+06
         0.11849E+07
         0.15102E+07
         0.11406E+07
         0.45086E+06
         0.53927E+06
         0.82122E+06
         0.94656E+06
         0.10612E+07
        -0.19400E+06
        -0.19350E+05
         0.10620E+07
        -0.14889E+06
        -0.67991E+06
         0.72392E+06
         0.78998E+06
        -0.13395E+07
         0.35488E+06
         0.39946E+06
         0.48781E+06
         0.64976E+06
         0.30878E+05
         0.29073E+05
         0.49717E+06
         0.79250E+06
         0.14999E+06
        -0.25186E+06
        -0.61281E+06
        -0.20823E+06
        -0.19444E+07
        -0.17960E+07
        -0.98209E+06
        -0.54043E+06
         0.33133E+06
        -0.61832E+05
         0.70333E+06
         0.10485E+07
         0.59650E+06
         0.30390E+06
         0.63311E+06
         0.15401E+06
         0.79327E+05
         0.24286E+06
         0.67482E+06
         0.41269E+06
         0.46772E+06
         0.93227E+05
         0.14627E+06
         0.41668E+06
         0.41106E+06
         0.42775E+06
         0.54660E+06
         0.85767E+06
         0.10768E+07
         0.11707E+07
         0.52418E+06
         0.13521E+07
         0.84134E+06
         0.14732E+07
         0.19870E+07
         0.23366E+07
         0.20983E+07
         0.21906E+07
         0.19747E+07
         0.16389E+07
         0.15119E+07
         0.13646E+07
         0.10779E+07
         0.14348E+07
         0.87499E+06
         0.43309E+06
         0.50380E+06
         0.58865E+06
         0.75077E+06
         0.13018E+07
         0.13073E+07
         0.11057E+07
         0.82986E+06
         0.82264E+06
         0.11793E+07
         0.15046E+07
         0.11308E+07
         0.44373E+06
         0.53341E+06
         0.81538E+06
         0.94129E+06
         0.10556E+07
        -0.19985E+06
        -0.28618E+05
         0.10477E+07
        -0.16943E+06
        -0.68557E+06
         0.72072E+06
         0.78599E+06
        -0.13473E+07
         0.35250E+06
         0.37629E+06
         0.46573E+06
         0.64346E+06
         0.27733E+04
        -0.22395E+04
         0.47493E+06
         0.76994E+06
         0.10464E+06
        -0.30192E+06
        -0.65911E+06
        -0.25699E+06
        -0.19560E+07
        -0.18261E+07
        -0.10286E+07
        -0.60386E+06
         0.31015E+06
        -0.91415E+05
         0.69151E+06
         0.10400E+07
         0.59021E+06
         0.29766E+06
         0.62741E+06
         0.14777E+06
         0.70048E+05
         0.22543E+06
         0.65487E+06
         0.37403E+06
         0.42127E+06
         0.43926E+05
         0.11967E+06
         0.40399E+06
         0.39682E+06
         0.41357E+06
         0.53314E+06
         0.84470E+06
         0.10659E+07
         0.11615E+07
         0.51589E+06
         0.13466E+07
         0.83297E+06
         0.14665E+07
         0.19843E+07
         0.23346E+07
         0.20936E+07
         0.21826E+07
         0.19647E+07
         0.16301E+07
         0.14982E+07
         0.13395E+07
         0.10541E+07
         0.14219E+07
         0.86197E+06
         0.40048E+06
         0.46651E+06
         0.57107E+06
         0.74540E+06
         0.12916E+07
         0.12958E+07
         0.10939E+07
         0.81607E+06
         0.81070E+06
         0.11720E+07
         0.14991E+07
         0.11062E+07
         0.42996E+06
         0.52762E+06
         0.82080E+06
         0.94763E+06
         0.10638E+07
        -0.20383E+06
        -0.45484E+05
         0.10274E+07
        -0.19795E+06
        -0.68115E+06
         0.73176E+06
         0.79079E+06
        -0.13463E+07
         0.36665E+06
         0.38100E+06
         0.46086E+06
         0.65357E+06
         0.86839E+04
         0.21631E+04
         0.48147E+06
         0.77786E+06
         0.10570E+06
        -0.30291E+06
        -0.67814E+06
        -0.26379E+06
        -0.19586E+07
        -0.18295E+07
        -0.10257E+07
        -0.60564E+06
         0.28478E+06
        -0.10700E+06
         0.67187E+06
         0.10381E+07
         0.59601E+06
         0.29819E+06
         0.62630E+06
         0.15770E+06
         0.80051E+05
         0.23613E+06
         0.66511E+06
         0.38047E+06
         0.42636E+06
         0.40921E+05
         0.11628E+06
         0.40192E+06
         0.38452E+06
         0.38502E+06
         0.50093E+06
         0.82737E+06
         0.10622E+07
         0.11644E+07
         0.53175E+06
         0.13630E+07
         0.84628E+06
         0.14755E+07
         0.19935E+07
         0.23472E+07
         0.21078E+07
         0.21964E+07
         0.19806E+07
         0.16510E+07
         0.15165E+07
         0.13506E+07
         0.10666E+07
         0.14351E+07
         0.87458E+06
         0.41053E+06
         0.47376E+06
         0.57820E+06
         0.75392E+06
         0.12975E+07
         0.12945E+07
         0.10857E+07
         0.81060E+06
         0.81328E+06
         0.11799E+07
         0.15105E+07
         0.10679E+07
         0.40550E+06
         0.51349E+06
         0.81737E+06
         0.94241E+06
         0.10631E+07
        -0.22207E+06
        -0.79191E+05
         0.99276E+06
        -0.24107E+06
        -0.69345E+06
         0.72754E+06
         0.78346E+06
        -0.13637E+07
         0.36420E+06
         0.37435E+06
         0.44279E+06
         0.65156E+06
         0.38698E+04
        -0.51927E+04
         0.47842E+06
         0.77565E+06
         0.10218E+06
        -0.30897E+06
        -0.70564E+06
        -0.27608E+06
        -0.19784E+07
        -0.18449E+07
        -0.10304E+07
        -0.61279E+06
         0.24914E+06
        -0.13258E+06
         0.64203E+06
         0.10267E+07
         0.58861E+06
         0.28819E+06
         0.61521E+06
         0.15113E+06
         0.73756E+05
         0.23271E+06
         0.66372E+06
         0.37993E+06
         0.42602E+06
         0.33517E+05
         0.10161E+06
         0.38400E+06
         0.35609E+06
         0.34214E+06
         0.45528E+06
         0.79764E+06
         0.10477E+07
         0.11578E+07
         0.52498E+06
         0.13577E+07
         0.84231E+06
         0.14710E+07
         0.19870E+07
         0.23394E+07
         0.21013E+07
         0.21909E+07
         0.19750E+07
         0.16468E+07
         0.15132E+07
         0.13466E+07
         0.10659E+07
         0.14341E+07
         0.87185E+06
         0.40907E+06
         0.47068E+06
         0.56709E+06
         0.73722E+06
         0.12791E+07
         0.12736E+07
         0.10597E+07
         0.78791E+06
         0.80114E+06
         0.11733E+07
         0.15054E+07
         0.10569E+07
         0.39643E+06
         0.50777E+06
         0.81262E+06
         0.93681E+06
         0.10577E+07
        -0.23123E+06
        -0.90459E+05
         0.98302E+06
        -0.25270E+06
        -0.70218E+06
         0.72160E+06
         0.77624E+06
        -0.13737E+07
         0.35969E+06
         0.36840E+06
         0.43568E+06
         0.64664E+06
        -0.53697E+03
        -0.10969E+05
         0.47358E+06
         0.77045E+06
         0.97528E+05
        -0.31360E+06
        -0.71463E+06
        -0.28305E+06
        -0.19868E+07
        -0.18531E+07
        -0.10387E+07
        -0.61957E+06
         0.23770E+06
        -0.14272E+06
         0.63228E+06
         0.10203E+07
         0.58240E+06
         0.28275E+06
         0.60843E+06
         0.14262E+06
         0.66269E+05
         0.22442E+06
         0.65555E+06
         0.37329E+06
         0.42170E+06
         0.26925E+05
         0.92862E+05
         0.37567E+06
         0.34682E+06
         0.33155E+06
         0.44366E+06
         0.78690E+06
         0.10387E+07
         0.11499E+07
         0.51572E+06
         0.13487E+07
         0.83623E+06
         0.14647E+07
         0.19795E+07
         0.23329E+07
         0.20945E+07
         0.21814E+07
         0.19624E+07
         0.16337E+07
         0.15013E+07
         0.13412E+07
         0.10615E+07
         0.14247E+07
         0.86217E+06
         0.39998E+06
         0.45888E+06
         0.55587E+06
         0.72769E+06
         0.12715E+07
         0.12672E+07
         0.10511E+07
         0.77645E+06
         0.79038E+06
         0.11643E+07
         0.14965E+07
         0.10642E+07
         0.40258E+06
         0.51242E+06
         0.81451E+06
         0.94267E+06
         0.10591E+07
        -0.22464E+06
        -0.81165E+05
         0.99037E+06
        -0.24226E+06
        -0.69595E+06
         0.72759E+06
         0.78118E+06
        -0.13654E+07
         0.36952E+06
         0.37709E+06
         0.44311E+06
         0.65121E+06
         0.80916E+04
        -0.37083E+04
         0.48026E+06
         0.77680E+06
         0.10451E+06
        -0.30532E+06
        -0.70607E+06
        -0.27526E+06
        -0.19744E+07
        -0.18433E+07
        -0.10313E+07
        -0.61212E+06
         0.24484E+06
        -0.13691E+06
         0.63682E+06
         0.10227E+07
         0.58989E+06
         0.28882E+06
         0.61361E+06
         0.15024E+06
         0.73534E+05
         0.23065E+06
         0.66172E+06
         0.38014E+06
         0.42850E+06
         0.33659E+05
         0.98623E+05
         0.38112E+06
         0.35314E+06
         0.33905E+06
         0.45065E+06
         0.79192E+06
         0.10423E+07
         0.11505E+07
         0.52925E+06
         0.13620E+07
         0.84414E+06
         0.14680E+07
         0.19861E+07
         0.23430E+07
         0.21059E+07
         0.21896E+07
         0.19655E+07
         0.16385E+07
         0.15100E+07
         0.13536E+07
         0.10726E+07
         0.14319E+07
         0.86896E+06
         0.40780E+06
         0.46677E+06
         0.56548E+06
         0.73679E+06
         0.12821E+07
         0.12783E+07
         0.10610E+07
         0.78465E+06
         0.79762E+06
         0.11716E+07
         0.15044E+07
         0.10625E+07
         0.40206E+06
         0.51139E+06
         0.81145E+06
         0.94142E+06
         0.10561E+07
        -0.22559E+06
        -0.83714E+05
         0.98585E+06
        -0.24560E+06
        -0.69964E+06
         0.72399E+06
         0.78024E+06
        -0.13709E+07
         0.36475E+06
         0.37358E+06
         0.43863E+06
         0.64595E+06
         0.44719E+04
        -0.82320E+04
         0.47779E+06
         0.77348E+06
         0.10212E+06
        -0.30836E+06
        -0.70783E+06
        -0.27812E+06
        -0.19769E+07
        -0.18442E+07
        -0.10333E+07
        -0.61502E+06
         0.24148E+06
        -0.14001E+06
         0.63143E+06
         0.10181E+07
         0.58775E+06
         0.28634E+06
         0.61199E+06
         0.14301E+06
         0.69975E+05
         0.22691E+06
         0.65793E+06
         0.37778E+06
         0.42482E+06
         0.31897E+05
         0.96615E+05
         0.37851E+06
         0.34892E+06
         0.33427E+06
         0.44583E+06
         0.78732E+06
         0.10387E+07
         0.11455E+07
         0.52519E+06
         0.13589E+07
         0.83778E+06
         0.14626E+07
         0.19853E+07
         0.23392E+07
         0.20971E+07
         0.21797E+07
         0.19597E+07
         0.16298E+07
         0.15005E+07
         0.13489E+07
         0.10669E+07
         0.14287E+07
         0.86606E+06
         0.40516E+06
         0.46641E+06
         0.56364E+06
         0.73404E+06
         0.12749E+07
         0.12693E+07
         0.10540E+07
         0.78101E+06
         0.79575E+06
         0.11675E+07
         0.14987E+07
         0.10575E+07
         0.39742E+06
         0.50817E+06
         0.80983E+06
         0.93746E+06
         0.10541E+07
        -0.22921E+06
        -0.87805E+05
         0.98182E+06
        -0.24891E+06
        -0.70379E+06
         0.71921E+06
         0.77706E+06
        -0.13754E+07
         0.35987E+06
         0.36852E+06
         0.43516E+06
         0.64288E+06
         0.29353E+01
        -0.11679E+05
         0.47459E+06
         0.77011E+06
         0.98477E+05
        -0.31310E+06
        -0.70954E+06
        -0.28355E+06
        -0.19787E+07
        -0.18462E+07
        -0.10356E+07
        -0.61701E+06
         0.23651E+06
        -0.14511E+06
         0.62828E+06
         0.10174E+07
         0.58230E+06
         0.28205E+06
         0.60833E+06
         0.13604E+06
         0.65833E+05
         0.22375E+06
         0.65591E+06
         0.37581E+06
         0.42148E+06
         0.28423E+05
         0.93009E+05
         0.37497E+06
         0.34500E+06
         0.33013E+06
         0.44121E+06
         0.78321E+06
         0.10352E+07
         0.11428E+07
         0.51719E+06
         0.13522E+07
         0.83294E+06
         0.14610E+07
         0.19831E+07
         0.23316E+07
         0.20860E+07
         0.21707E+07
         0.19536E+07
         0.16235E+07
         0.14966E+07
         0.13442E+07
         0.10600E+07
         0.14240E+07
         0.86120E+06
         0.39963E+06
         0.46277E+06
         0.55935E+06
         0.72866E+06
         0.12689E+07
         0.12623E+07
         0.10468E+07
         0.77578E+06
         0.79072E+06
         0.11613E+07
         0.14922E+07
         0.10610E+07
         0.39935E+06
         0.50997E+06
         0.81300E+06
         0.94138E+06
         0.10578E+07
        -0.22489E+06
        -0.81149E+05
         0.98555E+06
        -0.24341E+06
        -0.69789E+06
         0.72332E+06
         0.77869E+06
        -0.13679E+07
         0.36901E+06
         0.37358E+06
         0.43833E+06
         0.64743E+06
         0.52480E+04
        -0.58872E+04
         0.47994E+06
         0.77579E+06
         0.10321E+06
        -0.30800E+06
        -0.70487E+06
        -0.27860E+06
        -0.19707E+07
        -0.18399E+07
        -0.10274E+07
        -0.60891E+06
         0.24222E+06
        -0.14115E+06
         0.63383E+06
         0.10230E+07
         0.58701E+06
         0.28592E+06
         0.61046E+06
         0.14232E+06
         0.73041E+05
         0.23247E+06
         0.66276E+06
         0.38109E+06
         0.42697E+06
         0.32599E+05
         0.96513E+05
         0.37804E+06
         0.34891E+06
         0.33472E+06
         0.44568E+06
         0.78739E+06
         0.10390E+07
         0.11465E+07
         0.52706E+06
         0.13630E+07
         0.84300E+06
         0.14659E+07
         0.19815E+07
         0.23321E+07
         0.20939E+07
         0.21795E+07
         0.19596E+07
         0.16324E+07
         0.15051E+07
         0.13483E+07
         0.10674E+07
         0.14316E+07
         0.86806E+06
         0.40493E+06
         0.46634E+06
         0.56376E+06
         0.73277E+06
         0.12753E+07
         0.12700E+07
         0.10542E+07
         0.78208E+06
         0.79602E+06
         0.11692E+07
         0.15015E+07
         0.10588E+07
         0.39564E+06
         0.50686E+06
         0.80952E+06
         0.93734E+06
         0.10536E+07
        -0.22953E+06
        -0.84784E+05
         0.98243E+06
        -0.24791E+06
        -0.70388E+06
         0.71737E+06
         0.77209E+06
        -0.13747E+07
         0.36568E+06
         0.36957E+06
         0.43377E+06
         0.64182E+06
        -0.26202E+03
        -0.11197E+05
         0.47409E+06
         0.76970E+06
         0.96925E+05
        -0.31349E+06
        -0.70967E+06
        -0.28336E+06
        -0.19778E+07
        -0.18477E+07
        -0.10336E+07
        -0.61284E+06
         0.23762E+06
        -0.14596E+06
         0.62734E+06
         0.10188E+07
         0.58181E+06
         0.28094E+06
         0.60445E+06
         0.13466E+06
         0.65533E+05
         0.22544E+06
         0.65516E+06
         0.37379E+06
         0.42119E+06
         0.25374E+05
         0.89873E+05
         0.37284E+06
         0.34324E+06
         0.32819E+06
         0.43984E+06
         0.78285E+06
         0.10345E+07
         0.11409E+07
         0.51915E+06
         0.13562E+07
         0.83534E+06
         0.14571E+07
         0.19713E+07
         0.23224E+07
         0.20878E+07
         0.21718E+07
         0.19493E+07
         0.16223E+07
         0.14928E+07
         0.13362E+07
         0.10592E+07
         0.14230E+07
         0.86080E+06
         0.39673E+06
         0.45366E+06
         0.55250E+06
         0.72706E+06
         0.12675E+07
         0.12618E+07
         0.10500E+07
         0.77911E+06
         0.78984E+06
         0.11609E+07
         0.14933E+07
         0.10585E+07
         0.39442E+06
         0.50602E+06
         0.80866E+06
         0.93678E+06
         0.10523E+07
        -0.23015E+06
        -0.84468E+05
         0.98332E+06
        -0.24620E+06
        -0.70475E+06
         0.71657E+06
         0.77118E+06
        -0.13751E+07
         0.36647E+06
         0.36915E+06
         0.43432E+06
         0.64056E+06
        -0.67207E+03
        -0.11740E+05
         0.47290E+06
         0.76876E+06
         0.95590E+05
        -0.31449E+06
        -0.70902E+06
        -0.28469E+06
        -0.19761E+07
        -0.18487E+07
        -0.10350E+07
        -0.61331E+06
         0.23531E+06
        -0.14786E+06
         0.62461E+06
         0.10181E+07
         0.58076E+06
         0.27931E+06
         0.60262E+06
         0.13144E+06
         0.61865E+05
         0.22314E+06
         0.65463E+06
         0.37343E+06
         0.42050E+06
         0.24289E+05
         0.88689E+05
         0.37167E+06
         0.34154E+06
         0.32568E+06
         0.43732E+06
         0.78140E+06
         0.10335E+07
         0.11388E+07
         0.51885E+06
         0.13563E+07
         0.83326E+06
         0.14537E+07
         0.19710E+07
         0.23221E+07
         0.20854E+07
         0.21653E+07
         0.19419E+07
         0.16182E+07
         0.14924E+07
         0.13350E+07
         0.10571E+07
         0.14196E+07
         0.85703E+06
         0.39415E+06
         0.45200E+06
         0.55105E+06
         0.72542E+06
         0.12646E+07
         0.12581E+07
         0.10476E+07
         0.77876E+06
         0.78892E+06
         0.11571E+07
         0.14898E+07
         0.10693E+07
         0.40612E+06
         0.51597E+06
         0.81643E+06
         0.94851E+06
         0.10611E+07
        -0.21627E+06
        -0.71166E+05
         0.99198E+06
        -0.23446E+06
        -0.69069E+06
         0.72953E+06
         0.78357E+06
        -0.13615E+07
         0.37983E+06
         0.37958E+06
         0.44436E+06
         0.64916E+06
         0.10661E+05
         0.30712E+03
         0.48467E+06
         0.78000E+06
         0.10709E+06
        -0.30348E+06
        -0.69569E+06
        -0.27373E+06
        -0.19604E+07
        -0.18322E+07
        -0.10191E+07
        -0.59878E+06
         0.24650E+06
        -0.13673E+06
         0.63329E+06
         0.10255E+07
         0.59299E+06
         0.29068E+06
         0.61407E+06
         0.14082E+06
         0.74725E+05
         0.23675E+06
         0.66582E+06
         0.38499E+06
         0.43062E+06
         0.36870E+05
         0.10171E+06
         0.38357E+06
         0.35369E+06
         0.33717E+06
         0.44675E+06
         0.78944E+06
         0.10416E+07
         0.11460E+07
         0.53686E+06
         0.13742E+07
         0.84832E+06
         0.14646E+07
         0.19842E+07
         0.23388E+07
         0.20993E+07
         0.21760E+07
         0.19540E+07
         0.16314E+07
         0.15043E+07
         0.13490E+07
         0.10684E+07
         0.14323E+07
         0.87137E+06
         0.40901E+06
         0.46866E+06
         0.56879E+06
         0.74065E+06
         0.12805E+07
         0.12718E+07
         0.10578E+07
         0.78990E+06
         0.80220E+06
         0.11715E+07
         0.15044E+07
         0.10651E+07
         0.40278E+06
         0.51309E+06
         0.81206E+06
         0.94345E+06
         0.10568E+07
        -0.22037E+06
        -0.76066E+05
         0.98726E+06
        -0.24051E+06
        -0.69656E+06
         0.72497E+06
         0.78075E+06
        -0.13687E+07
         0.37482E+06
         0.37431E+06
         0.43853E+06
         0.64457E+06
         0.33451E+04
        -0.61859E+04
         0.48078E+06
         0.77444E+06
         0.10324E+06
        -0.31010E+06
        -0.70156E+06
        -0.28049E+06
        -0.19668E+07
        -0.18374E+07
        -0.10201E+07
        -0.60141E+06
         0.24322E+06
        -0.14219E+06
         0.62878E+06
         0.10204E+07
         0.58626E+06
         0.28615E+06
         0.61112E+06
         0.13205E+06
         0.68873E+05
         0.23415E+06
         0.66116E+06
         0.37941E+06
         0.42393E+06
         0.31515E+05
         0.95936E+05
         0.37869E+06
         0.34901E+06
         0.33355E+06
         0.44179E+06
         0.78294E+06
         0.10362E+07
         0.11403E+07
         0.52523E+06
         0.13644E+07
         0.83947E+06
         0.14600E+07
         0.19826E+07
         0.23344E+07
         0.20897E+07
         0.21643E+07
         0.19427E+07
         0.16213E+07
         0.14924E+07
         0.13355E+07
         0.10586E+07
         0.14274E+07
         0.86914E+06
         0.40765E+06
         0.46408E+06
         0.56084E+06
         0.73466E+06
         0.12734E+07
         0.12652E+07
         0.10504E+07
         0.78189E+06
         0.79702E+06
         0.11667E+07
         0.14966E+07
         0.10578E+07
         0.39425E+06
         0.50492E+06
         0.80612E+06
         0.93542E+06
         0.10489E+07
        -0.22734E+06
        -0.82013E+05
         0.98021E+06
        -0.25275E+06
        -0.70372E+06
         0.71757E+06
         0.77429E+06
        -0.13760E+07
         0.36834E+06
         0.36775E+06
         0.42947E+06
         0.63928E+06
        -0.26282E+04
        -0.93513E+04
         0.47596E+06
         0.76794E+06
         0.98579E+05
        -0.31578E+06
        -0.71300E+06
        -0.28712E+06
        -0.19817E+07
        -0.18461E+07
        -0.10015E+07
        -0.59094E+06
         0.23705E+06
        -0.14986E+06
         0.62430E+06
         0.10169E+07
         0.57867E+06
         0.27871E+06
         0.60407E+06
         0.11867E+06
         0.63144E+05
         0.24676E+06
         0.66107E+06
         0.37333E+06
         0.41495E+06
         0.25724E+05
         0.88560E+05
         0.37085E+06
         0.34071E+06
         0.32702E+06
         0.43612E+06
         0.77760E+06
         0.10314E+07
         0.11336E+07
         0.51744E+06
         0.13573E+07
         0.83346E+06
         0.14547E+07
         0.19753E+07
         0.23226E+07
         0.20762E+07
         0.21513E+07
         0.19313E+07
         0.16186E+07
         0.14718E+07
         0.13031E+07
         0.10448E+07
         0.14197E+07
         0.86238E+06
         0.40171E+06
         0.45674E+06
         0.55251E+06
         0.72484E+06
         0.12623E+07
         0.12576E+07
         0.10433E+07
         0.77373E+06
         0.79089E+06
         0.11574E+07
         0.14862E+07
         0.10681E+07
         0.40500E+06
         0.51570E+06
         0.81549E+06
         0.94790E+06
         0.10584E+07
        -0.21513E+06
        -0.68915E+05
         0.98639E+06
        -0.25319E+06
        -0.69106E+06
         0.72726E+06
         0.78351E+06
        -0.13633E+07
         0.38032E+06
         0.37829E+06
         0.43646E+06
         0.64734E+06
         0.10442E+05
         0.10517E+05
         0.48576E+06
         0.77776E+06
         0.10785E+06
        -0.30390E+06
        -0.70876E+06
        -0.27519E+06
        -0.19841E+07
        -0.18358E+07
        -0.94448E+06
        -0.54721E+06
         0.24665E+06
        -0.13856E+06
         0.63278E+06
         0.10267E+07
         0.59176E+06
         0.29139E+06
         0.61489E+06
         0.12031E+06
         0.77641E+05
         0.29172E+06
         0.68223E+06
         0.38500E+06
         0.42088E+06
         0.36542E+05
         0.10130E+06
         0.38406E+06
         0.35338E+06
         0.33754E+06
         0.44651E+06
         0.78878E+06
         0.10423E+07
         0.11423E+07
         0.53598E+06
         0.13756E+07
         0.85203E+06
         0.14677E+07
         0.19836E+07
         0.23321E+07
         0.20893E+07
         0.21648E+07
         0.19461E+07
         0.16473E+07
         0.14651E+07
         0.12770E+07
         0.10458E+07
         0.14303E+07
         0.87114E+06
         0.40904E+06
         0.46577E+06
         0.56736E+06
         0.74304E+06
         0.12793E+07
         0.12725E+07
         0.10587E+07
         0.79089E+06
         0.80678E+06
         0.11703E+07
         0.14997E+07
         0.10306E+07
         0.36555E+06
         0.47754E+06
         0.77910E+06
         0.90307E+06
         0.10154E+07
        -0.25821E+06
        -0.11247E+06
         0.94549E+06
        -0.30616E+06
        -0.73960E+06
         0.68131E+06
         0.73738E+06
        -0.14147E+07
         0.33480E+06
         0.34064E+06
         0.39240E+06
         0.61028E+06
        -0.32856E+05
        -0.30654E+05
         0.44296E+06
         0.73477E+06
         0.65118E+05
        -0.34571E+06
        -0.75970E+06
        -0.31482E+06
        -0.20439E+07
        -0.18854E+07
        -0.96658E+06
        -0.57607E+06
         0.20901E+06
        -0.17975E+06
         0.59390E+06
         0.98604E+06
         0.54464E+06
         0.24461E+06
         0.56683E+06
         0.65315E+05
         0.31518E+05
         0.26369E+06
         0.64169E+06
         0.33983E+06
         0.37538E+06
        -0.72422E+04
         0.53380E+05
         0.33487E+06
         0.30494E+06
         0.29348E+06
         0.40272E+06
         0.74126E+06
         0.99288E+06
         0.10941E+07
         0.47085E+06
         0.13126E+07
         0.78692E+06
         0.14014E+07
         0.19179E+07
         0.22692E+07
         0.20251E+07
         0.20950E+07
         0.18805E+07
         0.15880E+07
         0.13823E+07
         0.11869E+07
         0.98050E+06
         0.13757E+07
         0.81469E+06
         0.35093E+06
         0.40599E+06
         0.50110E+06
         0.67456E+06
         0.12139E+07
         0.12110E+07
         0.99946E+06
         0.73064E+06
         0.74461E+06
         0.11108E+07
         0.14407E+07
         0.10524E+07
         0.36829E+06
         0.48485E+06
         0.79335E+06
         0.91797E+06
         0.10291E+07
        -0.25177E+06
        -0.84933E+05
         0.97322E+06
        -0.26478E+06
        -0.72619E+06
         0.68219E+06
         0.72574E+06
        -0.13831E+07
         0.35609E+06
         0.37072E+06
         0.42164E+06
         0.63020E+06
        -0.92824E+04
        -0.63708E+04
         0.46245E+06
         0.74952E+06
         0.95908E+05
        -0.31433E+06
        -0.71283E+06
        -0.28558E+06
        -0.19927E+07
        -0.18281E+07
        -0.91890E+06
        -0.53194E+06
         0.23270E+06
        -0.16160E+06
         0.60463E+06
         0.98026E+06
         0.55204E+06
         0.24101E+06
         0.55317E+06
         0.92038E+05
         0.66811E+05
         0.29502E+06
         0.66040E+06
         0.36586E+06
         0.40274E+06
         0.22796E+05
         0.70869E+05
         0.34250E+06
         0.31244E+06
         0.31246E+06
         0.41688E+06
         0.74144E+06
         0.99591E+06
         0.10940E+07
         0.49575E+06
         0.13450E+07
         0.79506E+06
         0.13871E+07
         0.18883E+07
         0.22513E+07
         0.20544E+07
         0.21256E+07
         0.19048E+07
         0.16023E+07
         0.13863E+07
         0.11993E+07
         0.10052E+07
         0.13880E+07
         0.84037E+06
         0.38736E+06
         0.43690E+06
         0.52454E+06
         0.68470E+06
         0.12127E+07
         0.12246E+07
         0.10191E+07
         0.76150E+06
         0.78219E+06
         0.11403E+07
         0.14713E+07
         0.14544E+09
         0.15387E+09
         0.15281E+09
         0.13980E+09
         0.17193E+09
         0.16548E+09
         0.16590E+09
         0.16515E+09
         0.14562E+09
         0.16671E+09
         0.18430E+09
         0.17521E+09
         0.16779E+09
         0.18966E+09
         0.17734E+09
         0.14178E+09
         0.15256E+09
         0.13358E+09
         0.15859E+09
         0.16590E+09
         0.15314E+09
         0.15735E+09
         0.15035E+09
         0.15144E+09
         0.16858E+09
         0.14510E+09
         0.18719E+09
         0.18159E+09
         0.18265E+09
         0.17458E+09
         0.14315E+09
         0.15021E+09
         0.14054E+09
         0.14705E+09
         0.17559E+09
         0.17590E+09
         0.17098E+09
         0.17559E+09
         0.18012E+09
         0.18199E+09
         0.17191E+09
         0.16647E+09
         0.15799E+09
         0.15258E+09
         0.16480E+09
         0.17291E+09
         0.17733E+09
         0.16649E+09
         0.16264E+09
         0.16931E+09
         0.17055E+09
         0.17107E+09
         0.23787E+09
         0.23241E+09
         0.23532E+09
         0.22808E+09
         0.23376E+09
         0.24350E+09
         0.24554E+09
         0.24578E+09
         0.24838E+09
         0.25336E+09
         0.24620E+09
         0.23246E+09
         0.21112E+09
         0.20073E+09
         0.20114E+09
         0.20400E+09
         0.20575E+09
         0.22193E+09
         0.23866E+09
         0.23906E+09
         0.22198E+09
         0.21544E+09
         0.22154E+09
         0.21998E+09
         0.21777E+09
         0.21842E+09
         0.11603E+10
         0.12194E+10
         0.12058E+10
         0.11233E+10
         0.13164E+10
         0.12572E+10
         0.13060E+10
         0.12993E+10
         0.11516E+10
         0.12995E+10
         0.14094E+10
         0.15171E+10
         0.14035E+10
         0.14393E+10
         0.15601E+10
         0.11293E+10
         0.12072E+10
         0.10851E+10
         0.12374E+10
         0.12936E+10
         0.12983E+10
         0.13258E+10
         0.12572E+10
         0.12011E+10
         0.13209E+10
         0.11694E+10
         0.14348E+10
         0.14218E+10
         0.14260E+10
         0.13593E+10
         0.11427E+10
         0.11975E+10
         0.11307E+10
         0.11728E+10
         0.14137E+10
         0.13275E+10
         0.13248E+10
         0.15252E+10
         0.15009E+10
         0.14883E+10
         0.14976E+10
         0.14355E+10
         0.13669E+10
         0.12381E+10
         0.12862E+10
         0.14103E+10
         0.13319E+10
         0.12682E+10
         0.12513E+10
         0.12866E+10
         0.13653E+10
         0.12875E+10
         0.20432E+10
         0.19914E+10
         0.20261E+10
         0.19662E+10
         0.20160E+10
         0.21075E+10
         0.21428E+10
         0.21484E+10
         0.21652E+10
         0.22063E+10
         0.21474E+10
         0.20265E+10
         0.18435E+10
         0.17522E+10
         0.17489E+10
         0.17645E+10
         0.17775E+10
         0.19121E+10
         0.20462E+10
         0.20514E+10
         0.19150E+10
         0.18632E+10
         0.19162E+10
         0.19057E+10
         0.18827E+10
         0.18788E+10
  
SCALARS                      stress_yz  double 1
LOOKUP_TABLE default
         0.28097E+06
        -0.93482E+05
        -0.24285E+06
        -0.12487E+06
        -0.25366E+01
        -0.69915E+00
        -0.31437E+01
        -0.23978E+01
        -0.91038E+06
         0.59872E+06
        -0.46784E+01
        -0.41188E+01
        -0.79889E+06
        -0.40623E+05
         0.33481E+01
        -0.21466E+00
         0.27446E+06
         0.10237E+07
         0.49259E-01
         0.50402E+00
        -0.53138E+06
        -0.20007E+07
        -0.20790E+07
         0.76750E+01
         0.13255E+02
         0.11079E+02
        -0.19720E+06
        -0.20290E+07
         0.55208E+01
         0.10710E+02
         0.31367E+06
         0.27350E+06
        -0.23216E+06
         0.28621E+01
         0.29217E+01
        -0.60658E-01
         0.93235E+06
         0.89884E+06
         0.52668E+01
         0.40977E+01
         0.91668E+06
         0.58369E+06
         0.39803E+01
         0.36375E+01
         0.83113E+06
         0.28651E+06
        -0.13204E+00
         0.20423E+01
         0.77238E+06
         0.96157E+00
         0.76050E+05
        -0.77881E-01
         0.45523E+05
         0.37195E+01
        -0.30173E+06
         0.21637E+01
        -0.98407E+06
         0.17467E+06
         0.58699E-01
        -0.11914E+00
         0.38039E+06
         0.13881E+07
        -0.79977E+00
        -0.29915E+01
         0.22968E+06
        -0.16144E+01
         0.98620E+06
        -0.19667E+01
        -0.80126E+06
        -0.42443E+06
        -0.24304E+00
         0.32090E+01
        -0.14841E+07
         0.70466E+01
        -0.25759E+07
         0.68228E+01
        -0.25997E+07
         0.51792E+01
        -0.21414E+07
         0.43411E+01
        -0.31402E+07
        -0.24097E+07
         0.27848E+01
        -0.61744E+00
        -0.33689E+06
        -0.69088E-01
         0.12989E+07
        -0.43279E+01
         0.30703E+07
        -0.75766E+01
         0.42909E+07
         0.26599E+07
        -0.11237E+02
        -0.90957E+01
         0.18706E+07
        -0.70606E+01
         0.16784E+07
        -0.72235E+01
         0.16333E+07
        -0.77667E+01
         0.27180E+07
         0.22586E+07
        -0.72227E+01
        -0.34608E+01
        -0.18239E+07
         0.69027E+06
         0.25396E+01
        -0.31560E+01
        -0.44839E+07
         0.84487E+01
        -0.64179E+07
         0.12358E+02
        -0.78589E+07
         0.15263E+02
        -0.92204E+07
         0.15139E+02
        -0.10859E+08
         0.11981E+02
        -0.11102E+08
         0.92717E+01
        -0.10454E+08
         0.86235E+01
        -0.93026E+07
         0.82047E+01
        -0.67827E+07
         0.52434E+01
        -0.45785E+07
         0.17311E+01
        -0.22958E+07
         0.11186E+01
         0.16510E+06
         0.16813E+01
         0.21895E+07
         0.86839E+00
         0.39272E+07
        -0.26262E+01
         0.60777E+07
        -0.74127E+01
         0.68413E+07
        -0.11575E+02
         0.74855E+07
        -0.15175E+02
         0.95640E+07
        -0.15162E+02
         0.99047E+07
        -0.13236E+02
         0.91521E+07
        -0.12899E+02
         0.74446E+07
        -0.12980E+02
         0.50614E+07
        -0.10264E+02
         0.35846E+07
        -0.60695E+01
         0.25774E+07
        -0.46930E+01
        -0.27341E+07
        -0.14148E+07
        -0.12350E+07
        -0.38335E+06
        -0.12653E+07
        -0.13454E+07
        -0.14185E+06
        -0.21802E+07
        -0.18705E+07
        -0.27444E+07
         0.14331E+07
         0.61133E+07
         0.41774E+07
         0.48452E+06
         0.61761E+07
         0.72419E+06
        -0.64163E+06
         0.41307E+06
         0.53928E+06
        -0.40764E+06
         0.37429E+06
         0.30863E+06
        -0.10369E+07
         0.87403E+05
        -0.18738E+07
         0.27701E+06
         0.14342E+05
         0.25076E+06
         0.30425E+06
        -0.14688E+07
         0.70689E+06
        -0.76682E+06
         0.51407E+06
        -0.12521E+06
         0.20653E+06
         0.11199E+07
         0.25117E+07
         0.54283E+07
         0.49599E+07
         0.41896E+07
         0.39437E+07
         0.98028E+06
        -0.80245E+06
        -0.22009E+07
        -0.36354E+07
        -0.59338E+07
        -0.38960E+07
        -0.27956E+07
        -0.29826E+07
        -0.31672E+07
        -0.37131E+07
        -0.16981E+07
         0.31914E+07
        -0.38383E+07
         0.10394E+08
         0.14362E+08
         0.18306E+08
         0.21731E+08
         0.21844E+08
         0.19775E+08
         0.18818E+08
         0.17784E+08
         0.11489E+08
         0.50474E+07
         0.22217E+07
         0.97961E+06
        -0.15004E+07
        -0.59320E+07
        -0.10902E+08
        -0.14223E+08
        -0.17203E+08
        -0.19728E+08
        -0.18588E+08
        -0.17573E+08
        -0.16348E+08
        -0.11367E+08
        -0.66419E+07
        -0.58323E+07
        -0.15791E+09
        -0.99597E+08
        -0.92164E+08
        -0.21861E+08
        -0.11588E+09
        -0.53838E+08
        -0.42692E+08
        -0.14925E+09
        -0.97873E+08
        -0.14037E+09
         0.74215E+08
         0.17085E+09
         0.13140E+09
         0.27345E+08
         0.16113E+09
         0.59886E+08
        -0.18148E+08
         0.17326E+08
         0.78095E+08
         0.15099E+08
         0.44961E+08
         0.33920E+08
        -0.20168E+08
         0.23385E+08
        -0.94527E+08
         0.23381E+08
         0.58671E+07
         0.10907E+08
        -0.17422E+08
        -0.94294E+08
         0.64540E+08
         0.17001E+08
         0.41716E+08
         0.36221E+08
        -0.13076E+08
         0.52647E+08
         0.97182E+08
         0.14852E+09
         0.16813E+09
         0.15869E+09
         0.83460E+08
        -0.22637E+08
        -0.46334E+08
        -0.73883E+08
        -0.10603E+09
        -0.16054E+09
        -0.13361E+09
        -0.88357E+08
        -0.11105E+09
        -0.13110E+09
        -0.10641E+09
        -0.10192E+08
         0.33174E+08
        -0.46431E+08
         0.10374E+09
         0.13496E+09
         0.16425E+09
         0.18464E+09
         0.18784E+09
         0.18274E+09
         0.17933E+09
         0.16669E+09
         0.10663E+09
         0.35591E+08
         0.16902E+08
         0.15176E+08
        -0.64444E+07
        -0.51312E+08
        -0.99348E+08
        -0.12751E+09
        -0.17198E+09
        -0.18607E+09
        -0.17996E+09
        -0.17846E+09
        -0.16768E+09
        -0.12056E+09
        -0.60997E+08
        -0.58208E+08
        -0.15801E+09
        -0.99615E+08
        -0.92210E+08
        -0.22021E+08
        -0.11594E+09
        -0.53880E+08
        -0.42745E+08
        -0.14950E+09
        -0.98048E+08
        -0.14090E+09
         0.74259E+08
         0.17084E+09
         0.13138E+09
         0.27346E+08
         0.16118E+09
         0.59889E+08
        -0.18313E+08
         0.17300E+08
         0.78148E+08
         0.15014E+08
         0.45068E+08
         0.33955E+08
        -0.20174E+08
         0.23374E+08
        -0.94955E+08
         0.23338E+08
         0.59362E+07
         0.10968E+08
        -0.17307E+08
        -0.94493E+08
         0.64551E+08
         0.16964E+08
         0.41808E+08
         0.36280E+08
        -0.12948E+08
         0.52681E+08
         0.97199E+08
         0.14853E+09
         0.16813E+09
         0.15867E+09
         0.83471E+08
        -0.22565E+08
        -0.46376E+08
        -0.73922E+08
        -0.10606E+09
        -0.16055E+09
        -0.13363E+09
        -0.88304E+08
        -0.11090E+09
        -0.13092E+09
        -0.10642E+09
        -0.10038E+08
         0.33154E+08
        -0.46444E+08
         0.10376E+09
         0.13496E+09
         0.16425E+09
         0.18464E+09
         0.18783E+09
         0.18273E+09
         0.17934E+09
         0.16669E+09
         0.10663E+09
         0.35607E+08
         0.16902E+08
         0.15208E+08
        -0.63912E+07
        -0.51328E+08
        -0.99369E+08
        -0.12751E+09
        -0.17199E+09
        -0.18607E+09
        -0.17996E+09
        -0.17846E+09
        -0.16769E+09
        -0.12054E+09
        -0.60961E+08
        -0.58159E+08
        -0.15811E+09
        -0.99635E+08
        -0.92257E+08
        -0.22183E+08
        -0.11601E+09
        -0.53924E+08
        -0.42799E+08
        -0.14975E+09
        -0.98225E+08
        -0.14142E+09
         0.74303E+08
         0.17083E+09
         0.13137E+09
         0.27343E+08
         0.16123E+09
         0.59893E+08
        -0.18480E+08
         0.17274E+08
         0.78202E+08
         0.14929E+08
         0.45176E+08
         0.33989E+08
        -0.20183E+08
         0.23360E+08
        -0.95378E+08
         0.23290E+08
         0.60101E+07
         0.11033E+08
        -0.17181E+08
        -0.94686E+08
         0.64562E+08
         0.16919E+08
         0.41901E+08
         0.36338E+08
        -0.12819E+08
         0.52717E+08
         0.97215E+08
         0.14854E+09
         0.16814E+09
         0.15864E+09
         0.83485E+08
        -0.22486E+08
        -0.46415E+08
        -0.73968E+08
        -0.10609E+09
        -0.16056E+09
        -0.13364E+09
        -0.88249E+08
        -0.11075E+09
        -0.13074E+09
        -0.10643E+09
        -0.98840E+07
         0.33134E+08
        -0.46457E+08
         0.10378E+09
         0.13496E+09
         0.16426E+09
         0.18463E+09
         0.18783E+09
         0.18271E+09
         0.17934E+09
         0.16669E+09
         0.10662E+09
         0.35623E+08
         0.16902E+08
         0.15240E+08
        -0.63377E+07
        -0.51344E+08
        -0.99392E+08
        -0.12752E+09
        -0.17199E+09
        -0.18607E+09
        -0.17997E+09
        -0.17847E+09
        -0.16770E+09
        -0.12053E+09
        -0.60926E+08
        -0.58111E+08
        -0.15821E+09
        -0.99653E+08
        -0.92304E+08
        -0.22346E+08
        -0.11607E+09
        -0.53968E+08
        -0.42856E+08
        -0.15000E+09
        -0.98403E+08
        -0.14193E+09
         0.74348E+08
         0.17082E+09
         0.13135E+09
         0.27344E+08
         0.16128E+09
         0.59898E+08
        -0.18650E+08
         0.17247E+08
         0.78260E+08
         0.14838E+08
         0.45286E+08
         0.34019E+08
        -0.20200E+08
         0.23337E+08
        -0.95788E+08
         0.23226E+08
         0.60865E+07
         0.11118E+08
        -0.17026E+08
        -0.94860E+08
         0.64566E+08
         0.16858E+08
         0.41993E+08
         0.36397E+08
        -0.12691E+08
         0.52751E+08
         0.97231E+08
         0.14855E+09
         0.16814E+09
         0.15862E+09
         0.83506E+08
        -0.22389E+08
        -0.46443E+08
        -0.74033E+08
        -0.10613E+09
        -0.16057E+09
        -0.13366E+09
        -0.88196E+08
        -0.11061E+09
        -0.13057E+09
        -0.10644E+09
        -0.97306E+07
         0.33114E+08
        -0.46470E+08
         0.10379E+09
         0.13496E+09
         0.16426E+09
         0.18463E+09
         0.18782E+09
         0.18270E+09
         0.17935E+09
         0.16669E+09
         0.10662E+09
         0.35643E+08
         0.16904E+08
         0.15271E+08
        -0.62837E+07
        -0.51361E+08
        -0.99419E+08
        -0.12753E+09
        -0.17200E+09
        -0.18607E+09
        -0.17997E+09
        -0.17847E+09
        -0.16771E+09
        -0.12052E+09
        -0.60891E+08
        -0.58063E+08
        -0.15831E+09
        -0.99671E+08
        -0.92350E+08
        -0.22508E+08
        -0.11613E+09
        -0.54010E+08
        -0.42908E+08
        -0.15025E+09
        -0.98579E+08
        -0.14244E+09
         0.74393E+08
         0.17081E+09
         0.13134E+09
         0.27345E+08
         0.16133E+09
         0.59904E+08
        -0.18822E+08
         0.17220E+08
         0.78319E+08
         0.14742E+08
         0.45395E+08
         0.34045E+08
        -0.20225E+08
         0.23304E+08
        -0.96182E+08
         0.23146E+08
         0.61714E+07
         0.11223E+08
        -0.16839E+08
        -0.95016E+08
         0.64566E+08
         0.16778E+08
         0.42085E+08
         0.36456E+08
        -0.12562E+08
         0.52786E+08
         0.97247E+08
         0.14856E+09
         0.16814E+09
         0.15859E+09
         0.83534E+08
        -0.22272E+08
        -0.46461E+08
        -0.74117E+08
        -0.10619E+09
        -0.16058E+09
        -0.13369E+09
        -0.88148E+08
        -0.11046E+09
        -0.13039E+09
        -0.10645E+09
        -0.95763E+07
         0.33094E+08
        -0.46483E+08
         0.10381E+09
         0.13496E+09
         0.16427E+09
         0.18462E+09
         0.18781E+09
         0.18269E+09
         0.17935E+09
         0.16669E+09
         0.10662E+09
         0.35665E+08
         0.16906E+08
         0.15301E+08
        -0.62296E+07
        -0.51379E+08
        -0.99449E+08
        -0.12754E+09
        -0.17200E+09
        -0.18607E+09
        -0.17998E+09
        -0.17847E+09
        -0.16772E+09
        -0.12050E+09
        -0.60855E+08
        -0.58015E+08
        -0.15840E+09
        -0.99683E+08
        -0.92395E+08
        -0.22672E+08
        -0.11620E+09
        -0.54053E+08
        -0.42955E+08
        -0.15049E+09
        -0.98758E+08
        -0.14294E+09
         0.74443E+08
         0.17080E+09
         0.13132E+09
         0.27350E+08
         0.16137E+09
         0.59911E+08
        -0.18998E+08
         0.17194E+08
         0.78379E+08
         0.14644E+08
         0.45504E+08
         0.34069E+08
        -0.20254E+08
         0.23268E+08
        -0.96566E+08
         0.23060E+08
         0.62628E+07
         0.11340E+08
        -0.16639E+08
        -0.95164E+08
         0.64563E+08
         0.16690E+08
         0.42179E+08
         0.36518E+08
        -0.12432E+08
         0.52824E+08
         0.97265E+08
         0.14857E+09
         0.16814E+09
         0.15857E+09
         0.83563E+08
        -0.22149E+08
        -0.46474E+08
        -0.74207E+08
        -0.10625E+09
        -0.16059E+09
        -0.13373E+09
        -0.88109E+08
        -0.11032E+09
        -0.13022E+09
        -0.10646E+09
        -0.94221E+07
         0.33074E+08
        -0.46495E+08
         0.10383E+09
         0.13496E+09
         0.16427E+09
         0.18462E+09
         0.18780E+09
         0.18268E+09
         0.17936E+09
         0.16669E+09
         0.10662E+09
         0.35690E+08
         0.16909E+08
         0.15332E+08
        -0.61755E+07
        -0.51397E+08
        -0.99481E+08
        -0.12755E+09
        -0.17201E+09
        -0.18607E+09
        -0.17998E+09
        -0.17848E+09
        -0.16773E+09
        -0.12049E+09
        -0.60820E+08
        -0.57967E+08
        -0.15842E+09
        -0.99680E+08
        -0.92440E+08
        -0.22840E+08
        -0.11626E+09
        -0.54098E+08
        -0.42993E+08
        -0.15070E+09
        -0.98940E+08
        -0.14341E+09
         0.74504E+08
         0.17079E+09
         0.13131E+09
         0.27371E+08
         0.16142E+09
         0.59921E+08
        -0.19179E+08
         0.17167E+08
         0.78440E+08
         0.14547E+08
         0.45614E+08
         0.34094E+08
        -0.20282E+08
         0.23233E+08
        -0.96942E+08
         0.22974E+08
         0.63705E+07
         0.11463E+08
        -0.16435E+08
        -0.95307E+08
         0.64557E+08
         0.16595E+08
         0.42275E+08
         0.36583E+08
        -0.12302E+08
         0.52864E+08
         0.97284E+08
         0.14858E+09
         0.16815E+09
         0.15855E+09
         0.83595E+08
        -0.22023E+08
        -0.46486E+08
        -0.74297E+08
        -0.10631E+09
        -0.16060E+09
        -0.13378E+09
        -0.88095E+08
        -0.11021E+09
        -0.13005E+09
        -0.10647E+09
        -0.92660E+07
         0.33053E+08
        -0.46508E+08
         0.10385E+09
         0.13496E+09
         0.16428E+09
         0.18461E+09
         0.18780E+09
         0.18267E+09
         0.17936E+09
         0.16669E+09
         0.10661E+09
         0.35714E+08
         0.16912E+08
         0.15362E+08
        -0.61214E+07
        -0.51414E+08
        -0.99513E+08
        -0.12756E+09
        -0.17202E+09
        -0.18606E+09
        -0.17999E+09
        -0.17848E+09
        -0.16774E+09
        -0.12048E+09
        -0.60784E+08
        -0.57918E+08
        -0.15841E+09
        -0.99674E+08
        -0.92485E+08
        -0.23010E+08
        -0.11632E+09
        -0.54141E+08
        -0.43021E+08
        -0.15091E+09
        -0.99124E+08
        -0.14387E+09
         0.74571E+08
         0.17078E+09
         0.13129E+09
         0.27396E+08
         0.16147E+09
         0.59933E+08
        -0.19361E+08
         0.17140E+08
         0.78501E+08
         0.14449E+08
         0.45723E+08
         0.34120E+08
        -0.20311E+08
         0.23199E+08
        -0.97313E+08
         0.22889E+08
         0.64824E+07
         0.11590E+08
        -0.16231E+08
        -0.95450E+08
         0.64551E+08
         0.16496E+08
         0.42374E+08
         0.36650E+08
        -0.12170E+08
         0.52908E+08
         0.97303E+08
         0.14860E+09
         0.16815E+09
         0.15853E+09
         0.83626E+08
        -0.21897E+08
        -0.46497E+08
        -0.74385E+08
        -0.10638E+09
        -0.16062E+09
        -0.13384E+09
        -0.88088E+08
        -0.11010E+09
        -0.12989E+09
        -0.10647E+09
        -0.91100E+07
         0.33033E+08
        -0.46521E+08
         0.10387E+09
         0.13496E+09
         0.16428E+09
         0.18461E+09
         0.18779E+09
         0.18266E+09
         0.17936E+09
         0.16669E+09
         0.10661E+09
         0.35738E+08
         0.16915E+08
         0.15393E+08
        -0.60672E+07
        -0.51432E+08
        -0.99544E+08
        -0.12757E+09
        -0.17202E+09
        -0.18606E+09
        -0.17999E+09
        -0.17848E+09
        -0.16775E+09
        -0.12046E+09
        -0.60749E+08
        -0.57870E+08
        -0.15839E+09
        -0.99667E+08
        -0.92529E+08
        -0.23181E+08
        -0.11639E+09
        -0.54184E+08
        -0.43051E+08
        -0.15111E+09
        -0.99308E+08
        -0.14433E+09
         0.74634E+08
         0.17077E+09
         0.13128E+09
         0.27424E+08
         0.16152E+09
         0.59944E+08
        -0.19545E+08
         0.17112E+08
         0.78561E+08
         0.14350E+08
         0.45833E+08
         0.34145E+08
        -0.20339E+08
         0.23165E+08
        -0.97684E+08
         0.22804E+08
         0.65971E+07
         0.11715E+08
        -0.16027E+08
        -0.95592E+08
         0.64543E+08
         0.16399E+08
         0.42472E+08
         0.36716E+08
        -0.12038E+08
         0.52948E+08
         0.97322E+08
         0.14861E+09
         0.16815E+09
         0.15850E+09
         0.83657E+08
        -0.21772E+08
        -0.46508E+08
        -0.74473E+08
        -0.10644E+09
        -0.16063E+09
        -0.13390E+09
        -0.88082E+08
        -0.11000E+09
        -0.12973E+09
        -0.10648E+09
        -0.89532E+07
         0.33013E+08
        -0.46533E+08
         0.10389E+09
         0.13496E+09
         0.16429E+09
         0.18460E+09
         0.18778E+09
         0.18265E+09
         0.17937E+09
         0.16669E+09
         0.10661E+09
         0.35762E+08
         0.16918E+08
         0.15425E+08
        -0.60131E+07
        -0.51450E+08
        -0.99576E+08
        -0.12758E+09
        -0.17203E+09
        -0.18606E+09
        -0.18000E+09
        -0.17849E+09
        -0.16776E+09
        -0.12045E+09
        -0.60714E+08
        -0.57821E+08
        -0.15838E+09
        -0.99659E+08
        -0.92573E+08
        -0.23350E+08
        -0.11645E+09
        -0.54226E+08
        -0.43080E+08
        -0.15132E+09
        -0.99492E+08
        -0.14479E+09
         0.74701E+08
         0.17076E+09
         0.13127E+09
         0.27448E+08
         0.16157E+09
         0.59956E+08
        -0.19729E+08
         0.17085E+08
         0.78621E+08
         0.14251E+08
         0.45942E+08
         0.34170E+08
        -0.20366E+08
         0.23132E+08
        -0.98055E+08
         0.22719E+08
         0.67087E+07
         0.11839E+08
        -0.15824E+08
        -0.95735E+08
         0.64536E+08
         0.16300E+08
         0.42569E+08
         0.36783E+08
        -0.11907E+08
         0.52992E+08
         0.97342E+08
         0.14862E+09
         0.16816E+09
         0.15848E+09
         0.83687E+08
        -0.21647E+08
        -0.46520E+08
        -0.74561E+08
        -0.10650E+09
        -0.16064E+09
        -0.13396E+09
        -0.88080E+08
        -0.10989E+09
        -0.12956E+09
        -0.10648E+09
        -0.87971E+07
         0.32993E+08
        -0.46545E+08
         0.10391E+09
         0.13496E+09
         0.16429E+09
         0.18459E+09
         0.18777E+09
         0.18264E+09
         0.17937E+09
         0.16669E+09
         0.10661E+09
         0.35785E+08
         0.16922E+08
         0.15456E+08
        -0.59592E+07
        -0.51467E+08
        -0.99608E+08
        -0.12759E+09
        -0.17203E+09
        -0.18606E+09
        -0.18001E+09
        -0.17849E+09
        -0.16777E+09
        -0.12043E+09
        -0.60679E+08
        -0.57773E+08
        -0.15837E+09
        -0.99651E+08
        -0.92617E+08
        -0.23519E+08
        -0.11651E+09
        -0.54270E+08
        -0.43112E+08
        -0.15152E+09
        -0.99677E+08
        -0.14525E+09
         0.74768E+08
         0.17075E+09
         0.13126E+09
         0.27474E+08
         0.16162E+09
         0.59968E+08
        -0.19914E+08
         0.17058E+08
         0.78681E+08
         0.14151E+08
         0.46051E+08
         0.34194E+08
        -0.20394E+08
         0.23098E+08
        -0.98424E+08
         0.22634E+08
         0.68223E+07
         0.11961E+08
        -0.15621E+08
        -0.95877E+08
         0.64529E+08
         0.16202E+08
         0.42667E+08
         0.36850E+08
        -0.11774E+08
         0.53034E+08
         0.97362E+08
         0.14864E+09
         0.16816E+09
         0.15846E+09
         0.83718E+08
        -0.21522E+08
        -0.46531E+08
        -0.74649E+08
        -0.10656E+09
        -0.16065E+09
        -0.13403E+09
        -0.88074E+08
        -0.10979E+09
        -0.12940E+09
        -0.10649E+09
        -0.86405E+07
         0.32973E+08
        -0.46558E+08
         0.10393E+09
         0.13496E+09
         0.16430E+09
         0.18459E+09
         0.18777E+09
         0.18263E+09
         0.17938E+09
         0.16669E+09
         0.10661E+09
         0.35809E+08
         0.16925E+08
         0.15487E+08
        -0.59051E+07
        -0.51485E+08
        -0.99639E+08
        -0.12760E+09
        -0.17204E+09
        -0.18606E+09
        -0.18001E+09
        -0.17849E+09
        -0.16778E+09
        -0.12042E+09
        -0.60644E+08
        -0.57724E+08
        -0.15835E+09
        -0.99643E+08
        -0.92661E+08
        -0.23690E+08
        -0.11657E+09
        -0.54313E+08
        -0.43140E+08
        -0.15172E+09
        -0.99862E+08
        -0.14571E+09
         0.74835E+08
         0.17074E+09
         0.13124E+09
         0.27501E+08
         0.16167E+09
         0.59980E+08
        -0.20099E+08
         0.17030E+08
         0.78741E+08
         0.14053E+08
         0.46161E+08
         0.34219E+08
        -0.20422E+08
         0.23065E+08
        -0.98793E+08
         0.22549E+08
         0.69334E+07
         0.12083E+08
        -0.15418E+08
        -0.96019E+08
         0.64521E+08
         0.16104E+08
         0.42764E+08
         0.36917E+08
        -0.11642E+08
         0.53077E+08
         0.97381E+08
         0.14865E+09
         0.16816E+09
         0.15843E+09
         0.83748E+08
        -0.21399E+08
        -0.46542E+08
        -0.74736E+08
        -0.10663E+09
        -0.16066E+09
        -0.13409E+09
        -0.88071E+08
        -0.10968E+09
        -0.12924E+09
        -0.10649E+09
        -0.84842E+07
         0.32952E+08
        -0.46570E+08
         0.10395E+09
         0.13496E+09
         0.16430E+09
         0.18458E+09
         0.18776E+09
         0.18262E+09
         0.17938E+09
         0.16669E+09
         0.10661E+09
         0.35833E+08
         0.16928E+08
         0.15518E+08
        -0.58508E+07
        -0.51503E+08
        -0.99671E+08
        -0.12761E+09
        -0.17205E+09
        -0.18606E+09
        -0.18002E+09
        -0.17850E+09
        -0.16779E+09
        -0.12041E+09
        -0.60609E+08
        -0.57675E+08
        -0.15834E+09
        -0.99636E+08
        -0.92705E+08
        -0.23862E+08
        -0.11664E+09
        -0.54356E+08
        -0.43170E+08
        -0.15192E+09
        -0.10005E+09
        -0.14617E+09
         0.74902E+08
         0.17073E+09
         0.13123E+09
         0.27524E+08
         0.16171E+09
         0.59991E+08
        -0.20284E+08
         0.17002E+08
         0.78800E+08
         0.13954E+08
         0.46270E+08
         0.34243E+08
        -0.20450E+08
         0.23032E+08
        -0.99162E+08
         0.22464E+08
         0.70476E+07
         0.12203E+08
        -0.15216E+08
        -0.96160E+08
         0.64513E+08
         0.16005E+08
         0.42861E+08
         0.36984E+08
        -0.11509E+08
         0.53121E+08
         0.97400E+08
         0.14867E+09
         0.16817E+09
         0.15841E+09
         0.83779E+08
        -0.21275E+08
        -0.46553E+08
        -0.74824E+08
        -0.10669E+09
        -0.16068E+09
        -0.13415E+09
        -0.88067E+08
        -0.10958E+09
        -0.12908E+09
        -0.10650E+09
        -0.83282E+07
         0.32932E+08
        -0.46582E+08
         0.10397E+09
         0.13496E+09
         0.16431E+09
         0.18458E+09
         0.18775E+09
         0.18261E+09
         0.17939E+09
         0.16669E+09
         0.10661E+09
         0.35857E+08
         0.16931E+08
         0.15549E+08
        -0.57967E+07
        -0.51520E+08
        -0.99703E+08
        -0.12762E+09
        -0.17205E+09
        -0.18605E+09
        -0.18003E+09
        -0.17850E+09
        -0.16780E+09
        -0.12039E+09
        -0.60574E+08
        -0.57627E+08
        -0.15832E+09
        -0.99629E+08
        -0.92749E+08
        -0.24033E+08
        -0.11670E+09
        -0.54399E+08
        -0.43202E+08
        -0.15212E+09
        -0.10023E+09
        -0.14663E+09
         0.74969E+08
         0.17072E+09
         0.13122E+09
         0.27550E+08
         0.16176E+09
         0.60002E+08
        -0.20469E+08
         0.16974E+08
         0.78860E+08
         0.13856E+08
         0.46379E+08
         0.34267E+08
        -0.20478E+08
         0.23000E+08
        -0.99530E+08
         0.22379E+08
         0.71589E+07
         0.12322E+08
        -0.15014E+08
        -0.96301E+08
         0.64505E+08
         0.15907E+08
         0.42958E+08
         0.37051E+08
        -0.11376E+08
         0.53163E+08
         0.97418E+08
         0.14868E+09
         0.16817E+09
         0.15839E+09
         0.83810E+08
        -0.21151E+08
        -0.46564E+08
        -0.74911E+08
        -0.10675E+09
        -0.16069E+09
        -0.13421E+09
        -0.88062E+08
        -0.10947E+09
        -0.12891E+09
        -0.10650E+09
        -0.81732E+07
         0.32911E+08
        -0.46594E+08
         0.10399E+09
         0.13497E+09
         0.16431E+09
         0.18457E+09
         0.18775E+09
         0.18260E+09
         0.17939E+09
         0.16669E+09
         0.10660E+09
         0.35880E+08
         0.16934E+08
         0.15580E+08
        -0.57428E+07
        -0.51537E+08
        -0.99734E+08
        -0.12764E+09
        -0.17206E+09
        -0.18605E+09
        -0.18003E+09
        -0.17850E+09
        -0.16781E+09
        -0.12038E+09
        -0.60539E+08
        -0.57578E+08
        -0.15831E+09
        -0.99622E+08
        -0.92793E+08
        -0.24204E+08
        -0.11676E+09
        -0.54441E+08
        -0.43232E+08
        -0.15233E+09
        -0.10042E+09
        -0.14708E+09
         0.75036E+08
         0.17071E+09
         0.13121E+09
         0.27573E+08
         0.16181E+09
         0.60014E+08
        -0.20656E+08
         0.16947E+08
         0.78920E+08
         0.13756E+08
         0.46488E+08
         0.34291E+08
        -0.20505E+08
         0.22968E+08
        -0.99899E+08
         0.22294E+08
         0.72721E+07
         0.12438E+08
        -0.14813E+08
        -0.96443E+08
         0.64498E+08
         0.15808E+08
         0.43055E+08
         0.37118E+08
        -0.11244E+08
         0.53206E+08
         0.97436E+08
         0.14870E+09
         0.16817E+09
         0.15836E+09
         0.83840E+08
        -0.21027E+08
        -0.46575E+08
        -0.74998E+08
        -0.10682E+09
        -0.16070E+09
        -0.13427E+09
        -0.88060E+08
        -0.10937E+09
        -0.12875E+09
        -0.10651E+09
        -0.80172E+07
         0.32891E+08
        -0.46606E+08
         0.10400E+09
         0.13497E+09
         0.16432E+09
         0.18457E+09
         0.18774E+09
         0.18259E+09
         0.17940E+09
         0.16669E+09
         0.10660E+09
         0.35904E+08
         0.16937E+08
         0.15611E+08
        -0.56888E+07
        -0.51555E+08
        -0.99766E+08
        -0.12765E+09
        -0.17206E+09
        -0.18605E+09
        -0.18004E+09
        -0.17851E+09
        -0.16781E+09
        -0.12036E+09
        -0.60505E+08
        -0.57529E+08
        -0.15830E+09
        -0.99612E+08
        -0.92837E+08
        -0.24374E+08
        -0.11682E+09
        -0.54484E+08
        -0.43262E+08
        -0.15253E+09
        -0.10060E+09
        -0.14754E+09
         0.75103E+08
         0.17070E+09
         0.13119E+09
         0.27598E+08
         0.16186E+09
         0.60025E+08
        -0.20844E+08
         0.16919E+08
         0.78980E+08
         0.13658E+08
         0.46598E+08
         0.34314E+08
        -0.20532E+08
         0.22936E+08
        -0.10027E+09
         0.22209E+08
         0.73823E+07
         0.12554E+08
        -0.14613E+08
        -0.96584E+08
         0.64490E+08
         0.15710E+08
         0.43152E+08
         0.37187E+08
        -0.11110E+08
         0.53248E+08
         0.97456E+08
         0.14871E+09
         0.16817E+09
         0.15834E+09
         0.83871E+08
        -0.20904E+08
        -0.46587E+08
        -0.75084E+08
        -0.10688E+09
        -0.16071E+09
        -0.13433E+09
        -0.88054E+08
        -0.10927E+09
        -0.12859E+09
        -0.10651E+09
        -0.78611E+07
         0.32870E+08
        -0.46618E+08
         0.10402E+09
         0.13497E+09
         0.16432E+09
         0.18456E+09
         0.18773E+09
         0.18258E+09
         0.17940E+09
         0.16669E+09
         0.10660E+09
         0.35928E+08
         0.16940E+08
         0.15642E+08
        -0.56347E+07
        -0.51572E+08
        -0.99798E+08
        -0.12766E+09
        -0.17207E+09
        -0.18605E+09
        -0.18005E+09
        -0.17851E+09
        -0.16782E+09
        -0.12035E+09
        -0.60471E+08
        -0.57480E+08
        -0.15828E+09
        -0.99604E+08
        -0.92881E+08
        -0.24545E+08
        -0.11688E+09
        -0.54527E+08
        -0.43294E+08
        -0.15273E+09
        -0.10079E+09
        -0.14799E+09
         0.75170E+08
         0.17070E+09
         0.13118E+09
         0.27620E+08
         0.16191E+09
         0.60037E+08
        -0.21032E+08
         0.16890E+08
         0.79039E+08
         0.13560E+08
         0.46706E+08
         0.34336E+08
        -0.20560E+08
         0.22904E+08
        -0.10064E+09
         0.22123E+08
         0.74955E+07
         0.12668E+08
        -0.14412E+08
        -0.96722E+08
         0.64481E+08
         0.15612E+08
         0.43249E+08
         0.37254E+08
        -0.10976E+08
         0.53290E+08
         0.97474E+08
         0.14873E+09
         0.16818E+09
         0.15832E+09
         0.83902E+08
        -0.20782E+08
        -0.46599E+08
        -0.75171E+08
        -0.10694E+09
        -0.16072E+09
        -0.13440E+09
        -0.88052E+08
        -0.10916E+09
        -0.12843E+09
        -0.10652E+09
        -0.77063E+07
         0.32850E+08
        -0.46630E+08
         0.10404E+09
         0.13497E+09
         0.16433E+09
         0.18456E+09
         0.18772E+09
         0.18257E+09
         0.17940E+09
         0.16669E+09
         0.10660E+09
         0.35951E+08
         0.16943E+08
         0.15673E+08
        -0.55809E+07
        -0.51589E+08
        -0.99829E+08
        -0.12767E+09
        -0.17208E+09
        -0.18605E+09
        -0.18005E+09
        -0.17852E+09
        -0.16783E+09
        -0.12034E+09
        -0.60437E+08
        -0.57431E+08
        -0.15827E+09
        -0.99597E+08
        -0.92925E+08
        -0.24717E+08
        -0.11694E+09
        -0.54569E+08
        -0.43324E+08
        -0.15292E+09
        -0.10098E+09
        -0.14845E+09
         0.75237E+08
         0.17069E+09
         0.13117E+09
         0.27645E+08
         0.16195E+09
         0.60048E+08
        -0.21223E+08
         0.16862E+08
         0.79099E+08
         0.13467E+08
         0.46815E+08
         0.34358E+08
        -0.20588E+08
         0.22872E+08
        -0.10100E+09
         0.22039E+08
         0.76075E+07
         0.12781E+08
        -0.14212E+08
        -0.96851E+08
         0.64473E+08
         0.15512E+08
         0.43345E+08
         0.37322E+08
        -0.10842E+08
         0.53335E+08
         0.97493E+08
         0.14875E+09
         0.16818E+09
         0.15829E+09
         0.83936E+08
        -0.20660E+08
        -0.46613E+08
        -0.75258E+08
        -0.10701E+09
        -0.16073E+09
        -0.13446E+09
        -0.88048E+08
        -0.10906E+09
        -0.12826E+09
        -0.10653E+09
        -0.75513E+07
         0.32829E+08
        -0.46642E+08
         0.10406E+09
         0.13497E+09
         0.16433E+09
         0.18455E+09
         0.18772E+09
         0.18256E+09
         0.17941E+09
         0.16669E+09
         0.10660E+09
         0.35975E+08
         0.16944E+08
         0.15703E+08
        -0.55273E+07
        -0.51607E+08
        -0.99861E+08
        -0.12768E+09
        -0.17208E+09
        -0.18605E+09
        -0.18006E+09
        -0.17852E+09
        -0.16784E+09
        -0.12032E+09
        -0.60403E+08
        -0.57382E+08
        -0.15825E+09
        -0.99590E+08
        -0.92969E+08
        -0.24888E+08
        -0.11701E+09
        -0.54610E+08
        -0.43354E+08
        -0.15312E+09
        -0.10117E+09
        -0.14890E+09
         0.75303E+08
         0.17068E+09
         0.13116E+09
         0.27669E+08
         0.16200E+09
         0.60059E+08
        -0.21417E+08
         0.16833E+08
         0.79159E+08
         0.13377E+08
         0.46924E+08
         0.34380E+08
        -0.20615E+08
         0.22841E+08
        -0.10137E+09
         0.21953E+08
         0.77245E+07
         0.12893E+08
        -0.14013E+08
        -0.96973E+08
         0.64465E+08
         0.15413E+08
         0.43441E+08
         0.37390E+08
        -0.10707E+08
         0.53377E+08
         0.97511E+08
         0.14877E+09
         0.16818E+09
         0.15827E+09
         0.83970E+08
        -0.20539E+08
        -0.46630E+08
        -0.75344E+08
        -0.10707E+09
        -0.16075E+09
        -0.13452E+09
        -0.88043E+08
        -0.10895E+09
        -0.12810E+09
        -0.10653E+09
        -0.73952E+07
         0.32808E+08
        -0.46654E+08
         0.10408E+09
         0.13497E+09
         0.16434E+09
         0.18454E+09
         0.18771E+09
         0.18255E+09
         0.17941E+09
         0.16668E+09
         0.10660E+09
         0.35997E+08
         0.16943E+08
         0.15734E+08
        -0.54733E+07
        -0.51624E+08
        -0.99892E+08
        -0.12769E+09
        -0.17209E+09
        -0.18605E+09
        -0.18007E+09
        -0.17852E+09
        -0.16785E+09
        -0.12031E+09
        -0.60370E+08
        -0.57333E+08
        -0.15824E+09
        -0.99582E+08
        -0.93016E+08
        -0.25059E+08
        -0.11707E+09
        -0.54653E+08
        -0.43387E+08
        -0.15332E+09
        -0.10136E+09
        -0.14935E+09
         0.75370E+08
         0.17067E+09
         0.13114E+09
         0.27690E+08
         0.16205E+09
         0.60071E+08
        -0.21611E+08
         0.16805E+08
         0.79220E+08
         0.13290E+08
         0.47033E+08
         0.34402E+08
        -0.20641E+08
         0.22811E+08
        -0.10174E+09
         0.21871E+08
         0.78384E+07
         0.13000E+08
        -0.13816E+08
        -0.97093E+08
         0.64458E+08
         0.15317E+08
         0.43537E+08
         0.37459E+08
        -0.10574E+08
         0.53418E+08
         0.97528E+08
         0.14879E+09
         0.16818E+09
         0.15824E+09
         0.84005E+08
        -0.20421E+08
        -0.46648E+08
        -0.75429E+08
        -0.10713E+09
        -0.16076E+09
        -0.13458E+09
        -0.88040E+08
        -0.10885E+09
        -0.12794E+09
        -0.10654E+09
        -0.72402E+07
         0.32787E+08
        -0.46666E+08
         0.10410E+09
         0.13497E+09
         0.16434E+09
         0.18454E+09
         0.18770E+09
         0.18254E+09
         0.17942E+09
         0.16668E+09
         0.10661E+09
         0.36019E+08
         0.16941E+08
         0.15764E+08
        -0.54194E+07
        -0.51640E+08
        -0.99923E+08
        -0.12770E+09
        -0.17209E+09
        -0.18604E+09
        -0.18007E+09
        -0.17853E+09
        -0.16786E+09
        -0.12029E+09
        -0.60336E+08
        -0.57284E+08
        -0.15222E+09
        -0.99878E+08
        -0.93346E+08
        -0.25299E+08
        -0.11113E+09
        -0.54844E+08
        -0.43548E+08
        -0.14672E+09
        -0.10184E+09
        -0.14608E+09
         0.75632E+08
         0.16691E+09
         0.12722E+09
         0.27783E+08
         0.15880E+09
         0.60266E+08
        -0.21857E+08
         0.16828E+08
         0.79500E+08
         0.13250E+08
         0.46009E+08
         0.33468E+08
        -0.20109E+08
         0.22863E+08
        -0.10237E+09
         0.21879E+08
         0.79632E+07
         0.13117E+08
        -0.13694E+08
        -0.97487E+08
         0.64652E+08
         0.15293E+08
         0.43759E+08
         0.37636E+08
        -0.10066E+08
         0.53577E+08
         0.92624E+08
         0.14484E+09
         0.16150E+09
         0.15101E+09
         0.81887E+08
        -0.19764E+08
        -0.45505E+08
        -0.72965E+08
        -0.10233E+09
        -0.15554E+09
        -0.13213E+09
        -0.88240E+08
        -0.10903E+09
        -0.12812E+09
        -0.10250E+09
        -0.71062E+07
         0.32536E+08
        -0.46392E+08
         0.10350E+09
         0.13421E+09
         0.16349E+09
         0.18361E+09
         0.18666E+09
         0.18129E+09
         0.17812E+09
         0.16556E+09
         0.10591E+09
         0.35819E+08
         0.16818E+08
         0.15683E+08
        -0.53372E+07
        -0.51380E+08
        -0.99448E+08
        -0.12708E+09
        -0.17103E+09
        -0.18494E+09
        -0.17896E+09
        -0.17738E+09
        -0.16684E+09
        -0.11952E+09
        -0.59951E+08
        -0.56896E+08
        -0.73532E+08
        -0.47034E+08
        -0.44395E+08
        -0.13335E+08
        -0.47848E+08
        -0.24018E+08
        -0.19546E+08
        -0.63956E+08
        -0.50280E+08
        -0.62519E+08
         0.30562E+08
         0.97873E+08
         0.67156E+08
         0.10724E+08
         0.95586E+08
         0.29895E+08
        -0.10648E+08
         0.92986E+07
         0.36762E+08
         0.59492E+07
         0.26189E+08
         0.18118E+08
        -0.11041E+08
         0.11123E+08
        -0.44245E+08
         0.11178E+08
         0.31341E+07
         0.54332E+07
        -0.55968E+07
        -0.40775E+08
         0.32272E+08
         0.75057E+07
         0.22873E+08
         0.18949E+08
        -0.48348E+07
         0.21964E+08
         0.40100E+08
         0.79667E+08
         0.76919E+08
         0.68240E+08
         0.45757E+08
        -0.10688E+08
        -0.25527E+08
        -0.36795E+08
        -0.46104E+08
        -0.79435E+08
        -0.53570E+08
        -0.37810E+08
        -0.48562E+08
        -0.54489E+08
        -0.49573E+08
        -0.29240E+07
         0.25778E+08
        -0.37484E+08
         0.84493E+08
         0.11058E+09
         0.13616E+09
         0.15407E+09
         0.15436E+09
         0.14451E+09
         0.14008E+09
         0.13216E+09
         0.84929E+08
         0.29224E+08
         0.13331E+08
         0.12484E+08
        -0.43417E+07
        -0.42736E+08
        -0.83383E+08
        -0.10662E+09
        -0.13816E+09
        -0.15071E+09
        -0.14481E+09
        -0.14269E+09
        -0.13536E+09
        -0.96323E+08
        -0.48966E+08
        -0.46304E+08
  
SCALARS                      stress_xz  double 1
LOOKUP_TABLE default
         0.46365E+05
        -0.32707E+06
        -0.10796E+07
         0.74144E+05
        -0.26255E+01
         0.93094E+00
         0.31129E+01
         0.62170E+00
        -0.30381E+07
        -0.20296E+07
         0.93108E+01
         0.83867E+01
         0.12958E+06
        -0.52876E+06
        -0.11483E+01
        -0.53795E+01
        -0.10841E+06
        -0.50742E+06
        -0.38858E+01
        -0.57872E+01
        -0.74385E+06
        -0.12537E+07
        -0.11868E+07
        -0.38644E+01
        -0.17820E+01
         0.31132E+01
        -0.13242E+07
        -0.10756E+07
        -0.72337E+01
        -0.57382E+01
         0.25366E+06
        -0.56364E+06
         0.53909E+05
         0.73648E+00
        -0.28461E+01
        -0.17534E+01
         0.75271E+06
         0.36295E+06
        -0.42255E+01
        -0.44991E+01
         0.15005E+07
         0.21268E+07
        -0.95315E+01
        -0.70290E+01
         0.16050E+07
         0.85469E+06
        -0.10467E+02
        -0.50381E+01
        -0.46110E+06
        -0.31624E+01
         0.10971E+07
        -0.88031E+00
        -0.48119E+06
        -0.61794E+01
         0.35950E+06
        -0.16346E+01
         0.15729E+07
         0.43133E+06
        -0.14003E+01
        -0.33847E+01
        -0.27085E+05
         0.74730E+06
         0.28007E+01
         0.19206E+01
        -0.19405E+06
        -0.28171E+00
        -0.64966E+06
         0.18530E+01
        -0.42758E+07
        -0.29301E+07
         0.11582E+02
         0.83998E+01
        -0.18847E+07
         0.61162E+01
         0.44469E+06
        -0.42309E+01
         0.13916E+07
        -0.83037E+00
         0.29502E+07
        -0.12883E+01
         0.39028E+07
         0.27709E+07
        -0.47213E+01
        -0.53995E+01
         0.24467E+07
        -0.58069E+01
         0.19464E+07
        -0.83606E+01
         0.12123E+07
        -0.53326E+01
         0.19086E+07
         0.14038E+07
        -0.22759E+01
         0.31211E+01
        -0.32088E+06
         0.36609E+01
        -0.88076E+06
         0.15372E+01
        -0.21149E+07
         0.37959E+01
        -0.31264E+07
        -0.21455E+07
         0.87524E+01
         0.91332E+01
        -0.76591E+07
        -0.84795E+07
         0.16173E+02
         0.15938E+02
        -0.75859E+07
         0.13816E+02
        -0.69126E+07
         0.10325E+02
        -0.49601E+07
         0.56740E+01
        -0.36053E+07
         0.60674E+00
        -0.13382E+07
        -0.21610E+01
         0.17245E+07
        -0.17290E+01
         0.41155E+07
        -0.16994E+01
         0.61149E+07
        -0.38322E+01
         0.82234E+07
        -0.72907E+01
         0.99882E+07
        -0.87002E+01
         0.10613E+08
        -0.82088E+01
         0.10106E+08
        -0.89265E+01
         0.92595E+07
        -0.11585E+02
         0.83263E+07
        -0.13661E+02
         0.73437E+07
        -0.12700E+02
         0.58422E+07
        -0.10321E+02
         0.34288E+07
        -0.48724E+01
         0.29397E+06
         0.93040E+00
        -0.19174E+07
         0.22589E+01
        -0.30008E+07
         0.36938E+01
        -0.45137E+07
         0.72289E+01
        -0.59512E+07
         0.11862E+02
        -0.78212E+07
         0.14252E+02
        -0.89845E+07
         0.14577E+02
        -0.84671E+06
         0.44101E+06
         0.51735E+06
        -0.10412E+07
         0.40343E+07
         0.31193E+07
         0.47121E+06
        -0.69199E+06
        -0.35676E+06
        -0.63507E+06
         0.34884E+06
         0.15105E+07
         0.31545E+07
        -0.10091E+07
        -0.12141E+07
         0.13857E+07
         0.11629E+07
        -0.53907E+06
        -0.83928E+06
        -0.90271E+06
        -0.49355E+07
        -0.52543E+07
        -0.47467E+07
        -0.14751E+07
         0.59132E+06
        -0.44065E+06
        -0.14161E+07
        -0.15879E+06
        -0.16251E+07
        -0.11170E+07
         0.12372E+07
         0.24291E+06
        -0.58298E+06
        -0.18857E+06
         0.59693E+07
         0.38024E+07
         0.34406E+07
        -0.24088E+07
        -0.13722E+07
        -0.29359E+07
        -0.60420E+07
        -0.56294E+07
        -0.55558E+07
        -0.40843E+07
        -0.29304E+07
        -0.22933E+07
         0.43059E+06
         0.17979E+07
         0.51992E+06
         0.16487E+07
         0.44050E+07
         0.37091E+07
         0.17436E+08
         0.18301E+08
         0.16358E+08
         0.13916E+08
         0.10361E+08
         0.52778E+07
        -0.31317E+06
        -0.37601E+07
        -0.57292E+07
        -0.98359E+07
        -0.16033E+08
        -0.19508E+08
        -0.17870E+08
        -0.17138E+08
        -0.18103E+08
        -0.18097E+08
        -0.16439E+08
        -0.14395E+08
        -0.72943E+07
         0.11530E+07
         0.44312E+07
         0.49398E+07
         0.83649E+07
         0.13360E+08
         0.17328E+08
         0.18211E+08
        -0.53621E+08
         0.11007E+08
        -0.20955E+08
        -0.61015E+08
         0.12116E+09
         0.10696E+09
         0.31162E+08
        -0.68026E+08
        -0.31256E+08
        -0.64672E+08
        -0.13065E+08
         0.25355E+08
         0.10829E+09
        -0.12025E+09
        -0.63425E+08
         0.10534E+09
         0.58645E+08
        -0.35125E+08
        -0.23639E+08
        -0.41513E+08
        -0.16453E+09
        -0.16662E+09
        -0.16862E+09
        -0.56029E+08
         0.31824E+08
         0.21428E+08
        -0.11621E+09
         0.15429E+08
        -0.38890E+08
        -0.53034E+08
         0.80935E+08
         0.52371E+08
        -0.52492E+08
        -0.45304E+08
         0.16899E+09
         0.12319E+09
         0.13662E+09
        -0.85301E+08
        -0.18334E+08
        -0.56931E+08
        -0.14973E+09
        -0.16906E+09
        -0.16421E+09
        -0.15157E+09
        -0.13009E+09
        -0.56417E+08
         0.87212E+08
         0.10296E+09
        -0.13610E+08
         0.16387E+08
         0.13158E+09
         0.14796E+09
         0.18280E+09
         0.18025E+09
         0.15535E+09
         0.12899E+09
         0.90756E+08
         0.39158E+08
        -0.10097E+08
        -0.36446E+08
        -0.49166E+08
        -0.84671E+08
        -0.15321E+09
        -0.18303E+09
        -0.18292E+09
        -0.18236E+09
        -0.18420E+09
        -0.17806E+09
        -0.15706E+09
        -0.13701E+09
        -0.72344E+08
         0.18347E+08
         0.44689E+08
         0.47491E+08
         0.79575E+08
         0.14069E+09
         0.17539E+09
         0.17620E+09
        -0.53722E+08
         0.11048E+08
        -0.20995E+08
        -0.61056E+08
         0.12109E+09
         0.10686E+09
         0.31360E+08
        -0.67854E+08
        -0.31291E+08
        -0.64621E+08
        -0.12800E+08
         0.25417E+08
         0.10831E+09
        -0.11996E+09
        -0.63329E+08
         0.10545E+09
         0.58774E+08
        -0.35028E+08
        -0.23627E+08
        -0.41440E+08
        -0.16450E+09
        -0.16661E+09
        -0.16862E+09
        -0.56032E+08
         0.31896E+08
         0.21463E+08
        -0.11624E+09
         0.15139E+08
        -0.39163E+08
        -0.53068E+08
         0.81053E+08
         0.52365E+08
        -0.52274E+08
        -0.45324E+08
         0.16900E+09
         0.12314E+09
         0.13661E+09
        -0.85312E+08
        -0.18470E+08
        -0.57035E+08
        -0.14973E+09
        -0.16908E+09
        -0.16420E+09
        -0.15155E+09
        -0.13007E+09
        -0.56391E+08
         0.87195E+08
         0.10299E+09
        -0.13510E+08
         0.16331E+08
         0.13156E+09
         0.14774E+09
         0.18280E+09
         0.18025E+09
         0.15533E+09
         0.12899E+09
         0.90741E+08
         0.39159E+08
        -0.10113E+08
        -0.36477E+08
        -0.49136E+08
        -0.84660E+08
        -0.15321E+09
        -0.18303E+09
        -0.18292E+09
        -0.18236E+09
        -0.18420E+09
        -0.17806E+09
        -0.15705E+09
        -0.13701E+09
        -0.72328E+08
         0.18356E+08
         0.44661E+08
         0.47475E+08
         0.79541E+08
         0.14068E+09
         0.17539E+09
         0.17621E+09
        -0.53824E+08
         0.11088E+08
        -0.21034E+08
        -0.61096E+08
         0.12103E+09
         0.10676E+09
         0.31559E+08
        -0.67682E+08
        -0.31323E+08
        -0.64566E+08
        -0.12537E+08
         0.25480E+08
         0.10834E+09
        -0.11966E+09
        -0.63234E+08
         0.10557E+09
         0.58905E+08
        -0.34930E+08
        -0.23615E+08
        -0.41370E+08
        -0.16447E+09
        -0.16660E+09
        -0.16862E+09
        -0.56035E+08
         0.31972E+08
         0.21502E+08
        -0.11627E+09
         0.14853E+08
        -0.39439E+08
        -0.53101E+08
         0.81174E+08
         0.52360E+08
        -0.52054E+08
        -0.45345E+08
         0.16902E+09
         0.12308E+09
         0.13660E+09
        -0.85322E+08
        -0.18605E+08
        -0.57139E+08
        -0.14973E+09
        -0.16909E+09
        -0.16419E+09
        -0.15153E+09
        -0.13005E+09
        -0.56365E+08
         0.87179E+08
         0.10303E+09
        -0.13409E+08
         0.16273E+08
         0.13155E+09
         0.14753E+09
         0.18280E+09
         0.18024E+09
         0.15532E+09
         0.12899E+09
         0.90727E+08
         0.39159E+08
        -0.10128E+08
        -0.36509E+08
        -0.49106E+08
        -0.84650E+08
        -0.15321E+09
        -0.18302E+09
        -0.18292E+09
        -0.18235E+09
        -0.18421E+09
        -0.17806E+09
        -0.15704E+09
        -0.13701E+09
        -0.72312E+08
         0.18366E+08
         0.44633E+08
         0.47460E+08
         0.79508E+08
         0.14068E+09
         0.17539E+09
         0.17622E+09
        -0.53925E+08
         0.11130E+08
        -0.21073E+08
        -0.61136E+08
         0.12096E+09
         0.10666E+09
         0.31755E+08
        -0.67509E+08
        -0.31351E+08
        -0.64503E+08
        -0.12273E+08
         0.25543E+08
         0.10836E+09
        -0.11937E+09
        -0.63138E+08
         0.10569E+09
         0.59042E+08
        -0.34832E+08
        -0.23605E+08
        -0.41296E+08
        -0.16444E+09
        -0.16659E+09
        -0.16862E+09
        -0.56038E+08
         0.32063E+08
         0.21550E+08
        -0.11630E+09
         0.14575E+08
        -0.39713E+08
        -0.53132E+08
         0.81305E+08
         0.52366E+08
        -0.51833E+08
        -0.45365E+08
         0.16903E+09
         0.12303E+09
         0.13658E+09
        -0.85332E+08
        -0.18739E+08
        -0.57238E+08
        -0.14972E+09
        -0.16911E+09
        -0.16419E+09
        -0.15150E+09
        -0.13001E+09
        -0.56335E+08
         0.87166E+08
         0.10306E+09
        -0.13307E+08
         0.16215E+08
         0.13154E+09
         0.14731E+09
         0.18280E+09
         0.18023E+09
         0.15531E+09
         0.12899E+09
         0.90713E+08
         0.39159E+08
        -0.10144E+08
        -0.36540E+08
        -0.49076E+08
        -0.84640E+08
        -0.15321E+09
        -0.18302E+09
        -0.18292E+09
        -0.18235E+09
        -0.18421E+09
        -0.17805E+09
        -0.15703E+09
        -0.13700E+09
        -0.72295E+08
         0.18375E+08
         0.44605E+08
         0.47444E+08
         0.79474E+08
         0.14068E+09
         0.17540E+09
         0.17623E+09
        -0.54026E+08
         0.11171E+08
        -0.21112E+08
        -0.61176E+08
         0.12090E+09
         0.10656E+09
         0.31955E+08
        -0.67334E+08
        -0.31375E+08
        -0.64429E+08
        -0.12009E+08
         0.25606E+08
         0.10838E+09
        -0.11907E+09
        -0.63043E+08
         0.10582E+09
         0.59185E+08
        -0.34733E+08
        -0.23592E+08
        -0.41222E+08
        -0.16441E+09
        -0.16659E+09
        -0.16861E+09
        -0.56042E+08
         0.32169E+08
         0.21604E+08
        -0.11633E+09
         0.14307E+08
        -0.39986E+08
        -0.53161E+08
         0.81444E+08
         0.52379E+08
        -0.51611E+08
        -0.45385E+08
         0.16904E+09
         0.12297E+09
         0.13657E+09
        -0.85340E+08
        -0.18870E+08
        -0.57335E+08
        -0.14972E+09
        -0.16913E+09
        -0.16418E+09
        -0.15146E+09
        -0.12996E+09
        -0.56300E+08
         0.87156E+08
         0.10310E+09
        -0.13205E+08
         0.16158E+08
         0.13152E+09
         0.14709E+09
         0.18280E+09
         0.18023E+09
         0.15529E+09
         0.12899E+09
         0.90699E+08
         0.39159E+08
        -0.10159E+08
        -0.36572E+08
        -0.49046E+08
        -0.84630E+08
        -0.15320E+09
        -0.18302E+09
        -0.18291E+09
        -0.18235E+09
        -0.18421E+09
        -0.17805E+09
        -0.15702E+09
        -0.13700E+09
        -0.72278E+08
         0.18384E+08
         0.44576E+08
         0.47428E+08
         0.79441E+08
         0.14068E+09
         0.17540E+09
         0.17623E+09
        -0.54123E+08
         0.11216E+08
        -0.21146E+08
        -0.61215E+08
         0.12083E+09
         0.10646E+09
         0.32154E+08
        -0.67157E+08
        -0.31399E+08
        -0.64353E+08
        -0.11746E+08
         0.25668E+08
         0.10841E+09
        -0.11877E+09
        -0.62948E+08
         0.10595E+09
         0.59328E+08
        -0.34634E+08
        -0.23579E+08
        -0.41151E+08
        -0.16438E+09
        -0.16658E+09
        -0.16861E+09
        -0.56046E+08
         0.32274E+08
         0.21660E+08
        -0.11635E+09
         0.14039E+08
        -0.40261E+08
        -0.53196E+08
         0.81583E+08
         0.52390E+08
        -0.51387E+08
        -0.45403E+08
         0.16906E+09
         0.12292E+09
         0.13655E+09
        -0.85348E+08
        -0.19001E+08
        -0.57429E+08
        -0.14971E+09
        -0.16915E+09
        -0.16418E+09
        -0.15142E+09
        -0.12991E+09
        -0.56267E+08
         0.87144E+08
         0.10314E+09
        -0.13101E+08
         0.16106E+08
         0.13151E+09
         0.14687E+09
         0.18279E+09
         0.18022E+09
         0.15528E+09
         0.12899E+09
         0.90685E+08
         0.39160E+08
        -0.10174E+08
        -0.36603E+08
        -0.49016E+08
        -0.84620E+08
        -0.15320E+09
        -0.18301E+09
        -0.18291E+09
        -0.18235E+09
        -0.18422E+09
        -0.17805E+09
        -0.15700E+09
        -0.13699E+09
        -0.72262E+08
         0.18393E+08
         0.44547E+08
         0.47412E+08
         0.79408E+08
         0.14068E+09
         0.17541E+09
         0.17624E+09
        -0.54190E+08
         0.11271E+08
        -0.21173E+08
        -0.61254E+08
         0.12076E+09
         0.10637E+09
         0.32356E+08
        -0.66975E+08
        -0.31423E+08
        -0.64282E+08
        -0.11480E+08
         0.25730E+08
         0.10843E+09
        -0.11848E+09
        -0.62851E+08
         0.10609E+09
         0.59465E+08
        -0.34534E+08
        -0.23568E+08
        -0.41081E+08
        -0.16435E+09
        -0.16658E+09
        -0.16861E+09
        -0.56053E+08
         0.32367E+08
         0.21710E+08
        -0.11637E+09
         0.13766E+08
        -0.40538E+08
        -0.53235E+08
         0.81713E+08
         0.52392E+08
        -0.51158E+08
        -0.45416E+08
         0.16907E+09
         0.12288E+09
         0.13654E+09
        -0.85354E+08
        -0.19132E+08
        -0.57526E+08
        -0.14970E+09
        -0.16917E+09
        -0.16418E+09
        -0.15138E+09
        -0.12986E+09
        -0.56235E+08
         0.87124E+08
         0.10317E+09
        -0.12988E+08
         0.16065E+08
         0.13150E+09
         0.14666E+09
         0.18279E+09
         0.18021E+09
         0.15527E+09
         0.12899E+09
         0.90670E+08
         0.39160E+08
        -0.10189E+08
        -0.36635E+08
        -0.48986E+08
        -0.84610E+08
        -0.15320E+09
        -0.18301E+09
        -0.18291E+09
        -0.18234E+09
        -0.18422E+09
        -0.17805E+09
        -0.15699E+09
        -0.13699E+09
        -0.72245E+08
         0.18400E+08
         0.44517E+08
         0.47396E+08
         0.79376E+08
         0.14068E+09
         0.17541E+09
         0.17625E+09
        -0.54242E+08
         0.11328E+08
        -0.21196E+08
        -0.61290E+08
         0.12070E+09
         0.10627E+09
         0.32562E+08
        -0.66792E+08
        -0.31449E+08
        -0.64213E+08
        -0.11214E+08
         0.25792E+08
         0.10845E+09
        -0.11818E+09
        -0.62754E+08
         0.10622E+09
         0.59600E+08
        -0.34433E+08
        -0.23556E+08
        -0.41016E+08
        -0.16433E+09
        -0.16657E+09
        -0.16861E+09
        -0.56059E+08
         0.32453E+08
         0.21756E+08
        -0.11640E+09
         0.13491E+08
        -0.40820E+08
        -0.53278E+08
         0.81841E+08
         0.52389E+08
        -0.50927E+08
        -0.45427E+08
         0.16908E+09
         0.12284E+09
         0.13652E+09
        -0.85358E+08
        -0.19262E+08
        -0.57622E+08
        -0.14969E+09
        -0.16919E+09
        -0.16418E+09
        -0.15134E+09
        -0.12981E+09
        -0.56205E+08
         0.87102E+08
         0.10320E+09
        -0.12871E+08
         0.16030E+08
         0.13149E+09
         0.14645E+09
         0.18279E+09
         0.18020E+09
         0.15525E+09
         0.12899E+09
         0.90656E+08
         0.39160E+08
        -0.10205E+08
        -0.36666E+08
        -0.48956E+08
        -0.84601E+08
        -0.15320E+09
        -0.18301E+09
        -0.18291E+09
        -0.18234E+09
        -0.18423E+09
        -0.17805E+09
        -0.15698E+09
        -0.13698E+09
        -0.72228E+08
         0.18407E+08
         0.44486E+08
         0.47379E+08
         0.79345E+08
         0.14068E+09
         0.17541E+09
         0.17626E+09
        -0.54295E+08
         0.11385E+08
        -0.21219E+08
        -0.61327E+08
         0.12064E+09
         0.10617E+09
         0.32766E+08
        -0.66610E+08
        -0.31475E+08
        -0.64145E+08
        -0.10949E+08
         0.25854E+08
         0.10847E+09
        -0.11788E+09
        -0.62657E+08
         0.10635E+09
         0.59734E+08
        -0.34333E+08
        -0.23543E+08
        -0.40948E+08
        -0.16430E+09
        -0.16657E+09
        -0.16860E+09
        -0.56066E+08
         0.32540E+08
         0.21802E+08
        -0.11643E+09
         0.13217E+08
        -0.41101E+08
        -0.53320E+08
         0.81968E+08
         0.52386E+08
        -0.50696E+08
        -0.45438E+08
         0.16910E+09
         0.12279E+09
         0.13651E+09
        -0.85363E+08
        -0.19392E+08
        -0.57717E+08
        -0.14968E+09
        -0.16921E+09
        -0.16418E+09
        -0.15130E+09
        -0.12976E+09
        -0.56175E+08
         0.87079E+08
         0.10324E+09
        -0.12754E+08
         0.15996E+08
         0.13148E+09
         0.14624E+09
         0.18279E+09
         0.18020E+09
         0.15524E+09
         0.12899E+09
         0.90642E+08
         0.39160E+08
        -0.10220E+08
        -0.36698E+08
        -0.48926E+08
        -0.84591E+08
        -0.15320E+09
        -0.18300E+09
        -0.18291E+09
        -0.18234E+09
        -0.18423E+09
        -0.17805E+09
        -0.15696E+09
        -0.13698E+09
        -0.72212E+08
         0.18414E+08
         0.44454E+08
         0.47363E+08
         0.79314E+08
         0.14068E+09
         0.17542E+09
         0.17626E+09
        -0.54348E+08
         0.11443E+08
        -0.21241E+08
        -0.61365E+08
         0.12057E+09
         0.10607E+09
         0.32971E+08
        -0.66427E+08
        -0.31501E+08
        -0.64077E+08
        -0.10684E+08
         0.25916E+08
         0.10849E+09
        -0.11759E+09
        -0.62561E+08
         0.10648E+09
         0.59869E+08
        -0.34235E+08
        -0.23530E+08
        -0.40882E+08
        -0.16427E+09
        -0.16656E+09
        -0.16860E+09
        -0.56074E+08
         0.32626E+08
         0.21848E+08
        -0.11645E+09
         0.12944E+08
        -0.41381E+08
        -0.53362E+08
         0.82095E+08
         0.52382E+08
        -0.50465E+08
        -0.45449E+08
         0.16911E+09
         0.12275E+09
         0.13650E+09
        -0.85366E+08
        -0.19522E+08
        -0.57814E+08
        -0.14967E+09
        -0.16924E+09
        -0.16418E+09
        -0.15126E+09
        -0.12971E+09
        -0.56144E+08
         0.87057E+08
         0.10327E+09
        -0.12638E+08
         0.15960E+08
         0.13147E+09
         0.14603E+09
         0.18279E+09
         0.18019E+09
         0.15523E+09
         0.12899E+09
         0.90627E+08
         0.39161E+08
        -0.10235E+08
        -0.36729E+08
        -0.48896E+08
        -0.84582E+08
        -0.15319E+09
        -0.18300E+09
        -0.18291E+09
        -0.18233E+09
        -0.18423E+09
        -0.17805E+09
        -0.15695E+09
        -0.13697E+09
        -0.72195E+08
         0.18421E+08
         0.44423E+08
         0.47347E+08
         0.79282E+08
         0.14068E+09
         0.17542E+09
         0.17627E+09
        -0.54400E+08
         0.11501E+08
        -0.21265E+08
        -0.61401E+08
         0.12051E+09
         0.10598E+09
         0.33174E+08
        -0.66244E+08
        -0.31527E+08
        -0.64010E+08
        -0.10419E+08
         0.25979E+08
         0.10851E+09
        -0.11729E+09
        -0.62464E+08
         0.10661E+09
         0.60003E+08
        -0.34136E+08
        -0.23520E+08
        -0.40813E+08
        -0.16424E+09
        -0.16656E+09
        -0.16860E+09
        -0.56082E+08
         0.32712E+08
         0.21894E+08
        -0.11648E+09
         0.12671E+08
        -0.41660E+08
        -0.53403E+08
         0.82222E+08
         0.52378E+08
        -0.50234E+08
        -0.45460E+08
         0.16912E+09
         0.12271E+09
         0.13648E+09
        -0.85370E+08
        -0.19651E+08
        -0.57910E+08
        -0.14966E+09
        -0.16926E+09
        -0.16418E+09
        -0.15121E+09
        -0.12966E+09
        -0.56115E+08
         0.87034E+08
         0.10330E+09
        -0.12521E+08
         0.15925E+08
         0.13147E+09
         0.14582E+09
         0.18278E+09
         0.18018E+09
         0.15522E+09
         0.12899E+09
         0.90613E+08
         0.39161E+08
        -0.10250E+08
        -0.36760E+08
        -0.48866E+08
        -0.84572E+08
        -0.15319E+09
        -0.18300E+09
        -0.18291E+09
        -0.18233E+09
        -0.18424E+09
        -0.17805E+09
        -0.15693E+09
        -0.13697E+09
        -0.72179E+08
         0.18427E+08
         0.44392E+08
         0.47330E+08
         0.79251E+08
         0.14068E+09
         0.17542E+09
         0.17628E+09
        -0.54452E+08
         0.11559E+08
        -0.21287E+08
        -0.61438E+08
         0.12045E+09
         0.10588E+09
         0.33378E+08
        -0.66061E+08
        -0.31552E+08
        -0.63942E+08
        -0.10154E+08
         0.26041E+08
         0.10854E+09
        -0.11700E+09
        -0.62368E+08
         0.10675E+09
         0.60137E+08
        -0.34036E+08
        -0.23508E+08
        -0.40747E+08
        -0.16421E+09
        -0.16655E+09
        -0.16860E+09
        -0.56090E+08
         0.32797E+08
         0.21941E+08
        -0.11651E+09
         0.12399E+08
        -0.41937E+08
        -0.53446E+08
         0.82350E+08
         0.52374E+08
        -0.50002E+08
        -0.45471E+08
         0.16914E+09
         0.12267E+09
         0.13647E+09
        -0.85374E+08
        -0.19781E+08
        -0.58007E+08
        -0.14965E+09
        -0.16928E+09
        -0.16418E+09
        -0.15117E+09
        -0.12961E+09
        -0.56086E+08
         0.87011E+08
         0.10334E+09
        -0.12403E+08
         0.15891E+08
         0.13146E+09
         0.14561E+09
         0.18278E+09
         0.18018E+09
         0.15520E+09
         0.12899E+09
         0.90598E+08
         0.39162E+08
        -0.10265E+08
        -0.36791E+08
        -0.48836E+08
        -0.84562E+08
        -0.15319E+09
        -0.18299E+09
        -0.18291E+09
        -0.18233E+09
        -0.18424E+09
        -0.17805E+09
        -0.15692E+09
        -0.13696E+09
        -0.72162E+08
         0.18434E+08
         0.44360E+08
         0.47314E+08
         0.79220E+08
         0.14068E+09
         0.17543E+09
         0.17629E+09
        -0.54505E+08
         0.11617E+08
        -0.21309E+08
        -0.61474E+08
         0.12038E+09
         0.10578E+09
         0.33582E+08
        -0.65877E+08
        -0.31577E+08
        -0.63873E+08
        -0.98902E+07
         0.26103E+08
         0.10856E+09
        -0.11671E+09
        -0.62270E+08
         0.10688E+09
         0.60271E+08
        -0.33936E+08
        -0.23496E+08
        -0.40680E+08
        -0.16418E+09
        -0.16655E+09
        -0.16859E+09
        -0.56099E+08
         0.32881E+08
         0.21986E+08
        -0.11653E+09
         0.12126E+08
        -0.42216E+08
        -0.53487E+08
         0.82476E+08
         0.52370E+08
        -0.49770E+08
        -0.45482E+08
         0.16915E+09
         0.12263E+09
         0.13645E+09
        -0.85377E+08
        -0.19910E+08
        -0.58102E+08
        -0.14964E+09
        -0.16930E+09
        -0.16418E+09
        -0.15113E+09
        -0.12956E+09
        -0.56055E+08
         0.86988E+08
         0.10337E+09
        -0.12286E+08
         0.15856E+08
         0.13145E+09
         0.14540E+09
         0.18278E+09
         0.18017E+09
         0.15519E+09
         0.12899E+09
         0.90584E+08
         0.39162E+08
        -0.10280E+08
        -0.36822E+08
        -0.48806E+08
        -0.84553E+08
        -0.15319E+09
        -0.18299E+09
        -0.18291E+09
        -0.18233E+09
        -0.18425E+09
        -0.17805E+09
        -0.15691E+09
        -0.13696E+09
        -0.72145E+08
         0.18441E+08
         0.44329E+08
         0.47298E+08
         0.79189E+08
         0.14068E+09
         0.17543E+09
         0.17629E+09
        -0.54558E+08
         0.11674E+08
        -0.21330E+08
        -0.61510E+08
         0.12032E+09
         0.10568E+09
         0.33784E+08
        -0.65694E+08
        -0.31602E+08
        -0.63804E+08
        -0.96267E+07
         0.26165E+08
         0.10858E+09
        -0.11641E+09
        -0.62174E+08
         0.10701E+09
         0.60405E+08
        -0.33837E+08
        -0.23487E+08
        -0.40614E+08
        -0.16415E+09
        -0.16654E+09
        -0.16859E+09
        -0.56107E+08
         0.32965E+08
         0.22032E+08
        -0.11656E+09
         0.11856E+08
        -0.42496E+08
        -0.53528E+08
         0.82603E+08
         0.52366E+08
        -0.49538E+08
        -0.45493E+08
         0.16916E+09
         0.12259E+09
         0.13644E+09
        -0.85378E+08
        -0.20038E+08
        -0.58200E+08
        -0.14963E+09
        -0.16932E+09
        -0.16418E+09
        -0.15109E+09
        -0.12951E+09
        -0.56025E+08
         0.86965E+08
         0.10340E+09
        -0.12168E+08
         0.15821E+08
         0.13144E+09
         0.14519E+09
         0.18278E+09
         0.18016E+09
         0.15518E+09
         0.12899E+09
         0.90570E+08
         0.39162E+08
        -0.10295E+08
        -0.36853E+08
        -0.48776E+08
        -0.84544E+08
        -0.15319E+09
        -0.18298E+09
        -0.18291E+09
        -0.18232E+09
        -0.18425E+09
        -0.17805E+09
        -0.15689E+09
        -0.13695E+09
        -0.72128E+08
         0.18447E+08
         0.44298E+08
         0.47282E+08
         0.79158E+08
         0.14067E+09
         0.17543E+09
         0.17630E+09
        -0.54611E+08
         0.11731E+08
        -0.21352E+08
        -0.61546E+08
         0.12025E+09
         0.10558E+09
         0.33988E+08
        -0.65511E+08
        -0.31627E+08
        -0.63736E+08
        -0.93633E+07
         0.26228E+08
         0.10860E+09
        -0.11612E+09
        -0.62077E+08
         0.10714E+09
         0.60539E+08
        -0.33738E+08
        -0.23475E+08
        -0.40546E+08
        -0.16412E+09
        -0.16654E+09
        -0.16859E+09
        -0.56115E+08
         0.33049E+08
         0.22078E+08
        -0.11659E+09
         0.11585E+08
        -0.42774E+08
        -0.53569E+08
         0.82729E+08
         0.52362E+08
        -0.49305E+08
        -0.45504E+08
         0.16918E+09
         0.12255E+09
         0.13642E+09
        -0.85378E+08
        -0.20166E+08
        -0.58295E+08
        -0.14963E+09
        -0.16934E+09
        -0.16417E+09
        -0.15105E+09
        -0.12946E+09
        -0.55996E+08
         0.86942E+08
         0.10344E+09
        -0.12049E+08
         0.15786E+08
         0.13143E+09
         0.14498E+09
         0.18278E+09
         0.18016E+09
         0.15516E+09
         0.12899E+09
         0.90556E+08
         0.39162E+08
        -0.10310E+08
        -0.36883E+08
        -0.48745E+08
        -0.84535E+08
        -0.15318E+09
        -0.18298E+09
        -0.18291E+09
        -0.18232E+09
        -0.18425E+09
        -0.17805E+09
        -0.15688E+09
        -0.13694E+09
        -0.72112E+08
         0.18453E+08
         0.44266E+08
         0.47266E+08
         0.79126E+08
         0.14067E+09
         0.17544E+09
         0.17631E+09
        -0.54665E+08
         0.11789E+08
        -0.21375E+08
        -0.61582E+08
         0.12019E+09
         0.10549E+09
         0.34190E+08
        -0.65328E+08
        -0.31653E+08
        -0.63668E+08
        -0.90997E+07
         0.26290E+08
         0.10862E+09
        -0.11582E+09
        -0.61980E+08
         0.10727E+09
         0.60672E+08
        -0.33640E+08
        -0.23463E+08
        -0.40480E+08
        -0.16409E+09
        -0.16653E+09
        -0.16859E+09
        -0.56123E+08
         0.33131E+08
         0.22124E+08
        -0.11661E+09
         0.11314E+08
        -0.43052E+08
        -0.53609E+08
         0.82856E+08
         0.52358E+08
        -0.49073E+08
        -0.45515E+08
         0.16919E+09
         0.12251E+09
         0.13641E+09
        -0.85379E+08
        -0.20294E+08
        -0.58391E+08
        -0.14962E+09
        -0.16936E+09
        -0.16417E+09
        -0.15101E+09
        -0.12941E+09
        -0.55965E+08
         0.86919E+08
         0.10347E+09
        -0.11931E+08
         0.15750E+08
         0.13142E+09
         0.14476E+09
         0.18278E+09
         0.18015E+09
         0.15515E+09
         0.12899E+09
         0.90541E+08
         0.39162E+08
        -0.10325E+08
        -0.36914E+08
        -0.48715E+08
        -0.84526E+08
        -0.15318E+09
        -0.18298E+09
        -0.18291E+09
        -0.18232E+09
        -0.18426E+09
        -0.17805E+09
        -0.15686E+09
        -0.13694E+09
        -0.72095E+08
         0.18460E+08
         0.44235E+08
         0.47250E+08
         0.79095E+08
         0.14067E+09
         0.17544E+09
         0.17632E+09
        -0.54718E+08
         0.11847E+08
        -0.21397E+08
        -0.61618E+08
         0.12013E+09
         0.10539E+09
         0.34393E+08
        -0.65145E+08
        -0.31677E+08
        -0.63596E+08
        -0.88364E+07
         0.26352E+08
         0.10864E+09
        -0.11553E+09
        -0.61883E+08
         0.10740E+09
         0.60806E+08
        -0.33542E+08
        -0.23452E+08
        -0.40412E+08
        -0.16406E+09
        -0.16653E+09
        -0.16858E+09
        -0.56133E+08
         0.33211E+08
         0.22169E+08
        -0.11663E+09
         0.11041E+08
        -0.43328E+08
        -0.53650E+08
         0.82983E+08
         0.52355E+08
        -0.48842E+08
        -0.45527E+08
         0.16920E+09
         0.12247E+09
         0.13639E+09
        -0.85378E+08
        -0.20424E+08
        -0.58490E+08
        -0.14961E+09
        -0.16938E+09
        -0.16417E+09
        -0.15097E+09
        -0.12935E+09
        -0.55935E+08
         0.86897E+08
         0.10350E+09
        -0.11813E+08
         0.15715E+08
         0.13141E+09
         0.14456E+09
         0.18277E+09
         0.18014E+09
         0.15514E+09
         0.12898E+09
         0.90527E+08
         0.39163E+08
        -0.10339E+08
        -0.36945E+08
        -0.48685E+08
        -0.84517E+08
        -0.15318E+09
        -0.18297E+09
        -0.18290E+09
        -0.18231E+09
        -0.18426E+09
        -0.17805E+09
        -0.15685E+09
        -0.13693E+09
        -0.72078E+08
         0.18466E+08
         0.44203E+08
         0.47234E+08
         0.79064E+08
         0.14067E+09
         0.17544E+09
         0.17633E+09
        -0.54771E+08
         0.11904E+08
        -0.21418E+08
        -0.61653E+08
         0.12006E+09
         0.10529E+09
         0.34594E+08
        -0.64961E+08
        -0.31699E+08
        -0.63517E+08
        -0.85734E+07
         0.26415E+08
         0.10866E+09
        -0.11523E+09
        -0.61786E+08
         0.10754E+09
         0.60939E+08
        -0.33442E+08
        -0.23444E+08
        -0.40347E+08
        -0.16403E+09
        -0.16652E+09
        -0.16858E+09
        -0.56140E+08
         0.33286E+08
         0.22216E+08
        -0.11665E+09
         0.10762E+08
        -0.43606E+08
        -0.53693E+08
         0.83110E+08
         0.52350E+08
        -0.48609E+08
        -0.45538E+08
         0.16921E+09
         0.12243E+09
         0.13638E+09
        -0.85374E+08
        -0.20558E+08
        -0.58587E+08
        -0.14960E+09
        -0.16940E+09
        -0.16417E+09
        -0.15093E+09
        -0.12930E+09
        -0.55904E+08
         0.86874E+08
         0.10354E+09
        -0.11696E+08
         0.15680E+08
         0.13140E+09
         0.14434E+09
         0.18277E+09
         0.18014E+09
         0.15513E+09
         0.12898E+09
         0.90512E+08
         0.39163E+08
        -0.10354E+08
        -0.36975E+08
        -0.48656E+08
        -0.84508E+08
        -0.15318E+09
        -0.18297E+09
        -0.18290E+09
        -0.18231E+09
        -0.18427E+09
        -0.17805E+09
        -0.15684E+09
        -0.13693E+09
        -0.72062E+08
         0.18473E+08
         0.44172E+08
         0.47217E+08
         0.79033E+08
         0.14067E+09
         0.17545E+09
         0.17633E+09
        -0.54824E+08
         0.11961E+08
        -0.21440E+08
        -0.61688E+08
         0.12000E+09
         0.10519E+09
         0.34797E+08
        -0.64778E+08
        -0.31718E+08
        -0.63430E+08
        -0.83111E+07
         0.26477E+08
         0.10868E+09
        -0.11494E+09
        -0.61687E+08
         0.10767E+09
         0.61070E+08
        -0.33344E+08
        -0.23434E+08
        -0.40280E+08
        -0.16400E+09
        -0.16652E+09
        -0.16858E+09
        -0.56149E+08
         0.33356E+08
         0.22261E+08
        -0.11665E+09
         0.10473E+08
        -0.43883E+08
        -0.53734E+08
         0.83237E+08
         0.52346E+08
        -0.48376E+08
        -0.45549E+08
         0.16923E+09
         0.12239E+09
         0.13636E+09
        -0.85367E+08
        -0.20696E+08
        -0.58687E+08
        -0.14958E+09
        -0.16942E+09
        -0.16417E+09
        -0.15089E+09
        -0.12925E+09
        -0.55875E+08
         0.86852E+08
         0.10357E+09
        -0.11577E+08
         0.15645E+08
         0.13139E+09
         0.14413E+09
         0.18277E+09
         0.18013E+09
         0.15511E+09
         0.12898E+09
         0.90498E+08
         0.39164E+08
        -0.10369E+08
        -0.37006E+08
        -0.48627E+08
        -0.84500E+08
        -0.15317E+09
        -0.18297E+09
        -0.18290E+09
        -0.18231E+09
        -0.18427E+09
        -0.17805E+09
        -0.15682E+09
        -0.13692E+09
        -0.72045E+08
         0.18479E+08
         0.44141E+08
         0.47201E+08
         0.79003E+08
         0.14067E+09
         0.17545E+09
         0.17634E+09
        -0.54876E+08
         0.12018E+08
        -0.21462E+08
        -0.61724E+08
         0.11993E+09
         0.10510E+09
         0.34997E+08
        -0.64595E+08
        -0.31736E+08
        -0.63342E+08
        -0.80507E+07
         0.26538E+08
         0.10870E+09
        -0.11464E+09
        -0.61589E+08
         0.10780E+09
         0.61202E+08
        -0.33246E+08
        -0.23422E+08
        -0.40215E+08
        -0.16397E+09
        -0.16652E+09
        -0.16858E+09
        -0.56158E+08
         0.33423E+08
         0.22306E+08
        -0.11666E+09
         0.10184E+08
        -0.44158E+08
        -0.53775E+08
         0.83364E+08
         0.52342E+08
        -0.48145E+08
        -0.45561E+08
         0.16924E+09
         0.12235E+09
         0.13635E+09
        -0.85359E+08
        -0.20836E+08
        -0.58785E+08
        -0.14957E+09
        -0.16944E+09
        -0.16416E+09
        -0.15085E+09
        -0.12920E+09
        -0.55845E+08
         0.86830E+08
         0.10360E+09
        -0.11460E+08
         0.15608E+08
         0.13138E+09
         0.14392E+09
         0.18277E+09
         0.18012E+09
         0.15510E+09
         0.12898E+09
         0.90484E+08
         0.39163E+08
        -0.10383E+08
        -0.37035E+08
        -0.48598E+08
        -0.84491E+08
        -0.15317E+09
        -0.18297E+09
        -0.18290E+09
        -0.18231E+09
        -0.18427E+09
        -0.17805E+09
        -0.15681E+09
        -0.13692E+09
        -0.72028E+08
         0.18486E+08
         0.44110E+08
         0.47185E+08
         0.78972E+08
         0.14067E+09
         0.17545E+09
         0.17635E+09
        -0.52841E+08
         0.12098E+08
        -0.21547E+08
        -0.61937E+08
         0.11371E+09
         0.10528E+09
         0.35271E+08
        -0.61591E+08
        -0.31843E+08
        -0.61712E+08
        -0.78449E+07
         0.26000E+08
         0.10547E+09
        -0.11467E+09
        -0.60251E+08
         0.10823E+09
         0.61500E+08
        -0.33253E+08
        -0.23471E+08
        -0.40251E+08
        -0.16001E+09
        -0.16188E+09
        -0.16413E+09
        -0.56320E+08
         0.33575E+08
         0.22410E+08
        -0.11698E+09
         0.99403E+07
        -0.44528E+08
        -0.53955E+08
         0.83724E+08
         0.52481E+08
        -0.48074E+08
        -0.45706E+08
         0.16295E+09
         0.12263E+09
         0.12948E+09
        -0.83085E+08
        -0.20129E+08
        -0.56188E+08
        -0.14574E+09
        -0.16474E+09
        -0.16003E+09
        -0.14577E+09
        -0.12333E+09
        -0.54002E+08
         0.85217E+08
         0.10392E+09
        -0.11387E+08
         0.15613E+08
         0.12639E+09
         0.14410E+09
         0.18151E+09
         0.17899E+09
         0.15418E+09
         0.12826E+09
         0.89995E+08
         0.38960E+08
        -0.10343E+08
        -0.36806E+08
        -0.48216E+08
        -0.83912E+08
        -0.15216E+09
        -0.18188E+09
        -0.18164E+09
        -0.18105E+09
        -0.18320E+09
        -0.17712E+09
        -0.15601E+09
        -0.13623E+09
        -0.71564E+08
         0.18387E+08
         0.43814E+08
         0.46869E+08
         0.78466E+08
         0.13978E+09
         0.17442E+09
         0.17530E+09
        -0.25538E+08
         0.57150E+07
        -0.10248E+08
        -0.32484E+08
         0.48903E+08
         0.46033E+08
         0.15867E+08
        -0.26798E+08
        -0.15704E+08
        -0.26369E+08
        -0.31238E+07
         0.15252E+08
         0.55675E+08
        -0.44184E+08
        -0.36236E+08
         0.53699E+08
         0.29794E+08
        -0.18371E+08
        -0.10847E+08
        -0.18109E+08
        -0.90914E+08
        -0.87590E+08
        -0.90155E+08
        -0.27403E+08
         0.14489E+08
         0.11460E+08
        -0.45605E+08
         0.40368E+07
        -0.18362E+08
        -0.22546E+08
         0.41818E+08
         0.25782E+08
        -0.25008E+08
        -0.22991E+08
         0.79303E+08
         0.50251E+08
         0.56057E+08
        -0.45719E+08
        -0.96202E+07
        -0.25413E+08
        -0.81422E+08
        -0.89250E+08
        -0.89690E+08
        -0.73487E+08
        -0.55550E+08
        -0.27575E+08
         0.34542E+08
         0.44583E+08
        -0.50428E+07
         0.66369E+07
         0.61110E+08
         0.60167E+08
         0.14392E+09
         0.14455E+09
         0.12586E+09
         0.10568E+09
         0.74942E+08
         0.32683E+08
        -0.85664E+07
        -0.29345E+08
        -0.37903E+08
        -0.66969E+08
        -0.12202E+09
        -0.14838E+09
        -0.14405E+09
        -0.14396E+09
        -0.15000E+09
        -0.14731E+09
        -0.13079E+09
        -0.11430E+09
        -0.57797E+08
         0.14994E+08
         0.35448E+08
         0.37696E+08
         0.63650E+08
         0.11267E+09
         0.14251E+09
         0.14274E+09
  
SCALARS                      stress_xy  double 1
LOOKUP_TABLE default
        -0.43246E+00
        -0.10151E+01
        -0.87033E+01
         0.30731E+00
        -0.10986E-09
         0.10736E-10
         0.16142E-09
         0.24589E-10
        -0.91826E+02
         0.40343E+02
         0.71853E-09
         0.56979E-09
         0.34374E+01
        -0.71325E+00
         0.63421E-10
        -0.19048E-10
         0.98765E+00
         0.17249E+02
         0.31574E-11
         0.48114E-10
        -0.13126E+02
        -0.83299E+02
        -0.81932E+02
         0.48924E-09
         0.38961E-09
        -0.56895E-09
        -0.86725E+01
        -0.72492E+02
         0.65875E-09
         0.10138E-08
        -0.26411E+01
         0.51178E+01
         0.41540E+00
        -0.34770E-10
         0.13716E-09
        -0.17544E-11
        -0.23297E+02
        -0.10832E+02
         0.36710E-09
         0.30410E-09
        -0.45665E+02
        -0.41218E+02
         0.62580E-09
         0.42175E-09
        -0.44282E+02
        -0.81284E+01
        -0.22797E-10
         0.16973E-09
         0.11827E+02
         0.50160E-10
        -0.27696E+01
        -0.11309E-11
         0.72754E+00
         0.37913E-09
         0.36028E+01
         0.58340E-10
         0.51409E+02
        -0.25020E+01
         0.13558E-11
        -0.66516E-11
         0.34200E+00
        -0.34435E+02
         0.36948E-10
         0.94772E-10
         0.14794E+01
        -0.75018E-11
         0.21268E+02
         0.60112E-10
        -0.11375E+03
        -0.41291E+02
         0.46431E-10
        -0.44463E-09
        -0.92873E+02
        -0.71091E-09
         0.38049E+02
         0.47616E-09
         0.12018E+03
         0.70941E-10
         0.20986E+03
         0.92250E-10
         0.40707E+03
         0.22177E+03
         0.21688E-09
        -0.54993E-10
         0.27373E+02
        -0.66177E-11
        -0.83921E+02
        -0.59686E-09
        -0.12356E+03
        -0.66644E-09
        -0.27189E+03
        -0.12397E+03
        -0.42187E-09
         0.46827E-09
         0.19927E+02
         0.42637E-09
         0.49074E+02
         0.18316E-09
         0.11468E+03
         0.48631E-09
         0.28211E+03
         0.16088E+03
         0.10428E-08
         0.52138E-09
        -0.46382E+03
         0.19433E+03
        -0.67749E-09
         0.82968E-09
        -0.11294E+04
        -0.19255E-08
        -0.14730E+04
        -0.21048E-08
        -0.12943E+04
        -0.14285E-08
        -0.11039E+04
        -0.15152E-09
        -0.48263E+03
         0.42707E-09
         0.63597E+03
         0.26442E-09
         0.14292E+04
         0.24173E-09
         0.18895E+04
         0.51864E-09
         0.18525E+04
         0.63058E-09
         0.15186E+04
         0.24844E-09
         0.80896E+03
         0.15147E-09
        -0.55390E+02
         0.24757E-09
        -0.67295E+03
         0.16595E-09
        -0.10853E+04
        -0.59180E-09
        -0.14814E+04
        -0.15528E-08
        -0.13268E+04
        -0.19707E-08
        -0.85217E+03
        -0.12196E-08
        -0.93352E+02
         0.23269E-09
         0.63053E+03
         0.49317E-09
         0.91177E+03
         0.78595E-09
         0.11157E+04
         0.15477E-08
         0.10001E+04
         0.20083E-08
         0.93078E+03
         0.14268E-08
         0.76875E+03
         0.11284E-08
        -0.76309E+02
         0.20567E+02
         0.21061E+02
        -0.13156E+02
         0.16828E+03
         0.13834E+03
         0.22034E+01
        -0.49733E+02
        -0.21996E+02
        -0.57453E+02
        -0.16481E+02
        -0.30441E+03
        -0.43441E+03
         0.16118E+02
         0.24719E+03
        -0.33077E+02
         0.24595E+02
         0.73397E+01
         0.14920E+02
        -0.12130E+02
         0.60895E+02
         0.53455E+02
        -0.16225E+03
         0.42501E+01
         0.36523E+02
         0.40238E+01
         0.66953E+00
         0.13126E+01
         0.16299E+02
        -0.54083E+02
        -0.28827E+02
         0.61401E+01
         0.98787E+01
        -0.77828E+00
        -0.40642E+02
        -0.14037E+03
        -0.28488E+03
         0.43104E+03
         0.22435E+03
         0.40549E+03
         0.78553E+03
         0.18192E+03
        -0.14696E+03
        -0.29632E+03
        -0.35118E+03
        -0.44861E+03
         0.55302E+02
         0.16568E+03
         0.51118E+02
         0.17213E+03
         0.53921E+03
         0.20762E+03
        -0.18346E+04
         0.23159E+04
        -0.56054E+04
        -0.65889E+04
        -0.62534E+04
        -0.37812E+04
         0.22554E+03
         0.24515E+04
         0.35545E+04
         0.57672E+04
         0.60730E+04
         0.32461E+04
         0.13089E+04
         0.55348E+03
        -0.89544E+03
        -0.35390E+04
        -0.59082E+04
        -0.67501E+04
        -0.41372E+04
         0.74990E+03
         0.27155E+04
         0.28619E+04
         0.45084E+04
         0.50067E+04
         0.37943E+04
         0.35016E+04
        -0.13967E+06
         0.18083E+05
        -0.31857E+05
        -0.22002E+05
         0.23913E+06
         0.94984E+05
         0.21944E+05
        -0.16747E+06
        -0.50462E+05
        -0.14975E+06
         0.15994E+05
        -0.11287E+06
        -0.31917E+06
         0.54242E+05
         0.27175E+06
        -0.10406E+06
         0.17556E+05
         0.10039E+05
         0.30451E+05
         0.10339E+05
         0.16961E+06
         0.12442E+06
        -0.73547E+05
         0.21613E+05
         0.49621E+05
        -0.82639E+04
         0.11246E+05
        -0.27759E+04
        -0.11176E+05
        -0.82488E+05
        -0.86163E+05
        -0.14687E+05
         0.36120E+05
         0.27068E+05
         0.46437E+05
        -0.10698E+06
        -0.22642E+06
         0.30486E+06
         0.62536E+05
         0.17332E+06
         0.30349E+06
        -0.87812E+05
        -0.17529E+06
        -0.21541E+06
        -0.24085E+06
        -0.20147E+06
         0.19221E+06
         0.15006E+06
        -0.24930E+05
         0.35436E+05
         0.28670E+06
         0.24875E+05
        -0.19664E+06
         0.27167E+06
        -0.52399E+06
        -0.56590E+06
        -0.48563E+06
        -0.23602E+06
         0.61847E+05
         0.21630E+06
         0.28605E+06
         0.45912E+06
         0.53103E+06
         0.21163E+06
         0.99443E+05
         0.88689E+05
        -0.38288E+05
        -0.29580E+06
        -0.50607E+06
        -0.56852E+06
        -0.40433E+06
         0.11106E+06
         0.26047E+06
         0.27376E+06
         0.43243E+06
         0.54906E+06
         0.34680E+06
         0.33235E+06
        -0.14002E+06
         0.18154E+05
        -0.31933E+05
        -0.22178E+05
         0.23904E+06
         0.94970E+05
         0.22111E+05
        -0.16733E+06
        -0.50607E+05
        -0.15019E+06
         0.15679E+05
        -0.11314E+06
        -0.31928E+06
         0.54110E+05
         0.27155E+06
        -0.10418E+06
         0.17755E+05
         0.99961E+04
         0.30457E+05
         0.10263E+05
         0.16999E+06
         0.12454E+06
        -0.73565E+05
         0.21604E+05
         0.49958E+05
        -0.82627E+04
         0.11382E+05
        -0.27389E+04
        -0.11180E+05
        -0.82715E+05
        -0.86304E+05
        -0.14653E+05
         0.36050E+05
         0.27124E+05
         0.45999E+05
        -0.10700E+06
        -0.22639E+06
         0.30518E+06
         0.63107E+05
         0.17380E+06
         0.30364E+06
        -0.87567E+05
        -0.17545E+06
        -0.21550E+06
        -0.24083E+06
        -0.20138E+06
         0.19220E+06
         0.15002E+06
        -0.24715E+05
         0.35268E+05
         0.28658E+06
         0.24462E+05
        -0.19652E+06
         0.27173E+06
        -0.52405E+06
        -0.56590E+06
        -0.48557E+06
        -0.23602E+06
         0.61938E+05
         0.21647E+06
         0.28588E+06
         0.45906E+06
         0.53100E+06
         0.21172E+06
         0.99442E+05
         0.88873E+05
        -0.37973E+05
        -0.29590E+06
        -0.50615E+06
        -0.56855E+06
        -0.40426E+06
         0.11111E+06
         0.26032E+06
         0.27368E+06
         0.43226E+06
         0.54897E+06
         0.34659E+06
         0.33208E+06
        -0.14038E+06
         0.18223E+05
        -0.32010E+05
        -0.22356E+05
         0.23894E+06
         0.94962E+05
         0.22280E+05
        -0.16719E+06
        -0.50751E+05
        -0.15062E+06
         0.15365E+05
        -0.11341E+06
        -0.31939E+06
         0.53971E+05
         0.27134E+06
        -0.10429E+06
         0.17956E+05
         0.99530E+04
         0.30463E+05
         0.10187E+05
         0.17038E+06
         0.12465E+06
        -0.73593E+05
         0.21592E+05
         0.50301E+05
        -0.82604E+04
         0.11527E+05
        -0.27030E+04
        -0.11177E+05
        -0.82936E+05
        -0.86447E+05
        -0.14613E+05
         0.35978E+05
         0.27180E+05
         0.45559E+05
        -0.10703E+06
        -0.22636E+06
         0.30550E+06
         0.63676E+05
         0.17428E+06
         0.30380E+06
        -0.87299E+05
        -0.17560E+06
        -0.21560E+06
        -0.24081E+06
        -0.20129E+06
         0.19218E+06
         0.14998E+06
        -0.24496E+05
         0.35095E+05
         0.28647E+06
         0.24052E+05
        -0.19640E+06
         0.27179E+06
        -0.52410E+06
        -0.56590E+06
        -0.48550E+06
        -0.23601E+06
         0.62029E+05
         0.21664E+06
         0.28571E+06
         0.45900E+06
         0.53098E+06
         0.21182E+06
         0.99444E+05
         0.89057E+05
        -0.37656E+05
        -0.29599E+06
        -0.50624E+06
        -0.56857E+06
        -0.40418E+06
         0.11117E+06
         0.26016E+06
         0.27359E+06
         0.43210E+06
         0.54889E+06
         0.34639E+06
         0.33181E+06
        -0.14073E+06
         0.18295E+05
        -0.32085E+05
        -0.22535E+05
         0.23884E+06
         0.94951E+05
         0.22448E+05
        -0.16704E+06
        -0.50889E+05
        -0.15102E+06
         0.15052E+05
        -0.11368E+06
        -0.31951E+06
         0.53839E+05
         0.27113E+06
        -0.10442E+06
         0.18163E+05
         0.99094E+04
         0.30472E+05
         0.10107E+05
         0.17078E+06
         0.12475E+06
        -0.73656E+05
         0.21572E+05
         0.50661E+05
        -0.82560E+04
         0.11676E+05
        -0.26731E+04
        -0.11153E+05
        -0.83138E+05
        -0.86592E+05
        -0.14562E+05
         0.35904E+05
         0.27236E+05
         0.45121E+05
        -0.10705E+06
        -0.22632E+06
         0.30582E+06
         0.64243E+05
         0.17476E+06
         0.30399E+06
        -0.86960E+05
        -0.17572E+06
        -0.21577E+06
        -0.24082E+06
        -0.20120E+06
         0.19219E+06
         0.14994E+06
        -0.24278E+05
         0.34924E+05
         0.28634E+06
         0.23644E+05
        -0.19627E+06
         0.27185E+06
        -0.52416E+06
        -0.56591E+06
        -0.48544E+06
        -0.23600E+06
         0.62121E+05
         0.21682E+06
         0.28554E+06
         0.45894E+06
         0.53095E+06
         0.21193E+06
         0.99450E+05
         0.89237E+05
        -0.37337E+05
        -0.29609E+06
        -0.50635E+06
        -0.56860E+06
        -0.40410E+06
         0.11122E+06
         0.26000E+06
         0.27350E+06
         0.43194E+06
         0.54881E+06
         0.34619E+06
         0.33154E+06
        -0.14108E+06
         0.18367E+05
        -0.32160E+05
        -0.22713E+05
         0.23874E+06
         0.94939E+05
         0.22617E+05
        -0.16688E+06
        -0.51019E+05
        -0.15138E+06
         0.14737E+05
        -0.11395E+06
        -0.31962E+06
         0.53708E+05
         0.27092E+06
        -0.10456E+06
         0.18376E+05
         0.98658E+04
         0.30479E+05
         0.10024E+05
         0.17117E+06
         0.12484E+06
        -0.73750E+05
         0.21543E+05
         0.51037E+05
        -0.82483E+04
         0.11842E+05
        -0.26486E+04
        -0.11106E+05
        -0.83320E+05
        -0.86741E+05
        -0.14496E+05
         0.35828E+05
         0.27293E+05
         0.44680E+05
        -0.10707E+06
        -0.22629E+06
         0.30614E+06
         0.64806E+05
         0.17525E+06
         0.30420E+06
        -0.86546E+05
        -0.17581E+06
        -0.21599E+06
        -0.24085E+06
        -0.20109E+06
         0.19221E+06
         0.14991E+06
        -0.24061E+05
         0.34753E+05
         0.28623E+06
         0.23235E+05
        -0.19615E+06
         0.27191E+06
        -0.52421E+06
        -0.56591E+06
        -0.48538E+06
        -0.23600E+06
         0.62212E+05
         0.21699E+06
         0.28537E+06
         0.45888E+06
         0.53093E+06
         0.21206E+06
         0.99463E+05
         0.89414E+05
        -0.37016E+05
        -0.29620E+06
        -0.50647E+06
        -0.56863E+06
        -0.40402E+06
         0.11128E+06
         0.25984E+06
         0.27341E+06
         0.43178E+06
         0.54873E+06
         0.34599E+06
         0.33127E+06
        -0.14142E+06
         0.18443E+05
        -0.32229E+05
        -0.22893E+05
         0.23864E+06
         0.94926E+05
         0.22783E+05
        -0.16671E+06
        -0.51150E+05
        -0.15173E+06
         0.14423E+05
        -0.11422E+06
        -0.31974E+06
         0.53584E+05
         0.27071E+06
        -0.10471E+06
         0.18592E+05
         0.98226E+04
         0.30485E+05
         0.99404E+04
         0.17157E+06
         0.12493E+06
        -0.73859E+05
         0.21512E+05
         0.51408E+05
        -0.82393E+04
         0.12019E+05
        -0.26260E+04
        -0.11050E+05
        -0.83503E+05
        -0.86884E+05
        -0.14423E+05
         0.35752E+05
         0.27350E+05
         0.44236E+05
        -0.10711E+06
        -0.22627E+06
         0.30645E+06
         0.65370E+05
         0.17574E+06
         0.30442E+06
        -0.86109E+05
        -0.17589E+06
        -0.21624E+06
        -0.24090E+06
        -0.20100E+06
         0.19223E+06
         0.14990E+06
        -0.23841E+05
         0.34595E+05
         0.28611E+06
         0.22827E+05
        -0.19602E+06
         0.27198E+06
        -0.52427E+06
        -0.56591E+06
        -0.48531E+06
        -0.23599E+06
         0.62301E+05
         0.21716E+06
         0.28520E+06
         0.45882E+06
         0.53092E+06
         0.21220E+06
         0.99480E+05
         0.89590E+05
        -0.36696E+05
        -0.29631E+06
        -0.50659E+06
        -0.56867E+06
        -0.40394E+06
         0.11133E+06
         0.25968E+06
         0.27333E+06
         0.43162E+06
         0.54864E+06
         0.34578E+06
         0.33100E+06
        -0.14167E+06
         0.18532E+05
        -0.32285E+05
        -0.23077E+05
         0.23855E+06
         0.94919E+05
         0.22946E+05
        -0.16649E+06
        -0.51284E+05
        -0.15206E+06
         0.14109E+05
        -0.11449E+06
        -0.31986E+06
         0.53491E+05
         0.27049E+06
        -0.10486E+06
         0.18812E+05
         0.97791E+04
         0.30495E+05
         0.98573E+04
         0.17198E+06
         0.12501E+06
        -0.73968E+05
         0.21482E+05
         0.51756E+05
        -0.82273E+04
         0.12229E+05
        -0.26030E+04
        -0.10990E+05
        -0.83691E+05
        -0.87016E+05
        -0.14342E+05
         0.35675E+05
         0.27406E+05
         0.43791E+05
        -0.10715E+06
        -0.22625E+06
         0.30677E+06
         0.65936E+05
         0.17623E+06
         0.30465E+06
        -0.85662E+05
        -0.17596E+06
        -0.21648E+06
        -0.24097E+06
        -0.20092E+06
         0.19226E+06
         0.14992E+06
        -0.23611E+05
         0.34464E+05
         0.28600E+06
         0.22417E+05
        -0.19590E+06
         0.27204E+06
        -0.52432E+06
        -0.56591E+06
        -0.48525E+06
        -0.23598E+06
         0.62391E+05
         0.21733E+06
         0.28503E+06
         0.45876E+06
         0.53090E+06
         0.21234E+06
         0.99496E+05
         0.89767E+05
        -0.36375E+05
        -0.29641E+06
        -0.50672E+06
        -0.56870E+06
        -0.40386E+06
         0.11137E+06
         0.25951E+06
         0.27324E+06
         0.43146E+06
         0.54856E+06
         0.34558E+06
         0.33073E+06
        -0.14188E+06
         0.18624E+05
        -0.32336E+05
        -0.23263E+05
         0.23845E+06
         0.94906E+05
         0.23107E+05
        -0.16626E+06
        -0.51421E+05
        -0.15239E+06
         0.13794E+05
        -0.11476E+06
        -0.31999E+06
         0.53404E+05
         0.27028E+06
        -0.10501E+06
         0.19034E+05
         0.97352E+04
         0.30502E+05
         0.97755E+04
         0.17238E+06
         0.12510E+06
        -0.74075E+05
         0.21452E+05
         0.52094E+05
        -0.82141E+04
         0.12446E+05
        -0.25792E+04
        -0.10929E+05
        -0.83883E+05
        -0.87142E+05
        -0.14255E+05
         0.35596E+05
         0.27463E+05
         0.43342E+05
        -0.10720E+06
        -0.22624E+06
         0.30708E+06
         0.66501E+05
         0.17672E+06
         0.30487E+06
        -0.85214E+05
        -0.17603E+06
        -0.21673E+06
        -0.24103E+06
        -0.20085E+06
         0.19230E+06
         0.14996E+06
        -0.23376E+05
         0.34345E+05
         0.28589E+06
         0.22008E+05
        -0.19577E+06
         0.27210E+06
        -0.52437E+06
        -0.56591E+06
        -0.48518E+06
        -0.23597E+06
         0.62481E+05
         0.21750E+06
         0.28486E+06
         0.45870E+06
         0.53088E+06
         0.21248E+06
         0.99513E+05
         0.89947E+05
        -0.36054E+05
        -0.29652E+06
        -0.50684E+06
        -0.56873E+06
        -0.40378E+06
         0.11141E+06
         0.25934E+06
         0.27315E+06
         0.43131E+06
         0.54848E+06
         0.34538E+06
         0.33046E+06
        -0.14209E+06
         0.18718E+05
        -0.32386E+05
        -0.23450E+05
         0.23836E+06
         0.94893E+05
         0.23268E+05
        -0.16603E+06
        -0.51560E+05
        -0.15272E+06
         0.13480E+05
        -0.11503E+06
        -0.32011E+06
         0.53325E+05
         0.27006E+06
        -0.10516E+06
         0.19258E+05
         0.96914E+04
         0.30509E+05
         0.96928E+04
         0.17278E+06
         0.12519E+06
        -0.74182E+05
         0.21424E+05
         0.52432E+05
        -0.82009E+04
         0.12669E+05
        -0.25540E+04
        -0.10866E+05
        -0.84075E+05
        -0.87268E+05
        -0.14170E+05
         0.35517E+05
         0.27519E+05
         0.42890E+05
        -0.10725E+06
        -0.22623E+06
         0.30739E+06
         0.67068E+05
         0.17721E+06
         0.30510E+06
        -0.84769E+05
        -0.17610E+06
        -0.21698E+06
        -0.24111E+06
        -0.20078E+06
         0.19234E+06
         0.15000E+06
        -0.23141E+05
         0.34231E+05
         0.28579E+06
         0.21598E+05
        -0.19565E+06
         0.27216E+06
        -0.52443E+06
        -0.56591E+06
        -0.48512E+06
        -0.23597E+06
         0.62571E+05
         0.21768E+06
         0.28469E+06
         0.45864E+06
         0.53087E+06
         0.21262E+06
         0.99532E+05
         0.90129E+05
        -0.35734E+05
        -0.29663E+06
        -0.50696E+06
        -0.56876E+06
        -0.40370E+06
         0.11145E+06
         0.25916E+06
         0.27306E+06
         0.43115E+06
         0.54839E+06
         0.34517E+06
         0.33019E+06
        -0.14230E+06
         0.18812E+05
        -0.32436E+05
        -0.23636E+05
         0.23826E+06
         0.94880E+05
         0.23429E+05
        -0.16580E+06
        -0.51698E+05
        -0.15304E+06
         0.13165E+05
        -0.11530E+06
        -0.32024E+06
         0.53238E+05
         0.26984E+06
        -0.10531E+06
         0.19483E+05
         0.96481E+04
         0.30515E+05
         0.96104E+04
         0.17317E+06
         0.12528E+06
        -0.74284E+05
         0.21396E+05
         0.52771E+05
        -0.81876E+04
         0.12887E+05
        -0.25278E+04
        -0.10801E+05
        -0.84267E+05
        -0.87393E+05
        -0.14084E+05
         0.35436E+05
         0.27576E+05
         0.42439E+05
        -0.10730E+06
        -0.22623E+06
         0.30770E+06
         0.67634E+05
         0.17771E+06
         0.30532E+06
        -0.84326E+05
        -0.17617E+06
        -0.21723E+06
        -0.24118E+06
        -0.20070E+06
         0.19238E+06
         0.15004E+06
        -0.22909E+05
         0.34110E+05
         0.28568E+06
         0.21191E+05
        -0.19553E+06
         0.27222E+06
        -0.52448E+06
        -0.56591E+06
        -0.48505E+06
        -0.23596E+06
         0.62661E+05
         0.21784E+06
         0.28451E+06
         0.45859E+06
         0.53085E+06
         0.21276E+06
         0.99551E+05
         0.90310E+05
        -0.35415E+05
        -0.29673E+06
        -0.50709E+06
        -0.56879E+06
        -0.40362E+06
         0.11149E+06
         0.25899E+06
         0.27297E+06
         0.43100E+06
         0.54831E+06
         0.34497E+06
         0.32992E+06
        -0.14251E+06
         0.18905E+05
        -0.32487E+05
        -0.23821E+05
         0.23817E+06
         0.94869E+05
         0.23591E+05
        -0.16557E+06
        -0.51836E+05
        -0.15337E+06
         0.12850E+05
        -0.11557E+06
        -0.32036E+06
         0.53157E+05
         0.26962E+06
        -0.10546E+06
         0.19710E+05
         0.96049E+04
         0.30526E+05
         0.95271E+04
         0.17357E+06
         0.12537E+06
        -0.74392E+05
         0.21368E+05
         0.53108E+05
        -0.81739E+04
         0.13108E+05
        -0.25000E+04
        -0.10735E+05
        -0.84457E+05
        -0.87518E+05
        -0.13999E+05
         0.35355E+05
         0.27633E+05
         0.41986E+05
        -0.10735E+06
        -0.22622E+06
         0.30801E+06
         0.68201E+05
         0.17819E+06
         0.30555E+06
        -0.83882E+05
        -0.17624E+06
        -0.21747E+06
        -0.24125E+06
        -0.20064E+06
         0.19241E+06
         0.15008E+06
        -0.22675E+05
         0.33992E+05
         0.28558E+06
         0.20784E+05
        -0.19540E+06
         0.27228E+06
        -0.52453E+06
        -0.56591E+06
        -0.48499E+06
        -0.23595E+06
         0.62748E+05
         0.21802E+06
         0.28434E+06
         0.45853E+06
         0.53083E+06
         0.21289E+06
         0.99570E+05
         0.90489E+05
        -0.35094E+05
        -0.29684E+06
        -0.50721E+06
        -0.56882E+06
        -0.40354E+06
         0.11153E+06
         0.25881E+06
         0.27288E+06
         0.43085E+06
         0.54822E+06
         0.34477E+06
         0.32965E+06
        -0.14271E+06
         0.18998E+05
        -0.32536E+05
        -0.24008E+05
         0.23808E+06
         0.94856E+05
         0.23752E+05
        -0.16533E+06
        -0.51974E+05
        -0.15369E+06
         0.12534E+05
        -0.11585E+06
        -0.32048E+06
         0.53074E+05
         0.26940E+06
        -0.10561E+06
         0.19937E+05
         0.95611E+04
         0.30533E+05
         0.94453E+04
         0.17397E+06
         0.12545E+06
        -0.74499E+05
         0.21340E+05
         0.53446E+05
        -0.81610E+04
         0.13325E+05
        -0.24712E+04
        -0.10666E+05
        -0.84650E+05
        -0.87644E+05
        -0.13913E+05
         0.35272E+05
         0.27690E+05
         0.41531E+05
        -0.10740E+06
        -0.22621E+06
         0.30832E+06
         0.68769E+05
         0.17869E+06
         0.30577E+06
        -0.83442E+05
        -0.17630E+06
        -0.21772E+06
        -0.24131E+06
        -0.20057E+06
         0.19245E+06
         0.15012E+06
        -0.22441E+05
         0.33877E+05
         0.28547E+06
         0.20378E+05
        -0.19527E+06
         0.27234E+06
        -0.52458E+06
        -0.56591E+06
        -0.48492E+06
        -0.23595E+06
         0.62837E+05
         0.21819E+06
         0.28417E+06
         0.45847E+06
         0.53081E+06
         0.21303E+06
         0.99588E+05
         0.90668E+05
        -0.34773E+05
        -0.29695E+06
        -0.50733E+06
        -0.56885E+06
        -0.40346E+06
         0.11157E+06
         0.25864E+06
         0.27279E+06
         0.43069E+06
         0.54814E+06
         0.34457E+06
         0.32938E+06
        -0.14292E+06
         0.19092E+05
        -0.32585E+05
        -0.24196E+05
         0.23798E+06
         0.94843E+05
         0.23914E+05
        -0.16509E+06
        -0.52112E+05
        -0.15400E+06
         0.12220E+05
        -0.11611E+06
        -0.32061E+06
         0.52985E+05
         0.26918E+06
        -0.10576E+06
         0.20166E+05
         0.95173E+04
         0.30541E+05
         0.93635E+04
         0.17437E+06
         0.12554E+06
        -0.74604E+05
         0.21313E+05
         0.53783E+05
        -0.81471E+04
         0.13547E+05
        -0.24409E+04
        -0.10596E+05
        -0.84840E+05
        -0.87768E+05
        -0.13826E+05
         0.35187E+05
         0.27747E+05
         0.41076E+05
        -0.10745E+06
        -0.22620E+06
         0.30862E+06
         0.69337E+05
         0.17918E+06
         0.30599E+06
        -0.82998E+05
        -0.17637E+06
        -0.21796E+06
        -0.24139E+06
        -0.20049E+06
         0.19249E+06
         0.15016E+06
        -0.22207E+05
         0.33759E+05
         0.28536E+06
         0.19974E+05
        -0.19515E+06
         0.27239E+06
        -0.52463E+06
        -0.56591E+06
        -0.48486E+06
        -0.23594E+06
         0.62927E+05
         0.21836E+06
         0.28400E+06
         0.45841E+06
         0.53080E+06
         0.21317E+06
         0.99605E+05
         0.90848E+05
        -0.34452E+05
        -0.29705E+06
        -0.50745E+06
        -0.56888E+06
        -0.40338E+06
         0.11161E+06
         0.25846E+06
         0.27270E+06
         0.43054E+06
         0.54806E+06
         0.34437E+06
         0.32911E+06
        -0.14314E+06
         0.19185E+05
        -0.32634E+05
        -0.24384E+05
         0.23789E+06
         0.94830E+05
         0.24076E+05
        -0.16485E+06
        -0.52250E+05
        -0.15432E+06
         0.11905E+05
        -0.11638E+06
        -0.32073E+06
         0.52903E+05
         0.26896E+06
        -0.10591E+06
         0.20396E+05
         0.94741E+04
         0.30552E+05
         0.92825E+04
         0.17477E+06
         0.12562E+06
        -0.74710E+05
         0.21286E+05
         0.54121E+05
        -0.81330E+04
         0.13764E+05
        -0.24097E+04
        -0.10524E+05
        -0.85030E+05
        -0.87892E+05
        -0.13741E+05
         0.35103E+05
         0.27804E+05
         0.40618E+05
        -0.10750E+06
        -0.22619E+06
         0.30893E+06
         0.69904E+05
         0.17967E+06
         0.30622E+06
        -0.82554E+05
        -0.17644E+06
        -0.21821E+06
        -0.24146E+06
        -0.20042E+06
         0.19253E+06
         0.15020E+06
        -0.21973E+05
         0.33642E+05
         0.28526E+06
         0.19574E+05
        -0.19502E+06
         0.27245E+06
        -0.52468E+06
        -0.56591E+06
        -0.48480E+06
        -0.23593E+06
         0.63016E+05
         0.21852E+06
         0.28383E+06
         0.45836E+06
         0.53078E+06
         0.21331E+06
         0.99623E+05
         0.91029E+05
        -0.34133E+05
        -0.29716E+06
        -0.50758E+06
        -0.56891E+06
        -0.40330E+06
         0.11164E+06
         0.25829E+06
         0.27262E+06
         0.43039E+06
         0.54797E+06
         0.34417E+06
         0.32883E+06
        -0.14335E+06
         0.19277E+05
        -0.32683E+05
        -0.24572E+05
         0.23780E+06
         0.94815E+05
         0.24237E+05
        -0.16461E+06
        -0.52388E+05
        -0.15463E+06
         0.11589E+05
        -0.11666E+06
        -0.32085E+06
         0.52812E+05
         0.26874E+06
        -0.10606E+06
         0.20627E+05
         0.94311E+04
         0.30560E+05
         0.92005E+04
         0.17517E+06
         0.12570E+06
        -0.74814E+05
         0.21259E+05
         0.54459E+05
        -0.81190E+04
         0.13985E+05
        -0.23769E+04
        -0.10451E+05
        -0.85219E+05
        -0.88016E+05
        -0.13654E+05
         0.35017E+05
         0.27861E+05
         0.40161E+05
        -0.10756E+06
        -0.22618E+06
         0.30923E+06
         0.70471E+05
         0.18016E+06
         0.30644E+06
        -0.82111E+05
        -0.17651E+06
        -0.21845E+06
        -0.24153E+06
        -0.20035E+06
         0.19256E+06
         0.15025E+06
        -0.21737E+05
         0.33526E+05
         0.28515E+06
         0.19173E+05
        -0.19489E+06
         0.27251E+06
        -0.52473E+06
        -0.56591E+06
        -0.48473E+06
        -0.23592E+06
         0.63104E+05
         0.21869E+06
         0.28366E+06
         0.45830E+06
         0.53076E+06
         0.21344E+06
         0.99641E+05
         0.91209E+05
        -0.33813E+05
        -0.29726E+06
        -0.50770E+06
        -0.56894E+06
        -0.40322E+06
         0.11168E+06
         0.25811E+06
         0.27253E+06
         0.43023E+06
         0.54789E+06
         0.34397E+06
         0.32856E+06
        -0.14355E+06
         0.19371E+05
        -0.32732E+05
        -0.24759E+05
         0.23770E+06
         0.94804E+05
         0.24398E+05
        -0.16436E+06
        -0.52527E+05
        -0.15495E+06
         0.11273E+05
        -0.11693E+06
        -0.32098E+06
         0.52728E+05
         0.26852E+06
        -0.10621E+06
         0.20861E+05
         0.93881E+04
         0.30568E+05
         0.91195E+04
         0.17557E+06
         0.12578E+06
        -0.74919E+05
         0.21233E+05
         0.54796E+05
        -0.81047E+04
         0.14200E+05
        -0.23429E+04
        -0.10377E+05
        -0.85408E+05
        -0.88140E+05
        -0.13568E+05
         0.34931E+05
         0.27919E+05
         0.39700E+05
        -0.10761E+06
        -0.22618E+06
         0.30953E+06
         0.71040E+05
         0.18065E+06
         0.30666E+06
        -0.81670E+05
        -0.17658E+06
        -0.21869E+06
        -0.24160E+06
        -0.20028E+06
         0.19260E+06
         0.15028E+06
        -0.21504E+05
         0.33408E+05
         0.28504E+06
         0.18772E+05
        -0.19477E+06
         0.27257E+06
        -0.52478E+06
        -0.56591E+06
        -0.48467E+06
        -0.23591E+06
         0.63191E+05
         0.21886E+06
         0.28349E+06
         0.45824E+06
         0.53075E+06
         0.21358E+06
         0.99658E+05
         0.91386E+05
        -0.33492E+05
        -0.29737E+06
        -0.50782E+06
        -0.56897E+06
        -0.40314E+06
         0.11172E+06
         0.25794E+06
         0.27244E+06
         0.43008E+06
         0.54780E+06
         0.34378E+06
         0.32829E+06
        -0.14376E+06
         0.19464E+05
        -0.32782E+05
        -0.24947E+05
         0.23761E+06
         0.94790E+05
         0.24561E+05
        -0.16412E+06
        -0.52665E+05
        -0.15525E+06
         0.10957E+05
        -0.11720E+06
        -0.32110E+06
         0.52635E+05
         0.26829E+06
        -0.10636E+06
         0.21096E+05
         0.93450E+04
         0.30577E+05
         0.90390E+04
         0.17597E+06
         0.12586E+06
        -0.75023E+05
         0.21207E+05
         0.55130E+05
        -0.80900E+04
         0.14420E+05
        -0.23071E+04
        -0.10300E+05
        -0.85595E+05
        -0.88264E+05
        -0.13482E+05
         0.34844E+05
         0.27977E+05
         0.39238E+05
        -0.10766E+06
        -0.22616E+06
         0.30982E+06
         0.71614E+05
         0.18114E+06
         0.30689E+06
        -0.81232E+05
        -0.17665E+06
        -0.21894E+06
        -0.24167E+06
        -0.20021E+06
         0.19264E+06
         0.15033E+06
        -0.21272E+05
         0.33291E+05
         0.28494E+06
         0.18376E+05
        -0.19464E+06
         0.27262E+06
        -0.52483E+06
        -0.56591E+06
        -0.48460E+06
        -0.23591E+06
         0.63277E+05
         0.21902E+06
         0.28331E+06
         0.45819E+06
         0.53073E+06
         0.21372E+06
         0.99671E+05
         0.91563E+05
        -0.33174E+05
        -0.29747E+06
        -0.50795E+06
        -0.56901E+06
        -0.40305E+06
         0.11176E+06
         0.25776E+06
         0.27235E+06
         0.42993E+06
         0.54772E+06
         0.34358E+06
         0.32801E+06
        -0.14397E+06
         0.19556E+05
        -0.32830E+05
        -0.25136E+05
         0.23752E+06
         0.94775E+05
         0.24722E+05
        -0.16387E+06
        -0.52800E+05
        -0.15553E+06
         0.10640E+05
        -0.11747E+06
        -0.32122E+06
         0.52547E+05
         0.26806E+06
        -0.10652E+06
         0.21333E+05
         0.93017E+04
         0.30589E+05
         0.89624E+04
         0.17636E+06
         0.12594E+06
        -0.75129E+05
         0.21180E+05
         0.55458E+05
        -0.80763E+04
         0.14638E+05
        -0.22687E+04
        -0.10223E+05
        -0.85778E+05
        -0.88388E+05
        -0.13395E+05
         0.34754E+05
         0.28035E+05
         0.38776E+05
        -0.10771E+06
        -0.22616E+06
         0.31011E+06
         0.72205E+05
         0.18163E+06
         0.30710E+06
        -0.80790E+05
        -0.17673E+06
        -0.21918E+06
        -0.24174E+06
        -0.20013E+06
         0.19268E+06
         0.15037E+06
        -0.21040E+05
         0.33174E+05
         0.28483E+06
         0.17980E+05
        -0.19451E+06
         0.27268E+06
        -0.52488E+06
        -0.56591E+06
        -0.48454E+06
        -0.23590E+06
         0.63364E+05
         0.21919E+06
         0.28315E+06
         0.45813E+06
         0.53072E+06
         0.21385E+06
         0.99676E+05
         0.91739E+05
        -0.32856E+05
        -0.29757E+06
        -0.50807E+06
        -0.56904E+06
        -0.40297E+06
         0.11180E+06
         0.25759E+06
         0.27226E+06
         0.42978E+06
         0.54764E+06
         0.34339E+06
         0.32774E+06
        -0.14418E+06
         0.19648E+05
        -0.32879E+05
        -0.25325E+05
         0.23742E+06
         0.94758E+05
         0.24884E+05
        -0.16361E+06
        -0.52932E+05
        -0.15579E+06
         0.10324E+05
        -0.11774E+06
        -0.32135E+06
         0.52458E+05
         0.26783E+06
        -0.10666E+06
         0.21574E+05
         0.92584E+04
         0.30598E+05
         0.88882E+04
         0.17676E+06
         0.12601E+06
        -0.75234E+05
         0.21155E+05
         0.55776E+05
        -0.80613E+04
         0.14863E+05
        -0.22273E+04
        -0.10143E+05
        -0.85952E+05
        -0.88510E+05
        -0.13309E+05
         0.34664E+05
         0.28093E+05
         0.38311E+05
        -0.10776E+06
        -0.22615E+06
         0.31039E+06
         0.72812E+05
         0.18211E+06
         0.30732E+06
        -0.80350E+05
        -0.17681E+06
        -0.21942E+06
        -0.24181E+06
        -0.20006E+06
         0.19272E+06
         0.15041E+06
        -0.20807E+05
         0.33058E+05
         0.28472E+06
         0.17582E+05
        -0.19438E+06
         0.27274E+06
        -0.52493E+06
        -0.56591E+06
        -0.48447E+06
        -0.23589E+06
         0.63450E+05
         0.21935E+06
         0.28298E+06
         0.45807E+06
         0.53071E+06
         0.21399E+06
         0.99672E+05
         0.91916E+05
        -0.32536E+05
        -0.29768E+06
        -0.50819E+06
        -0.56907E+06
        -0.40289E+06
         0.11183E+06
         0.25741E+06
         0.27217E+06
         0.42962E+06
         0.54755E+06
         0.34319E+06
         0.32746E+06
        -0.14439E+06
         0.19741E+05
        -0.32929E+05
        -0.25514E+05
         0.23733E+06
         0.94747E+05
         0.25046E+05
        -0.16336E+06
        -0.53062E+05
        -0.15605E+06
         0.10009E+05
        -0.11801E+06
        -0.32147E+06
         0.52363E+05
         0.26760E+06
        -0.10682E+06
         0.21818E+05
         0.92158E+04
         0.30607E+05
         0.88162E+04
         0.17716E+06
         0.12609E+06
        -0.75332E+05
         0.21131E+05
         0.56091E+05
        -0.80472E+04
         0.15083E+05
        -0.21838E+04
        -0.10064E+05
        -0.86124E+05
        -0.88636E+05
        -0.13224E+05
         0.34575E+05
         0.28152E+05
         0.37850E+05
        -0.10781E+06
        -0.22613E+06
         0.31067E+06
         0.73424E+05
         0.18258E+06
         0.30753E+06
        -0.79919E+05
        -0.17689E+06
        -0.21966E+06
        -0.24188E+06
        -0.19999E+06
         0.19276E+06
         0.15046E+06
        -0.20577E+05
         0.32939E+05
         0.28462E+06
         0.17189E+05
        -0.19425E+06
         0.27279E+06
        -0.52498E+06
        -0.56591E+06
        -0.48441E+06
        -0.23588E+06
         0.63535E+05
         0.21951E+06
         0.28282E+06
         0.45802E+06
         0.53070E+06
         0.21411E+06
         0.99662E+05
         0.92091E+05
        -0.32216E+05
        -0.29778E+06
        -0.50831E+06
        -0.56910E+06
        -0.40281E+06
         0.11187E+06
         0.25724E+06
         0.27209E+06
         0.42947E+06
         0.54747E+06
         0.34300E+06
         0.32719E+06
        -0.13949E+06
         0.19951E+05
        -0.33210E+05
        -0.25869E+05
         0.22530E+06
         0.95343E+05
         0.25362E+05
        -0.15639E+06
        -0.53540E+05
        -0.15300E+06
         0.97983E+04
        -0.11451E+06
        -0.30955E+06
         0.52614E+05
         0.25946E+06
        -0.10769E+06
         0.22195E+05
         0.92380E+04
         0.30809E+05
         0.88063E+04
         0.17219E+06
         0.12190E+06
        -0.73009E+05
         0.21260E+05
         0.56757E+05
        -0.80953E+04
         0.15384E+05
        -0.21531E+04
        -0.10069E+05
        -0.86858E+05
        -0.89367E+05
        -0.13252E+05
         0.34730E+05
         0.28401E+05
         0.35771E+05
        -0.10850E+06
        -0.21486E+06
         0.29980E+06
         0.70485E+05
         0.17359E+06
         0.29716E+06
        -0.76769E+05
        -0.17139E+06
        -0.21184E+06
        -0.23090E+06
        -0.19180E+06
         0.18988E+06
         0.15142E+06
        -0.20500E+05
         0.33031E+05
         0.27209E+06
         0.16909E+05
        -0.19165E+06
         0.26975E+06
        -0.51935E+06
        -0.56010E+06
        -0.47966E+06
        -0.23365E+06
         0.62986E+05
         0.21688E+06
         0.27887E+06
         0.45227E+06
         0.52429E+06
         0.21186E+06
         0.98380E+05
         0.91118E+05
        -0.31579E+05
        -0.29500E+06
        -0.50378E+06
        -0.56393E+06
        -0.39813E+06
         0.11071E+06
         0.25420E+06
         0.26884E+06
         0.42456E+06
         0.54107E+06
         0.33914E+06
         0.32336E+06
        -0.58348E+05
         0.83226E+04
        -0.14046E+05
        -0.13105E+05
         0.73947E+05
         0.34486E+05
         0.96822E+04
        -0.54078E+05
        -0.24191E+05
        -0.51989E+05
         0.30202E+04
        -0.48330E+05
        -0.11986E+06
         0.15069E+05
         0.11243E+06
        -0.49158E+05
         0.97593E+04
         0.50986E+04
         0.12352E+05
         0.33549E+04
         0.75897E+05
         0.50601E+05
        -0.31547E+05
         0.93618E+04
         0.20138E+05
        -0.39003E+04
         0.45438E+04
        -0.69336E+03
        -0.32526E+04
        -0.29011E+05
        -0.41275E+05
        -0.59358E+04
         0.17329E+05
         0.13307E+05
         0.12270E+05
        -0.34776E+05
        -0.71116E+05
         0.11776E+06
         0.23807E+05
         0.55687E+05
         0.12033E+06
        -0.30671E+05
        -0.73352E+05
        -0.85153E+05
        -0.80771E+05
        -0.70179E+05
         0.58487E+05
         0.52776E+05
        -0.76245E+04
         0.11337E+05
         0.96542E+05
         0.55254E+04
        -0.12217E+06
         0.17843E+06
        -0.35032E+06
        -0.38492E+06
        -0.33624E+06
        -0.16604E+06
         0.43599E+05
         0.13975E+06
         0.17496E+06
         0.29176E+06
         0.34153E+06
         0.14285E+06
         0.63136E+05
         0.59041E+05
        -0.21409E+05
        -0.20708E+06
        -0.35882E+06
        -0.40136E+06
        -0.26304E+06
         0.74451E+05
         0.16894E+06
         0.17694E+06
         0.28358E+06
         0.35713E+06
         0.22966E+06
         0.21750E+06
  
SCALARS                      strain_xx  double 1
LOOKUP_TABLE default
         0.36739E-10
         0.19908E-10
         0.12953E-07
         0.15905E-09
        -0.37806E-20
        -0.47530E-21
        -0.53144E-20
        -0.21197E-21
        -0.40428E-08
         0.22678E-07
        -0.47545E-19
        -0.38575E-19
        -0.46026E-09
        -0.79681E-08
        -0.72322E-21
        -0.15871E-19
         0.31101E-09
        -0.69279E-08
        -0.82810E-20
        -0.18368E-19
        -0.27976E-07
        -0.11067E-06
        -0.55544E-07
        -0.81901E-20
        -0.17415E-20
        -0.53155E-20
        -0.12208E-06
        -0.11671E-06
        -0.28697E-19
        -0.18058E-19
         0.16498E-08
         0.13583E-08
         0.12625E-09
        -0.29747E-21
        -0.44423E-20
        -0.16861E-20
         0.77349E-08
        -0.21542E-08
        -0.97922E-20
        -0.11101E-19
         0.53190E-08
        -0.98907E-07
        -0.49825E-19
        -0.27096E-19
         0.52979E-07
         0.20427E-07
        -0.60088E-19
        -0.13921E-19
        -0.92317E-08
        -0.54849E-20
         0.31960E-07
        -0.42500E-21
        -0.18140E-07
        -0.20942E-19
        -0.11389E-07
        -0.14654E-20
        -0.21763E-06
        -0.10134E-07
        -0.10754E-20
        -0.62829E-20
         0.18513E-10
         0.96938E-08
        -0.43018E-20
        -0.20229E-20
         0.11269E-08
        -0.43525E-22
         0.87999E-08
        -0.18831E-20
        -0.11130E-06
        -0.77459E-07
        -0.73564E-19
        -0.38696E-19
        -0.56182E-07
        -0.20516E-19
        -0.22277E-07
        -0.98173E-20
        -0.22968E-06
        -0.37816E-21
        -0.10064E-05
        -0.91021E-21
        -0.15171E-05
        -0.64169E-06
        -0.12225E-19
        -0.15990E-19
        -0.32002E-06
        -0.18494E-19
         0.76391E-07
        -0.38335E-19
         0.15284E-07
        -0.15595E-19
         0.69681E-08
        -0.57663E-08
        -0.28407E-20
        -0.53423E-20
         0.31125E-09
        -0.73503E-20
         0.55311E-08
        -0.12959E-20
         0.15307E-07
        -0.79024E-20
         0.20426E-07
         0.27037E-07
        -0.42013E-19
        -0.45748E-19
        -0.11823E-05
        -0.66013E-06
        -0.14344E-18
        -0.13931E-18
        -0.12836E-05
        -0.10469E-18
        -0.45685E-06
        -0.58466E-19
        -0.54465E-06
        -0.17656E-19
        -0.68415E-06
        -0.20190E-21
        -0.15347E-06
        -0.25612E-20
        -0.31859E-06
        -0.16394E-20
        -0.18527E-05
        -0.15838E-20
        -0.40637E-05
        -0.80541E-20
        -0.57744E-05
        -0.29152E-19
        -0.45662E-05
        -0.41513E-19
        -0.90706E-06
        -0.36956E-19
         0.11438E-05
        -0.43700E-19
         0.24145E-05
        -0.73609E-19
         0.26513E-05
        -0.10236E-18
         0.20434E-05
        -0.88452E-19
         0.40157E-06
        -0.58421E-19
        -0.11229E-06
        -0.13020E-19
        -0.15100E-08
        -0.47475E-21
        -0.19320E-07
        -0.27984E-20
         0.75022E-08
        -0.74827E-20
        -0.19313E-06
        -0.28659E-19
        -0.32982E-06
        -0.77169E-19
        -0.91349E-07
        -0.11139E-18
         0.66360E-06
        -0.11653E-18
        -0.79024E-06
        -0.22046E-06
        -0.30226E-06
        -0.11801E-05
        -0.18943E-04
        -0.10955E-04
        -0.26036E-06
        -0.54985E-06
        -0.13938E-06
        -0.45508E-06
        -0.14586E-06
        -0.27544E-05
        -0.11801E-04
        -0.12056E-05
        -0.17664E-05
        -0.20940E-05
        -0.14851E-05
        -0.31292E-06
        -0.80083E-06
        -0.91757E-06
        -0.27818E-04
        -0.31246E-04
        -0.25926E-04
        -0.24923E-05
        -0.39406E-06
        -0.21908E-06
        -0.23257E-05
        -0.29168E-07
        -0.31165E-05
        -0.14286E-05
        -0.16750E-05
        -0.66912E-07
        -0.37202E-06
        -0.39847E-07
        -0.43209E-04
        -0.17107E-04
        -0.13843E-04
        -0.68815E-05
        -0.22367E-05
        -0.10468E-04
        -0.45054E-04
        -0.37612E-04
        -0.35234E-04
        -0.19142E-04
        -0.10054E-04
        -0.63725E-05
        -0.21816E-06
        -0.36821E-05
        -0.30864E-06
        -0.31822E-05
        -0.23294E-04
        -0.15967E-04
        -0.39088E-03
        -0.41926E-03
        -0.33663E-03
        -0.24214E-03
        -0.13456E-03
        -0.35470E-04
        -0.12672E-06
        -0.18335E-04
        -0.42465E-04
        -0.12540E-03
        -0.33516E-03
        -0.47738E-03
        -0.39406E-03
        -0.36013E-03
        -0.39795E-03
        -0.39480E-03
        -0.32606E-03
        -0.25344E-03
        -0.67834E-04
        -0.16792E-05
        -0.24435E-04
        -0.30355E-04
        -0.87271E-04
        -0.22560E-03
        -0.37204E-03
        -0.40790E-03
        -0.15769E-05
        -0.66446E-07
        -0.24083E-06
        -0.20417E-05
        -0.85910E-05
        -0.62738E-05
        -0.53255E-06
        -0.25379E-05
        -0.53580E-06
        -0.22938E-05
        -0.93611E-07
        -0.12462E-05
        -0.13487E-04
        -0.79310E-05
        -0.85097E-05
        -0.60862E-05
        -0.18862E-05
        -0.67666E-06
        -0.30646E-06
        -0.94514E-06
        -0.33277E-04
        -0.30224E-04
        -0.29431E-04
        -0.17217E-05
        -0.55543E-06
        -0.25181E-06
        -0.74058E-05
        -0.13056E-06
        -0.82946E-06
        -0.15425E-05
        -0.35925E-05
        -0.15042E-05
        -0.15112E-05
        -0.11256E-05
        -0.27324E-04
        -0.83232E-05
        -0.10952E-04
        -0.10465E-04
        -0.29333E-06
        -0.24657E-05
        -0.33281E-04
        -0.35216E-04
        -0.33647E-04
        -0.17590E-04
        -0.10432E-04
        -0.35713E-05
        -0.41713E-05
        -0.58137E-05
        -0.10159E-06
        -0.14727E-06
        -0.15473E-04
        -0.12007E-04
        -0.47784E-03
        -0.48528E-03
        -0.39107E-03
        -0.26603E-03
        -0.14813E-03
        -0.31424E-04
        -0.19370E-05
        -0.20332E-04
        -0.35283E-04
        -0.11857E-03
        -0.37406E-03
        -0.52057E-03
        -0.36600E-03
        -0.33126E-03
        -0.40210E-03
        -0.42651E-03
        -0.35532E-03
        -0.31795E-03
        -0.82536E-04
        -0.55759E-05
        -0.27271E-04
        -0.27991E-04
        -0.88484E-04
        -0.26525E-03
        -0.43459E-03
        -0.43185E-03
        -0.15828E-05
        -0.66941E-07
        -0.24174E-06
        -0.20445E-05
        -0.85744E-05
        -0.62622E-05
        -0.53934E-06
        -0.25251E-05
        -0.53698E-06
        -0.22902E-05
        -0.89860E-07
        -0.12523E-05
        -0.13503E-04
        -0.78919E-05
        -0.85006E-05
        -0.60988E-05
        -0.18945E-05
        -0.67292E-06
        -0.30616E-06
        -0.94182E-06
        -0.33270E-04
        -0.30217E-04
        -0.29427E-04
        -0.17219E-05
        -0.55794E-06
        -0.25265E-06
        -0.74103E-05
        -0.12570E-06
        -0.84117E-06
        -0.15445E-05
        -0.36030E-05
        -0.15038E-05
        -0.14986E-05
        -0.11266E-05
        -0.27352E-04
        -0.83156E-05
        -0.10945E-04
        -0.10498E-04
        -0.29898E-06
        -0.24813E-05
        -0.33323E-04
        -0.35256E-04
        -0.33650E-04
        -0.17585E-04
        -0.10424E-04
        -0.35676E-05
        -0.41697E-05
        -0.58175E-05
        -0.10011E-06
        -0.14626E-06
        -0.15453E-04
        -0.11971E-04
        -0.47751E-03
        -0.48503E-03
        -0.39100E-03
        -0.26603E-03
        -0.14803E-03
        -0.31406E-04
        -0.19414E-05
        -0.20357E-04
        -0.35224E-04
        -0.11847E-03
        -0.37395E-03
        -0.52059E-03
        -0.36593E-03
        -0.33122E-03
        -0.40220E-03
        -0.42669E-03
        -0.35544E-03
        -0.31808E-03
        -0.82490E-04
        -0.55810E-05
        -0.27232E-04
        -0.27968E-04
        -0.88354E-04
        -0.26493E-03
        -0.43416E-03
        -0.43146E-03
        -0.15888E-05
        -0.67429E-07
        -0.24264E-06
        -0.20472E-05
        -0.85574E-05
        -0.62509E-05
        -0.54621E-06
        -0.25123E-05
        -0.53808E-06
        -0.22863E-05
        -0.86194E-07
        -0.12583E-05
        -0.13519E-04
        -0.78530E-05
        -0.84915E-05
        -0.61119E-05
        -0.19030E-05
        -0.66916E-06
        -0.30585E-06
        -0.93861E-06
        -0.33265E-04
        -0.30210E-04
        -0.29423E-04
        -0.17220E-05
        -0.56062E-06
        -0.25356E-06
        -0.74146E-05
        -0.12099E-06
        -0.85303E-06
        -0.15464E-05
        -0.36137E-05
        -0.15036E-05
        -0.14860E-05
        -0.11277E-05
        -0.27380E-04
        -0.83085E-05
        -0.10937E-04
        -0.10532E-04
        -0.30468E-06
        -0.24970E-05
        -0.33366E-04
        -0.35298E-04
        -0.33655E-04
        -0.17581E-04
        -0.10417E-04
        -0.35642E-05
        -0.41682E-05
        -0.58214E-05
        -0.98604E-07
        -0.14523E-06
        -0.15434E-04
        -0.11936E-04
        -0.47718E-03
        -0.48477E-03
        -0.39093E-03
        -0.26604E-03
        -0.14794E-03
        -0.31387E-04
        -0.19458E-05
        -0.20382E-04
        -0.35164E-04
        -0.11838E-03
        -0.37384E-03
        -0.52061E-03
        -0.36587E-03
        -0.33119E-03
        -0.40231E-03
        -0.42688E-03
        -0.35557E-03
        -0.31820E-03
        -0.82444E-04
        -0.55860E-05
        -0.27192E-04
        -0.27946E-04
        -0.88223E-04
        -0.26460E-03
        -0.43373E-03
        -0.43108E-03
        -0.15948E-05
        -0.67936E-07
        -0.24354E-06
        -0.20499E-05
        -0.85405E-05
        -0.62394E-05
        -0.55304E-06
        -0.24995E-05
        -0.53906E-06
        -0.22818E-05
        -0.82612E-07
        -0.12646E-05
        -0.13536E-04
        -0.78143E-05
        -0.84825E-05
        -0.61260E-05
        -0.19118E-05
        -0.66538E-06
        -0.30559E-06
        -0.93527E-06
        -0.33261E-04
        -0.30206E-04
        -0.29424E-04
        -0.17222E-05
        -0.56382E-06
        -0.25469E-06
        -0.74182E-05
        -0.11651E-06
        -0.86492E-06
        -0.15482E-05
        -0.36254E-05
        -0.15039E-05
        -0.14735E-05
        -0.11287E-05
        -0.27406E-04
        -0.83010E-05
        -0.10930E-04
        -0.10565E-04
        -0.31042E-06
        -0.25127E-05
        -0.33409E-04
        -0.35343E-04
        -0.33664E-04
        -0.17578E-04
        -0.10409E-04
        -0.35604E-05
        -0.41670E-05
        -0.58254E-05
        -0.97109E-07
        -0.14420E-06
        -0.15414E-04
        -0.11901E-04
        -0.47686E-03
        -0.48452E-03
        -0.39086E-03
        -0.26604E-03
        -0.14785E-03
        -0.31367E-04
        -0.19503E-05
        -0.20408E-04
        -0.35105E-04
        -0.11829E-03
        -0.37372E-03
        -0.52065E-03
        -0.36582E-03
        -0.33116E-03
        -0.40242E-03
        -0.42710E-03
        -0.35571E-03
        -0.31832E-03
        -0.82398E-04
        -0.55912E-05
        -0.27152E-04
        -0.27925E-04
        -0.88094E-04
        -0.26428E-03
        -0.43329E-03
        -0.43069E-03
        -0.16008E-05
        -0.68444E-07
        -0.24444E-06
        -0.20526E-05
        -0.85241E-05
        -0.62279E-05
        -0.56000E-06
        -0.24865E-05
        -0.53989E-06
        -0.22766E-05
        -0.79099E-07
        -0.12707E-05
        -0.13552E-04
        -0.77755E-05
        -0.84733E-05
        -0.61412E-05
        -0.19211E-05
        -0.66161E-06
        -0.30525E-06
        -0.93191E-06
        -0.33259E-04
        -0.30203E-04
        -0.29426E-04
        -0.17224E-05
        -0.56753E-06
        -0.25598E-06
        -0.74212E-05
        -0.11225E-06
        -0.87686E-06
        -0.15499E-05
        -0.36378E-05
        -0.15046E-05
        -0.14609E-05
        -0.11297E-05
        -0.27434E-04
        -0.82935E-05
        -0.10924E-04
        -0.10599E-04
        -0.31618E-06
        -0.25286E-05
        -0.33454E-04
        -0.35390E-04
        -0.33677E-04
        -0.17576E-04
        -0.10400E-04
        -0.35562E-05
        -0.41661E-05
        -0.58298E-05
        -0.95635E-07
        -0.14319E-06
        -0.15395E-04
        -0.11865E-04
        -0.47653E-03
        -0.48427E-03
        -0.39079E-03
        -0.26604E-03
        -0.14776E-03
        -0.31349E-04
        -0.19547E-05
        -0.20433E-04
        -0.35046E-04
        -0.11819E-03
        -0.37360E-03
        -0.52069E-03
        -0.36578E-03
        -0.33113E-03
        -0.40255E-03
        -0.42735E-03
        -0.35587E-03
        -0.31845E-03
        -0.82352E-04
        -0.55962E-05
        -0.27112E-04
        -0.27903E-04
        -0.87964E-04
        -0.26395E-03
        -0.43286E-03
        -0.43031E-03
        -0.16065E-05
        -0.68998E-07
        -0.24524E-06
        -0.20552E-05
        -0.85075E-05
        -0.62163E-05
        -0.56700E-06
        -0.24735E-05
        -0.54069E-06
        -0.22712E-05
        -0.75660E-07
        -0.12768E-05
        -0.13568E-04
        -0.77368E-05
        -0.84641E-05
        -0.61567E-05
        -0.19304E-05
        -0.65784E-06
        -0.30491E-06
        -0.92870E-06
        -0.33259E-04
        -0.30201E-04
        -0.29431E-04
        -0.17227E-05
        -0.57124E-06
        -0.25731E-06
        -0.74240E-05
        -0.10810E-06
        -0.88897E-06
        -0.15519E-05
        -0.36502E-05
        -0.15053E-05
        -0.14482E-05
        -0.11306E-05
        -0.27463E-04
        -0.82869E-05
        -0.10917E-04
        -0.10632E-04
        -0.32201E-06
        -0.25446E-05
        -0.33500E-04
        -0.35439E-04
        -0.33693E-04
        -0.17574E-04
        -0.10393E-04
        -0.35527E-05
        -0.41649E-05
        -0.58340E-05
        -0.94129E-07
        -0.14226E-06
        -0.15376E-04
        -0.11831E-04
        -0.47620E-03
        -0.48402E-03
        -0.39072E-03
        -0.26605E-03
        -0.14767E-03
        -0.31330E-04
        -0.19590E-05
        -0.20458E-04
        -0.34986E-04
        -0.11810E-03
        -0.37348E-03
        -0.52073E-03
        -0.36576E-03
        -0.33111E-03
        -0.40268E-03
        -0.42761E-03
        -0.35603E-03
        -0.31856E-03
        -0.82306E-04
        -0.56008E-05
        -0.27072E-04
        -0.27881E-04
        -0.87835E-04
        -0.26363E-03
        -0.43243E-03
        -0.42992E-03
        -0.16118E-05
        -0.69666E-07
        -0.24587E-06
        -0.20577E-05
        -0.84912E-05
        -0.62052E-05
        -0.57418E-06
        -0.24601E-05
        -0.54154E-06
        -0.22662E-05
        -0.72282E-07
        -0.12830E-05
        -0.13585E-04
        -0.76982E-05
        -0.84547E-05
        -0.61722E-05
        -0.19393E-05
        -0.65405E-06
        -0.30463E-06
        -0.92556E-06
        -0.33258E-04
        -0.30199E-04
        -0.29437E-04
        -0.17231E-05
        -0.57453E-06
        -0.25849E-06
        -0.74272E-05
        -0.10393E-06
        -0.90126E-06
        -0.15542E-05
        -0.36619E-05
        -0.15054E-05
        -0.14353E-05
        -0.11312E-05
        -0.27491E-04
        -0.82808E-05
        -0.10911E-04
        -0.10666E-04
        -0.32793E-06
        -0.25609E-05
        -0.33546E-04
        -0.35488E-04
        -0.33709E-04
        -0.17573E-04
        -0.10386E-04
        -0.35495E-05
        -0.41630E-05
        -0.58379E-05
        -0.92510E-07
        -0.14155E-06
        -0.15359E-04
        -0.11797E-04
        -0.47587E-03
        -0.48378E-03
        -0.39064E-03
        -0.26605E-03
        -0.14758E-03
        -0.31311E-04
        -0.19634E-05
        -0.20483E-04
        -0.34927E-04
        -0.11800E-03
        -0.37336E-03
        -0.52077E-03
        -0.36573E-03
        -0.33109E-03
        -0.40281E-03
        -0.42788E-03
        -0.35619E-03
        -0.31868E-03
        -0.82259E-04
        -0.56046E-05
        -0.27030E-04
        -0.27859E-04
        -0.87709E-04
        -0.26331E-03
        -0.43200E-03
        -0.42954E-03
        -0.16169E-05
        -0.70372E-07
        -0.24640E-06
        -0.20602E-05
        -0.84756E-05
        -0.61936E-05
        -0.58148E-06
        -0.24467E-05
        -0.54242E-06
        -0.22614E-05
        -0.68972E-07
        -0.12892E-05
        -0.13602E-04
        -0.76596E-05
        -0.84453E-05
        -0.61877E-05
        -0.19481E-05
        -0.65025E-06
        -0.30431E-06
        -0.92262E-06
        -0.33257E-04
        -0.30197E-04
        -0.29441E-04
        -0.17235E-05
        -0.57762E-06
        -0.25959E-06
        -0.74304E-05
        -0.99821E-07
        -0.91382E-06
        -0.15567E-05
        -0.36734E-05
        -0.15052E-05
        -0.14224E-05
        -0.11318E-05
        -0.27521E-04
        -0.82754E-05
        -0.10906E-04
        -0.10699E-04
        -0.33391E-06
        -0.25772E-05
        -0.33593E-04
        -0.35539E-04
        -0.33725E-04
        -0.17573E-04
        -0.10380E-04
        -0.35468E-05
        -0.41608E-05
        -0.58415E-05
        -0.90853E-07
        -0.14093E-06
        -0.15343E-04
        -0.11763E-04
        -0.47554E-03
        -0.48353E-03
        -0.39057E-03
        -0.26605E-03
        -0.14749E-03
        -0.31291E-04
        -0.19677E-05
        -0.20508E-04
        -0.34869E-04
        -0.11791E-03
        -0.37324E-03
        -0.52081E-03
        -0.36570E-03
        -0.33107E-03
        -0.40294E-03
        -0.42814E-03
        -0.35636E-03
        -0.31879E-03
        -0.82210E-04
        -0.56081E-05
        -0.26988E-04
        -0.27838E-04
        -0.87585E-04
        -0.26299E-03
        -0.43158E-03
        -0.42915E-03
        -0.16220E-05
        -0.71089E-07
        -0.24692E-06
        -0.20627E-05
        -0.84596E-05
        -0.61821E-05
        -0.58879E-06
        -0.24333E-05
        -0.54332E-06
        -0.22566E-05
        -0.65751E-07
        -0.12954E-05
        -0.13619E-04
        -0.76213E-05
        -0.84359E-05
        -0.62031E-05
        -0.19569E-05
        -0.64649E-06
        -0.30398E-06
        -0.91957E-06
        -0.33256E-04
        -0.30195E-04
        -0.29447E-04
        -0.17240E-05
        -0.58070E-06
        -0.26069E-06
        -0.74338E-05
        -0.95801E-07
        -0.92644E-06
        -0.15592E-05
        -0.36848E-05
        -0.15050E-05
        -0.14095E-05
        -0.11323E-05
        -0.27552E-04
        -0.82695E-05
        -0.10901E-04
        -0.10733E-04
        -0.33996E-06
        -0.25935E-05
        -0.33639E-04
        -0.35589E-04
        -0.33742E-04
        -0.17573E-04
        -0.10374E-04
        -0.35442E-05
        -0.41587E-05
        -0.58452E-05
        -0.89209E-07
        -0.14034E-06
        -0.15328E-04
        -0.11729E-04
        -0.47522E-03
        -0.48328E-03
        -0.39049E-03
        -0.26605E-03
        -0.14740E-03
        -0.31272E-04
        -0.19720E-05
        -0.20533E-04
        -0.34810E-04
        -0.11782E-03
        -0.37312E-03
        -0.52085E-03
        -0.36567E-03
        -0.33104E-03
        -0.40307E-03
        -0.42840E-03
        -0.35652E-03
        -0.31890E-03
        -0.82162E-04
        -0.56118E-05
        -0.26945E-04
        -0.27816E-04
        -0.87460E-04
        -0.26267E-03
        -0.43115E-03
        -0.42877E-03
        -0.16270E-05
        -0.71818E-07
        -0.24745E-06
        -0.20652E-05
        -0.84436E-05
        -0.61706E-05
        -0.59618E-06
        -0.24200E-05
        -0.54422E-06
        -0.22518E-05
        -0.62607E-07
        -0.13017E-05
        -0.13637E-04
        -0.75832E-05
        -0.84265E-05
        -0.62185E-05
        -0.19658E-05
        -0.64277E-06
        -0.30365E-06
        -0.91661E-06
        -0.33255E-04
        -0.30193E-04
        -0.29451E-04
        -0.17244E-05
        -0.58379E-06
        -0.26179E-06
        -0.74373E-05
        -0.91886E-07
        -0.93911E-06
        -0.15616E-05
        -0.36962E-05
        -0.15048E-05
        -0.13967E-05
        -0.11329E-05
        -0.27581E-04
        -0.82642E-05
        -0.10896E-04
        -0.10766E-04
        -0.34607E-06
        -0.26101E-05
        -0.33686E-04
        -0.35638E-04
        -0.33758E-04
        -0.17573E-04
        -0.10368E-04
        -0.35413E-05
        -0.41565E-05
        -0.58490E-05
        -0.87595E-07
        -0.13970E-06
        -0.15311E-04
        -0.11695E-04
        -0.47489E-03
        -0.48304E-03
        -0.39042E-03
        -0.26605E-03
        -0.14730E-03
        -0.31253E-04
        -0.19763E-05
        -0.20558E-04
        -0.34751E-04
        -0.11772E-03
        -0.37300E-03
        -0.52090E-03
        -0.36564E-03
        -0.33102E-03
        -0.40320E-03
        -0.42867E-03
        -0.35668E-03
        -0.31901E-03
        -0.82114E-04
        -0.56152E-05
        -0.26903E-04
        -0.27795E-04
        -0.87335E-04
        -0.26236E-03
        -0.43072E-03
        -0.42839E-03
        -0.16321E-05
        -0.72544E-07
        -0.24800E-06
        -0.20677E-05
        -0.84281E-05
        -0.61595E-05
        -0.60355E-06
        -0.24067E-05
        -0.54511E-06
        -0.22471E-05
        -0.59534E-07
        -0.13080E-05
        -0.13654E-04
        -0.75452E-05
        -0.84170E-05
        -0.62339E-05
        -0.19746E-05
        -0.63906E-06
        -0.30339E-06
        -0.91354E-06
        -0.33254E-04
        -0.30192E-04
        -0.29457E-04
        -0.17249E-05
        -0.58685E-06
        -0.26288E-06
        -0.74409E-05
        -0.88049E-07
        -0.95184E-06
        -0.15640E-05
        -0.37077E-05
        -0.15046E-05
        -0.13840E-05
        -0.11334E-05
        -0.27611E-04
        -0.82585E-05
        -0.10890E-04
        -0.10799E-04
        -0.35225E-06
        -0.26265E-05
        -0.33732E-04
        -0.35688E-04
        -0.33774E-04
        -0.17572E-04
        -0.10362E-04
        -0.35387E-05
        -0.41543E-05
        -0.58527E-05
        -0.85979E-07
        -0.13908E-06
        -0.15296E-04
        -0.11662E-04
        -0.47456E-03
        -0.48279E-03
        -0.39034E-03
        -0.26605E-03
        -0.14721E-03
        -0.31234E-04
        -0.19805E-05
        -0.20582E-04
        -0.34692E-04
        -0.11763E-03
        -0.37287E-03
        -0.52094E-03
        -0.36561E-03
        -0.33100E-03
        -0.40333E-03
        -0.42893E-03
        -0.35684E-03
        -0.31912E-03
        -0.82066E-04
        -0.56186E-05
        -0.26860E-04
        -0.27773E-04
        -0.87210E-04
        -0.26204E-03
        -0.43030E-03
        -0.42801E-03
        -0.16372E-05
        -0.73272E-07
        -0.24851E-06
        -0.20701E-05
        -0.84122E-05
        -0.61480E-05
        -0.61102E-06
        -0.23934E-05
        -0.54599E-06
        -0.22423E-05
        -0.56548E-07
        -0.13143E-05
        -0.13671E-04
        -0.75074E-05
        -0.84075E-05
        -0.62493E-05
        -0.19834E-05
        -0.63533E-06
        -0.30308E-06
        -0.91060E-06
        -0.33253E-04
        -0.30189E-04
        -0.29462E-04
        -0.17254E-05
        -0.58991E-06
        -0.26401E-06
        -0.74444E-05
        -0.84310E-07
        -0.96454E-06
        -0.15666E-05
        -0.37192E-05
        -0.15044E-05
        -0.13712E-05
        -0.11340E-05
        -0.27642E-04
        -0.82529E-05
        -0.10885E-04
        -0.10833E-04
        -0.35851E-06
        -0.26432E-05
        -0.33779E-04
        -0.35738E-04
        -0.33790E-04
        -0.17573E-04
        -0.10356E-04
        -0.35362E-05
        -0.41522E-05
        -0.58565E-05
        -0.84375E-07
        -0.13850E-06
        -0.15280E-04
        -0.11628E-04
        -0.47423E-03
        -0.48254E-03
        -0.39027E-03
        -0.26605E-03
        -0.14712E-03
        -0.31215E-04
        -0.19848E-05
        -0.20607E-04
        -0.34634E-04
        -0.11754E-03
        -0.37275E-03
        -0.52098E-03
        -0.36558E-03
        -0.33098E-03
        -0.40346E-03
        -0.42919E-03
        -0.35700E-03
        -0.31923E-03
        -0.82018E-04
        -0.56220E-05
        -0.26818E-04
        -0.27751E-04
        -0.87086E-04
        -0.26172E-03
        -0.42987E-03
        -0.42763E-03
        -0.16423E-05
        -0.74011E-07
        -0.24902E-06
        -0.20726E-05
        -0.83964E-05
        -0.61366E-05
        -0.61851E-06
        -0.23801E-05
        -0.54685E-06
        -0.22375E-05
        -0.53646E-07
        -0.13205E-05
        -0.13688E-04
        -0.74696E-05
        -0.83979E-05
        -0.62647E-05
        -0.19922E-05
        -0.63161E-06
        -0.30278E-06
        -0.90757E-06
        -0.33252E-04
        -0.30188E-04
        -0.29467E-04
        -0.17259E-05
        -0.59294E-06
        -0.26511E-06
        -0.74478E-05
        -0.80646E-07
        -0.97743E-06
        -0.15690E-05
        -0.37306E-05
        -0.15042E-05
        -0.13585E-05
        -0.11345E-05
        -0.27671E-04
        -0.82477E-05
        -0.10880E-04
        -0.10866E-04
        -0.36483E-06
        -0.26598E-05
        -0.33826E-04
        -0.35787E-04
        -0.33806E-04
        -0.17573E-04
        -0.10350E-04
        -0.35331E-05
        -0.41500E-05
        -0.58602E-05
        -0.82779E-07
        -0.13788E-06
        -0.15263E-04
        -0.11594E-04
        -0.47390E-03
        -0.48230E-03
        -0.39019E-03
        -0.26605E-03
        -0.14703E-03
        -0.31196E-04
        -0.19891E-05
        -0.20632E-04
        -0.34575E-04
        -0.11744E-03
        -0.37263E-03
        -0.52102E-03
        -0.36555E-03
        -0.33096E-03
        -0.40359E-03
        -0.42945E-03
        -0.35716E-03
        -0.31934E-03
        -0.81971E-04
        -0.56255E-05
        -0.26776E-04
        -0.27730E-04
        -0.86961E-04
        -0.26141E-03
        -0.42945E-03
        -0.42725E-03
        -0.16474E-05
        -0.74742E-07
        -0.24953E-06
        -0.20750E-05
        -0.83810E-05
        -0.61252E-05
        -0.62596E-06
        -0.23669E-05
        -0.54773E-06
        -0.22327E-05
        -0.50825E-07
        -0.13268E-05
        -0.13705E-04
        -0.74320E-05
        -0.83883E-05
        -0.62801E-05
        -0.20011E-05
        -0.62792E-06
        -0.30253E-06
        -0.90465E-06
        -0.33250E-04
        -0.30186E-04
        -0.29472E-04
        -0.17264E-05
        -0.59597E-06
        -0.26622E-06
        -0.74510E-05
        -0.77085E-07
        -0.99039E-06
        -0.15714E-05
        -0.37421E-05
        -0.15039E-05
        -0.13459E-05
        -0.11350E-05
        -0.27702E-04
        -0.82422E-05
        -0.10875E-04
        -0.10899E-04
        -0.37120E-06
        -0.26767E-05
        -0.33873E-04
        -0.35837E-04
        -0.33823E-04
        -0.17573E-04
        -0.10344E-04
        -0.35306E-05
        -0.41478E-05
        -0.58639E-05
        -0.81204E-07
        -0.13727E-06
        -0.15248E-04
        -0.11561E-04
        -0.47357E-03
        -0.48205E-03
        -0.39012E-03
        -0.26605E-03
        -0.14694E-03
        -0.31176E-04
        -0.19934E-05
        -0.20655E-04
        -0.34516E-04
        -0.11735E-03
        -0.37251E-03
        -0.52106E-03
        -0.36552E-03
        -0.33093E-03
        -0.40372E-03
        -0.42972E-03
        -0.35733E-03
        -0.31945E-03
        -0.81923E-04
        -0.56287E-05
        -0.26734E-04
        -0.27709E-04
        -0.86837E-04
        -0.26109E-03
        -0.42903E-03
        -0.42686E-03
        -0.16525E-05
        -0.75471E-07
        -0.25005E-06
        -0.20774E-05
        -0.83652E-05
        -0.61137E-05
        -0.63352E-06
        -0.23537E-05
        -0.54860E-06
        -0.22279E-05
        -0.48081E-07
        -0.13332E-05
        -0.13722E-04
        -0.73946E-05
        -0.83786E-05
        -0.62956E-05
        -0.20100E-05
        -0.62425E-06
        -0.30223E-06
        -0.90161E-06
        -0.33250E-04
        -0.30184E-04
        -0.29477E-04
        -0.17269E-05
        -0.59900E-06
        -0.26732E-06
        -0.74543E-05
        -0.73605E-07
        -0.10034E-05
        -0.15738E-05
        -0.37536E-05
        -0.15037E-05
        -0.13332E-05
        -0.11356E-05
        -0.27732E-04
        -0.82371E-05
        -0.10870E-04
        -0.10932E-04
        -0.37764E-06
        -0.26935E-05
        -0.33919E-04
        -0.35887E-04
        -0.33839E-04
        -0.17573E-04
        -0.10337E-04
        -0.35280E-05
        -0.41456E-05
        -0.58676E-05
        -0.79620E-07
        -0.13667E-06
        -0.15232E-04
        -0.11527E-04
        -0.47324E-03
        -0.48181E-03
        -0.39004E-03
        -0.26605E-03
        -0.14685E-03
        -0.31157E-04
        -0.19976E-05
        -0.20679E-04
        -0.34457E-04
        -0.11725E-03
        -0.37239E-03
        -0.52111E-03
        -0.36549E-03
        -0.33091E-03
        -0.40385E-03
        -0.42998E-03
        -0.35749E-03
        -0.31956E-03
        -0.81875E-04
        -0.56320E-05
        -0.26691E-04
        -0.27688E-04
        -0.86713E-04
        -0.26077E-03
        -0.42860E-03
        -0.42648E-03
        -0.16577E-05
        -0.76223E-07
        -0.25056E-06
        -0.20798E-05
        -0.83494E-05
        -0.61027E-05
        -0.64108E-06
        -0.23406E-05
        -0.54947E-06
        -0.22231E-05
        -0.45413E-07
        -0.13396E-05
        -0.13739E-04
        -0.73573E-05
        -0.83688E-05
        -0.63111E-05
        -0.20189E-05
        -0.62063E-06
        -0.30193E-06
        -0.89868E-06
        -0.33248E-04
        -0.30182E-04
        -0.29483E-04
        -0.17275E-05
        -0.60198E-06
        -0.26843E-06
        -0.74576E-05
        -0.70208E-07
        -0.10165E-05
        -0.15762E-05
        -0.37650E-05
        -0.15035E-05
        -0.13207E-05
        -0.11361E-05
        -0.27762E-04
        -0.82315E-05
        -0.10865E-04
        -0.10965E-04
        -0.38417E-06
        -0.27102E-05
        -0.33965E-04
        -0.35936E-04
        -0.33855E-04
        -0.17572E-04
        -0.10332E-04
        -0.35251E-05
        -0.41434E-05
        -0.58713E-05
        -0.78068E-07
        -0.13605E-06
        -0.15216E-04
        -0.11494E-04
        -0.47291E-03
        -0.48157E-03
        -0.38997E-03
        -0.26605E-03
        -0.14676E-03
        -0.31137E-04
        -0.20017E-05
        -0.20703E-04
        -0.34399E-04
        -0.11716E-03
        -0.37227E-03
        -0.52115E-03
        -0.36546E-03
        -0.33089E-03
        -0.40398E-03
        -0.43024E-03
        -0.35765E-03
        -0.31967E-03
        -0.81827E-04
        -0.56353E-05
        -0.26649E-04
        -0.27667E-04
        -0.86589E-04
        -0.26045E-03
        -0.42818E-03
        -0.42610E-03
        -0.16628E-05
        -0.76967E-07
        -0.25109E-06
        -0.20823E-05
        -0.83341E-05
        -0.60913E-05
        -0.64871E-06
        -0.23275E-05
        -0.55031E-06
        -0.22181E-05
        -0.42822E-07
        -0.13460E-05
        -0.13756E-04
        -0.73200E-05
        -0.83589E-05
        -0.63266E-05
        -0.20278E-05
        -0.61701E-06
        -0.30165E-06
        -0.89567E-06
        -0.33247E-04
        -0.30180E-04
        -0.29487E-04
        -0.17280E-05
        -0.60490E-06
        -0.26953E-06
        -0.74606E-05
        -0.66861E-07
        -0.10296E-05
        -0.15785E-05
        -0.37766E-05
        -0.15033E-05
        -0.13083E-05
        -0.11367E-05
        -0.27793E-04
        -0.82260E-05
        -0.10860E-04
        -0.10997E-04
        -0.39081E-06
        -0.27273E-05
        -0.34010E-04
        -0.35985E-04
        -0.33870E-04
        -0.17572E-04
        -0.10325E-04
        -0.35225E-05
        -0.41413E-05
        -0.58752E-05
        -0.76536E-07
        -0.13544E-06
        -0.15200E-04
        -0.11461E-04
        -0.47259E-03
        -0.48132E-03
        -0.38989E-03
        -0.26605E-03
        -0.14667E-03
        -0.31118E-04
        -0.20057E-05
        -0.20727E-04
        -0.34341E-04
        -0.11707E-03
        -0.37215E-03
        -0.52121E-03
        -0.36544E-03
        -0.33087E-03
        -0.40410E-03
        -0.43050E-03
        -0.35782E-03
        -0.31978E-03
        -0.81779E-04
        -0.56385E-05
        -0.26607E-04
        -0.27645E-04
        -0.86464E-04
        -0.26013E-03
        -0.42775E-03
        -0.42572E-03
        -0.16680E-05
        -0.77713E-07
        -0.25159E-06
        -0.20847E-05
        -0.83185E-05
        -0.60800E-05
        -0.65634E-06
        -0.23144E-05
        -0.55107E-06
        -0.22126E-05
        -0.40311E-07
        -0.13524E-05
        -0.13773E-04
        -0.72826E-05
        -0.83488E-05
        -0.63421E-05
        -0.20366E-05
        -0.61337E-06
        -0.30144E-06
        -0.89279E-06
        -0.33246E-04
        -0.30178E-04
        -0.29493E-04
        -0.17285E-05
        -0.60765E-06
        -0.27068E-06
        -0.74623E-05
        -0.63515E-07
        -0.10428E-05
        -0.15811E-05
        -0.37882E-05
        -0.15030E-05
        -0.12959E-05
        -0.11373E-05
        -0.27823E-04
        -0.82209E-05
        -0.10855E-04
        -0.11029E-04
        -0.39771E-06
        -0.27440E-05
        -0.34053E-04
        -0.36030E-04
        -0.33884E-04
        -0.17572E-04
        -0.10319E-04
        -0.35197E-05
        -0.41391E-05
        -0.58790E-05
        -0.75024E-07
        -0.13483E-06
        -0.15184E-04
        -0.11427E-04
        -0.47226E-03
        -0.48108E-03
        -0.38982E-03
        -0.26605E-03
        -0.14658E-03
        -0.31100E-04
        -0.20098E-05
        -0.20751E-04
        -0.34284E-04
        -0.11697E-03
        -0.37202E-03
        -0.52129E-03
        -0.36543E-03
        -0.33085E-03
        -0.40423E-03
        -0.43076E-03
        -0.35798E-03
        -0.31989E-03
        -0.81731E-04
        -0.56418E-05
        -0.26565E-04
        -0.27624E-04
        -0.86341E-04
        -0.25982E-03
        -0.42733E-03
        -0.42534E-03
        -0.16731E-05
        -0.78458E-07
        -0.25209E-06
        -0.20871E-05
        -0.83028E-05
        -0.60686E-05
        -0.66405E-06
        -0.23013E-05
        -0.55175E-06
        -0.22065E-05
        -0.37883E-07
        -0.13588E-05
        -0.13791E-04
        -0.72451E-05
        -0.83385E-05
        -0.63575E-05
        -0.20454E-05
        -0.60975E-06
        -0.30117E-06
        -0.88983E-06
        -0.33246E-04
        -0.30174E-04
        -0.29499E-04
        -0.17290E-05
        -0.61018E-06
        -0.27178E-06
        -0.74629E-05
        -0.60157E-07
        -0.10561E-05
        -0.15835E-05
        -0.37997E-05
        -0.15027E-05
        -0.12835E-05
        -0.11379E-05
        -0.27854E-04
        -0.82155E-05
        -0.10850E-04
        -0.11061E-04
        -0.40485E-06
        -0.27610E-05
        -0.34091E-04
        -0.36071E-04
        -0.33896E-04
        -0.17572E-04
        -0.10314E-04
        -0.35171E-05
        -0.41370E-05
        -0.58828E-05
        -0.73509E-07
        -0.13423E-06
        -0.15168E-04
        -0.11393E-04
        -0.47193E-03
        -0.48084E-03
        -0.38974E-03
        -0.26605E-03
        -0.14649E-03
        -0.31081E-04
        -0.20139E-05
        -0.20775E-04
        -0.34227E-04
        -0.11687E-03
        -0.37189E-03
        -0.52139E-03
        -0.36543E-03
        -0.33083E-03
        -0.40436E-03
        -0.43103E-03
        -0.35814E-03
        -0.31999E-03
        -0.81683E-04
        -0.56450E-05
        -0.26523E-04
        -0.27603E-04
        -0.86217E-04
        -0.25950E-03
        -0.42691E-03
        -0.42496E-03
        -0.16783E-05
        -0.79212E-07
        -0.25261E-06
        -0.20895E-05
        -0.82875E-05
        -0.60576E-05
        -0.67170E-06
        -0.22884E-05
        -0.55239E-06
        -0.22004E-05
        -0.35546E-07
        -0.13651E-05
        -0.13807E-04
        -0.72077E-05
        -0.83281E-05
        -0.63730E-05
        -0.20543E-05
        -0.60618E-06
        -0.30088E-06
        -0.88696E-06
        -0.33244E-04
        -0.30171E-04
        -0.29503E-04
        -0.17296E-05
        -0.61264E-06
        -0.27289E-06
        -0.74633E-05
        -0.56880E-07
        -0.10694E-05
        -0.15859E-05
        -0.38114E-05
        -0.15025E-05
        -0.12712E-05
        -0.11384E-05
        -0.27885E-04
        -0.82104E-05
        -0.10844E-04
        -0.11092E-04
        -0.41214E-06
        -0.27775E-05
        -0.34128E-04
        -0.36110E-04
        -0.33907E-04
        -0.17572E-04
        -0.10307E-04
        -0.35145E-05
        -0.41350E-05
        -0.58868E-05
        -0.72027E-07
        -0.13361E-06
        -0.15153E-04
        -0.11360E-04
        -0.47160E-03
        -0.48060E-03
        -0.38967E-03
        -0.26605E-03
        -0.14640E-03
        -0.31061E-04
        -0.20179E-05
        -0.20797E-04
        -0.34170E-04
        -0.11677E-03
        -0.37176E-03
        -0.52151E-03
        -0.36544E-03
        -0.33081E-03
        -0.40449E-03
        -0.43129E-03
        -0.35830E-03
        -0.32010E-03
        -0.81635E-04
        -0.56486E-05
        -0.26482E-04
        -0.27581E-04
        -0.86094E-04
        -0.25919E-03
        -0.42649E-03
        -0.42458E-03
        -0.16951E-05
        -0.80367E-07
        -0.25494E-06
        -0.21062E-05
        -0.83255E-05
        -0.60870E-05
        -0.68315E-06
        -0.22926E-05
        -0.55675E-06
        -0.22105E-05
        -0.33801E-07
        -0.13785E-05
        -0.13910E-04
        -0.72223E-05
        -0.83735E-05
        -0.64312E-05
        -0.20768E-05
        -0.60709E-06
        -0.30249E-06
        -0.88969E-06
        -0.33449E-04
        -0.30362E-04
        -0.29690E-04
        -0.17417E-05
        -0.61905E-06
        -0.27575E-06
        -0.75157E-05
        -0.54267E-07
        -0.10889E-05
        -0.15988E-05
        -0.38486E-05
        -0.15123E-05
        -0.12689E-05
        -0.11470E-05
        -0.28091E-04
        -0.82591E-05
        -0.10909E-04
        -0.11196E-04
        -0.42160E-06
        -0.28111E-05
        -0.34387E-04
        -0.36387E-04
        -0.34140E-04
        -0.17682E-04
        -0.10367E-04
        -0.35329E-05
        -0.41601E-05
        -0.59307E-05
        -0.71197E-07
        -0.13387E-06
        -0.15235E-04
        -0.11404E-04
        -0.47387E-03
        -0.48295E-03
        -0.39173E-03
        -0.26750E-03
        -0.14711E-03
        -0.31207E-04
        -0.20346E-05
        -0.20934E-04
        -0.34313E-04
        -0.11734E-03
        -0.37379E-03
        -0.52453E-03
        -0.36744E-03
        -0.33258E-03
        -0.40673E-03
        -0.43372E-03
        -0.36027E-03
        -0.32187E-03
        -0.82031E-04
        -0.56854E-05
        -0.26592E-04
        -0.27708E-04
        -0.86445E-04
        -0.26030E-03
        -0.42836E-03
        -0.42646E-03
        -0.37389E-05
        -0.17960E-06
        -0.55997E-06
        -0.46618E-05
        -0.16985E-04
        -0.12660E-04
        -0.15175E-05
        -0.49855E-05
        -0.12204E-05
        -0.47907E-05
        -0.70058E-07
        -0.27145E-05
        -0.28228E-04
        -0.15233E-04
        -0.16638E-04
        -0.14211E-04
        -0.45633E-05
        -0.13388E-05
        -0.64944E-06
        -0.19181E-05
        -0.67813E-04
        -0.63135E-04
        -0.60543E-04
        -0.38000E-05
        -0.13687E-05
        -0.61258E-06
        -0.16135E-04
        -0.11568E-06
        -0.24347E-05
        -0.35246E-05
        -0.85120E-05
        -0.33227E-05
        -0.27950E-05
        -0.25385E-05
        -0.55220E-04
        -0.17154E-04
        -0.22680E-04
        -0.23309E-04
        -0.90887E-06
        -0.60702E-05
        -0.72078E-04
        -0.77423E-04
        -0.72557E-04
        -0.36580E-04
        -0.21296E-04
        -0.68444E-05
        -0.84861E-05
        -0.12430E-04
        -0.14868E-06
        -0.27988E-06
        -0.30361E-04
        -0.23569E-04
        -0.73083E-03
        -0.74248E-03
        -0.60280E-03
        -0.41414E-03
        -0.22734E-03
        -0.48430E-04
        -0.32392E-05
        -0.33804E-04
        -0.55117E-04
        -0.18637E-03
        -0.59546E-03
        -0.83307E-03
        -0.59681E-03
        -0.54375E-03
        -0.64820E-03
        -0.67566E-03
        -0.55779E-03
        -0.49265E-03
        -0.12526E-03
        -0.87174E-05
        -0.41572E-04
        -0.43707E-04
        -0.13535E-03
        -0.41042E-03
        -0.67136E-03
        -0.66360E-03
  
SCALARS                      strain_yy  double 1
LOOKUP_TABLE default
         0.13492E-08
         0.16263E-11
         0.65544E-09
         0.45110E-09
        -0.35289E-20
        -0.26808E-21
        -0.54200E-20
        -0.31532E-20
        -0.36302E-09
         0.19734E-08
        -0.12004E-19
        -0.93038E-20
        -0.17494E-07
        -0.47031E-10
        -0.61479E-20
        -0.25272E-22
         0.19935E-08
        -0.28198E-07
        -0.13308E-23
        -0.13932E-21
        -0.14276E-07
        -0.28185E-06
        -0.17045E-06
        -0.32306E-19
        -0.96352E-19
        -0.67318E-19
        -0.27072E-08
        -0.41530E-06
        -0.16716E-19
        -0.62911E-19
         0.25227E-08
         0.31982E-09
         0.23415E-08
        -0.44925E-20
        -0.46817E-20
        -0.20179E-23
         0.11868E-07
        -0.13211E-07
        -0.15213E-19
        -0.92090E-20
         0.19851E-08
        -0.74498E-08
        -0.86887E-20
        -0.72565E-20
         0.14206E-07
         0.22956E-08
        -0.95611E-23
        -0.22875E-20
        -0.25903E-07
        -0.50709E-21
         0.15356E-09
        -0.33265E-23
        -0.16236E-09
        -0.75874E-20
        -0.80229E-08
        -0.25675E-20
        -0.85188E-07
        -0.16620E-08
        -0.18897E-23
        -0.77844E-23
         0.36514E-08
         0.33447E-07
        -0.35080E-21
        -0.49081E-20
         0.15787E-08
        -0.14293E-20
         0.20279E-07
        -0.21212E-20
        -0.39085E-08
        -0.16252E-08
        -0.32396E-22
        -0.56476E-20
        -0.34839E-07
        -0.27232E-19
        -0.74748E-06
        -0.25530E-19
        -0.80152E-06
        -0.14711E-19
        -0.53028E-06
        -0.10335E-19
        -0.98212E-06
        -0.48528E-06
        -0.42532E-20
        -0.20908E-21
        -0.60670E-08
        -0.26178E-23
         0.34018E-07
        -0.10273E-19
         0.98033E-07
        -0.31482E-19
         0.35218E-07
        -0.20703E-07
        -0.69256E-19
        -0.45373E-19
         0.10578E-07
        -0.27341E-19
         0.20085E-07
        -0.28616E-19
         0.91300E-08
        -0.33083E-19
         0.15438E-07
         0.29964E-07
        -0.28610E-19
        -0.65685E-20
        -0.67042E-07
        -0.43744E-08
        -0.35373E-20
        -0.54624E-20
        -0.44847E-06
        -0.39148E-19
        -0.39380E-06
        -0.83762E-19
        -0.13673E-05
        -0.12776E-18
        -0.44748E-05
        -0.12570E-18
        -0.10105E-04
        -0.78722E-19
        -0.13205E-04
        -0.47146E-19
        -0.11955E-04
        -0.40784E-19
        -0.94049E-05
        -0.36919E-19
        -0.39283E-05
        -0.15078E-19
        -0.95946E-06
        -0.16436E-20
        -0.42447E-07
        -0.68624E-21
         0.30530E-09
        -0.15504E-20
         0.13500E-06
        -0.41358E-21
         0.58982E-06
        -0.37824E-20
         0.13996E-05
        -0.30136E-19
         0.55068E-06
        -0.73482E-19
        -0.53517E-06
        -0.12629E-18
        -0.15982E-05
        -0.12607E-18
        -0.51552E-06
        -0.96076E-19
         0.69786E-07
        -0.91256E-19
        -0.52536E-06
        -0.92396E-19
        -0.23856E-06
        -0.57777E-19
        -0.19188E-07
        -0.20204E-19
         0.54612E-07
        -0.12079E-19
        -0.82401E-05
        -0.22688E-05
        -0.17224E-05
        -0.15998E-06
        -0.18635E-05
        -0.20381E-05
        -0.23595E-07
        -0.54583E-05
        -0.38314E-05
        -0.84986E-05
        -0.24617E-05
        -0.45117E-04
        -0.20695E-04
        -0.27795E-06
        -0.45710E-04
        -0.57195E-06
        -0.45211E-06
        -0.18373E-06
        -0.33064E-06
        -0.18711E-06
        -0.15999E-06
        -0.10780E-06
        -0.12373E-05
        -0.87498E-08
        -0.39568E-05
        -0.86577E-07
        -0.23854E-09
        -0.72742E-07
        -0.10923E-06
        -0.24701E-05
        -0.54683E-06
        -0.66678E-06
        -0.28927E-06
        -0.17568E-07
        -0.51722E-07
        -0.14839E-05
        -0.73770E-05
        -0.34947E-04
        -0.29224E-04
        -0.21317E-04
        -0.19194E-04
        -0.11405E-05
        -0.73505E-06
        -0.55584E-05
        -0.15473E-04
        -0.42662E-04
        -0.17860E-04
        -0.89029E-05
        -0.10157E-04
        -0.11744E-04
        -0.16551E-04
        -0.33464E-05
        -0.13095E-04
        -0.18441E-04
        -0.13592E-03
        -0.25792E-03
        -0.42004E-03
        -0.60131E-03
        -0.61651E-03
        -0.50712E-03
        -0.45813E-03
        -0.40996E-03
        -0.17208E-03
        -0.31958E-04
        -0.60908E-05
        -0.11766E-05
        -0.27339E-05
        -0.42421E-04
        -0.14339E-03
        -0.24742E-03
        -0.37732E-03
        -0.49162E-03
        -0.42998E-03
        -0.38415E-03
        -0.33333E-03
        -0.16334E-03
        -0.54661E-04
        -0.41836E-04
        -0.13676E-04
        -0.54403E-05
        -0.46586E-05
        -0.26209E-06
        -0.78587E-05
        -0.15896E-05
        -0.99957E-06
        -0.12217E-04
        -0.52535E-05
        -0.10807E-04
        -0.30207E-05
        -0.56582E-04
        -0.19859E-04
        -0.41009E-06
        -0.54925E-04
        -0.19669E-05
        -0.18063E-06
        -0.16464E-06
        -0.33448E-05
        -0.12502E-06
        -0.24850E-05
        -0.12526E-05
        -0.42102E-06
        -0.29993E-06
        -0.49004E-05
        -0.29980E-06
        -0.18878E-07
        -0.65239E-07
        -0.16646E-06
        -0.48763E-05
        -0.22845E-05
        -0.15851E-06
        -0.95438E-06
        -0.71952E-06
        -0.16359E-06
        -0.15201E-05
        -0.55413E-05
        -0.31723E-04
        -0.24669E-04
        -0.19159E-04
        -0.10341E-04
        -0.63137E-06
        -0.26787E-05
        -0.41794E-05
        -0.69299E-05
        -0.28918E-04
        -0.97911E-05
        -0.42816E-05
        -0.67632E-05
        -0.94256E-05
        -0.10120E-04
        -0.56970E-07
        -0.15736E-04
        -0.32199E-04
        -0.17438E-03
        -0.29123E-03
        -0.48516E-03
        -0.69870E-03
        -0.67033E-03
        -0.51113E-03
        -0.46942E-03
        -0.45955E-03
        -0.18121E-03
        -0.19685E-04
        -0.31248E-05
        -0.22942E-05
        -0.49217E-06
        -0.35420E-04
        -0.14216E-03
        -0.27539E-03
        -0.46643E-03
        -0.57353E-03
        -0.44221E-03
        -0.39524E-03
        -0.39290E-03
        -0.19478E-03
        -0.52565E-04
        -0.47127E-04
        -0.13693E-04
        -0.54422E-05
        -0.46632E-05
        -0.26595E-06
        -0.78606E-05
        -0.15921E-05
        -0.10021E-05
        -0.12258E-04
        -0.52724E-05
        -0.10888E-04
        -0.30243E-05
        -0.56573E-04
        -0.19868E-04
        -0.41011E-06
        -0.55065E-04
        -0.19671E-05
        -0.18393E-06
        -0.16415E-06
        -0.33493E-05
        -0.12363E-06
        -0.24973E-05
        -0.12550E-05
        -0.42122E-06
        -0.29964E-06
        -0.49449E-05
        -0.29871E-06
        -0.19326E-07
        -0.65971E-07
        -0.16427E-06
        -0.48969E-05
        -0.22853E-05
        -0.15782E-06
        -0.95861E-06
        -0.72188E-06
        -0.16053E-06
        -0.15221E-05
        -0.55408E-05
        -0.31821E-04
        -0.24776E-04
        -0.19204E-04
        -0.10356E-04
        -0.62798E-06
        -0.26842E-05
        -0.41837E-05
        -0.69304E-05
        -0.28918E-04
        -0.97931E-05
        -0.42765E-05
        -0.67451E-05
        -0.94004E-05
        -0.10111E-04
        -0.55258E-07
        -0.15707E-04
        -0.32203E-04
        -0.17445E-03
        -0.29124E-03
        -0.48505E-03
        -0.69823E-03
        -0.66976E-03
        -0.51082E-03
        -0.46922E-03
        -0.45930E-03
        -0.18114E-03
        -0.19703E-04
        -0.31244E-05
        -0.23037E-05
        -0.48418E-06
        -0.35458E-04
        -0.14229E-03
        -0.27552E-03
        -0.46642E-03
        -0.57346E-03
        -0.44215E-03
        -0.39521E-03
        -0.39270E-03
        -0.19450E-03
        -0.52449E-04
        -0.47003E-04
        -0.13710E-04
        -0.54444E-05
        -0.46679E-05
        -0.26988E-06
        -0.78623E-05
        -0.15948E-05
        -0.10046E-05
        -0.12299E-04
        -0.52914E-05
        -0.10968E-04
        -0.30279E-05
        -0.56563E-04
        -0.19878E-04
        -0.41003E-06
        -0.55205E-04
        -0.19674E-05
        -0.18730E-06
        -0.16365E-06
        -0.33540E-05
        -0.12223E-06
        -0.25098E-05
        -0.12574E-05
        -0.42154E-06
        -0.29928E-06
        -0.49891E-05
        -0.29747E-06
        -0.19810E-07
        -0.66753E-07
        -0.16190E-06
        -0.49169E-05
        -0.22860E-05
        -0.15699E-06
        -0.96288E-06
        -0.72420E-06
        -0.15749E-06
        -0.15241E-05
        -0.55401E-05
        -0.31920E-04
        -0.24883E-04
        -0.19248E-04
        -0.10373E-04
        -0.62424E-06
        -0.26894E-05
        -0.41891E-05
        -0.69321E-05
        -0.28920E-04
        -0.97949E-05
        -0.42712E-05
        -0.67273E-05
        -0.93751E-05
        -0.10103E-04
        -0.53578E-07
        -0.15678E-04
        -0.32206E-04
        -0.17451E-03
        -0.29124E-03
        -0.48493E-03
        -0.69775E-03
        -0.66920E-03
        -0.51052E-03
        -0.46902E-03
        -0.45905E-03
        -0.18106E-03
        -0.19723E-04
        -0.31240E-05
        -0.23131E-05
        -0.47622E-06
        -0.35496E-04
        -0.14242E-03
        -0.27565E-03
        -0.46640E-03
        -0.57339E-03
        -0.44209E-03
        -0.39517E-03
        -0.39250E-03
        -0.19423E-03
        -0.52334E-04
        -0.46879E-04
        -0.13728E-04
        -0.54463E-05
        -0.46726E-05
        -0.27386E-06
        -0.78642E-05
        -0.15973E-05
        -0.10073E-05
        -0.12340E-04
        -0.53106E-05
        -0.11048E-04
        -0.30315E-05
        -0.56553E-04
        -0.19889E-04
        -0.41005E-06
        -0.55346E-04
        -0.19677E-05
        -0.19076E-06
        -0.16314E-06
        -0.33589E-05
        -0.12074E-06
        -0.25225E-05
        -0.12595E-05
        -0.42227E-06
        -0.29869E-06
        -0.50320E-05
        -0.29585E-06
        -0.20316E-07
        -0.67796E-07
        -0.15898E-06
        -0.49351E-05
        -0.22863E-05
        -0.15586E-06
        -0.96711E-06
        -0.72655E-06
        -0.15448E-06
        -0.15261E-05
        -0.55393E-05
        -0.32018E-04
        -0.24992E-04
        -0.19297E-04
        -0.10392E-04
        -0.61950E-06
        -0.26936E-05
        -0.41973E-05
        -0.69362E-05
        -0.28923E-04
        -0.97983E-05
        -0.42660E-05
        -0.67094E-05
        -0.93499E-05
        -0.10094E-04
        -0.51929E-07
        -0.15648E-04
        -0.32210E-04
        -0.17458E-03
        -0.29125E-03
        -0.48481E-03
        -0.69728E-03
        -0.66864E-03
        -0.51021E-03
        -0.46882E-03
        -0.45879E-03
        -0.18100E-03
        -0.19746E-04
        -0.31241E-05
        -0.23225E-05
        -0.46826E-06
        -0.35538E-04
        -0.14258E-03
        -0.27580E-03
        -0.46639E-03
        -0.57332E-03
        -0.44202E-03
        -0.39514E-03
        -0.39230E-03
        -0.19395E-03
        -0.52219E-04
        -0.46756E-04
        -0.13745E-04
        -0.54483E-05
        -0.46773E-05
        -0.27784E-06
        -0.78660E-05
        -0.15999E-05
        -0.10097E-05
        -0.12381E-04
        -0.53297E-05
        -0.11128E-04
        -0.30352E-05
        -0.56544E-04
        -0.19899E-04
        -0.41009E-06
        -0.55487E-04
        -0.19680E-05
        -0.19430E-06
        -0.16263E-06
        -0.33640E-05
        -0.11919E-06
        -0.25355E-05
        -0.12614E-05
        -0.42338E-06
        -0.29785E-06
        -0.50735E-05
        -0.29381E-06
        -0.20888E-07
        -0.69083E-07
        -0.15551E-06
        -0.49513E-05
        -0.22863E-05
        -0.15439E-06
        -0.97134E-06
        -0.72891E-06
        -0.15149E-06
        -0.15281E-05
        -0.55389E-05
        -0.32118E-04
        -0.25104E-04
        -0.19347E-04
        -0.10415E-04
        -0.61372E-06
        -0.26969E-05
        -0.42086E-05
        -0.69430E-05
        -0.28930E-04
        -0.98026E-05
        -0.42614E-05
        -0.66919E-05
        -0.93244E-05
        -0.10085E-04
        -0.50295E-07
        -0.15619E-04
        -0.32214E-04
        -0.17464E-03
        -0.29125E-03
        -0.48469E-03
        -0.69681E-03
        -0.66807E-03
        -0.50990E-03
        -0.46863E-03
        -0.45854E-03
        -0.18093E-03
        -0.19774E-04
        -0.31247E-05
        -0.23317E-05
        -0.46035E-06
        -0.35584E-04
        -0.14275E-03
        -0.27597E-03
        -0.46638E-03
        -0.57325E-03
        -0.44196E-03
        -0.39511E-03
        -0.39210E-03
        -0.19367E-03
        -0.52105E-04
        -0.46632E-04
        -0.13761E-04
        -0.54496E-05
        -0.46819E-05
        -0.28190E-06
        -0.78679E-05
        -0.16024E-05
        -0.10120E-05
        -0.12420E-04
        -0.53490E-05
        -0.11205E-04
        -0.30393E-05
        -0.56535E-04
        -0.19910E-04
        -0.41024E-06
        -0.55628E-04
        -0.19685E-05
        -0.19795E-06
        -0.16213E-06
        -0.33692E-05
        -0.11762E-06
        -0.25485E-05
        -0.12632E-05
        -0.42466E-06
        -0.29693E-06
        -0.51141E-05
        -0.29164E-06
        -0.21511E-07
        -0.70520E-07
        -0.15184E-06
        -0.49667E-05
        -0.22861E-05
        -0.15277E-06
        -0.97568E-06
        -0.73138E-06
        -0.14850E-06
        -0.15303E-05
        -0.55388E-05
        -0.32219E-04
        -0.25217E-04
        -0.19400E-04
        -0.10437E-04
        -0.60762E-06
        -0.26997E-05
        -0.42208E-05
        -0.69516E-05
        -0.28940E-04
        -0.98077E-05
        -0.42576E-05
        -0.66752E-05
        -0.92997E-05
        -0.10077E-04
        -0.48688E-07
        -0.15589E-04
        -0.32217E-04
        -0.17471E-03
        -0.29126E-03
        -0.48458E-03
        -0.69633E-03
        -0.66750E-03
        -0.50959E-03
        -0.46843E-03
        -0.45828E-03
        -0.18088E-03
        -0.19803E-04
        -0.31256E-05
        -0.23408E-05
        -0.45252E-06
        -0.35630E-04
        -0.14294E-03
        -0.27614E-03
        -0.46637E-03
        -0.57317E-03
        -0.44191E-03
        -0.39508E-03
        -0.39190E-03
        -0.19340E-03
        -0.51990E-04
        -0.46509E-04
        -0.13775E-04
        -0.54493E-05
        -0.46865E-05
        -0.28609E-06
        -0.78699E-05
        -0.16050E-05
        -0.10137E-05
        -0.12456E-04
        -0.53687E-05
        -0.11279E-04
        -0.30442E-05
        -0.56530E-04
        -0.19923E-04
        -0.41087E-06
        -0.55771E-04
        -0.19692E-05
        -0.20172E-06
        -0.16163E-06
        -0.33744E-05
        -0.11605E-06
        -0.25617E-05
        -0.12651E-05
        -0.42596E-06
        -0.29604E-06
        -0.51540E-05
        -0.28947E-06
        -0.22257E-07
        -0.72065E-07
        -0.14814E-06
        -0.49817E-05
        -0.22857E-05
        -0.15104E-06
        -0.98017E-06
        -0.73397E-06
        -0.14554E-06
        -0.15327E-05
        -0.55390E-05
        -0.32321E-04
        -0.25331E-04
        -0.19453E-04
        -0.10461E-04
        -0.60142E-06
        -0.27023E-05
        -0.42330E-05
        -0.69607E-05
        -0.28951E-04
        -0.98157E-05
        -0.42562E-05
        -0.66613E-05
        -0.92760E-05
        -0.10068E-04
        -0.47088E-07
        -0.15560E-04
        -0.32221E-04
        -0.17477E-03
        -0.29126E-03
        -0.48446E-03
        -0.69585E-03
        -0.66693E-03
        -0.50928E-03
        -0.46824E-03
        -0.45802E-03
        -0.18082E-03
        -0.19832E-04
        -0.31264E-05
        -0.23501E-05
        -0.44475E-06
        -0.35677E-04
        -0.14312E-03
        -0.27631E-03
        -0.46634E-03
        -0.57310E-03
        -0.44186E-03
        -0.39506E-03
        -0.39170E-03
        -0.19312E-03
        -0.51876E-04
        -0.46386E-04
        -0.13790E-04
        -0.54486E-05
        -0.46910E-05
        -0.29038E-06
        -0.78720E-05
        -0.16076E-05
        -0.10151E-05
        -0.12490E-04
        -0.53887E-05
        -0.11352E-04
        -0.30497E-05
        -0.56524E-04
        -0.19936E-04
        -0.41160E-06
        -0.55914E-04
        -0.19699E-05
        -0.20558E-06
        -0.16112E-06
        -0.33797E-05
        -0.11450E-06
        -0.25748E-05
        -0.12670E-05
        -0.42723E-06
        -0.29517E-06
        -0.51936E-05
        -0.28732E-06
        -0.23046E-07
        -0.73667E-07
        -0.14448E-06
        -0.49966E-05
        -0.22852E-05
        -0.14924E-06
        -0.98473E-06
        -0.73667E-06
        -0.14258E-06
        -0.15352E-05
        -0.55399E-05
        -0.32424E-04
        -0.25446E-04
        -0.19507E-04
        -0.10484E-04
        -0.59525E-06
        -0.27050E-05
        -0.42454E-05
        -0.69702E-05
        -0.28965E-04
        -0.98248E-05
        -0.42556E-05
        -0.66485E-05
        -0.92527E-05
        -0.10060E-04
        -0.45516E-07
        -0.15531E-04
        -0.32224E-04
        -0.17483E-03
        -0.29126E-03
        -0.48434E-03
        -0.69538E-03
        -0.66636E-03
        -0.50897E-03
        -0.46805E-03
        -0.45776E-03
        -0.18076E-03
        -0.19861E-04
        -0.31273E-05
        -0.23595E-05
        -0.43702E-06
        -0.35723E-04
        -0.14330E-03
        -0.27647E-03
        -0.46632E-03
        -0.57302E-03
        -0.44182E-03
        -0.39505E-03
        -0.39149E-03
        -0.19284E-03
        -0.51762E-04
        -0.46263E-04
        -0.13804E-04
        -0.54479E-05
        -0.46955E-05
        -0.29470E-06
        -0.78740E-05
        -0.16102E-05
        -0.10164E-05
        -0.12524E-04
        -0.54087E-05
        -0.11425E-04
        -0.30549E-05
        -0.56518E-04
        -0.19949E-04
        -0.41245E-06
        -0.56059E-04
        -0.19707E-05
        -0.20950E-06
        -0.16060E-06
        -0.33848E-05
        -0.11294E-06
        -0.25880E-05
        -0.12689E-05
        -0.42851E-06
        -0.29431E-06
        -0.52332E-05
        -0.28518E-06
        -0.23869E-07
        -0.75268E-07
        -0.14088E-06
        -0.50115E-05
        -0.22847E-05
        -0.14748E-06
        -0.98930E-06
        -0.73934E-06
        -0.13963E-06
        -0.15376E-05
        -0.55405E-05
        -0.32528E-04
        -0.25562E-04
        -0.19559E-04
        -0.10508E-04
        -0.58914E-06
        -0.27076E-05
        -0.42579E-05
        -0.69799E-05
        -0.28978E-04
        -0.98333E-05
        -0.42550E-05
        -0.66360E-05
        -0.92297E-05
        -0.10052E-04
        -0.43963E-07
        -0.15502E-04
        -0.32228E-04
        -0.17489E-03
        -0.29127E-03
        -0.48423E-03
        -0.69491E-03
        -0.66579E-03
        -0.50866E-03
        -0.46785E-03
        -0.45750E-03
        -0.18070E-03
        -0.19890E-04
        -0.31284E-05
        -0.23691E-05
        -0.42939E-06
        -0.35769E-04
        -0.14348E-03
        -0.27664E-03
        -0.46629E-03
        -0.57295E-03
        -0.44178E-03
        -0.39503E-03
        -0.39128E-03
        -0.19256E-03
        -0.51649E-04
        -0.46140E-04
        -0.13818E-04
        -0.54470E-05
        -0.46999E-05
        -0.29902E-06
        -0.78759E-05
        -0.16127E-05
        -0.10178E-05
        -0.12557E-04
        -0.54288E-05
        -0.11498E-04
        -0.30604E-05
        -0.56512E-04
        -0.19963E-04
        -0.41317E-06
        -0.56202E-04
        -0.19715E-05
        -0.21347E-06
        -0.16009E-06
        -0.33900E-05
        -0.11139E-06
        -0.26012E-05
        -0.12707E-05
        -0.42973E-06
        -0.29345E-06
        -0.52730E-05
        -0.28306E-06
        -0.24683E-07
        -0.76871E-07
        -0.13733E-06
        -0.50265E-05
        -0.22841E-05
        -0.14572E-06
        -0.99383E-06
        -0.74203E-06
        -0.13672E-06
        -0.15401E-05
        -0.55414E-05
        -0.32633E-04
        -0.25678E-04
        -0.19613E-04
        -0.10531E-04
        -0.58308E-06
        -0.27103E-05
        -0.42702E-05
        -0.69894E-05
        -0.28991E-04
        -0.98425E-05
        -0.42548E-05
        -0.66232E-05
        -0.92063E-05
        -0.10044E-04
        -0.42443E-07
        -0.15472E-04
        -0.32231E-04
        -0.17495E-03
        -0.29127E-03
        -0.48411E-03
        -0.69443E-03
        -0.66521E-03
        -0.50835E-03
        -0.46766E-03
        -0.45724E-03
        -0.18064E-03
        -0.19919E-04
        -0.31294E-05
        -0.23786E-05
        -0.42184E-06
        -0.35816E-04
        -0.14366E-03
        -0.27681E-03
        -0.46626E-03
        -0.57287E-03
        -0.44174E-03
        -0.39501E-03
        -0.39108E-03
        -0.19229E-03
        -0.51536E-04
        -0.46017E-04
        -0.13832E-04
        -0.54461E-05
        -0.47044E-05
        -0.30337E-06
        -0.78779E-05
        -0.16153E-05
        -0.10193E-05
        -0.12591E-04
        -0.54490E-05
        -0.11571E-04
        -0.30659E-05
        -0.56506E-04
        -0.19976E-04
        -0.41398E-06
        -0.56348E-04
        -0.19722E-05
        -0.21748E-06
        -0.15958E-06
        -0.33952E-05
        -0.10983E-06
        -0.26144E-05
        -0.12725E-05
        -0.43101E-06
        -0.29261E-06
        -0.53128E-05
        -0.28095E-06
        -0.25526E-07
        -0.78466E-07
        -0.13383E-06
        -0.50414E-05
        -0.22837E-05
        -0.14397E-06
        -0.99840E-06
        -0.74472E-06
        -0.13383E-06
        -0.15425E-05
        -0.55423E-05
        -0.32737E-04
        -0.25794E-04
        -0.19665E-04
        -0.10555E-04
        -0.57705E-06
        -0.27129E-05
        -0.42824E-05
        -0.69990E-05
        -0.29004E-04
        -0.98517E-05
        -0.42542E-05
        -0.66106E-05
        -0.91833E-05
        -0.10036E-04
        -0.40946E-07
        -0.15442E-04
        -0.32234E-04
        -0.17501E-03
        -0.29128E-03
        -0.48399E-03
        -0.69395E-03
        -0.66464E-03
        -0.50804E-03
        -0.46747E-03
        -0.45697E-03
        -0.18058E-03
        -0.19948E-04
        -0.31304E-05
        -0.23880E-05
        -0.41433E-06
        -0.35863E-04
        -0.14385E-03
        -0.27697E-03
        -0.46624E-03
        -0.57280E-03
        -0.44169E-03
        -0.39499E-03
        -0.39087E-03
        -0.19201E-03
        -0.51424E-04
        -0.45895E-04
        -0.13845E-04
        -0.54453E-05
        -0.47089E-05
        -0.30780E-06
        -0.78799E-05
        -0.16178E-05
        -0.10207E-05
        -0.12625E-04
        -0.54692E-05
        -0.11644E-04
        -0.30714E-05
        -0.56501E-04
        -0.19989E-04
        -0.41477E-06
        -0.56491E-04
        -0.19730E-05
        -0.22154E-06
        -0.15906E-06
        -0.34003E-05
        -0.10830E-06
        -0.26277E-05
        -0.12743E-05
        -0.43229E-06
        -0.29177E-06
        -0.53528E-05
        -0.27886E-06
        -0.26364E-07
        -0.80069E-07
        -0.13037E-06
        -0.50563E-05
        -0.22831E-05
        -0.14224E-06
        -0.10030E-05
        -0.74746E-06
        -0.13095E-06
        -0.15450E-05
        -0.55429E-05
        -0.32842E-04
        -0.25911E-04
        -0.19719E-04
        -0.10579E-04
        -0.57112E-06
        -0.27155E-05
        -0.42948E-05
        -0.70086E-05
        -0.29018E-04
        -0.98603E-05
        -0.42540E-05
        -0.65981E-05
        -0.91603E-05
        -0.10028E-04
        -0.39477E-07
        -0.15413E-04
        -0.32237E-04
        -0.17507E-03
        -0.29128E-03
        -0.48387E-03
        -0.69347E-03
        -0.66407E-03
        -0.50773E-03
        -0.46728E-03
        -0.45671E-03
        -0.18052E-03
        -0.19977E-04
        -0.31313E-05
        -0.23975E-05
        -0.40686E-06
        -0.35909E-04
        -0.14403E-03
        -0.27714E-03
        -0.46621E-03
        -0.57272E-03
        -0.44165E-03
        -0.39498E-03
        -0.39066E-03
        -0.19173E-03
        -0.51312E-04
        -0.45773E-04
        -0.13859E-04
        -0.54445E-05
        -0.47134E-05
        -0.31227E-06
        -0.78819E-05
        -0.16204E-05
        -0.10221E-05
        -0.12658E-04
        -0.54895E-05
        -0.11717E-04
        -0.30768E-05
        -0.56495E-04
        -0.20003E-04
        -0.41547E-06
        -0.56637E-04
        -0.19738E-05
        -0.22564E-06
        -0.15853E-06
        -0.34055E-05
        -0.10679E-06
        -0.26410E-05
        -0.12761E-05
        -0.43355E-06
        -0.29094E-06
        -0.53927E-05
        -0.27676E-06
        -0.27240E-07
        -0.81671E-07
        -0.12697E-06
        -0.50712E-05
        -0.22826E-05
        -0.14049E-06
        -0.10075E-05
        -0.75015E-06
        -0.12811E-06
        -0.15476E-05
        -0.55437E-05
        -0.32947E-04
        -0.26028E-04
        -0.19772E-04
        -0.10602E-04
        -0.56514E-06
        -0.27181E-05
        -0.43073E-05
        -0.70184E-05
        -0.29029E-04
        -0.98697E-05
        -0.42535E-05
        -0.65856E-05
        -0.91374E-05
        -0.10019E-04
        -0.38039E-07
        -0.15384E-04
        -0.32240E-04
        -0.17513E-03
        -0.29129E-03
        -0.48376E-03
        -0.69300E-03
        -0.66349E-03
        -0.50742E-03
        -0.46708E-03
        -0.45644E-03
        -0.18046E-03
        -0.20006E-04
        -0.31323E-05
        -0.24071E-05
        -0.39948E-06
        -0.35955E-04
        -0.14421E-03
        -0.27730E-03
        -0.46619E-03
        -0.57265E-03
        -0.44161E-03
        -0.39496E-03
        -0.39045E-03
        -0.19146E-03
        -0.51201E-04
        -0.45651E-04
        -0.13873E-04
        -0.54437E-05
        -0.47179E-05
        -0.31676E-06
        -0.78840E-05
        -0.16229E-05
        -0.10236E-05
        -0.12692E-04
        -0.55098E-05
        -0.11791E-04
        -0.30823E-05
        -0.56490E-04
        -0.20016E-04
        -0.41627E-06
        -0.56781E-04
        -0.19745E-05
        -0.22979E-06
        -0.15802E-06
        -0.34106E-05
        -0.10529E-06
        -0.26543E-05
        -0.12779E-05
        -0.43482E-06
        -0.29011E-06
        -0.54329E-05
        -0.27467E-06
        -0.28106E-07
        -0.83268E-07
        -0.12362E-06
        -0.50861E-05
        -0.22820E-05
        -0.13878E-06
        -0.10121E-05
        -0.75289E-06
        -0.12528E-06
        -0.15500E-05
        -0.55442E-05
        -0.33053E-04
        -0.26145E-04
        -0.19824E-04
        -0.10626E-04
        -0.55921E-06
        -0.27207E-05
        -0.43196E-05
        -0.70281E-05
        -0.29043E-04
        -0.98790E-05
        -0.42530E-05
        -0.65728E-05
        -0.91144E-05
        -0.10011E-04
        -0.36636E-07
        -0.15354E-04
        -0.32243E-04
        -0.17519E-03
        -0.29129E-03
        -0.48364E-03
        -0.69252E-03
        -0.66291E-03
        -0.50711E-03
        -0.46689E-03
        -0.45617E-03
        -0.18040E-03
        -0.20034E-04
        -0.31332E-05
        -0.24166E-05
        -0.39220E-06
        -0.36002E-04
        -0.14440E-03
        -0.27747E-03
        -0.46616E-03
        -0.57257E-03
        -0.44157E-03
        -0.39494E-03
        -0.39024E-03
        -0.19118E-03
        -0.51090E-04
        -0.45529E-04
        -0.13887E-04
        -0.54430E-05
        -0.47224E-05
        -0.32128E-06
        -0.78859E-05
        -0.16255E-05
        -0.10250E-05
        -0.12725E-04
        -0.55302E-05
        -0.11864E-04
        -0.30879E-05
        -0.56484E-04
        -0.20030E-04
        -0.41695E-06
        -0.56928E-04
        -0.19753E-05
        -0.23400E-06
        -0.15750E-06
        -0.34158E-05
        -0.10378E-06
        -0.26677E-05
        -0.12797E-05
        -0.43607E-06
        -0.28931E-06
        -0.54733E-05
        -0.27259E-06
        -0.29002E-07
        -0.84850E-07
        -0.12034E-06
        -0.51011E-05
        -0.22815E-05
        -0.13706E-06
        -0.10167E-05
        -0.75563E-06
        -0.12249E-06
        -0.15526E-05
        -0.55450E-05
        -0.33159E-04
        -0.26263E-04
        -0.19877E-04
        -0.10650E-04
        -0.55333E-06
        -0.27234E-05
        -0.43320E-05
        -0.70378E-05
        -0.29056E-04
        -0.98876E-05
        -0.42528E-05
        -0.65603E-05
        -0.90912E-05
        -0.10003E-04
        -0.35251E-07
        -0.15325E-04
        -0.32245E-04
        -0.17524E-03
        -0.29130E-03
        -0.48353E-03
        -0.69204E-03
        -0.66233E-03
        -0.50679E-03
        -0.46670E-03
        -0.45590E-03
        -0.18035E-03
        -0.20063E-04
        -0.31341E-05
        -0.24262E-05
        -0.38496E-06
        -0.36048E-04
        -0.14458E-03
        -0.27764E-03
        -0.46614E-03
        -0.57250E-03
        -0.44153E-03
        -0.39492E-03
        -0.39003E-03
        -0.19091E-03
        -0.50980E-04
        -0.45407E-04
        -0.13900E-04
        -0.54419E-05
        -0.47268E-05
        -0.32582E-06
        -0.78879E-05
        -0.16281E-05
        -0.10265E-05
        -0.12759E-04
        -0.55508E-05
        -0.11938E-04
        -0.30934E-05
        -0.56479E-04
        -0.20044E-04
        -0.41772E-06
        -0.57072E-04
        -0.19760E-05
        -0.23827E-06
        -0.15699E-06
        -0.34210E-05
        -0.10230E-06
        -0.26812E-05
        -0.12814E-05
        -0.43733E-06
        -0.28851E-06
        -0.55137E-05
        -0.27051E-06
        -0.29888E-07
        -0.86429E-07
        -0.11711E-06
        -0.51160E-05
        -0.22809E-05
        -0.13536E-06
        -0.10212E-05
        -0.75840E-06
        -0.11971E-06
        -0.15550E-05
        -0.55457E-05
        -0.33266E-04
        -0.26381E-04
        -0.19929E-04
        -0.10673E-04
        -0.54748E-06
        -0.27261E-05
        -0.43442E-05
        -0.70476E-05
        -0.29069E-04
        -0.98969E-05
        -0.42523E-05
        -0.65479E-05
        -0.90683E-05
        -0.99951E-05
        -0.33891E-07
        -0.15295E-04
        -0.32248E-04
        -0.17530E-03
        -0.29130E-03
        -0.48341E-03
        -0.69156E-03
        -0.66175E-03
        -0.50648E-03
        -0.46651E-03
        -0.45563E-03
        -0.18029E-03
        -0.20092E-04
        -0.31350E-05
        -0.24357E-05
        -0.37779E-06
        -0.36094E-04
        -0.14476E-03
        -0.27780E-03
        -0.46611E-03
        -0.57242E-03
        -0.44149E-03
        -0.39490E-03
        -0.38982E-03
        -0.19063E-03
        -0.50870E-04
        -0.45285E-04
        -0.13914E-04
        -0.54410E-05
        -0.47313E-05
        -0.33041E-06
        -0.78900E-05
        -0.16306E-05
        -0.10280E-05
        -0.12792E-04
        -0.55715E-05
        -0.12012E-04
        -0.30989E-05
        -0.56473E-04
        -0.20057E-04
        -0.41838E-06
        -0.57218E-04
        -0.19768E-05
        -0.24261E-06
        -0.15646E-06
        -0.34262E-05
        -0.10084E-06
        -0.26946E-05
        -0.12831E-05
        -0.43859E-06
        -0.28771E-06
        -0.55543E-05
        -0.26842E-06
        -0.30812E-07
        -0.88005E-07
        -0.11392E-06
        -0.51306E-05
        -0.22803E-05
        -0.13367E-06
        -0.10258E-05
        -0.76116E-06
        -0.11695E-06
        -0.15575E-05
        -0.55463E-05
        -0.33373E-04
        -0.26499E-04
        -0.19982E-04
        -0.10697E-04
        -0.54172E-06
        -0.27288E-05
        -0.43567E-05
        -0.70574E-05
        -0.29083E-04
        -0.99062E-05
        -0.42521E-05
        -0.65355E-05
        -0.90454E-05
        -0.99871E-05
        -0.32570E-07
        -0.15265E-04
        -0.32250E-04
        -0.17536E-03
        -0.29130E-03
        -0.48329E-03
        -0.69108E-03
        -0.66116E-03
        -0.50616E-03
        -0.46632E-03
        -0.45535E-03
        -0.18023E-03
        -0.20122E-04
        -0.31357E-05
        -0.24451E-05
        -0.37071E-06
        -0.36140E-04
        -0.14494E-03
        -0.27797E-03
        -0.46609E-03
        -0.57235E-03
        -0.44145E-03
        -0.39489E-03
        -0.38961E-03
        -0.19036E-03
        -0.50760E-04
        -0.45164E-04
        -0.13928E-04
        -0.54402E-05
        -0.47358E-05
        -0.33505E-06
        -0.78919E-05
        -0.16331E-05
        -0.10294E-05
        -0.12825E-04
        -0.55923E-05
        -0.12086E-04
        -0.31044E-05
        -0.56468E-04
        -0.20070E-04
        -0.41912E-06
        -0.57363E-04
        -0.19775E-05
        -0.24702E-06
        -0.15593E-06
        -0.34314E-05
        -0.99457E-07
        -0.27080E-05
        -0.12847E-05
        -0.43987E-06
        -0.28689E-06
        -0.55950E-05
        -0.26637E-06
        -0.31740E-07
        -0.89583E-07
        -0.11078E-06
        -0.51444E-05
        -0.22797E-05
        -0.13196E-06
        -0.10304E-05
        -0.76394E-06
        -0.11423E-06
        -0.15601E-05
        -0.55471E-05
        -0.33482E-04
        -0.26617E-04
        -0.20031E-04
        -0.10720E-04
        -0.53592E-06
        -0.27316E-05
        -0.43691E-05
        -0.70672E-05
        -0.29096E-04
        -0.99149E-05
        -0.42517E-05
        -0.65228E-05
        -0.90225E-05
        -0.99794E-05
        -0.31273E-07
        -0.15236E-04
        -0.32253E-04
        -0.17542E-03
        -0.29131E-03
        -0.48317E-03
        -0.69060E-03
        -0.66058E-03
        -0.50585E-03
        -0.46612E-03
        -0.45506E-03
        -0.18018E-03
        -0.20152E-04
        -0.31360E-05
        -0.24545E-05
        -0.36372E-06
        -0.36186E-04
        -0.14513E-03
        -0.27813E-03
        -0.46607E-03
        -0.57227E-03
        -0.44141E-03
        -0.39487E-03
        -0.38940E-03
        -0.19008E-03
        -0.50652E-04
        -0.45042E-04
        -0.13941E-04
        -0.54394E-05
        -0.47402E-05
        -0.33971E-06
        -0.78938E-05
        -0.16356E-05
        -0.10308E-05
        -0.12859E-04
        -0.56133E-05
        -0.12160E-04
        -0.31099E-05
        -0.56462E-04
        -0.20084E-04
        -0.41987E-06
        -0.57510E-04
        -0.19783E-05
        -0.25155E-06
        -0.15540E-06
        -0.34366E-05
        -0.98142E-07
        -0.27215E-05
        -0.12862E-05
        -0.44114E-06
        -0.28611E-06
        -0.56360E-05
        -0.26431E-06
        -0.32723E-07
        -0.91158E-07
        -0.10769E-06
        -0.51574E-05
        -0.22791E-05
        -0.13029E-06
        -0.10349E-05
        -0.76671E-06
        -0.11151E-06
        -0.15625E-05
        -0.55477E-05
        -0.33592E-04
        -0.26734E-04
        -0.20079E-04
        -0.10743E-04
        -0.53016E-06
        -0.27346E-05
        -0.43814E-05
        -0.70773E-05
        -0.29110E-04
        -0.99243E-05
        -0.42513E-05
        -0.65105E-05
        -0.89994E-05
        -0.99710E-05
        -0.29993E-07
        -0.15206E-04
        -0.32255E-04
        -0.17547E-03
        -0.29131E-03
        -0.48306E-03
        -0.69013E-03
        -0.66000E-03
        -0.50555E-03
        -0.46592E-03
        -0.45475E-03
        -0.18013E-03
        -0.20181E-04
        -0.31357E-05
        -0.24640E-05
        -0.35675E-06
        -0.36232E-04
        -0.14531E-03
        -0.27830E-03
        -0.46604E-03
        -0.57220E-03
        -0.44137E-03
        -0.39485E-03
        -0.38918E-03
        -0.18981E-03
        -0.50544E-04
        -0.44921E-04
        -0.13955E-04
        -0.54386E-05
        -0.47450E-05
        -0.34439E-06
        -0.78962E-05
        -0.16382E-05
        -0.10324E-05
        -0.12892E-04
        -0.56346E-05
        -0.12234E-04
        -0.31155E-05
        -0.56457E-04
        -0.20097E-04
        -0.42051E-06
        -0.57656E-04
        -0.19791E-05
        -0.25615E-06
        -0.15488E-06
        -0.34419E-05
        -0.96870E-07
        -0.27351E-05
        -0.12878E-05
        -0.44232E-06
        -0.28538E-06
        -0.56770E-05
        -0.26233E-06
        -0.33695E-07
        -0.92681E-07
        -0.10469E-06
        -0.51701E-05
        -0.22786E-05
        -0.12866E-06
        -0.10395E-05
        -0.76955E-06
        -0.10886E-06
        -0.15650E-05
        -0.55481E-05
        -0.33703E-04
        -0.26851E-04
        -0.20125E-04
        -0.10766E-04
        -0.52454E-06
        -0.27378E-05
        -0.43936E-05
        -0.70867E-05
        -0.29123E-04
        -0.99333E-05
        -0.42509E-05
        -0.64981E-05
        -0.89767E-05
        -0.99634E-05
        -0.28749E-07
        -0.15177E-04
        -0.32258E-04
        -0.17553E-03
        -0.29132E-03
        -0.48294E-03
        -0.68965E-03
        -0.65942E-03
        -0.50524E-03
        -0.46572E-03
        -0.45444E-03
        -0.18009E-03
        -0.20210E-04
        -0.31351E-05
        -0.24735E-05
        -0.34985E-06
        -0.36278E-04
        -0.14549E-03
        -0.27847E-03
        -0.46602E-03
        -0.57212E-03
        -0.44132E-03
        -0.39483E-03
        -0.38897E-03
        -0.18954E-03
        -0.50437E-04
        -0.44801E-04
        -0.14067E-04
        -0.54776E-05
        -0.47845E-05
        -0.35140E-06
        -0.79525E-05
        -0.16517E-05
        -0.10414E-05
        -0.13011E-04
        -0.56942E-05
        -0.12386E-04
        -0.31417E-05
        -0.56806E-04
        -0.20238E-04
        -0.42396E-06
        -0.58166E-04
        -0.19942E-05
        -0.26232E-06
        -0.15546E-06
        -0.34706E-05
        -0.96406E-07
        -0.27654E-05
        -0.12977E-05
        -0.44566E-06
        -0.28701E-06
        -0.57555E-05
        -0.26284E-06
        -0.34829E-07
        -0.94488E-07
        -0.10299E-06
        -0.52193E-05
        -0.22950E-05
        -0.12842E-06
        -0.10513E-05
        -0.77773E-06
        -0.10719E-06
        -0.15765E-05
        -0.55830E-05
        -0.34025E-04
        -0.27140E-04
        -0.20304E-04
        -0.10856E-04
        -0.52374E-06
        -0.27604E-05
        -0.44300E-05
        -0.71376E-05
        -0.29308E-04
        -0.10002E-04
        -0.42759E-05
        -0.65283E-05
        -0.90143E-05
        -0.10020E-04
        -0.27732E-07
        -0.15225E-04
        -0.32444E-04
        -0.17653E-03
        -0.29290E-03
        -0.48549E-03
        -0.69308E-03
        -0.66267E-03
        -0.50789E-03
        -0.46825E-03
        -0.45681E-03
        -0.18109E-03
        -0.20344E-04
        -0.31501E-05
        -0.24955E-05
        -0.34518E-06
        -0.36499E-04
        -0.14639E-03
        -0.28006E-03
        -0.46853E-03
        -0.57516E-03
        -0.44363E-03
        -0.39689E-03
        -0.39083E-03
        -0.19030E-03
        -0.50605E-04
        -0.44925E-04
        -0.30997E-04
        -0.12164E-04
        -0.10508E-04
        -0.78564E-06
        -0.16260E-04
        -0.34466E-05
        -0.23027E-05
        -0.28396E-04
        -0.12510E-04
        -0.26931E-04
        -0.67059E-05
        -0.11179E-03
        -0.41071E-04
        -0.89745E-06
        -0.11578E-03
        -0.44045E-05
        -0.58284E-06
        -0.34297E-06
        -0.74592E-05
        -0.20701E-06
        -0.56270E-05
        -0.27014E-05
        -0.90801E-06
        -0.62615E-06
        -0.12763E-04
        -0.58280E-06
        -0.76204E-07
        -0.20955E-06
        -0.22618E-06
        -0.11528E-04
        -0.50693E-05
        -0.28162E-06
        -0.23383E-05
        -0.17244E-05
        -0.20525E-06
        -0.32771E-05
        -0.11606E-04
        -0.70774E-04
        -0.58103E-04
        -0.43767E-04
        -0.22763E-04
        -0.11104E-05
        -0.58776E-05
        -0.91707E-05
        -0.14669E-04
        -0.56800E-04
        -0.20411E-04
        -0.89402E-05
        -0.13788E-04
        -0.18865E-04
        -0.19979E-04
        -0.55666E-07
        -0.23445E-04
        -0.49927E-04
        -0.27169E-03
        -0.45343E-03
        -0.75042E-03
        -0.10762E-02
        -0.10518E-02
        -0.81969E-03
        -0.75286E-03
        -0.72578E-03
        -0.28848E-03
        -0.32314E-04
        -0.51113E-05
        -0.40894E-05
        -0.54304E-06
        -0.56863E-04
        -0.22671E-03
        -0.42871E-03
        -0.71570E-03
        -0.88065E-03
        -0.69374E-03
        -0.62628E-03
        -0.61211E-03
        -0.29998E-03
        -0.79257E-04
        -0.69831E-04
  
SCALARS                      strain_zz  double 1
LOOKUP_TABLE default
        -0.78035E-01
        -0.87142E-01
        -0.81369E-01
        -0.70986E-01
        -0.10903E-08
        -0.12226E-08
        -0.11706E-08
        -0.10635E-08
        -0.87460E-01
        -0.84380E-01
        -0.10994E-08
        -0.10639E-08
        -0.10027E+00
        -0.10076E+00
        -0.13063E-08
        -0.12282E-08
        -0.72510E-01
        -0.10005E+00
        -0.96522E-09
        -0.10706E-08
        -0.11009E+00
        -0.11785E+00
        -0.10549E+00
        -0.12947E-08
        -0.11307E-08
        -0.11675E-08
        -0.11755E+00
        -0.12884E+00
        -0.12421E-08
        -0.10475E-08
        -0.73012E-01
        -0.85026E-01
        -0.61309E-01
        -0.10599E-08
        -0.98536E-09
        -0.95803E-09
        -0.79970E-01
        -0.95227E-01
        -0.11214E-08
        -0.10232E-08
        -0.86023E-01
        -0.97775E-01
        -0.96917E-09
        -0.85799E-09
        -0.76032E-01
        -0.71588E-01
        -0.10621E-08
        -0.11867E-08
        -0.10716E+00
        -0.10376E-08
        -0.72456E-01
        -0.12192E-08
        -0.12081E+00
        -0.10957E-08
        -0.12437E+00
        -0.10510E-08
        -0.12431E+00
        -0.11166E+00
        -0.10708E-08
        -0.10429E-08
        -0.73257E-01
        -0.77883E-01
        -0.10738E-08
        -0.12139E-08
        -0.70364E-01
        -0.10361E-08
        -0.75866E-01
        -0.11308E-08
        -0.90292E-01
        -0.91730E-01
        -0.10885E-08
        -0.11406E-08
        -0.94975E-01
        -0.11501E-08
        -0.13284E+00
        -0.90869E-09
        -0.13481E+00
        -0.88202E-09
        -0.13383E+00
        -0.93000E-09
        -0.12839E+00
        -0.12272E+00
        -0.88608E-09
        -0.92379E-09
        -0.11126E+00
        -0.86038E-09
        -0.76267E-01
        -0.11283E-08
        -0.81759E-01
        -0.11548E-08
        -0.86255E-01
        -0.88719E-01
        -0.11090E-08
        -0.11219E-08
        -0.85680E-01
        -0.10190E-08
        -0.83519E-01
        -0.10045E-08
        -0.85472E-01
        -0.10753E-08
        -0.86164E-01
        -0.84186E-01
        -0.10545E-08
        -0.10854E-08
        -0.96982E-01
        -0.91802E-01
        -0.81871E-09
        -0.77004E-09
        -0.97963E-01
        -0.78176E-09
        -0.91984E-01
        -0.74957E-09
        -0.97885E-01
        -0.73913E-09
        -0.11089E+00
        -0.69849E-09
        -0.12343E+00
        -0.62053E-09
        -0.13091E+00
        -0.55875E-09
        -0.13167E+00
        -0.55487E-09
        -0.13143E+00
        -0.60173E-09
        -0.12333E+00
        -0.63239E-09
        -0.10809E+00
        -0.57744E-09
        -0.91250E-01
        -0.52051E-09
        -0.81330E-01
        -0.51991E-09
        -0.71488E-01
        -0.58113E-09
        -0.64965E-01
        -0.66262E-09
        -0.65205E-01
        -0.71186E-09
        -0.81018E-01
        -0.76881E-09
        -0.91982E-01
        -0.82366E-09
        -0.95738E-01
        -0.75453E-09
        -0.89876E-01
        -0.66193E-09
        -0.86810E-01
        -0.65988E-09
        -0.91946E-01
        -0.72199E-09
        -0.91867E-01
        -0.76969E-09
        -0.87995E-01
        -0.73043E-09
        -0.82940E-01
        -0.70615E-09
        -0.29297E+00
        -0.29746E+00
        -0.29686E+00
        -0.29102E+00
        -0.30168E+00
        -0.29634E+00
        -0.30296E+00
        -0.29953E+00
        -0.29195E+00
        -0.29669E+00
        -0.30657E+00
        -0.30761E+00
        -0.30471E+00
        -0.30454E+00
        -0.30639E+00
        -0.29130E+00
        -0.29240E+00
        -0.28932E+00
        -0.29794E+00
        -0.29639E+00
        -0.29857E+00
        -0.29711E+00
        -0.29980E+00
        -0.29913E+00
        -0.29652E+00
        -0.29671E+00
        -0.30115E+00
        -0.30075E+00
        -0.30399E+00
        -0.29907E+00
        -0.29185E+00
        -0.29752E+00
        -0.29189E+00
        -0.29563E+00
        -0.30837E+00
        -0.30438E+00
        -0.30244E+00
        -0.30469E+00
        -0.30500E+00
        -0.30866E+00
        -0.31125E+00
        -0.30482E+00
        -0.29847E+00
        -0.29936E+00
        -0.30263E+00
        -0.30821E+00
        -0.30347E+00
        -0.29822E+00
        -0.29859E+00
        -0.30266E+00
        -0.30670E+00
        -0.30121E+00
        -0.31713E+00
        -0.31244E+00
        -0.31318E+00
        -0.31205E+00
        -0.31228E+00
        -0.31472E+00
        -0.31731E+00
        -0.31822E+00
        -0.31789E+00
        -0.31811E+00
        -0.31922E+00
        -0.31257E+00
        -0.31013E+00
        -0.30918E+00
        -0.30744E+00
        -0.30610E+00
        -0.30613E+00
        -0.30830E+00
        -0.31555E+00
        -0.31381E+00
        -0.31138E+00
        -0.31145E+00
        -0.31188E+00
        -0.31426E+00
        -0.31074E+00
        -0.30941E+00
         0.22058E-04
         0.85678E-05
         0.89604E-05
         0.97551E-05
         0.21332E-04
         0.16052E-04
        -0.37333E-06
         0.10732E-04
         0.14665E-04
         0.85492E-05
        -0.37941E-05
         0.57734E-04
         0.35289E-04
        -0.63123E-05
         0.58745E-04
         0.10368E-04
         0.68512E-05
         0.70974E-05
         0.38866E-05
         0.20367E-05
         0.34869E-04
         0.33996E-04
         0.26465E-04
         0.63778E-06
        -0.57847E-06
        -0.89358E-07
        -0.12668E-04
        -0.15965E-04
        -0.72460E-05
         0.12752E-05
         0.79343E-05
         0.15146E-05
         0.87722E-05
         0.11576E-04
         0.27849E-04
         0.10304E-04
         0.18361E-04
         0.36605E-04
         0.20342E-04
         0.19302E-04
         0.44082E-04
         0.34455E-04
         0.35700E-04
         0.18806E-04
         0.14954E-04
         0.30700E-04
         0.14422E-04
         0.11709E-04
         0.10483E-04
         0.15372E-04
         0.31085E-04
         0.20129E-04
         0.48618E-03
         0.52132E-03
         0.56213E-03
         0.56268E-03
         0.64572E-03
         0.74739E-03
         0.68631E-03
         0.54702E-03
         0.51735E-03
         0.58605E-03
         0.56170E-03
         0.54492E-03
         0.37026E-03
         0.33922E-03
         0.40052E-03
         0.45432E-03
         0.49077E-03
         0.58688E-03
         0.54452E-03
         0.58217E-03
         0.47287E-03
         0.42396E-03
         0.47812E-03
         0.45677E-03
         0.48870E-03
         0.48501E-03
         0.21697E-04
         0.81718E-05
         0.85721E-05
         0.94079E-05
         0.20861E-04
         0.15617E-04
        -0.79940E-06
         0.10318E-04
         0.14276E-04
         0.81438E-05
        -0.42832E-05
         0.57158E-04
         0.34814E-04
        -0.68363E-05
         0.58309E-04
         0.99640E-05
         0.64053E-05
         0.67409E-05
         0.34244E-05
         0.15437E-05
         0.34378E-04
         0.33506E-04
         0.25948E-04
         0.16209E-06
        -0.10611E-05
        -0.54294E-06
        -0.13132E-04
        -0.16460E-04
        -0.77609E-05
         0.75170E-06
         0.75423E-05
         0.10842E-05
         0.83992E-05
         0.11218E-04
         0.27363E-04
         0.98483E-05
         0.17903E-04
         0.36160E-04
         0.19910E-04
         0.18826E-04
         0.43572E-04
         0.33936E-04
         0.35179E-04
         0.18308E-04
         0.14474E-04
         0.30183E-04
         0.13945E-04
         0.11256E-04
         0.10049E-04
         0.14931E-04
         0.30584E-04
         0.19656E-04
         0.48493E-03
         0.52020E-03
         0.56128E-03
         0.56187E-03
         0.64465E-03
         0.74594E-03
         0.68479E-03
         0.54577E-03
         0.51610E-03
         0.58469E-03
         0.56051E-03
         0.54403E-03
         0.36941E-03
         0.33847E-03
         0.39985E-03
         0.45373E-03
         0.49019E-03
         0.58627E-03
         0.54359E-03
         0.58119E-03
         0.47190E-03
         0.42312E-03
         0.47700E-03
         0.45536E-03
         0.48734E-03
         0.48367E-03
         0.21811E-04
         0.82528E-05
         0.86615E-05
         0.95099E-05
         0.20966E-04
         0.15723E-04
        -0.70065E-06
         0.10446E-04
         0.14364E-04
         0.82393E-05
        -0.41841E-05
         0.57264E-04
         0.34936E-04
        -0.67551E-05
         0.58578E-04
         0.98932E-05
         0.63930E-05
         0.68316E-05
         0.33138E-05
         0.14463E-05
         0.34303E-04
         0.33470E-04
         0.25608E-04
        -0.18124E-06
        -0.12419E-05
        -0.86084E-06
        -0.13034E-04
        -0.16528E-04
        -0.79621E-05
         0.39195E-06
         0.75541E-05
         0.98579E-06
         0.84890E-05
         0.11341E-04
         0.27521E-04
         0.99569E-05
         0.17995E-04
         0.36391E-04
         0.20110E-04
         0.18916E-04
         0.43616E-04
         0.33771E-04
         0.34903E-04
         0.17976E-04
         0.14388E-04
         0.30252E-04
         0.14031E-04
         0.11357E-04
         0.10144E-04
         0.15033E-04
         0.30691E-04
         0.19743E-04
         0.48484E-03
         0.52019E-03
         0.56153E-03
         0.56209E-03
         0.64459E-03
         0.74559E-03
         0.68442E-03
         0.54568E-03
         0.51604E-03
         0.58455E-03
         0.56044E-03
         0.54407E-03
         0.36936E-03
         0.33857E-03
         0.40004E-03
         0.45380E-03
         0.49028E-03
         0.58657E-03
         0.54377E-03
         0.58140E-03
         0.47204E-03
         0.42332E-03
         0.47695E-03
         0.45500E-03
         0.48698E-03
         0.48335E-03
         0.21779E-04
         0.82217E-05
         0.86343E-05
         0.94610E-05
         0.20908E-04
         0.15678E-04
        -0.72843E-06
         0.10416E-04
         0.14266E-04
         0.81071E-05
        -0.42344E-05
         0.57202E-04
         0.34923E-04
        -0.68505E-05
         0.58639E-04
         0.95758E-05
         0.61358E-05
         0.67641E-05
         0.29108E-05
         0.10305E-05
         0.33935E-04
         0.33133E-04
         0.24826E-04
        -0.94907E-06
        -0.18244E-05
        -0.15848E-05
        -0.13158E-04
        -0.16929E-04
        -0.85980E-05
        -0.50287E-06
         0.73701E-05
         0.59817E-06
         0.84245E-05
         0.11286E-04
         0.27478E-04
         0.99063E-05
         0.17952E-04
         0.36416E-04
         0.20091E-04
         0.18736E-04
         0.43357E-04
         0.33180E-04
         0.34143E-04
         0.17196E-04
         0.13993E-04
         0.30044E-04
         0.13880E-04
         0.11272E-04
         0.10054E-04
         0.14929E-04
         0.30591E-04
         0.19659E-04
         0.48436E-03
         0.51986E-03
         0.56139E-03
         0.56197E-03
         0.64430E-03
         0.74501E-03
         0.68371E-03
         0.54523E-03
         0.51562E-03
         0.58400E-03
         0.55994E-03
         0.54362E-03
         0.36884E-03
         0.33833E-03
         0.39990E-03
         0.45338E-03
         0.48984E-03
         0.58651E-03
         0.54355E-03
         0.58118E-03
         0.47182E-03
         0.42312E-03
         0.47648E-03
         0.45430E-03
         0.48636E-03
         0.48277E-03
         0.21703E-04
         0.81557E-05
         0.85827E-05
         0.94102E-05
         0.20844E-04
         0.15619E-04
        -0.77719E-06
         0.10348E-04
         0.14145E-04
         0.79649E-05
        -0.42881E-05
         0.57161E-04
         0.34905E-04
        -0.69517E-05
         0.58737E-04
         0.93668E-05
         0.59352E-05
         0.67012E-05
         0.26473E-05
         0.72951E-06
         0.33703E-04
         0.32890E-04
         0.24349E-04
        -0.14250E-05
        -0.22319E-05
        -0.20486E-05
        -0.13265E-04
        -0.17218E-04
        -0.90340E-05
        -0.10926E-05
         0.71778E-05
         0.31663E-06
         0.83063E-05
         0.11207E-04
         0.27435E-04
         0.98430E-05
         0.17891E-04
         0.36469E-04
         0.20096E-04
         0.18618E-04
         0.43197E-04
         0.32797E-04
         0.33652E-04
         0.16707E-04
         0.13733E-04
         0.29911E-04
         0.13747E-04
         0.11137E-04
         0.99127E-05
         0.14787E-04
         0.30452E-04
         0.19545E-04
         0.48389E-03
         0.51954E-03
         0.56127E-03
         0.56189E-03
         0.64406E-03
         0.74449E-03
         0.68308E-03
         0.54484E-03
         0.51523E-03
         0.58353E-03
         0.55958E-03
         0.54335E-03
         0.36848E-03
         0.33814E-03
         0.39984E-03
         0.45323E-03
         0.48966E-03
         0.58655E-03
         0.54342E-03
         0.58097E-03
         0.47157E-03
         0.42291E-03
         0.47596E-03
         0.45354E-03
         0.48572E-03
         0.48219E-03
         0.21484E-04
         0.80262E-05
         0.85315E-05
         0.94665E-05
         0.20891E-04
         0.15691E-04
        -0.80844E-06
         0.10206E-04
         0.13967E-04
         0.77455E-05
        -0.42456E-05
         0.57286E-04
         0.34981E-04
        -0.69694E-05
         0.59027E-04
         0.94230E-05
         0.58981E-05
         0.67942E-05
         0.27069E-05
         0.76792E-06
         0.33786E-04
         0.32975E-04
         0.24365E-04
        -0.14349E-05
        -0.23809E-05
        -0.21137E-05
        -0.13287E-04
        -0.17252E-04
        -0.89998E-05
        -0.10971E-05
         0.69455E-05
         0.16789E-06
         0.81138E-05
         0.11191E-04
         0.27519E-04
         0.98449E-05
         0.17874E-04
         0.36703E-04
         0.20303E-04
         0.18785E-04
         0.43376E-04
         0.32906E-04
         0.33724E-04
         0.16685E-04
         0.13701E-04
         0.29894E-04
         0.13633E-04
         0.10866E-04
         0.95938E-05
         0.14604E-04
         0.30389E-04
         0.19546E-04
         0.48375E-03
         0.51952E-03
         0.56145E-03
         0.56202E-03
         0.64398E-03
         0.74417E-03
         0.68272E-03
         0.54474E-03
         0.51520E-03
         0.58347E-03
         0.55965E-03
         0.54357E-03
         0.36863E-03
         0.33830E-03
         0.40013E-03
         0.45367E-03
         0.49010E-03
         0.58694E-03
         0.54348E-03
         0.58099E-03
         0.47145E-03
         0.42275E-03
         0.47556E-03
         0.45297E-03
         0.48528E-03
         0.48184E-03
         0.21138E-04
         0.77942E-05
         0.84010E-05
         0.94387E-05
         0.20828E-04
         0.15678E-04
        -0.97539E-06
         0.99020E-05
         0.13652E-04
         0.73854E-05
        -0.43613E-05
         0.57238E-04
         0.34930E-04
        -0.71620E-05
         0.59126E-04
         0.93714E-05
         0.57355E-05
         0.67721E-05
         0.26647E-05
         0.69468E-06
         0.33764E-04
         0.32951E-04
         0.24334E-04
        -0.14928E-05
        -0.26114E-05
        -0.22312E-05
        -0.13473E-04
        -0.17400E-04
        -0.90384E-05
        -0.11527E-05
         0.66150E-05
        -0.76298E-07
         0.78243E-05
         0.11085E-04
         0.27465E-04
         0.97472E-05
         0.17763E-04
         0.36754E-04
         0.20343E-04
         0.18810E-04
         0.43426E-04
         0.32940E-04
         0.33737E-04
         0.16620E-04
         0.13561E-04
         0.29709E-04
         0.13367E-04
         0.10460E-04
         0.91490E-05
         0.14304E-04
         0.30215E-04
         0.19458E-04
         0.48330E-03
         0.51920E-03
         0.56138E-03
         0.56196E-03
         0.64368E-03
         0.74357E-03
         0.68206E-03
         0.54438E-03
         0.51487E-03
         0.58306E-03
         0.55943E-03
         0.54359E-03
         0.36859E-03
         0.33828E-03
         0.40021E-03
         0.45396E-03
         0.49041E-03
         0.58707E-03
         0.54318E-03
         0.58066E-03
         0.47108E-03
         0.42235E-03
         0.47492E-03
         0.45221E-03
         0.48465E-03
         0.48126E-03
         0.21051E-04
         0.77080E-05
         0.83503E-05
         0.93985E-05
         0.20762E-04
         0.15620E-04
        -0.10562E-05
         0.98095E-05
         0.13575E-04
         0.73235E-05
        -0.44427E-05
         0.57170E-04
         0.34880E-04
        -0.72845E-05
         0.59201E-04
         0.93265E-05
         0.56770E-05
         0.67222E-05
         0.26263E-05
         0.63660E-06
         0.33723E-04
         0.32896E-04
         0.24290E-04
        -0.15372E-05
        -0.26663E-05
        -0.22981E-05
        -0.13549E-04
        -0.17479E-04
        -0.91110E-05
        -0.12047E-05
         0.65141E-05
        -0.17403E-06
         0.77257E-05
         0.11027E-04
         0.27424E-04
         0.96936E-05
         0.17694E-04
         0.36786E-04
         0.20370E-04
         0.18787E-04
         0.43400E-04
         0.32908E-04
         0.33708E-04
         0.16564E-04
         0.13478E-04
         0.29629E-04
         0.13284E-04
         0.10362E-04
         0.90284E-05
         0.14185E-04
         0.30099E-04
         0.19358E-04
         0.48282E-03
         0.51883E-03
         0.56129E-03
         0.56188E-03
         0.64336E-03
         0.74299E-03
         0.68140E-03
         0.54397E-03
         0.51444E-03
         0.58253E-03
         0.55908E-03
         0.54359E-03
         0.36851E-03
         0.33814E-03
         0.40021E-03
         0.45414E-03
         0.49059E-03
         0.58719E-03
         0.54297E-03
         0.58048E-03
         0.47091E-03
         0.42220E-03
         0.47443E-03
         0.45147E-03
         0.48399E-03
         0.48063E-03
         0.21138E-04
         0.77664E-05
         0.83980E-05
         0.94212E-05
         0.20806E-04
         0.15627E-04
        -0.98735E-06
         0.99124E-05
         0.13659E-04
         0.74712E-05
        -0.43821E-05
         0.57240E-04
         0.34962E-04
        -0.72324E-05
         0.59445E-04
         0.94206E-05
         0.57567E-05
         0.67626E-05
         0.27117E-05
         0.70228E-06
         0.33806E-04
         0.32964E-04
         0.24370E-04
        -0.14588E-05
        -0.25544E-05
        -0.22249E-05
        -0.13429E-04
        -0.17389E-04
        -0.90348E-05
        -0.11214E-05
         0.65898E-05
        -0.12020E-06
         0.77629E-05
         0.11052E-04
         0.27528E-04
         0.97487E-05
         0.17739E-04
         0.36997E-04
         0.20552E-04
         0.18910E-04
         0.43535E-04
         0.33023E-04
         0.33799E-04
         0.16643E-04
         0.13538E-04
         0.29698E-04
         0.13349E-04
         0.10435E-04
         0.90846E-05
         0.14216E-04
         0.30115E-04
         0.19339E-04
         0.48265E-03
         0.51877E-03
         0.56138E-03
         0.56193E-03
         0.64325E-03
         0.74263E-03
         0.68099E-03
         0.54380E-03
         0.51423E-03
         0.58224E-03
         0.55902E-03
         0.54383E-03
         0.36863E-03
         0.33822E-03
         0.40042E-03
         0.45455E-03
         0.49104E-03
         0.58759E-03
         0.54302E-03
         0.58056E-03
         0.47098E-03
         0.42230E-03
         0.47421E-03
         0.45098E-03
         0.48355E-03
         0.48024E-03
         0.21139E-04
         0.77613E-05
         0.83917E-05
         0.93971E-05
         0.20781E-04
         0.15592E-04
        -0.99009E-06
         0.99029E-05
         0.13632E-04
         0.74882E-05
        -0.44155E-05
         0.57199E-04
         0.34981E-04
        -0.73116E-05
         0.59517E-04
         0.93988E-05
         0.57233E-05
         0.67096E-05
         0.26808E-05
         0.65608E-06
         0.33791E-04
         0.32928E-04
         0.24350E-04
        -0.14879E-05
        -0.25406E-05
        -0.22528E-05
        -0.13450E-04
        -0.17398E-04
        -0.90471E-05
        -0.11365E-05
         0.65656E-05
        -0.15111E-06
         0.77057E-05
         0.11010E-04
         0.27529E-04
         0.97232E-05
         0.17720E-04
         0.37043E-04
         0.20621E-04
         0.18932E-04
         0.43559E-04
         0.33038E-04
         0.33776E-04
         0.16635E-04
         0.13521E-04
         0.29679E-04
         0.13314E-04
         0.10392E-04
         0.90285E-05
         0.14155E-04
         0.30055E-04
         0.19266E-04
         0.48224E-03
         0.51849E-03
         0.56128E-03
         0.56186E-03
         0.64303E-03
         0.74208E-03
         0.68030E-03
         0.54337E-03
         0.51390E-03
         0.58176E-03
         0.55871E-03
         0.54383E-03
         0.36852E-03
         0.33817E-03
         0.40050E-03
         0.45483E-03
         0.49138E-03
         0.58785E-03
         0.54291E-03
         0.58039E-03
         0.47077E-03
         0.42216E-03
         0.47383E-03
         0.45036E-03
         0.48296E-03
         0.47966E-03
         0.21109E-04
         0.77172E-05
         0.83648E-05
         0.93866E-05
         0.20731E-04
         0.15567E-04
        -0.10182E-05
         0.98785E-05
         0.13608E-04
         0.75056E-05
        -0.44532E-05
         0.57144E-04
         0.34975E-04
        -0.73807E-05
         0.59589E-04
         0.93623E-05
         0.56995E-05
         0.66774E-05
         0.26418E-05
         0.62003E-06
         0.33767E-04
         0.32892E-04
         0.24317E-04
        -0.15332E-05
        -0.25262E-05
        -0.23051E-05
        -0.13463E-04
        -0.17419E-04
        -0.90624E-05
        -0.11431E-05
         0.65263E-05
        -0.20088E-06
         0.76700E-05
         0.11006E-04
         0.27497E-04
         0.96801E-05
         0.17681E-04
         0.37092E-04
         0.20685E-04
         0.18960E-04
         0.43602E-04
         0.33056E-04
         0.33757E-04
         0.16610E-04
         0.13489E-04
         0.29650E-04
         0.13282E-04
         0.10355E-04
         0.89746E-05
         0.14099E-04
         0.29997E-04
         0.19215E-04
         0.48177E-03
         0.51815E-03
         0.56119E-03
         0.56185E-03
         0.64279E-03
         0.74148E-03
         0.67958E-03
         0.54297E-03
         0.51357E-03
         0.58132E-03
         0.55848E-03
         0.54384E-03
         0.36840E-03
         0.33809E-03
         0.40056E-03
         0.45506E-03
         0.49167E-03
         0.58806E-03
         0.54276E-03
         0.58023E-03
         0.47059E-03
         0.42202E-03
         0.47343E-03
         0.44970E-03
         0.48234E-03
         0.47906E-03
         0.21160E-04
         0.77355E-05
         0.83855E-05
         0.94216E-05
         0.20756E-04
         0.15596E-04
        -0.97083E-06
         0.99563E-05
         0.13659E-04
         0.76067E-05
        -0.43953E-05
         0.57192E-04
         0.35020E-04
        -0.73355E-05
         0.59823E-04
         0.94219E-05
         0.57388E-05
         0.67176E-05
         0.26952E-05
         0.67186E-06
         0.33836E-04
         0.32952E-04
         0.24374E-04
        -0.14850E-05
        -0.24511E-05
        -0.22587E-05
        -0.13384E-04
        -0.17361E-04
        -0.89777E-05
        -0.10536E-05
         0.65883E-05
        -0.16466E-06
         0.77169E-05
         0.11062E-04
         0.27571E-04
         0.97146E-05
         0.17697E-04
         0.37290E-04
         0.20867E-04
         0.19109E-04
         0.43744E-04
         0.33154E-04
         0.33835E-04
         0.16663E-04
         0.13526E-04
         0.29693E-04
         0.13323E-04
         0.10401E-04
         0.90069E-05
         0.14122E-04
         0.30014E-04
         0.19225E-04
         0.48155E-03
         0.51806E-03
         0.56132E-03
         0.56192E-03
         0.64256E-03
         0.74099E-03
         0.67912E-03
         0.54280E-03
         0.51340E-03
         0.58109E-03
         0.55841E-03
         0.54396E-03
         0.36847E-03
         0.33818E-03
         0.40077E-03
         0.45544E-03
         0.49206E-03
         0.58840E-03
         0.54275E-03
         0.58025E-03
         0.47061E-03
         0.42209E-03
         0.47318E-03
         0.44918E-03
         0.48191E-03
         0.47869E-03
         0.21157E-04
         0.77001E-05
         0.83595E-05
         0.93934E-05
         0.20705E-04
         0.15550E-04
        -0.10085E-05
         0.99364E-05
         0.13644E-04
         0.76128E-05
        -0.44504E-05
         0.57124E-04
         0.34978E-04
        -0.74267E-05
         0.59914E-04
         0.93954E-05
         0.57047E-05
         0.66614E-05
         0.26463E-05
         0.61818E-06
         0.33784E-04
         0.32888E-04
         0.24312E-04
        -0.15373E-05
        -0.24660E-05
        -0.23047E-05
        -0.13449E-04
        -0.17436E-04
        -0.90294E-05
        -0.10787E-05
         0.65524E-05
        -0.21178E-06
         0.76494E-05
         0.11024E-04
         0.27541E-04
         0.96655E-05
         0.17636E-04
         0.37332E-04
         0.20896E-04
         0.19098E-04
         0.43726E-04
         0.33114E-04
         0.33789E-04
         0.16601E-04
         0.13465E-04
         0.29645E-04
         0.13275E-04
         0.10342E-04
         0.89414E-05
         0.14062E-04
         0.29944E-04
         0.19147E-04
         0.48108E-03
         0.51773E-03
         0.56120E-03
         0.56180E-03
         0.64221E-03
         0.74036E-03
         0.67846E-03
         0.54241E-03
         0.51301E-03
         0.58058E-03
         0.55806E-03
         0.54387E-03
         0.36833E-03
         0.33806E-03
         0.40080E-03
         0.45563E-03
         0.49223E-03
         0.58852E-03
         0.54260E-03
         0.58007E-03
         0.47041E-03
         0.42199E-03
         0.47281E-03
         0.44851E-03
         0.48126E-03
         0.47807E-03
         0.21172E-04
         0.76886E-05
         0.83551E-05
         0.93902E-05
         0.20687E-04
         0.15531E-04
        -0.10080E-05
         0.99538E-05
         0.13668E-04
         0.76780E-05
        -0.44568E-05
         0.57115E-04
         0.34996E-04
        -0.74566E-05
         0.60052E-04
         0.94029E-05
         0.57193E-05
         0.66463E-05
         0.26459E-05
         0.60985E-06
         0.33782E-04
         0.32877E-04
         0.24304E-04
        -0.15471E-05
        -0.24290E-05
        -0.23181E-05
        -0.13429E-04
        -0.17447E-04
        -0.90358E-05
        -0.10708E-05
         0.65382E-05
        -0.23119E-06
         0.76177E-05
         0.11020E-04
         0.27555E-04
         0.96477E-05
         0.17614E-04
         0.37424E-04
         0.20966E-04
         0.19135E-04
         0.43786E-04
         0.33150E-04
         0.33799E-04
         0.16600E-04
         0.13456E-04
         0.29643E-04
         0.13264E-04
         0.10320E-04
         0.89072E-05
         0.14031E-04
         0.29913E-04
         0.19102E-04
         0.48072E-03
         0.51749E-03
         0.56115E-03
         0.56176E-03
         0.64200E-03
         0.73987E-03
         0.67786E-03
         0.54203E-03
         0.51266E-03
         0.58016E-03
         0.55787E-03
         0.54392E-03
         0.36828E-03
         0.33800E-03
         0.40087E-03
         0.45591E-03
         0.49255E-03
         0.58877E-03
         0.54250E-03
         0.57996E-03
         0.47028E-03
         0.42192E-03
         0.47247E-03
         0.44790E-03
         0.48068E-03
         0.47752E-03
         0.21292E-04
         0.77996E-05
         0.84531E-05
         0.94690E-05
         0.20787E-04
         0.15608E-04
        -0.86973E-06
         0.10095E-04
         0.13765E-04
         0.78386E-05
        -0.43212E-05
         0.57266E-04
         0.35158E-04
        -0.73543E-05
         0.60339E-04
         0.95136E-05
         0.58240E-05
         0.67251E-05
         0.27570E-05
         0.72106E-06
         0.33922E-04
         0.32997E-04
         0.24431E-04
        -0.14427E-05
        -0.22713E-05
        -0.22147E-05
        -0.13278E-04
        -0.17292E-04
        -0.88781E-05
        -0.92037E-06
         0.66524E-05
        -0.12694E-06
         0.76945E-05
         0.11092E-04
         0.27708E-04
         0.97539E-05
         0.17721E-04
         0.37657E-04
         0.21209E-04
         0.19333E-04
         0.43978E-04
         0.33316E-04
         0.33926E-04
         0.16738E-04
         0.13585E-04
         0.29781E-04
         0.13384E-04
         0.10432E-04
         0.89866E-05
         0.14091E-04
         0.29974E-04
         0.19145E-04
         0.48061E-03
         0.51749E-03
         0.56134E-03
         0.56192E-03
         0.64198E-03
         0.73960E-03
         0.67748E-03
         0.54189E-03
         0.51257E-03
         0.57998E-03
         0.55786E-03
         0.54419E-03
         0.36840E-03
         0.33816E-03
         0.40119E-03
         0.45642E-03
         0.49313E-03
         0.58929E-03
         0.54264E-03
         0.58011E-03
         0.47039E-03
         0.42202E-03
         0.47229E-03
         0.44749E-03
         0.48034E-03
         0.47722E-03
         0.21268E-04
         0.77677E-05
         0.84293E-05
         0.94325E-05
         0.20726E-04
         0.15561E-04
        -0.90231E-06
         0.10063E-04
         0.13736E-04
         0.78303E-05
        -0.43750E-05
         0.57214E-04
         0.35156E-04
        -0.74484E-05
         0.60408E-04
         0.94751E-05
         0.57780E-05
         0.66785E-05
         0.26910E-05
         0.65622E-06
         0.33891E-04
         0.32938E-04
         0.24396E-04
        -0.15058E-05
        -0.22961E-05
        -0.22795E-05
        -0.13335E-04
        -0.17343E-04
        -0.88806E-05
        -0.93295E-06
         0.66290E-05
        -0.18014E-06
         0.76459E-05
         0.11046E-04
         0.27663E-04
         0.97087E-05
         0.17689E-04
         0.37688E-04
         0.21256E-04
         0.19366E-04
         0.43991E-04
         0.33295E-04
         0.33870E-04
         0.16693E-04
         0.13533E-04
         0.29737E-04
         0.13344E-04
         0.10400E-04
         0.89296E-05
         0.14012E-04
         0.29896E-04
         0.19066E-04
         0.48010E-03
         0.51712E-03
         0.56120E-03
         0.56186E-03
         0.64175E-03
         0.73904E-03
         0.67676E-03
         0.54144E-03
         0.51217E-03
         0.57948E-03
         0.55752E-03
         0.54408E-03
         0.36824E-03
         0.33808E-03
         0.40128E-03
         0.45671E-03
         0.49341E-03
         0.58946E-03
         0.54248E-03
         0.57994E-03
         0.47021E-03
         0.42188E-03
         0.47185E-03
         0.44683E-03
         0.47974E-03
         0.47661E-03
         0.21217E-04
         0.76866E-05
         0.83553E-05
         0.93810E-05
         0.20637E-04
         0.15479E-04
        -0.96196E-06
         0.10021E-04
         0.13684E-04
         0.77631E-05
        -0.44409E-05
         0.57129E-04
         0.35115E-04
        -0.75440E-05
         0.60462E-04
         0.94244E-05
         0.57015E-05
         0.66253E-05
         0.26378E-05
         0.62296E-06
         0.33850E-04
         0.32868E-04
         0.24352E-04
        -0.15599E-05
        -0.23737E-05
        -0.23432E-05
        -0.13474E-04
        -0.17426E-04
        -0.86972E-05
        -0.82135E-06
         0.65783E-05
        -0.25438E-06
         0.75977E-05
         0.11016E-04
         0.27608E-04
         0.96358E-05
         0.17617E-04
         0.37667E-04
         0.21305E-04
         0.19554E-04
         0.44055E-04
         0.33269E-04
         0.33789E-04
         0.16646E-04
         0.13464E-04
         0.29663E-04
         0.13270E-04
         0.10340E-04
         0.88658E-05
         0.13945E-04
         0.29823E-04
         0.18978E-04
         0.47963E-03
         0.51678E-03
         0.56110E-03
         0.56179E-03
         0.64144E-03
         0.73838E-03
         0.67600E-03
         0.54097E-03
         0.51176E-03
         0.57907E-03
         0.55706E-03
         0.54371E-03
         0.36803E-03
         0.33796E-03
         0.40130E-03
         0.45693E-03
         0.49365E-03
         0.58962E-03
         0.54228E-03
         0.57971E-03
         0.47003E-03
         0.42174E-03
         0.47141E-03
         0.44616E-03
         0.47908E-03
         0.47597E-03
         0.21332E-04
         0.77886E-05
         0.84613E-05
         0.94751E-05
         0.20744E-04
         0.15563E-04
        -0.83953E-06
         0.10160E-04
         0.13758E-04
         0.78078E-05
        -0.43185E-05
         0.57242E-04
         0.35242E-04
        -0.74489E-05
         0.60731E-04
         0.95361E-05
         0.57774E-05
         0.66989E-05
         0.27655E-05
         0.80865E-06
         0.33968E-04
         0.32972E-04
         0.24457E-04
        -0.14473E-05
        -0.23023E-05
        -0.22305E-05
        -0.13495E-04
        -0.17329E-04
        -0.81481E-05
        -0.39427E-06
         0.66773E-05
        -0.14838E-06
         0.76727E-05
         0.11111E-04
         0.27770E-04
         0.97545E-05
         0.17717E-04
         0.37816E-04
         0.21566E-04
         0.20069E-04
         0.44353E-04
         0.33432E-04
         0.33869E-04
         0.16765E-04
         0.13591E-04
         0.29815E-04
         0.13396E-04
         0.10443E-04
         0.89544E-05
         0.14034E-04
         0.29914E-04
         0.19036E-04
         0.47953E-03
         0.51679E-03
         0.56134E-03
         0.56197E-03
         0.64134E-03
         0.73801E-03
         0.67560E-03
         0.54087E-03
         0.51171E-03
         0.57908E-03
         0.55679E-03
         0.54346E-03
         0.36803E-03
         0.33809E-03
         0.40154E-03
         0.45734E-03
         0.49412E-03
         0.59009E-03
         0.54246E-03
         0.57988E-03
         0.47015E-03
         0.42191E-03
         0.47131E-03
         0.44579E-03
         0.47873E-03
         0.47566E-03
         0.20992E-04
         0.74138E-05
         0.81024E-05
         0.91345E-05
         0.20302E-04
         0.15148E-04
        -0.12422E-05
         0.97601E-05
         0.13385E-04
         0.73532E-05
        -0.47773E-05
         0.56712E-04
         0.34773E-04
        -0.79641E-05
         0.60327E-04
         0.91900E-05
         0.53683E-05
         0.63439E-05
         0.23577E-05
         0.41450E-06
         0.33514E-04
         0.32511E-04
         0.24010E-04
        -0.18447E-05
        -0.27552E-05
        -0.26077E-05
        -0.14062E-04
        -0.17802E-04
        -0.83507E-05
        -0.65748E-06
         0.63275E-05
        -0.54102E-06
         0.72977E-05
         0.10727E-04
         0.27301E-04
         0.93079E-05
         0.17251E-04
         0.37330E-04
         0.21193E-04
         0.19841E-04
         0.43957E-04
         0.32971E-04
         0.33386E-04
         0.16333E-04
         0.13129E-04
         0.29297E-04
         0.12941E-04
         0.10026E-04
         0.85284E-05
         0.13566E-04
         0.29381E-04
         0.18552E-04
         0.47828E-03
         0.51569E-03
         0.56042E-03
         0.56106E-03
         0.64022E-03
         0.73664E-03
         0.67414E-03
         0.53963E-03
         0.51056E-03
         0.57786E-03
         0.55548E-03
         0.54236E-03
         0.36716E-03
         0.33735E-03
         0.40090E-03
         0.45685E-03
         0.49364E-03
         0.58945E-03
         0.54144E-03
         0.57890E-03
         0.46922E-03
         0.42107E-03
         0.47015E-03
         0.44435E-03
         0.47739E-03
         0.47435E-03
         0.21216E-04
         0.74399E-05
         0.81756E-05
         0.92749E-05
         0.20433E-04
         0.15273E-04
        -0.11744E-05
         0.10036E-04
         0.13664E-04
         0.77949E-05
        -0.46477E-05
         0.56723E-04
         0.34676E-04
        -0.76904E-05
         0.60706E-04
         0.94874E-05
         0.56556E-05
         0.65302E-05
         0.25852E-05
         0.64222E-06
         0.33737E-04
         0.32668E-04
         0.24341E-04
        -0.15467E-05
        -0.22789E-05
        -0.23306E-05
        -0.13574E-04
        -0.17260E-04
        -0.78904E-05
        -0.22741E-06
         0.65605E-05
        -0.37000E-06
         0.73942E-05
         0.10675E-04
         0.27405E-04
         0.92719E-05
         0.17116E-04
         0.37760E-04
         0.21671E-04
         0.20214E-04
         0.44223E-04
         0.33286E-04
         0.33698E-04
         0.16647E-04
         0.13301E-04
         0.29388E-04
         0.13017E-04
         0.10209E-04
         0.86531E-05
         0.13551E-04
         0.29391E-04
         0.18527E-04
         0.47827E-03
         0.51589E-03
         0.56052E-03
         0.56087E-03
         0.63961E-03
         0.73589E-03
         0.67396E-03
         0.53976E-03
         0.51064E-03
         0.57764E-03
         0.55536E-03
         0.54267E-03
         0.36750E-03
         0.33751E-03
         0.40137E-03
         0.45765E-03
         0.49441E-03
         0.59005E-03
         0.54151E-03
         0.57881E-03
         0.46933E-03
         0.42129E-03
         0.47023E-03
         0.44428E-03
         0.47727E-03
         0.47427E-03
         0.14193E-02
         0.14657E-02
         0.14552E-02
         0.13298E-02
         0.16941E-02
         0.15775E-02
         0.15772E-02
         0.16084E-02
         0.13878E-02
         0.16108E-02
         0.17530E-02
         0.20872E-02
         0.18562E-02
         0.18071E-02
         0.21502E-02
         0.13529E-02
         0.14510E-02
         0.12695E-02
         0.15092E-02
         0.15766E-02
         0.17088E-02
         0.17211E-02
         0.16322E-02
         0.14401E-02
         0.16060E-02
         0.13787E-02
         0.17836E-02
         0.17251E-02
         0.17359E-02
         0.16633E-02
         0.13642E-02
         0.14280E-02
         0.13367E-02
         0.13983E-02
         0.18888E-02
         0.16780E-02
         0.16882E-02
         0.20214E-02
         0.19315E-02
         0.19003E-02
         0.19794E-02
         0.18625E-02
         0.17677E-02
         0.15777E-02
         0.16420E-02
         0.19021E-02
         0.17082E-02
         0.15889E-02
         0.15497E-02
         0.16149E-02
         0.18034E-02
         0.16333E-02
         0.37325E-02
         0.36918E-02
         0.37992E-02
         0.36894E-02
         0.38574E-02
         0.41035E-02
         0.40601E-02
         0.38932E-02
         0.38945E-02
         0.40559E-02
         0.39325E-02
         0.37302E-02
         0.32064E-02
         0.30154E-02
         0.31215E-02
         0.32437E-02
         0.33142E-02
         0.36559E-02
         0.38229E-02
         0.38667E-02
         0.34899E-02
         0.33397E-02
         0.34930E-02
         0.34364E-02
         0.34435E-02
         0.34426E-02
         0.14983E-01
         0.15671E-01
         0.15455E-01
         0.14162E-01
         0.17274E-01
         0.16268E-01
         0.16898E-01
         0.17021E-01
         0.14672E-01
         0.17013E-01
         0.18481E-01
         0.20644E-01
         0.18771E-01
         0.18995E-01
         0.21345E-01
         0.14387E-01
         0.15421E-01
         0.13543E-01
         0.15903E-01
         0.16696E-01
         0.17251E-01
         0.17612E-01
         0.16583E-01
         0.15322E-01
         0.17204E-01
         0.14810E-01
         0.18929E-01
         0.18622E-01
         0.18702E-01
         0.17786E-01
         0.14538E-01
         0.15259E-01
         0.14270E-01
         0.14894E-01
         0.18847E-01
         0.17350E-01
         0.17405E-01
         0.20678E-01
         0.20157E-01
         0.19922E-01
         0.20275E-01
         0.19287E-01
         0.18279E-01
         0.16203E-01
         0.16845E-01
         0.18842E-01
         0.17474E-01
         0.16473E-01
         0.16162E-01
         0.16730E-01
         0.18104E-01
         0.16777E-01
         0.29862E-01
         0.29168E-01
         0.29813E-01
         0.28925E-01
         0.29833E-01
         0.31401E-01
         0.31814E-01
         0.31573E-01
         0.31745E-01
         0.32521E-01
         0.31609E-01
         0.29805E-01
         0.26663E-01
         0.25226E-01
         0.25373E-01
         0.25751E-01
         0.26031E-01
         0.28223E-01
         0.30053E-01
         0.30209E-01
         0.27951E-01
         0.27077E-01
         0.27991E-01
         0.27771E-01
         0.27506E-01
         0.27419E-01
  
SCALARS                      strain_yz  double 1
LOOKUP_TABLE default
        -0.98259E-04
         0.36749E-04
         0.88776E-04
         0.39497E-04
        -0.84339E-10
        -0.23245E-10
        -0.10452E-09
        -0.79722E-10
         0.35929E-03
        -0.22747E-03
        -0.15555E-09
        -0.13694E-09
         0.36443E-03
         0.18626E-04
         0.11132E-09
        -0.71371E-11
        -0.88792E-04
        -0.46589E-03
         0.16378E-11
         0.16758E-10
         0.26765E-03
         0.10834E-02
         0.10008E-02
         0.25518E-09
         0.44069E-09
         0.36836E-09
         0.10650E-03
         0.12081E-02
         0.18356E-09
         0.35610E-09
        -0.10222E-03
        -0.10475E-03
         0.62851E-04
         0.95159E-10
         0.97142E-10
        -0.20168E-11
        -0.33463E-03
        -0.38818E-03
         0.17511E-09
         0.13624E-09
        -0.35546E-03
        -0.25924E-03
         0.13234E-09
         0.12094E-09
        -0.28276E-03
        -0.91441E-04
        -0.43899E-11
         0.67903E-10
        -0.37806E-03
         0.31970E-10
        -0.24584E-04
        -0.25894E-11
        -0.25311E-04
         0.12367E-09
         0.17301E-03
         0.71939E-10
         0.56400E-03
        -0.89318E-04
         0.19516E-11
        -0.39611E-11
        -0.12441E-03
        -0.48444E-03
        -0.26591E-10
        -0.99463E-10
        -0.71974E-04
        -0.53674E-10
        -0.33473E-03
        -0.65388E-10
         0.32710E-03
         0.17618E-03
        -0.80807E-11
         0.10669E-09
         0.63918E-03
         0.23428E-09
         0.15845E-02
         0.22685E-09
         0.16245E-02
         0.17220E-09
         0.13278E-02
         0.14433E-09
         0.18630E-02
         0.13624E-02
         0.92590E-10
        -0.20529E-10
         0.17161E-03
        -0.22970E-11
        -0.44334E-03
        -0.14390E-09
        -0.11282E-02
        -0.25191E-09
        -0.16688E-02
        -0.10658E-02
        -0.37362E-09
        -0.30241E-09
        -0.72230E-03
        -0.23475E-09
        -0.63075E-03
        -0.24017E-09
        -0.62907E-03
        -0.25823E-09
        -0.10559E-02
        -0.85605E-03
        -0.24014E-09
        -0.11506E-09
         0.80341E-03
        -0.28689E-03
         0.84438E-10
        -0.10493E-09
         0.19966E-02
         0.28090E-09
         0.26734E-02
         0.41089E-09
         0.34966E-02
         0.50746E-09
         0.46836E-02
         0.50336E-09
         0.61823E-02
         0.39834E-09
         0.67298E-02
         0.30827E-09
         0.63763E-02
         0.28672E-09
         0.56628E-02
         0.27279E-09
         0.38578E-02
         0.17433E-09
         0.22638E-02
         0.57557E-10
         0.94841E-03
         0.37192E-10
        -0.60365E-04
         0.55902E-10
        -0.69813E-03
         0.28872E-10
        -0.11312E-02
        -0.87315E-10
        -0.17576E-02
        -0.24646E-09
        -0.24908E-02
        -0.38485E-09
        -0.31175E-02
        -0.50454E-09
        -0.41565E-02
        -0.50410E-09
        -0.40259E-02
        -0.44006E-09
        -0.35855E-02
        -0.42888E-09
        -0.30994E-02
        -0.43155E-09
        -0.21050E-02
        -0.34126E-09
        -0.14244E-02
        -0.20180E-09
        -0.96205E-03
        -0.15603E-09
        -0.42693E-02
        -0.22418E-02
        -0.19531E-02
        -0.59470E-03
        -0.20330E-02
        -0.21244E-02
        -0.22880E-03
        -0.34782E-02
        -0.29107E-02
        -0.43382E-02
         0.23384E-02
         0.10012E-01
         0.67780E-02
         0.78549E-03
         0.10076E-01
         0.11245E-02
        -0.99994E-03
         0.63715E-03
         0.85585E-03
        -0.64368E-03
         0.59540E-03
         0.48863E-03
        -0.16561E-02
         0.13925E-03
        -0.29600E-02
         0.43787E-03
         0.22999E-04
         0.40161E-03
         0.49237E-03
        -0.23396E-02
         0.10996E-02
        -0.12153E-02
         0.79978E-03
        -0.19721E-03
         0.33904E-03
         0.18149E-02
         0.40454E-02
         0.88079E-02
         0.80549E-02
         0.68833E-02
         0.65342E-02
         0.15912E-02
        -0.12762E-02
        -0.35099E-02
        -0.58589E-02
        -0.97369E-02
        -0.62955E-02
        -0.44413E-02
        -0.47440E-02
        -0.51044E-02
        -0.60634E-02
        -0.27241E-02
         0.54018E-02
        -0.64057E-02
         0.17392E-01
         0.23954E-01
         0.30570E-01
         0.36590E-01
         0.37064E-01
         0.33620E-01
         0.31954E-01
         0.30228E-01
         0.19587E-01
         0.84327E-02
         0.36801E-02
         0.16172E-02
        -0.24645E-02
        -0.97060E-02
        -0.17845E-01
        -0.23448E-01
        -0.28988E-01
        -0.33081E-01
        -0.30926E-01
        -0.29232E-01
        -0.27231E-01
        -0.19069E-01
        -0.11025E-01
        -0.96436E-02
        -0.52503E-02
        -0.33114E-02
        -0.30643E-02
        -0.72683E-03
        -0.39800E-02
        -0.17900E-02
        -0.14194E-02
        -0.49622E-02
        -0.32541E-02
        -0.46671E-02
         0.24675E-02
         0.10679E-01
         0.63267E-02
         0.90917E-03
         0.10522E-01
         0.19911E-02
        -0.60340E-03
         0.57607E-03
         0.25965E-02
         0.50200E-03
         0.22380E-02
         0.15890E-02
        -0.92120E-03
         0.77752E-03
        -0.31428E-02
         0.77736E-03
         0.19507E-03
         0.36263E-03
        -0.57924E-03
        -0.31351E-02
         0.21458E-02
         0.56525E-03
         0.13870E-02
         0.12043E-02
        -0.57423E-03
         0.17504E-02
         0.33420E-02
         0.79963E-02
         0.70515E-02
         0.62143E-02
         0.45653E-02
        -0.11281E-02
        -0.23236E-02
        -0.29024E-02
        -0.37374E-02
        -0.76346E-02
        -0.44424E-02
        -0.29377E-02
        -0.36922E-02
        -0.43587E-02
        -0.45164E-02
        -0.33886E-03
         0.56312E-02
        -0.80551E-02
         0.18745E-01
         0.24225E-01
         0.31267E-01
         0.37521E-01
         0.36751E-01
         0.32093E-01
         0.30756E-01
         0.30431E-01
         0.19109E-01
         0.62981E-02
         0.25095E-02
         0.21502E-02
        -0.99591E-03
        -0.84485E-02
        -0.16926E-01
        -0.23557E-01
        -0.30658E-01
        -0.33996E-01
        -0.29852E-01
        -0.28222E-01
        -0.28138E-01
        -0.19812E-01
        -0.10292E-01
        -0.97451E-02
        -0.52536E-02
        -0.33120E-02
        -0.30658E-02
        -0.73216E-03
        -0.39804E-02
        -0.17914E-02
        -0.14212E-02
        -0.49706E-02
        -0.32599E-02
        -0.46846E-02
         0.24690E-02
         0.10678E-01
         0.63282E-02
         0.90919E-03
         0.10535E-01
         0.19912E-02
        -0.60888E-03
         0.57520E-03
         0.25983E-02
         0.49920E-03
         0.22436E-02
         0.15905E-02
        -0.92142E-03
         0.77715E-03
        -0.31571E-02
         0.77595E-03
         0.19737E-03
         0.36466E-03
        -0.57542E-03
        -0.31417E-02
         0.21462E-02
         0.56401E-03
         0.13900E-02
         0.12062E-02
        -0.56883E-03
         0.17515E-02
         0.33419E-02
         0.80086E-02
         0.70667E-02
         0.62215E-02
         0.45688E-02
        -0.11251E-02
        -0.23260E-02
        -0.29039E-02
        -0.37375E-02
        -0.76347E-02
        -0.44429E-02
        -0.29360E-02
        -0.36872E-02
        -0.43529E-02
        -0.45144E-02
        -0.33373E-03
         0.56260E-02
        -0.80555E-02
         0.18749E-01
         0.24225E-01
         0.31263E-01
         0.37508E-01
         0.36736E-01
         0.32084E-01
         0.30749E-01
         0.30422E-01
         0.19105E-01
         0.63011E-02
         0.25093E-02
         0.21547E-02
        -0.98779E-03
        -0.84530E-02
        -0.16933E-01
        -0.23562E-01
        -0.30657E-01
        -0.33993E-01
        -0.29850E-01
        -0.28221E-01
        -0.28131E-01
        -0.19798E-01
        -0.10281E-01
        -0.97323E-02
        -0.52569E-02
        -0.33127E-02
        -0.30674E-02
        -0.73755E-03
        -0.39809E-02
        -0.17929E-02
        -0.14230E-02
        -0.49790E-02
        -0.32658E-02
        -0.47019E-02
         0.24704E-02
         0.10677E-01
         0.63298E-02
         0.90910E-03
         0.10548E-01
         0.19913E-02
        -0.61443E-03
         0.57433E-03
         0.26001E-02
         0.49635E-03
         0.22491E-02
         0.15920E-02
        -0.92177E-03
         0.77668E-03
        -0.31711E-02
         0.77434E-03
         0.19982E-03
         0.36681E-03
        -0.57125E-03
        -0.31481E-02
         0.21465E-02
         0.56252E-03
         0.13931E-02
         0.12082E-02
        -0.56341E-03
         0.17527E-02
         0.33416E-02
         0.80210E-02
         0.70819E-02
         0.62287E-02
         0.45725E-02
        -0.11217E-02
        -0.23282E-02
        -0.29058E-02
        -0.37380E-02
        -0.76349E-02
        -0.44433E-02
        -0.29341E-02
        -0.36823E-02
        -0.43470E-02
        -0.45126E-02
        -0.32862E-03
         0.56207E-02
        -0.80560E-02
         0.18752E-01
         0.24225E-01
         0.31259E-01
         0.37495E-01
         0.36721E-01
         0.32074E-01
         0.30743E-01
         0.30414E-01
         0.19101E-01
         0.63042E-02
         0.25091E-02
         0.21591E-02
        -0.97963E-03
        -0.84576E-02
        -0.16941E-01
        -0.23568E-01
        -0.30657E-01
        -0.33991E-01
        -0.29847E-01
        -0.28220E-01
        -0.28124E-01
        -0.19784E-01
        -0.10269E-01
        -0.97195E-02
        -0.52602E-02
        -0.33133E-02
        -0.30689E-02
        -0.74296E-03
        -0.39813E-02
        -0.17943E-02
        -0.14249E-02
        -0.49873E-02
        -0.32717E-02
        -0.47190E-02
         0.24719E-02
         0.10676E-01
         0.63315E-02
         0.90912E-03
         0.10562E-01
         0.19915E-02
        -0.62007E-03
         0.57344E-03
         0.26020E-02
         0.49333E-03
         0.22549E-02
         0.15933E-02
        -0.92256E-03
         0.77591E-03
        -0.31848E-02
         0.77222E-03
         0.20236E-03
         0.36966E-03
        -0.56607E-03
        -0.31539E-02
         0.21467E-02
         0.56050E-03
         0.13962E-02
         0.12101E-02
        -0.55801E-03
         0.17539E-02
         0.33414E-02
         0.80334E-02
         0.70975E-02
         0.62365E-02
         0.45768E-02
        -0.11174E-02
        -0.23301E-02
        -0.29086E-02
        -0.37391E-02
        -0.76353E-02
        -0.44440E-02
        -0.29324E-02
        -0.36775E-02
        -0.43412E-02
        -0.45105E-02
        -0.32353E-03
         0.56155E-02
        -0.80564E-02
         0.18756E-01
         0.24226E-01
         0.31255E-01
         0.37483E-01
         0.36705E-01
         0.32064E-01
         0.30737E-01
         0.30405E-01
         0.19098E-01
         0.63079E-02
         0.25092E-02
         0.21634E-02
        -0.97142E-03
        -0.84626E-02
        -0.16950E-01
        -0.23574E-01
        -0.30656E-01
        -0.33989E-01
        -0.29845E-01
        -0.28219E-01
        -0.28117E-01
        -0.19770E-01
        -0.10258E-01
        -0.97067E-02
        -0.52634E-02
        -0.33139E-02
        -0.30705E-02
        -0.74834E-03
        -0.39818E-02
        -0.17957E-02
        -0.14266E-02
        -0.49956E-02
        -0.32776E-02
        -0.47359E-02
         0.24734E-02
         0.10676E-01
         0.63331E-02
         0.90917E-03
         0.10575E-01
         0.19917E-02
        -0.62580E-03
         0.57254E-03
         0.26040E-02
         0.49015E-03
         0.22606E-02
         0.15945E-02
        -0.92378E-03
         0.77483E-03
        -0.31978E-02
         0.76955E-03
         0.20519E-03
         0.37316E-03
        -0.55986E-03
        -0.31591E-02
         0.21467E-02
         0.55785E-03
         0.13992E-02
         0.12121E-02
        -0.55257E-03
         0.17550E-02
         0.33413E-02
         0.80459E-02
         0.71133E-02
         0.62447E-02
         0.45816E-02
        -0.11122E-02
        -0.23315E-02
        -0.29125E-02
        -0.37409E-02
        -0.76362E-02
        -0.44450E-02
        -0.29308E-02
        -0.36726E-02
        -0.43353E-02
        -0.45086E-02
        -0.31840E-03
         0.56102E-02
        -0.80569E-02
         0.18759E-01
         0.24226E-01
         0.31251E-01
         0.37470E-01
         0.36690E-01
         0.32055E-01
         0.30730E-01
         0.30397E-01
         0.19094E-01
         0.63123E-02
         0.25094E-02
         0.21677E-02
        -0.96318E-03
        -0.84680E-02
        -0.16961E-01
        -0.23581E-01
        -0.30656E-01
        -0.33987E-01
        -0.29843E-01
        -0.28217E-01
        -0.28109E-01
        -0.19756E-01
        -0.10247E-01
        -0.96938E-02
        -0.52665E-02
        -0.33143E-02
        -0.30720E-02
        -0.75379E-03
        -0.39823E-02
        -0.17972E-02
        -0.14282E-02
        -0.50034E-02
        -0.32835E-02
        -0.47524E-02
         0.24751E-02
         0.10675E-01
         0.63348E-02
         0.90933E-03
         0.10589E-01
         0.19919E-02
        -0.63166E-03
         0.57166E-03
         0.26060E-02
         0.48690E-03
         0.22664E-02
         0.15957E-02
        -0.92518E-03
         0.77363E-03
        -0.32106E-02
         0.76671E-03
         0.20823E-03
         0.37702E-03
        -0.55322E-03
        -0.31640E-02
         0.21466E-02
         0.55491E-03
         0.14024E-02
         0.12142E-02
        -0.54710E-03
         0.17563E-02
         0.33413E-02
         0.80585E-02
         0.71293E-02
         0.62533E-02
         0.45866E-02
        -0.11067E-02
        -0.23327E-02
        -0.29167E-02
        -0.37432E-02
        -0.76374E-02
        -0.44462E-02
        -0.29295E-02
        -0.36681E-02
        -0.43295E-02
        -0.45067E-02
        -0.31327E-03
         0.56049E-02
        -0.80574E-02
         0.18763E-01
         0.24226E-01
         0.31248E-01
         0.37457E-01
         0.36674E-01
         0.32045E-01
         0.30724E-01
         0.30388E-01
         0.19091E-01
         0.63170E-02
         0.25097E-02
         0.21720E-02
        -0.95495E-03
        -0.84735E-02
        -0.16972E-01
        -0.23589E-01
        -0.30656E-01
        -0.33985E-01
        -0.29841E-01
        -0.28216E-01
        -0.28102E-01
        -0.19741E-01
        -0.10236E-01
        -0.96810E-02
        -0.52693E-02
        -0.33142E-02
        -0.30735E-02
        -0.75938E-03
        -0.39828E-02
        -0.17986E-02
        -0.14294E-02
        -0.50106E-02
        -0.32896E-02
        -0.47681E-02
         0.24771E-02
         0.10674E-01
         0.63369E-02
         0.91003E-03
         0.10602E-01
         0.19923E-02
        -0.63765E-03
         0.57077E-03
         0.26080E-02
         0.48365E-03
         0.22723E-02
         0.15968E-02
        -0.92659E-03
         0.77246E-03
        -0.32231E-02
         0.76385E-03
         0.21181E-03
         0.38113E-03
        -0.54645E-03
        -0.31688E-02
         0.21464E-02
         0.55176E-03
         0.14056E-02
         0.12163E-02
        -0.54161E-03
         0.17576E-02
         0.33413E-02
         0.80713E-02
         0.71455E-02
         0.62618E-02
         0.45918E-02
        -0.11010E-02
        -0.23338E-02
        -0.29210E-02
        -0.37457E-02
        -0.76390E-02
        -0.44480E-02
        -0.29290E-02
        -0.36642E-02
        -0.43240E-02
        -0.45048E-02
        -0.30808E-03
         0.55996E-02
        -0.80578E-02
         0.18766E-01
         0.24226E-01
         0.31244E-01
         0.37444E-01
         0.36658E-01
         0.32035E-01
         0.30717E-01
         0.30380E-01
         0.19088E-01
         0.63217E-02
         0.25101E-02
         0.21763E-02
        -0.94671E-03
        -0.84791E-02
        -0.16982E-01
        -0.23596E-01
        -0.30655E-01
        -0.33983E-01
        -0.29840E-01
        -0.28216E-01
        -0.28095E-01
        -0.19727E-01
        -0.10224E-01
        -0.96682E-02
        -0.52721E-02
        -0.33140E-02
        -0.30749E-02
        -0.76505E-03
        -0.39833E-02
        -0.18001E-02
        -0.14304E-02
        -0.50174E-02
        -0.32957E-02
        -0.47835E-02
         0.24793E-02
         0.10674E-01
         0.63390E-02
         0.91084E-03
         0.10616E-01
         0.19927E-02
        -0.64372E-03
         0.56987E-03
         0.26100E-02
         0.48040E-03
         0.22781E-02
         0.15980E-02
        -0.92797E-03
         0.77133E-03
        -0.32355E-02
         0.76100E-03
         0.21553E-03
         0.38534E-03
        -0.53965E-03
        -0.31735E-02
         0.21462E-02
         0.54847E-03
         0.14088E-02
         0.12185E-02
        -0.53608E-03
         0.17591E-02
         0.33416E-02
         0.80842E-02
         0.71617E-02
         0.62704E-02
         0.45970E-02
        -0.10953E-02
        -0.23350E-02
        -0.29252E-02
        -0.37482E-02
        -0.76407E-02
        -0.44501E-02
        -0.29288E-02
        -0.36607E-02
        -0.43185E-02
        -0.45030E-02
        -0.30289E-03
         0.55943E-02
        -0.80582E-02
         0.18769E-01
         0.24226E-01
         0.31240E-01
         0.37431E-01
         0.36643E-01
         0.32025E-01
         0.30711E-01
         0.30371E-01
         0.19085E-01
         0.63263E-02
         0.25105E-02
         0.21806E-02
        -0.93845E-03
        -0.84846E-02
        -0.16993E-01
        -0.23603E-01
        -0.30654E-01
        -0.33980E-01
        -0.29838E-01
        -0.28215E-01
        -0.28088E-01
        -0.19713E-01
        -0.10213E-01
        -0.96554E-02
        -0.52747E-02
        -0.33137E-02
        -0.30764E-02
        -0.77071E-03
        -0.39838E-02
        -0.18015E-02
        -0.14313E-02
        -0.50242E-02
        -0.33018E-02
        -0.47988E-02
         0.24814E-02
         0.10673E-01
         0.63411E-02
         0.91178E-03
         0.10630E-01
         0.19930E-02
        -0.64982E-03
         0.56896E-03
         0.26120E-02
         0.47712E-03
         0.22839E-02
         0.15992E-02
        -0.92935E-03
         0.77020E-03
        -0.32478E-02
         0.75817E-03
         0.21934E-03
         0.38950E-03
        -0.53288E-03
        -0.31783E-02
         0.21459E-02
         0.54522E-03
         0.14121E-02
         0.12207E-02
        -0.53051E-03
         0.17604E-02
         0.33418E-02
         0.80971E-02
         0.71780E-02
         0.62789E-02
         0.46021E-02
        -0.10897E-02
        -0.23361E-02
        -0.29295E-02
        -0.37508E-02
        -0.76425E-02
        -0.44520E-02
        -0.29286E-02
        -0.36573E-02
        -0.43132E-02
        -0.45012E-02
        -0.29768E-03
         0.55891E-02
        -0.80587E-02
         0.18773E-01
         0.24227E-01
         0.31236E-01
         0.37419E-01
         0.36627E-01
         0.32016E-01
         0.30705E-01
         0.30362E-01
         0.19082E-01
         0.63309E-02
         0.25109E-02
         0.21850E-02
        -0.93022E-03
        -0.84901E-02
        -0.17004E-01
        -0.23610E-01
        -0.30653E-01
        -0.33978E-01
        -0.29837E-01
        -0.28215E-01
        -0.28080E-01
        -0.19699E-01
        -0.10202E-01
        -0.96426E-02
        -0.52774E-02
        -0.33135E-02
        -0.30779E-02
        -0.77635E-03
        -0.39843E-02
        -0.18029E-02
        -0.14323E-02
        -0.50310E-02
        -0.33079E-02
        -0.48141E-02
         0.24837E-02
         0.10673E-01
         0.63433E-02
         0.91258E-03
         0.10643E-01
         0.19934E-02
        -0.65595E-03
         0.56805E-03
         0.26140E-02
         0.47383E-03
         0.22897E-02
         0.16004E-02
        -0.93067E-03
         0.76908E-03
        -0.32601E-02
         0.75535E-03
         0.22305E-03
         0.39363E-03
        -0.52612E-03
        -0.31830E-02
         0.21457E-02
         0.54195E-03
         0.14153E-02
         0.12230E-02
        -0.52496E-03
         0.17619E-02
         0.33420E-02
         0.81101E-02
         0.71942E-02
         0.62874E-02
         0.46073E-02
        -0.10841E-02
        -0.23373E-02
        -0.29338E-02
        -0.37534E-02
        -0.76442E-02
        -0.44541E-02
        -0.29285E-02
        -0.36537E-02
        -0.43077E-02
        -0.44993E-02
        -0.29249E-03
         0.55837E-02
        -0.80591E-02
         0.18776E-01
         0.24227E-01
         0.31233E-01
         0.37406E-01
         0.36611E-01
         0.32006E-01
         0.30698E-01
         0.30354E-01
         0.19079E-01
         0.63355E-02
         0.25113E-02
         0.21894E-02
        -0.92201E-03
        -0.84956E-02
        -0.17015E-01
        -0.23617E-01
        -0.30652E-01
        -0.33976E-01
        -0.29836E-01
        -0.28214E-01
        -0.28073E-01
        -0.19685E-01
        -0.10191E-01
        -0.96297E-02
        -0.52800E-02
        -0.33132E-02
        -0.30793E-02
        -0.78198E-03
        -0.39848E-02
        -0.18044E-02
        -0.14334E-02
        -0.50377E-02
        -0.33141E-02
        -0.48294E-02
         0.24859E-02
         0.10672E-01
         0.63454E-02
         0.91347E-03
         0.10657E-01
         0.19938E-02
        -0.66209E-03
         0.56714E-03
         0.26160E-02
         0.47051E-03
         0.22956E-02
         0.16015E-02
        -0.93206E-03
         0.76797E-03
        -0.32724E-02
         0.75252E-03
         0.22683E-03
         0.39769E-03
        -0.51937E-03
        -0.31877E-02
         0.21455E-02
         0.53870E-03
         0.14186E-02
         0.12252E-02
        -0.51937E-03
         0.17633E-02
         0.33423E-02
         0.81231E-02
         0.72105E-02
         0.62959E-02
         0.46124E-02
        -0.10785E-02
        -0.23384E-02
        -0.29380E-02
        -0.37560E-02
        -0.76459E-02
        -0.44561E-02
        -0.29283E-02
        -0.36503E-02
        -0.43023E-02
        -0.44976E-02
        -0.28728E-03
         0.55784E-02
        -0.80594E-02
         0.18779E-01
         0.24227E-01
         0.31229E-01
         0.37393E-01
         0.36595E-01
         0.31996E-01
         0.30692E-01
         0.30345E-01
         0.19076E-01
         0.63400E-02
         0.25117E-02
         0.21938E-02
        -0.91377E-03
        -0.85011E-02
        -0.17026E-01
        -0.23624E-01
        -0.30651E-01
        -0.33974E-01
        -0.29834E-01
        -0.28213E-01
        -0.28065E-01
        -0.19671E-01
        -0.10180E-01
        -0.96169E-02
        -0.52827E-02
        -0.33130E-02
        -0.30808E-02
        -0.78766E-03
        -0.39853E-02
        -0.18058E-02
        -0.14343E-02
        -0.50445E-02
        -0.33202E-02
        -0.48446E-02
         0.24881E-02
         0.10672E-01
         0.63475E-02
         0.91435E-03
         0.10671E-01
         0.19942E-02
        -0.66824E-03
         0.56621E-03
         0.26180E-02
         0.46722E-03
         0.23014E-02
         0.16026E-02
        -0.93345E-03
         0.76688E-03
        -0.32847E-02
         0.74972E-03
         0.23052E-03
         0.40173E-03
        -0.51262E-03
        -0.31924E-02
         0.21452E-02
         0.53544E-03
         0.14218E-02
         0.12274E-02
        -0.51376E-03
         0.17647E-02
         0.33425E-02
         0.81361E-02
         0.72267E-02
         0.63044E-02
         0.46176E-02
        -0.10729E-02
        -0.23395E-02
        -0.29422E-02
        -0.37585E-02
        -0.76477E-02
        -0.44581E-02
        -0.29282E-02
        -0.36468E-02
        -0.42969E-02
        -0.44958E-02
        -0.28208E-03
         0.55731E-02
        -0.80598E-02
         0.18782E-01
         0.24227E-01
         0.31225E-01
         0.37380E-01
         0.36579E-01
         0.31986E-01
         0.30686E-01
         0.30336E-01
         0.19073E-01
         0.63447E-02
         0.25120E-02
         0.21981E-02
        -0.90549E-03
        -0.85066E-02
        -0.17036E-01
        -0.23631E-01
        -0.30651E-01
        -0.33971E-01
        -0.29833E-01
        -0.28213E-01
        -0.28058E-01
        -0.19657E-01
        -0.10169E-01
        -0.96041E-02
        -0.52854E-02
        -0.33127E-02
        -0.30823E-02
        -0.79336E-03
        -0.39858E-02
        -0.18072E-02
        -0.14353E-02
        -0.50512E-02
        -0.33264E-02
        -0.48598E-02
         0.24903E-02
         0.10671E-01
         0.63497E-02
         0.91512E-03
         0.10684E-01
         0.19946E-02
        -0.67439E-03
         0.56528E-03
         0.26200E-02
         0.46395E-03
         0.23072E-02
         0.16038E-02
        -0.93480E-03
         0.76578E-03
        -0.32969E-02
         0.74689E-03
         0.23432E-03
         0.40573E-03
        -0.50589E-03
        -0.31971E-02
         0.21449E-02
         0.53215E-03
         0.14250E-02
         0.12296E-02
        -0.50815E-03
         0.17662E-02
         0.33427E-02
         0.81490E-02
         0.72431E-02
         0.63129E-02
         0.46228E-02
        -0.10673E-02
        -0.23406E-02
        -0.29465E-02
        -0.37612E-02
        -0.76493E-02
        -0.44602E-02
        -0.29280E-02
        -0.36434E-02
        -0.42915E-02
        -0.44938E-02
        -0.27690E-03
         0.55678E-02
        -0.80602E-02
         0.18785E-01
         0.24227E-01
         0.31221E-01
         0.37367E-01
         0.36564E-01
         0.31976E-01
         0.30679E-01
         0.30327E-01
         0.19070E-01
         0.63492E-02
         0.25124E-02
         0.22025E-02
        -0.89724E-03
        -0.85121E-02
        -0.17047E-01
        -0.23638E-01
        -0.30650E-01
        -0.33969E-01
        -0.29831E-01
        -0.28212E-01
        -0.28050E-01
        -0.19642E-01
        -0.10158E-01
        -0.95913E-02
        -0.52880E-02
        -0.33125E-02
        -0.30837E-02
        -0.79905E-03
        -0.39864E-02
        -0.18087E-02
        -0.14364E-02
        -0.50578E-02
        -0.33325E-02
        -0.48750E-02
         0.24926E-02
         0.10670E-01
         0.63518E-02
         0.91600E-03
         0.10698E-01
         0.19949E-02
        -0.68057E-03
         0.56436E-03
         0.26219E-02
         0.46068E-03
         0.23130E-02
         0.16049E-02
        -0.93618E-03
         0.76470E-03
        -0.33092E-02
         0.74406E-03
         0.23802E-03
         0.40968E-03
        -0.49918E-03
        -0.32018E-02
         0.21447E-02
         0.52889E-03
         0.14283E-02
         0.12319E-02
        -0.50252E-03
         0.17676E-02
         0.33429E-02
         0.81622E-02
         0.72594E-02
         0.63213E-02
         0.46279E-02
        -0.10617E-02
        -0.23418E-02
        -0.29507E-02
        -0.37638E-02
        -0.76511E-02
        -0.44623E-02
        -0.29279E-02
        -0.36398E-02
        -0.42862E-02
        -0.44921E-02
        -0.27174E-03
         0.55624E-02
        -0.80605E-02
         0.18789E-01
         0.24227E-01
         0.31217E-01
         0.37354E-01
         0.36548E-01
         0.31967E-01
         0.30673E-01
         0.30318E-01
         0.19066E-01
         0.63538E-02
         0.25128E-02
         0.22069E-02
        -0.88903E-03
        -0.85176E-02
        -0.17058E-01
        -0.23646E-01
        -0.30649E-01
        -0.33967E-01
        -0.29830E-01
        -0.28211E-01
        -0.28043E-01
        -0.19628E-01
        -0.10147E-01
        -0.95785E-02
        -0.52906E-02
        -0.33122E-02
        -0.30852E-02
        -0.80472E-03
        -0.39868E-02
        -0.18101E-02
        -0.14374E-02
        -0.50645E-02
        -0.33387E-02
        -0.48902E-02
         0.24948E-02
         0.10670E-01
         0.63538E-02
         0.91674E-03
         0.10712E-01
         0.19953E-02
        -0.68677E-03
         0.56344E-03
         0.26239E-02
         0.45737E-03
         0.23189E-02
         0.16060E-02
        -0.93751E-03
         0.76363E-03
        -0.33215E-02
         0.74124E-03
         0.24178E-03
         0.41355E-03
        -0.49250E-03
        -0.32065E-02
         0.21444E-02
         0.52560E-03
         0.14315E-02
         0.12341E-02
        -0.49688E-03
         0.17690E-02
         0.33431E-02
         0.81753E-02
         0.72757E-02
         0.63297E-02
         0.46331E-02
        -0.10561E-02
        -0.23429E-02
        -0.29549E-02
        -0.37663E-02
        -0.76528E-02
        -0.44643E-02
        -0.29278E-02
        -0.36363E-02
        -0.42807E-02
        -0.44903E-02
        -0.26656E-03
         0.55571E-02
        -0.80609E-02
         0.18792E-01
         0.24228E-01
         0.31214E-01
         0.37342E-01
         0.36532E-01
         0.31957E-01
         0.30667E-01
         0.30309E-01
         0.19063E-01
         0.63584E-02
         0.25132E-02
         0.22112E-02
        -0.88079E-03
        -0.85231E-02
        -0.17069E-01
        -0.23653E-01
        -0.30648E-01
        -0.33965E-01
        -0.29829E-01
        -0.28211E-01
        -0.28035E-01
        -0.19614E-01
        -0.10136E-01
        -0.95656E-02
        -0.52932E-02
        -0.33119E-02
        -0.30866E-02
        -0.81039E-03
        -0.39873E-02
        -0.18115E-02
        -0.14384E-02
        -0.50712E-02
        -0.33449E-02
        -0.49053E-02
         0.24970E-02
         0.10669E-01
         0.63561E-02
         0.91759E-03
         0.10725E-01
         0.19957E-02
        -0.69301E-03
         0.56252E-03
         0.26259E-02
         0.45409E-03
         0.23247E-02
         0.16071E-02
        -0.93887E-03
         0.76258E-03
        -0.33337E-02
         0.73840E-03
         0.24545E-03
         0.41738E-03
        -0.48584E-03
        -0.32112E-02
         0.21442E-02
         0.52234E-03
         0.14347E-02
         0.12364E-02
        -0.49120E-03
         0.17704E-02
         0.33434E-02
         0.81884E-02
         0.72920E-02
         0.63380E-02
         0.46382E-02
        -0.10505E-02
        -0.23441E-02
        -0.29591E-02
        -0.37690E-02
        -0.76546E-02
        -0.44663E-02
        -0.29276E-02
        -0.36329E-02
        -0.42753E-02
        -0.44884E-02
        -0.26137E-03
         0.55517E-02
        -0.80612E-02
         0.18795E-01
         0.24228E-01
         0.31210E-01
         0.37329E-01
         0.36516E-01
         0.31947E-01
         0.30661E-01
         0.30300E-01
         0.19060E-01
         0.63630E-02
         0.25135E-02
         0.22155E-02
        -0.87254E-03
        -0.85285E-02
        -0.17080E-01
        -0.23660E-01
        -0.30647E-01
        -0.33963E-01
        -0.29827E-01
        -0.28210E-01
        -0.28028E-01
        -0.19600E-01
        -0.10125E-01
        -0.95528E-02
        -0.52958E-02
        -0.33117E-02
        -0.30881E-02
        -0.81607E-03
        -0.39879E-02
        -0.18129E-02
        -0.14394E-02
        -0.50778E-02
        -0.33511E-02
        -0.49205E-02
         0.24992E-02
         0.10669E-01
         0.63582E-02
         0.91831E-03
         0.10739E-01
         0.19961E-02
        -0.69929E-03
         0.56157E-03
         0.26279E-02
         0.45084E-03
         0.23305E-02
         0.16081E-02
        -0.94022E-03
         0.76152E-03
        -0.33459E-02
         0.73556E-03
         0.24921E-03
         0.42117E-03
        -0.47918E-03
        -0.32158E-02
         0.21439E-02
         0.51906E-03
         0.14379E-02
         0.12386E-02
        -0.48552E-03
         0.17718E-02
         0.33435E-02
         0.82016E-02
         0.73083E-02
         0.63463E-02
         0.46433E-02
        -0.10449E-02
        -0.23452E-02
        -0.29633E-02
        -0.37716E-02
        -0.76563E-02
        -0.44684E-02
        -0.29276E-02
        -0.36295E-02
        -0.42699E-02
        -0.44866E-02
        -0.25622E-03
         0.55464E-02
        -0.80615E-02
         0.18798E-01
         0.24228E-01
         0.31206E-01
         0.37316E-01
         0.36500E-01
         0.31937E-01
         0.30654E-01
         0.30291E-01
         0.19057E-01
         0.63677E-02
         0.25138E-02
         0.22198E-02
        -0.86433E-03
        -0.85340E-02
        -0.17090E-01
        -0.23667E-01
        -0.30647E-01
        -0.33960E-01
        -0.29826E-01
        -0.28209E-01
        -0.28020E-01
        -0.19586E-01
        -0.10114E-01
        -0.95400E-02
        -0.52984E-02
        -0.33114E-02
        -0.30896E-02
        -0.82178E-03
        -0.39884E-02
        -0.18143E-02
        -0.14404E-02
        -0.50844E-02
        -0.33574E-02
        -0.49356E-02
         0.25015E-02
         0.10668E-01
         0.63602E-02
         0.91913E-03
         0.10753E-01
         0.19965E-02
        -0.70562E-03
         0.56062E-03
         0.26299E-02
         0.44774E-03
         0.23363E-02
         0.16091E-02
        -0.94160E-03
         0.76044E-03
        -0.33582E-02
         0.73274E-03
         0.25293E-03
         0.42493E-03
        -0.47253E-03
        -0.32201E-02
         0.21436E-02
         0.51574E-03
         0.14411E-02
         0.12409E-02
        -0.47983E-03
         0.17733E-02
         0.33438E-02
         0.82150E-02
         0.73246E-02
         0.63541E-02
         0.46484E-02
        -0.10393E-02
        -0.23465E-02
        -0.29675E-02
        -0.37742E-02
        -0.76581E-02
        -0.44704E-02
        -0.29274E-02
        -0.36259E-02
        -0.42645E-02
        -0.44849E-02
        -0.25107E-03
         0.55410E-02
        -0.80618E-02
         0.18801E-01
         0.24228E-01
         0.31202E-01
         0.37303E-01
         0.36483E-01
         0.31927E-01
         0.30648E-01
         0.30281E-01
         0.19055E-01
         0.63724E-02
         0.25139E-02
         0.22241E-02
        -0.85614E-03
        -0.85394E-02
        -0.17101E-01
        -0.23674E-01
        -0.30646E-01
        -0.33958E-01
        -0.29825E-01
        -0.28209E-01
        -0.28012E-01
        -0.19572E-01
        -0.10103E-01
        -0.95272E-02
        -0.53010E-02
        -0.33112E-02
        -0.30910E-02
        -0.82749E-03
        -0.39888E-02
        -0.18157E-02
        -0.14414E-02
        -0.50910E-02
        -0.33637E-02
        -0.49507E-02
         0.25037E-02
         0.10668E-01
         0.63625E-02
         0.91995E-03
         0.10766E-01
         0.19969E-02
        -0.71206E-03
         0.55967E-03
         0.26319E-02
         0.44477E-03
         0.23421E-02
         0.16101E-02
        -0.94295E-03
         0.75940E-03
        -0.33705E-02
         0.72990E-03
         0.25682E-03
         0.42865E-03
        -0.46591E-03
        -0.32242E-02
         0.21433E-02
         0.51247E-03
         0.14443E-02
         0.12431E-02
        -0.47409E-03
         0.17747E-02
         0.33440E-02
         0.82285E-02
         0.73407E-02
         0.63617E-02
         0.46534E-02
        -0.10337E-02
        -0.23477E-02
        -0.29717E-02
        -0.37769E-02
        -0.76599E-02
        -0.44725E-02
        -0.29273E-02
        -0.36225E-02
        -0.42590E-02
        -0.44830E-02
        -0.24588E-03
         0.55356E-02
        -0.80621E-02
         0.18804E-01
         0.24228E-01
         0.31199E-01
         0.37290E-01
         0.36467E-01
         0.31917E-01
         0.30641E-01
         0.30271E-01
         0.19052E-01
         0.63771E-02
         0.25138E-02
         0.22284E-02
        -0.84790E-03
        -0.85448E-02
        -0.17112E-01
        -0.23681E-01
        -0.30645E-01
        -0.33956E-01
        -0.29823E-01
        -0.28208E-01
        -0.28005E-01
        -0.19558E-01
        -0.10092E-01
        -0.95143E-02
        -0.53036E-02
        -0.33109E-02
        -0.30926E-02
        -0.83317E-03
        -0.39894E-02
        -0.18171E-02
        -0.14425E-02
        -0.50975E-02
        -0.33700E-02
        -0.49657E-02
         0.25059E-02
         0.10667E-01
         0.63645E-02
         0.92065E-03
         0.10780E-01
         0.19973E-02
        -0.71854E-03
         0.55873E-03
         0.26339E-02
         0.44188E-03
         0.23479E-02
         0.16111E-02
        -0.94422E-03
         0.75843E-03
        -0.33827E-02
         0.72715E-03
         0.26061E-03
         0.43222E-03
        -0.45936E-03
        -0.32282E-02
         0.21431E-02
         0.50925E-03
         0.14475E-02
         0.12454E-02
        -0.46842E-03
         0.17760E-02
         0.33441E-02
         0.82420E-02
         0.73567E-02
         0.63691E-02
         0.46582E-02
        -0.10282E-02
        -0.23491E-02
        -0.29759E-02
        -0.37794E-02
        -0.76616E-02
        -0.44746E-02
        -0.29272E-02
        -0.36191E-02
        -0.42537E-02
        -0.44813E-02
        -0.24072E-03
         0.55302E-02
        -0.80625E-02
         0.18807E-01
         0.24229E-01
         0.31195E-01
         0.37277E-01
         0.36451E-01
         0.31908E-01
         0.30635E-01
         0.30261E-01
         0.19050E-01
         0.63817E-02
         0.25136E-02
         0.22326E-02
        -0.83966E-03
        -0.85502E-02
        -0.17123E-01
        -0.23688E-01
        -0.30644E-01
        -0.33954E-01
        -0.29822E-01
        -0.28207E-01
        -0.27997E-01
        -0.19544E-01
        -0.10082E-01
        -0.95016E-02
        -0.53235E-02
        -0.33220E-02
        -0.31047E-02
        -0.84141E-03
        -0.40025E-02
        -0.18242E-02
        -0.14485E-02
        -0.51196E-02
        -0.33871E-02
        -0.49953E-02
         0.25157E-02
         0.10697E-01
         0.63849E-02
         0.92414E-03
         0.10824E-01
         0.20044E-02
        -0.72698E-03
         0.55966E-03
         0.26442E-02
         0.44070E-03
         0.23603E-02
         0.16168E-02
        -0.94752E-03
         0.76041E-03
        -0.34051E-02
         0.72770E-03
         0.26488E-03
         0.43629E-03
        -0.45548E-03
        -0.32426E-02
         0.21503E-02
         0.50865E-03
         0.14554E-02
         0.12518E-02
        -0.46467E-03
         0.17821E-02
         0.33536E-02
         0.82786E-02
         0.73938E-02
         0.63952E-02
         0.46763E-02
        -0.10271E-02
        -0.23581E-02
        -0.29874E-02
        -0.37920E-02
        -0.76836E-02
        -0.44887E-02
        -0.29350E-02
        -0.36265E-02
        -0.42614E-02
        -0.44928E-02
        -0.23636E-03
         0.55361E-02
        -0.80815E-02
         0.18850E-01
         0.24282E-01
         0.31260E-01
         0.37349E-01
         0.36521E-01
         0.31974E-01
         0.30700E-01
         0.30322E-01
         0.19092E-01
         0.63993E-02
         0.25184E-02
         0.22416E-02
        -0.83366E-03
        -0.85722E-02
        -0.17167E-01
        -0.23744E-01
        -0.30710E-01
        -0.34025E-01
        -0.29885E-01
        -0.28267E-01
        -0.28050E-01
        -0.19573E-01
        -0.10093E-01
        -0.95101E-02
        -0.78848E-02
        -0.49388E-02
        -0.45905E-02
        -0.12555E-02
        -0.57085E-02
        -0.26287E-02
        -0.21484E-02
        -0.75442E-02
        -0.50094E-02
        -0.73469E-02
         0.36653E-02
         0.14959E-01
         0.90703E-02
         0.13407E-02
         0.15222E-01
         0.29725E-02
        -0.10811E-02
         0.82958E-03
         0.38673E-02
         0.64417E-03
         0.33581E-02
         0.23266E-02
        -0.13491E-02
         0.11206E-02
        -0.50576E-02
         0.10812E-02
         0.39069E-03
         0.64791E-03
        -0.67311E-03
        -0.48061E-02
         0.31889E-02
         0.75151E-03
         0.21658E-02
         0.18598E-02
        -0.64119E-03
         0.25627E-02
         0.48227E-02
         0.11903E-01
         0.10786E-01
         0.93615E-02
         0.67509E-02
        -0.14912E-02
        -0.34315E-02
        -0.42879E-02
        -0.54224E-02
        -0.10666E-01
        -0.63956E-02
        -0.42335E-02
        -0.52577E-02
        -0.61493E-02
        -0.63269E-02
        -0.33404E-03
         0.68400E-02
        -0.99826E-02
         0.23284E-01
         0.30085E-01
         0.38697E-01
         0.46329E-01
         0.45798E-01
         0.40432E-01
         0.38748E-01
         0.38039E-01
         0.23986E-01
         0.80302E-02
         0.31954E-02
         0.28589E-02
        -0.10418E-02
        -0.10660E-01
        -0.21283E-01
        -0.29256E-01
        -0.37790E-01
        -0.41918E-01
        -0.37219E-01
        -0.35369E-01
        -0.34961E-01
        -0.24475E-01
        -0.12581E-01
        -0.11809E-01
  
SCALARS                      strain_xz  double 1
LOOKUP_TABLE default
        -0.16214E-04
         0.12857E-03
         0.39465E-03
        -0.23452E-04
        -0.87294E-10
         0.30952E-10
         0.10350E-09
         0.20670E-10
         0.11990E-02
         0.77112E-03
         0.30957E-09
         0.27884E-09
        -0.59112E-04
         0.24244E-03
        -0.38180E-10
        -0.17886E-09
         0.35072E-04
         0.23092E-03
        -0.12919E-09
        -0.19241E-09
         0.37468E-03
         0.67890E-03
         0.57130E-03
        -0.12848E-09
        -0.59247E-10
         0.10351E-09
         0.71515E-03
         0.64045E-03
        -0.24051E-09
        -0.19078E-09
        -0.82664E-04
         0.21588E-03
        -0.14594E-04
         0.24487E-10
        -0.94626E-10
        -0.58297E-10
        -0.27015E-03
        -0.15675E-03
        -0.14049E-09
        -0.14958E-09
        -0.58185E-03
        -0.94459E-03
        -0.31690E-09
        -0.23370E-09
        -0.54604E-03
        -0.27278E-03
        -0.34801E-09
        -0.16751E-09
         0.22570E-03
        -0.10515E-09
        -0.35466E-03
        -0.29269E-10
         0.26754E-03
        -0.20545E-09
        -0.20613E-03
        -0.54348E-10
        -0.90146E-03
        -0.22056E-03
        -0.46557E-10
        -0.11253E-09
         0.88583E-05
        -0.26080E-03
         0.93118E-10
         0.63855E-10
         0.60808E-04
        -0.93664E-11
         0.22050E-03
         0.61608E-10
         0.17455E-02
         0.12163E-02
         0.38507E-09
         0.27928E-09
         0.81169E-03
         0.20335E-09
        -0.27355E-03
        -0.14067E-09
        -0.86960E-03
        -0.27608E-10
        -0.18293E-02
        -0.42833E-10
        -0.23155E-02
        -0.15666E-02
        -0.15697E-09
        -0.17952E-09
        -0.12463E-02
        -0.19307E-09
        -0.66435E-03
        -0.27797E-09
        -0.44546E-03
        -0.17730E-09
        -0.74231E-03
        -0.56246E-03
        -0.75669E-10
         0.10377E-09
         0.12390E-03
         0.12172E-09
         0.33100E-03
         0.51108E-10
         0.81454E-03
         0.12621E-09
         0.12145E-02
         0.81317E-03
         0.29100E-09
         0.30366E-09
         0.33738E-02
         0.35243E-02
         0.53770E-09
         0.52989E-09
         0.33778E-02
         0.45936E-09
         0.28794E-02
         0.34328E-09
         0.22069E-02
         0.18865E-09
         0.18313E-02
         0.20173E-10
         0.76188E-03
        -0.71850E-10
        -0.10453E-02
        -0.57485E-10
        -0.25101E-02
        -0.56500E-10
        -0.37224E-02
        -0.12741E-09
        -0.46773E-02
        -0.24240E-09
        -0.49386E-02
        -0.28926E-09
        -0.43842E-02
        -0.27293E-09
        -0.36949E-02
        -0.29679E-09
        -0.29525E-02
        -0.38519E-09
        -0.23984E-02
        -0.45421E-09
        -0.21237E-02
        -0.42224E-09
        -0.21271E-02
        -0.34316E-09
        -0.14280E-02
        -0.16200E-09
        -0.12776E-03
         0.30934E-10
         0.77937E-03
         0.75103E-10
         0.11756E-02
         0.12281E-09
         0.18792E-02
         0.24035E-09
         0.24751E-02
         0.39439E-09
         0.31080E-02
         0.47384E-09
         0.33536E-02
         0.48465E-09
        -0.13221E-02
         0.69881E-03
         0.81817E-03
        -0.16152E-02
         0.64818E-02
         0.49253E-02
         0.76005E-03
        -0.11040E-02
        -0.55518E-03
        -0.10039E-02
         0.56920E-03
         0.24739E-02
         0.51184E-02
        -0.16359E-02
        -0.19807E-02
         0.21517E-02
         0.18123E-02
        -0.83151E-03
        -0.13320E-02
        -0.14254E-02
        -0.78511E-02
        -0.83189E-02
        -0.75808E-02
        -0.23502E-02
         0.93414E-03
        -0.69653E-03
        -0.22710E-02
        -0.25431E-03
        -0.26300E-02
        -0.17793E-02
         0.19245E-02
         0.38499E-03
        -0.90699E-03
        -0.29701E-03
         0.97994E-02
         0.61621E-02
         0.55416E-02
        -0.39085E-02
        -0.22284E-02
        -0.48236E-02
        -0.10011E-01
        -0.91378E-02
        -0.88357E-02
        -0.65134E-02
        -0.47228E-02
        -0.37632E-02
         0.69578E-03
         0.28562E-02
         0.82697E-03
         0.26570E-02
         0.71933E-02
         0.59504E-02
         0.29512E-01
         0.30543E-01
         0.27371E-01
         0.23210E-01
         0.17303E-01
         0.88868E-02
        -0.53139E-03
        -0.63927E-02
        -0.97284E-02
        -0.16718E-01
        -0.27336E-01
        -0.32592E-01
        -0.29600E-01
        -0.28293E-01
        -0.29734E-01
        -0.29610E-01
        -0.26909E-01
        -0.23732E-01
        -0.12291E-01
         0.19334E-02
         0.73723E-02
         0.82170E-02
         0.13934E-01
         0.22411E-01
         0.28764E-01
         0.30112E-01
        -0.17828E-02
         0.36596E-03
        -0.69672E-03
        -0.20286E-02
         0.41612E-02
         0.35561E-02
         0.10361E-02
        -0.22617E-02
        -0.10392E-02
        -0.21502E-02
        -0.43438E-03
         0.15849E-02
         0.52138E-02
        -0.39982E-02
        -0.41415E-02
         0.35025E-02
         0.19498E-02
        -0.11679E-02
        -0.78594E-03
        -0.13802E-02
        -0.81898E-02
        -0.78051E-02
        -0.77020E-02
        -0.18629E-02
         0.10581E-02
         0.71243E-03
        -0.38636E-02
         0.51300E-03
        -0.12930E-02
        -0.17633E-02
         0.26909E-02
         0.17412E-02
        -0.17453E-02
        -0.15063E-02
         0.74213E-02
         0.40959E-02
         0.46983E-02
        -0.45927E-02
        -0.76892E-03
        -0.22293E-02
        -0.81903E-02
        -0.84250E-02
        -0.82352E-02
        -0.59544E-02
        -0.45854E-02
        -0.26830E-02
         0.28996E-02
         0.34232E-02
        -0.45250E-03
         0.54482E-03
         0.55846E-02
         0.49194E-02
         0.31031E-01
         0.31271E-01
         0.28072E-01
         0.23153E-01
         0.17276E-01
         0.79572E-02
        -0.19756E-02
        -0.64009E-02
        -0.84320E-02
        -0.15457E-01
        -0.27455E-01
        -0.32388E-01
        -0.27159E-01
        -0.25838E-01
        -0.28466E-01
        -0.29317E-01
        -0.26758E-01
        -0.25312E-01
        -0.12896E-01
         0.33520E-02
         0.74132E-02
         0.75104E-02
         0.13353E-01
         0.23120E-01
         0.29593E-01
         0.29500E-01
        -0.17862E-02
         0.36732E-03
        -0.69803E-03
        -0.20300E-02
         0.41572E-02
         0.35528E-02
         0.10426E-02
        -0.22560E-02
        -0.10404E-02
        -0.21485E-02
        -0.42559E-03
         0.15887E-02
         0.52169E-02
        -0.39884E-02
        -0.41393E-02
         0.35061E-02
         0.19541E-02
        -0.11646E-02
        -0.78555E-03
        -0.13778E-02
        -0.81890E-02
        -0.78042E-02
        -0.77015E-02
        -0.18630E-02
         0.10605E-02
         0.71362E-03
        -0.38648E-02
         0.50336E-03
        -0.13021E-02
        -0.17644E-02
         0.26948E-02
         0.17410E-02
        -0.17380E-02
        -0.15069E-02
         0.74250E-02
         0.40940E-02
         0.46968E-02
        -0.46001E-02
        -0.77629E-03
        -0.22364E-02
        -0.81955E-02
        -0.84299E-02
        -0.82356E-02
        -0.59536E-02
        -0.45837E-02
        -0.26816E-02
         0.28991E-02
         0.34243E-02
        -0.44920E-03
         0.54296E-03
         0.55810E-02
         0.49122E-02
         0.31020E-01
         0.31263E-01
         0.28069E-01
         0.23153E-01
         0.17271E-01
         0.79548E-02
        -0.19778E-02
        -0.64048E-02
        -0.84249E-02
        -0.15451E-01
        -0.27451E-01
        -0.32389E-01
        -0.27156E-01
        -0.25836E-01
        -0.28470E-01
        -0.29323E-01
        -0.26763E-01
        -0.25317E-01
        -0.12893E-01
         0.33535E-02
         0.74078E-02
         0.75075E-02
         0.13343E-01
         0.23106E-01
         0.29578E-01
         0.29487E-01
        -0.17895E-02
         0.36866E-03
        -0.69934E-03
        -0.20313E-02
         0.41531E-02
         0.35496E-02
         0.10493E-02
        -0.22503E-02
        -0.10414E-02
        -0.21467E-02
        -0.41681E-03
         0.15926E-02
         0.52201E-02
        -0.39785E-02
        -0.41371E-02
         0.35099E-02
         0.19585E-02
        -0.11614E-02
        -0.78516E-03
        -0.13755E-02
        -0.81883E-02
        -0.78033E-02
        -0.77010E-02
        -0.18631E-02
         0.10630E-02
         0.71490E-03
        -0.38659E-02
         0.49383E-03
        -0.13113E-02
        -0.17655E-02
         0.26989E-02
         0.17409E-02
        -0.17307E-02
        -0.15076E-02
         0.74288E-02
         0.40923E-02
         0.46953E-02
        -0.46074E-02
        -0.78366E-03
        -0.22434E-02
        -0.82007E-02
        -0.84349E-02
        -0.82362E-02
        -0.59528E-02
        -0.45822E-02
        -0.26803E-02
         0.28985E-02
         0.34254E-02
        -0.44581E-03
         0.54104E-03
         0.55775E-02
         0.49049E-02
         0.31009E-01
         0.31255E-01
         0.28067E-01
         0.23153E-01
         0.17266E-01
         0.79524E-02
        -0.19801E-02
        -0.64088E-02
        -0.84178E-02
        -0.15445E-01
        -0.27447E-01
        -0.32389E-01
        -0.27153E-01
        -0.25835E-01
        -0.28473E-01
        -0.29330E-01
        -0.26768E-01
        -0.25322E-01
        -0.12889E-01
         0.33550E-02
         0.74024E-02
         0.75045E-02
         0.13334E-01
         0.23092E-01
         0.29564E-01
         0.29473E-01
        -0.17929E-02
         0.37004E-03
        -0.70063E-03
        -0.20327E-02
         0.41490E-02
         0.35463E-02
         0.10558E-02
        -0.22445E-02
        -0.10424E-02
        -0.21446E-02
        -0.40806E-03
         0.15965E-02
         0.52233E-02
        -0.39687E-02
        -0.41348E-02
         0.35139E-02
         0.19630E-02
        -0.11581E-02
        -0.78483E-03
        -0.13730E-02
        -0.81878E-02
        -0.78028E-02
        -0.77011E-02
        -0.18632E-02
         0.10660E-02
         0.71649E-03
        -0.38668E-02
         0.48460E-03
        -0.13204E-02
        -0.17665E-02
         0.27032E-02
         0.17411E-02
        -0.17233E-02
        -0.15083E-02
         0.74324E-02
         0.40904E-02
         0.46938E-02
        -0.46147E-02
        -0.79100E-03
        -0.22505E-02
        -0.82060E-02
        -0.84402E-02
        -0.82373E-02
        -0.59523E-02
        -0.45804E-02
        -0.26788E-02
         0.28981E-02
         0.34266E-02
        -0.44242E-03
         0.53912E-03
         0.55739E-02
         0.48976E-02
         0.30999E-01
         0.31247E-01
         0.28064E-01
         0.23154E-01
         0.17260E-01
         0.79500E-02
        -0.19824E-02
        -0.64127E-02
        -0.84107E-02
        -0.15439E-01
        -0.27442E-01
        -0.32390E-01
        -0.27152E-01
        -0.25834E-01
        -0.28478E-01
        -0.29337E-01
        -0.26773E-01
        -0.25327E-01
        -0.12886E-01
         0.33565E-02
         0.73970E-02
         0.75016E-02
         0.13324E-01
         0.23077E-01
         0.29549E-01
         0.29460E-01
        -0.17963E-02
         0.37143E-03
        -0.70193E-03
        -0.20340E-02
         0.41450E-02
         0.35430E-02
         0.10624E-02
        -0.22387E-02
        -0.10432E-02
        -0.21421E-02
        -0.39929E-03
         0.16004E-02
         0.52264E-02
        -0.39589E-02
        -0.41326E-02
         0.35183E-02
         0.19678E-02
        -0.11548E-02
        -0.78440E-03
        -0.13705E-02
        -0.81876E-02
        -0.78023E-02
        -0.77014E-02
        -0.18633E-02
         0.10695E-02
         0.71830E-03
        -0.38676E-02
         0.47567E-03
        -0.13294E-02
        -0.17675E-02
         0.27079E-02
         0.17415E-02
        -0.17160E-02
        -0.15090E-02
         0.74362E-02
         0.40886E-02
         0.46923E-02
        -0.46220E-02
        -0.79831E-03
        -0.22576E-02
        -0.82116E-02
        -0.84458E-02
        -0.82389E-02
        -0.59519E-02
        -0.45785E-02
        -0.26773E-02
         0.28978E-02
         0.34279E-02
        -0.43905E-03
         0.53723E-03
         0.55704E-02
         0.48904E-02
         0.30988E-01
         0.31239E-01
         0.28062E-01
         0.23154E-01
         0.17255E-01
         0.79476E-02
        -0.19846E-02
        -0.64167E-02
        -0.84036E-02
        -0.15432E-01
        -0.27438E-01
        -0.32392E-01
        -0.27150E-01
        -0.25833E-01
        -0.28482E-01
        -0.29346E-01
        -0.26779E-01
        -0.25331E-01
        -0.12882E-01
         0.33581E-02
         0.73916E-02
         0.74986E-02
         0.13314E-01
         0.23063E-01
         0.29534E-01
         0.29447E-01
        -0.17995E-02
         0.37293E-03
        -0.70308E-03
        -0.20353E-02
         0.41410E-02
         0.35397E-02
         0.10690E-02
        -0.22328E-02
        -0.10439E-02
        -0.21396E-02
        -0.39052E-03
         0.16042E-02
         0.52296E-02
        -0.39490E-02
        -0.41304E-02
         0.35227E-02
         0.19725E-02
        -0.11515E-02
        -0.78395E-03
        -0.13682E-02
        -0.81876E-02
        -0.78021E-02
        -0.77020E-02
        -0.18634E-02
         0.10730E-02
         0.72017E-03
        -0.38683E-02
         0.46678E-03
        -0.13386E-02
        -0.17687E-02
         0.27125E-02
         0.17419E-02
        -0.17085E-02
        -0.15096E-02
         0.74400E-02
         0.40870E-02
         0.46909E-02
        -0.46293E-02
        -0.80563E-03
        -0.22647E-02
        -0.82172E-02
        -0.84516E-02
        -0.82408E-02
        -0.59517E-02
        -0.45769E-02
        -0.26760E-02
         0.28974E-02
         0.34291E-02
        -0.43558E-03
         0.53548E-03
         0.55670E-02
         0.48833E-02
         0.30978E-01
         0.31231E-01
         0.28059E-01
         0.23154E-01
         0.17250E-01
         0.79452E-02
        -0.19868E-02
        -0.64206E-02
        -0.83965E-02
        -0.15426E-01
        -0.27433E-01
        -0.32393E-01
        -0.27149E-01
        -0.25832E-01
        -0.28487E-01
        -0.29355E-01
        -0.26785E-01
        -0.25336E-01
        -0.12878E-01
         0.33594E-02
         0.73860E-02
         0.74957E-02
         0.13304E-01
         0.23049E-01
         0.29520E-01
         0.29434E-01
        -0.18024E-02
         0.37473E-03
        -0.70397E-03
        -0.20366E-02
         0.41370E-02
         0.35366E-02
         0.10758E-02
        -0.22268E-02
        -0.10448E-02
        -0.21372E-02
        -0.38170E-03
         0.16081E-02
         0.52328E-02
        -0.39391E-02
        -0.41281E-02
         0.35271E-02
         0.19771E-02
        -0.11482E-02
        -0.78360E-03
        -0.13659E-02
        -0.81874E-02
        -0.78018E-02
        -0.77027E-02
        -0.18637E-02
         0.10761E-02
         0.72181E-03
        -0.38692E-02
         0.45770E-03
        -0.13478E-02
        -0.17700E-02
         0.27168E-02
         0.17419E-02
        -0.17009E-02
        -0.15100E-02
         0.74439E-02
         0.40854E-02
         0.46896E-02
        -0.46366E-02
        -0.81301E-03
        -0.22720E-02
        -0.82228E-02
        -0.84575E-02
        -0.82428E-02
        -0.59515E-02
        -0.45754E-02
        -0.26747E-02
         0.28967E-02
         0.34303E-02
        -0.43181E-03
         0.53414E-03
         0.55640E-02
         0.48762E-02
         0.30967E-01
         0.31223E-01
         0.28057E-01
         0.23154E-01
         0.17244E-01
         0.79427E-02
        -0.19890E-02
        -0.64246E-02
        -0.83894E-02
        -0.15420E-01
        -0.27429E-01
        -0.32394E-01
        -0.27148E-01
        -0.25831E-01
        -0.28491E-01
        -0.29364E-01
        -0.26791E-01
        -0.25341E-01
        -0.12875E-01
         0.33606E-02
         0.73803E-02
         0.74928E-02
         0.13295E-01
         0.23035E-01
         0.29505E-01
         0.29421E-01
        -0.18053E-02
         0.37662E-03
        -0.70473E-03
        -0.20378E-02
         0.41332E-02
         0.35333E-02
         0.10826E-02
        -0.22207E-02
        -0.10456E-02
        -0.21350E-02
        -0.37286E-03
         0.16120E-02
         0.52361E-02
        -0.39292E-02
        -0.41258E-02
         0.35316E-02
         0.19816E-02
        -0.11448E-02
        -0.78318E-03
        -0.13637E-02
        -0.81873E-02
        -0.78016E-02
        -0.77034E-02
        -0.18638E-02
         0.10790E-02
         0.72336E-03
        -0.38700E-02
         0.44856E-03
        -0.13572E-02
        -0.17714E-02
         0.27211E-02
         0.17418E-02
        -0.16932E-02
        -0.15104E-02
         0.74480E-02
         0.40841E-02
         0.46885E-02
        -0.46438E-02
        -0.82038E-03
        -0.22792E-02
        -0.82285E-02
        -0.84635E-02
        -0.82448E-02
        -0.59515E-02
        -0.45740E-02
        -0.26738E-02
         0.28960E-02
         0.34314E-02
        -0.42793E-03
         0.53297E-03
         0.55610E-02
         0.48693E-02
         0.30956E-01
         0.31215E-01
         0.28054E-01
         0.23154E-01
         0.17239E-01
         0.79403E-02
        -0.19912E-02
        -0.64285E-02
        -0.83824E-02
        -0.15414E-01
        -0.27424E-01
        -0.32396E-01
        -0.27147E-01
        -0.25830E-01
        -0.28496E-01
        -0.29373E-01
        -0.26797E-01
        -0.25345E-01
        -0.12871E-01
         0.33616E-02
         0.73746E-02
         0.74899E-02
         0.13285E-01
         0.23021E-01
         0.29490E-01
         0.29408E-01
        -0.18081E-02
         0.37853E-03
        -0.70548E-03
        -0.20390E-02
         0.41293E-02
         0.35300E-02
         0.10894E-02
        -0.22146E-02
        -0.10465E-02
        -0.21327E-02
        -0.36405E-03
         0.16159E-02
         0.52394E-02
        -0.39194E-02
        -0.41235E-02
         0.35360E-02
         0.19861E-02
        -0.11415E-02
        -0.78276E-03
        -0.13614E-02
        -0.81872E-02
        -0.78014E-02
        -0.77041E-02
        -0.18641E-02
         0.10819E-02
         0.72489E-03
        -0.38709E-02
         0.43943E-03
        -0.13665E-02
        -0.17728E-02
         0.27253E-02
         0.17417E-02
        -0.16855E-02
        -0.15107E-02
         0.74521E-02
         0.40827E-02
         0.46874E-02
        -0.46511E-02
        -0.82779E-03
        -0.22864E-02
        -0.82342E-02
        -0.84695E-02
        -0.82468E-02
        -0.59515E-02
        -0.45727E-02
        -0.26728E-02
         0.28952E-02
         0.34324E-02
        -0.42404E-03
         0.53185E-03
         0.55583E-02
         0.48622E-02
         0.30946E-01
         0.31207E-01
         0.28051E-01
         0.23154E-01
         0.17234E-01
         0.79379E-02
        -0.19934E-02
        -0.64324E-02
        -0.83753E-02
        -0.15408E-01
        -0.27420E-01
        -0.32397E-01
        -0.27146E-01
        -0.25829E-01
        -0.28500E-01
        -0.29382E-01
        -0.26803E-01
        -0.25349E-01
        -0.12867E-01
         0.33627E-02
         0.73688E-02
         0.74870E-02
         0.13276E-01
         0.23007E-01
         0.29476E-01
         0.29395E-01
        -0.18109E-02
         0.38047E-03
        -0.70623E-03
        -0.20403E-02
         0.41254E-02
         0.35267E-02
         0.10962E-02
        -0.22086E-02
        -0.10473E-02
        -0.21304E-02
        -0.35523E-03
         0.16197E-02
         0.52427E-02
        -0.39096E-02
        -0.41212E-02
         0.35403E-02
         0.19905E-02
        -0.11382E-02
        -0.78233E-03
        -0.13592E-02
        -0.81871E-02
        -0.78011E-02
        -0.77047E-02
        -0.18643E-02
         0.10848E-02
         0.72641E-03
        -0.38718E-02
         0.43036E-03
        -0.13758E-02
        -0.17742E-02
         0.27295E-02
         0.17416E-02
        -0.16779E-02
        -0.15111E-02
         0.74560E-02
         0.40814E-02
         0.46863E-02
        -0.46583E-02
        -0.83519E-03
        -0.22937E-02
        -0.82399E-02
        -0.84754E-02
        -0.82487E-02
        -0.59515E-02
        -0.45714E-02
        -0.26717E-02
         0.28945E-02
         0.34336E-02
        -0.42019E-03
         0.53064E-03
         0.55553E-02
         0.48552E-02
         0.30935E-01
         0.31199E-01
         0.28049E-01
         0.23154E-01
         0.17228E-01
         0.79354E-02
        -0.19955E-02
        -0.64362E-02
        -0.83682E-02
        -0.15402E-01
        -0.27416E-01
        -0.32398E-01
        -0.27145E-01
        -0.25828E-01
        -0.28505E-01
        -0.29391E-01
        -0.26810E-01
        -0.25354E-01
        -0.12863E-01
         0.33638E-02
         0.73630E-02
         0.74841E-02
         0.13266E-01
         0.22993E-01
         0.29461E-01
         0.29381E-01
        -0.18137E-02
         0.38239E-03
        -0.70701E-03
        -0.20415E-02
         0.41216E-02
         0.35235E-02
         0.11030E-02
        -0.22025E-02
        -0.10482E-02
        -0.21282E-02
        -0.34641E-03
         0.16237E-02
         0.52460E-02
        -0.38998E-02
        -0.41189E-02
         0.35447E-02
         0.19950E-02
        -0.11349E-02
        -0.78199E-03
        -0.13570E-02
        -0.81869E-02
        -0.78009E-02
        -0.77054E-02
        -0.18646E-02
         0.10876E-02
         0.72793E-03
        -0.38727E-02
         0.42128E-03
        -0.13851E-02
        -0.17755E-02
         0.27337E-02
         0.17415E-02
        -0.16702E-02
        -0.15115E-02
         0.74601E-02
         0.40799E-02
         0.46852E-02
        -0.46655E-02
        -0.84262E-03
        -0.23009E-02
        -0.82456E-02
        -0.84813E-02
        -0.82507E-02
        -0.59514E-02
        -0.45700E-02
        -0.26707E-02
         0.28937E-02
         0.34346E-02
        -0.41629E-03
         0.52947E-03
         0.55525E-02
         0.48483E-02
         0.30924E-01
         0.31191E-01
         0.28046E-01
         0.23154E-01
         0.17223E-01
         0.79330E-02
        -0.19977E-02
        -0.64401E-02
        -0.83612E-02
        -0.15396E-01
        -0.27411E-01
        -0.32400E-01
        -0.27144E-01
        -0.25827E-01
        -0.28510E-01
        -0.29400E-01
        -0.26816E-01
        -0.25358E-01
        -0.12860E-01
         0.33648E-02
         0.73572E-02
         0.74812E-02
         0.13257E-01
         0.22979E-01
         0.29447E-01
         0.29368E-01
        -0.18166E-02
         0.38430E-03
        -0.70774E-03
        -0.20427E-02
         0.41177E-02
         0.35202E-02
         0.11098E-02
        -0.21964E-02
        -0.10491E-02
        -0.21259E-02
        -0.33761E-03
         0.16276E-02
         0.52492E-02
        -0.38900E-02
        -0.41165E-02
         0.35491E-02
         0.19995E-02
        -0.11316E-02
        -0.78159E-03
        -0.13548E-02
        -0.81868E-02
        -0.78006E-02
        -0.77061E-02
        -0.18649E-02
         0.10904E-02
         0.72949E-03
        -0.38736E-02
         0.41224E-03
        -0.13943E-02
        -0.17770E-02
         0.27380E-02
         0.17413E-02
        -0.16625E-02
        -0.15118E-02
         0.74642E-02
         0.40786E-02
         0.46840E-02
        -0.46727E-02
        -0.85006E-03
        -0.23082E-02
        -0.82513E-02
        -0.84872E-02
        -0.82527E-02
        -0.59514E-02
        -0.45687E-02
        -0.26697E-02
         0.28930E-02
         0.34358E-02
        -0.41239E-03
         0.52835E-03
         0.55496E-02
         0.48412E-02
         0.30913E-01
         0.31183E-01
         0.28043E-01
         0.23154E-01
         0.17218E-01
         0.79306E-02
        -0.19998E-02
        -0.64440E-02
        -0.83541E-02
        -0.15390E-01
        -0.27407E-01
        -0.32401E-01
        -0.27143E-01
        -0.25827E-01
        -0.28514E-01
        -0.29409E-01
        -0.26822E-01
        -0.25363E-01
        -0.12856E-01
         0.33658E-02
         0.73513E-02
         0.74783E-02
         0.13247E-01
         0.22966E-01
         0.29432E-01
         0.29355E-01
        -0.18194E-02
         0.38624E-03
        -0.70847E-03
        -0.20439E-02
         0.41139E-02
         0.35170E-02
         0.11165E-02
        -0.21903E-02
        -0.10499E-02
        -0.21237E-02
        -0.32883E-03
         0.16314E-02
         0.52525E-02
        -0.38802E-02
        -0.41142E-02
         0.35535E-02
         0.20039E-02
        -0.11283E-02
        -0.78121E-03
        -0.13525E-02
        -0.81867E-02
        -0.78004E-02
        -0.77067E-02
        -0.18652E-02
         0.10932E-02
         0.73101E-03
        -0.38745E-02
         0.40318E-03
        -0.14036E-02
        -0.17783E-02
         0.27422E-02
         0.17412E-02
        -0.16548E-02
        -0.15122E-02
         0.74682E-02
         0.40773E-02
         0.46830E-02
        -0.46798E-02
        -0.85752E-03
        -0.23154E-02
        -0.82571E-02
        -0.84931E-02
        -0.82547E-02
        -0.59515E-02
        -0.45674E-02
        -0.26686E-02
         0.28922E-02
         0.34368E-02
        -0.40847E-03
         0.52718E-03
         0.55466E-02
         0.48342E-02
         0.30903E-01
         0.31175E-01
         0.28040E-01
         0.23154E-01
         0.17212E-01
         0.79282E-02
        -0.20020E-02
        -0.64478E-02
        -0.83470E-02
        -0.15383E-01
        -0.27402E-01
        -0.32402E-01
        -0.27142E-01
        -0.25826E-01
        -0.28519E-01
        -0.29418E-01
        -0.26828E-01
        -0.25367E-01
        -0.12852E-01
         0.33668E-02
         0.73456E-02
         0.74754E-02
         0.13238E-01
         0.22952E-01
         0.29418E-01
         0.29342E-01
        -0.18222E-02
         0.38814E-03
        -0.70920E-03
        -0.20451E-02
         0.41101E-02
         0.35137E-02
         0.11233E-02
        -0.21842E-02
        -0.10507E-02
        -0.21214E-02
        -0.32007E-03
         0.16353E-02
         0.52558E-02
        -0.38704E-02
        -0.41118E-02
         0.35579E-02
         0.20084E-02
        -0.11250E-02
        -0.78089E-03
        -0.13503E-02
        -0.81865E-02
        -0.78001E-02
        -0.77074E-02
        -0.18654E-02
         0.10960E-02
         0.73252E-03
        -0.38754E-02
         0.39418E-03
        -0.14129E-02
        -0.17797E-02
         0.27464E-02
         0.17411E-02
        -0.16470E-02
        -0.15126E-02
         0.74724E-02
         0.40759E-02
         0.46818E-02
        -0.46870E-02
        -0.86498E-03
        -0.23227E-02
        -0.82627E-02
        -0.84990E-02
        -0.82567E-02
        -0.59514E-02
        -0.45660E-02
        -0.26676E-02
         0.28914E-02
         0.34379E-02
        -0.40457E-03
         0.52600E-03
         0.55438E-02
         0.48273E-02
         0.30892E-01
         0.31167E-01
         0.28038E-01
         0.23154E-01
         0.17207E-01
         0.79257E-02
        -0.20041E-02
        -0.64516E-02
        -0.83399E-02
        -0.15377E-01
        -0.27398E-01
        -0.32404E-01
        -0.27141E-01
        -0.25825E-01
        -0.28523E-01
        -0.29427E-01
        -0.26834E-01
        -0.25371E-01
        -0.12848E-01
         0.33678E-02
         0.73398E-02
         0.74726E-02
         0.13228E-01
         0.22938E-01
         0.29403E-01
         0.29329E-01
        -0.18251E-02
         0.39003E-03
        -0.70993E-03
        -0.20463E-02
         0.41062E-02
         0.35104E-02
         0.11300E-02
        -0.21781E-02
        -0.10516E-02
        -0.21191E-02
        -0.31131E-03
         0.16393E-02
         0.52591E-02
        -0.38607E-02
        -0.41094E-02
         0.35622E-02
         0.20128E-02
        -0.11217E-02
        -0.78049E-03
        -0.13481E-02
        -0.81864E-02
        -0.77999E-02
        -0.77080E-02
        -0.18657E-02
         0.10988E-02
         0.73404E-03
        -0.38762E-02
         0.38518E-03
        -0.14222E-02
        -0.17811E-02
         0.27506E-02
         0.17409E-02
        -0.16393E-02
        -0.15129E-02
         0.74763E-02
         0.40746E-02
         0.46808E-02
        -0.46940E-02
        -0.87245E-03
        -0.23300E-02
        -0.82684E-02
        -0.85049E-02
        -0.82586E-02
        -0.59514E-02
        -0.45647E-02
        -0.26667E-02
         0.28907E-02
         0.34390E-02
        -0.40060E-03
         0.52486E-03
         0.55408E-02
         0.48202E-02
         0.30881E-01
         0.31159E-01
         0.28035E-01
         0.23154E-01
         0.17202E-01
         0.79232E-02
        -0.20062E-02
        -0.64553E-02
        -0.83328E-02
        -0.15371E-01
        -0.27393E-01
        -0.32405E-01
        -0.27140E-01
        -0.25824E-01
        -0.28528E-01
        -0.29436E-01
        -0.26840E-01
        -0.25376E-01
        -0.12845E-01
         0.33688E-02
         0.73340E-02
         0.74698E-02
         0.13219E-01
         0.22924E-01
         0.29389E-01
         0.29316E-01
        -0.18279E-02
         0.39197E-03
        -0.71066E-03
        -0.20475E-02
         0.41023E-02
         0.35072E-02
         0.11367E-02
        -0.21720E-02
        -0.10524E-02
        -0.21168E-02
        -0.30255E-03
         0.16432E-02
         0.52624E-02
        -0.38509E-02
        -0.41070E-02
         0.35666E-02
         0.20172E-02
        -0.11185E-02
        -0.78011E-03
        -0.13459E-02
        -0.81863E-02
        -0.77997E-02
        -0.77088E-02
        -0.18660E-02
         0.11015E-02
         0.73556E-03
        -0.38771E-02
         0.37618E-03
        -0.14314E-02
        -0.17824E-02
         0.27548E-02
         0.17408E-02
        -0.16316E-02
        -0.15133E-02
         0.74805E-02
         0.40733E-02
         0.46797E-02
        -0.47011E-02
        -0.87996E-03
        -0.23373E-02
        -0.82740E-02
        -0.85107E-02
        -0.82606E-02
        -0.59513E-02
        -0.45634E-02
        -0.26656E-02
         0.28899E-02
         0.34401E-02
        -0.39668E-03
         0.52367E-03
         0.55380E-02
         0.48132E-02
         0.30871E-01
         0.31151E-01
         0.28032E-01
         0.23154E-01
         0.17196E-01
         0.79208E-02
        -0.20083E-02
        -0.64590E-02
        -0.83258E-02
        -0.15365E-01
        -0.27389E-01
        -0.32406E-01
        -0.27139E-01
        -0.25823E-01
        -0.28533E-01
        -0.29445E-01
        -0.26846E-01
        -0.25380E-01
        -0.12841E-01
         0.33698E-02
         0.73281E-02
         0.74669E-02
         0.13209E-01
         0.22910E-01
         0.29374E-01
         0.29303E-01
        -0.18307E-02
         0.39387E-03
        -0.71141E-03
        -0.20487E-02
         0.40986E-02
         0.35040E-02
         0.11435E-02
        -0.21659E-02
        -0.10532E-02
        -0.21144E-02
        -0.29379E-03
         0.16471E-02
         0.52657E-02
        -0.38411E-02
        -0.41046E-02
         0.35710E-02
         0.20217E-02
        -0.11152E-02
        -0.77975E-03
        -0.13436E-02
        -0.81862E-02
        -0.77993E-02
        -0.77094E-02
        -0.18663E-02
         0.11042E-02
         0.73707E-03
        -0.38779E-02
         0.36711E-03
        -0.14406E-02
        -0.17837E-02
         0.27590E-02
         0.17407E-02
        -0.16239E-02
        -0.15137E-02
         0.74847E-02
         0.40719E-02
         0.46785E-02
        -0.47081E-02
        -0.88754E-03
        -0.23446E-02
        -0.82795E-02
        -0.85165E-02
        -0.82625E-02
        -0.59514E-02
        -0.45620E-02
        -0.26646E-02
         0.28892E-02
         0.34412E-02
        -0.39277E-03
         0.52249E-03
         0.55350E-02
         0.48062E-02
         0.30860E-01
         0.31143E-01
         0.28030E-01
         0.23154E-01
         0.17191E-01
         0.79183E-02
        -0.20103E-02
        -0.64627E-02
        -0.83187E-02
        -0.15359E-01
        -0.27384E-01
        -0.32408E-01
        -0.27138E-01
        -0.25822E-01
        -0.28537E-01
        -0.29454E-01
        -0.26852E-01
        -0.25384E-01
        -0.12837E-01
         0.33707E-02
         0.73223E-02
         0.74640E-02
         0.13200E-01
         0.22896E-01
         0.29360E-01
         0.29290E-01
        -0.18336E-02
         0.39578E-03
        -0.71211E-03
        -0.20499E-02
         0.40947E-02
         0.35007E-02
         0.11502E-02
        -0.21598E-02
        -0.10539E-02
        -0.21118E-02
        -0.28505E-03
         0.16510E-02
         0.52689E-02
        -0.38313E-02
        -0.41021E-02
         0.35754E-02
         0.20261E-02
        -0.11119E-02
        -0.77948E-03
        -0.13415E-02
        -0.81860E-02
        -0.77991E-02
        -0.77101E-02
        -0.18665E-02
         0.11067E-02
         0.73864E-03
        -0.38783E-02
         0.35780E-03
        -0.14498E-02
        -0.17852E-02
         0.27632E-02
         0.17405E-02
        -0.16162E-02
        -0.15140E-02
         0.74887E-02
         0.40707E-02
         0.46775E-02
        -0.47150E-02
        -0.89534E-03
        -0.23518E-02
        -0.82847E-02
        -0.85218E-02
        -0.82642E-02
        -0.59514E-02
        -0.45607E-02
        -0.26635E-02
         0.28884E-02
         0.34424E-02
        -0.38887E-03
         0.52132E-03
         0.55322E-02
         0.47992E-02
         0.30849E-01
         0.31136E-01
         0.28027E-01
         0.23154E-01
         0.17186E-01
         0.79160E-02
        -0.20124E-02
        -0.64665E-02
        -0.83118E-02
        -0.15352E-01
        -0.27380E-01
        -0.32410E-01
        -0.27137E-01
        -0.25822E-01
        -0.28542E-01
        -0.29463E-01
        -0.26858E-01
        -0.25389E-01
        -0.12833E-01
         0.33717E-02
         0.73166E-02
         0.74611E-02
         0.13191E-01
         0.22882E-01
         0.29345E-01
         0.29277E-01
        -0.18364E-02
         0.39767E-03
        -0.71283E-03
        -0.20510E-02
         0.40909E-02
         0.34974E-02
         0.11569E-02
        -0.21537E-02
        -0.10546E-02
        -0.21089E-02
        -0.27633E-03
         0.16549E-02
         0.52722E-02
        -0.38214E-02
        -0.40996E-02
         0.35797E-02
         0.20305E-02
        -0.11086E-02
        -0.77913E-03
        -0.13392E-02
        -0.81859E-02
        -0.77987E-02
        -0.77109E-02
        -0.18668E-02
         0.11090E-02
         0.74014E-03
        -0.38785E-02
         0.34822E-03
        -0.14590E-02
        -0.17865E-02
         0.27675E-02
         0.17404E-02
        -0.16084E-02
        -0.15144E-02
         0.74928E-02
         0.40693E-02
         0.46764E-02
        -0.47217E-02
        -0.90334E-03
        -0.23590E-02
        -0.82894E-02
        -0.85267E-02
        -0.82656E-02
        -0.59513E-02
        -0.45594E-02
        -0.26625E-02
         0.28876E-02
         0.34435E-02
        -0.38492E-03
         0.52016E-03
         0.55292E-02
         0.47921E-02
         0.30838E-01
         0.31128E-01
         0.28024E-01
         0.23154E-01
         0.17180E-01
         0.79135E-02
        -0.20144E-02
        -0.64701E-02
        -0.83049E-02
        -0.15346E-01
        -0.27375E-01
        -0.32414E-01
        -0.27137E-01
        -0.25821E-01
        -0.28546E-01
        -0.29472E-01
        -0.26864E-01
        -0.25393E-01
        -0.12830E-01
         0.33727E-02
         0.73108E-02
         0.74582E-02
         0.13181E-01
         0.22868E-01
         0.29331E-01
         0.29264E-01
        -0.18392E-02
         0.39958E-03
        -0.71357E-03
        -0.20522E-02
         0.40871E-02
         0.34943E-02
         0.11636E-02
        -0.21477E-02
        -0.10552E-02
        -0.21060E-02
        -0.26767E-03
         0.16588E-02
         0.52754E-02
        -0.38116E-02
        -0.40970E-02
         0.35841E-02
         0.20349E-02
        -0.11054E-02
        -0.77875E-03
        -0.13371E-02
        -0.81858E-02
        -0.77983E-02
        -0.77114E-02
        -0.18671E-02
         0.11112E-02
         0.74165E-03
        -0.38786E-02
         0.33860E-03
        -0.14682E-02
        -0.17879E-02
         0.27717E-02
         0.17403E-02
        -0.16007E-02
        -0.15148E-02
         0.74970E-02
         0.40681E-02
         0.46753E-02
        -0.47283E-02
        -0.91143E-03
        -0.23661E-02
        -0.82938E-02
        -0.85313E-02
        -0.82670E-02
        -0.59514E-02
        -0.45580E-02
        -0.26616E-02
         0.28869E-02
         0.34446E-02
        -0.38102E-03
         0.51895E-03
         0.55265E-02
         0.47852E-02
         0.30828E-01
         0.31120E-01
         0.28022E-01
         0.23154E-01
         0.17175E-01
         0.79110E-02
        -0.20164E-02
        -0.64737E-02
        -0.82980E-02
        -0.15339E-01
        -0.27370E-01
        -0.32417E-01
        -0.27138E-01
        -0.25820E-01
        -0.28551E-01
        -0.29481E-01
        -0.26871E-01
        -0.25397E-01
        -0.12826E-01
         0.33738E-02
         0.73051E-02
         0.74553E-02
         0.13172E-01
         0.22854E-01
         0.29316E-01
         0.29251E-01
        -0.18480E-02
         0.40238E-03
        -0.71667E-03
        -0.20600E-02
         0.40953E-02
         0.35018E-02
         0.11731E-02
        -0.21491E-02
        -0.10591E-02
        -0.21102E-02
        -0.26094E-03
         0.16663E-02
         0.52934E-02
        -0.38143E-02
        -0.41068E-02
         0.35996E-02
         0.20455E-02
        -0.11060E-02
        -0.78064E-03
        -0.13388E-02
        -0.82087E-02
        -0.78206E-02
        -0.77338E-02
        -0.18732E-02
         0.11167E-02
         0.74535E-03
        -0.38910E-02
         0.33064E-03
        -0.14811E-02
        -0.17946E-02
         0.27846E-02
         0.17455E-02
        -0.15989E-02
        -0.15202E-02
         0.75223E-02
         0.40790E-02
         0.46880E-02
        -0.47488E-02
        -0.92154E-03
        -0.23796E-02
        -0.83226E-02
        -0.85614E-02
        -0.82929E-02
        -0.59683E-02
        -0.45699E-02
        -0.26677E-02
         0.28949E-02
         0.34565E-02
        -0.37873E-03
         0.51931E-03
         0.55399E-02
         0.47930E-02
         0.30885E-01
         0.31180E-01
         0.28080E-01
         0.23205E-01
         0.17208E-01
         0.79252E-02
        -0.20236E-02
        -0.64913E-02
        -0.83107E-02
        -0.15368E-01
        -0.27430E-01
        -0.32494E-01
        -0.27199E-01
        -0.25877E-01
        -0.28617E-01
        -0.29550E-01
        -0.26932E-01
        -0.25454E-01
        -0.12850E-01
         0.33829E-02
         0.73167E-02
         0.74688E-02
         0.13192E-01
         0.22892E-01
         0.29366E-01
         0.29301E-01
        -0.27384E-02
         0.60011E-03
        -0.10597E-02
        -0.30582E-02
         0.58343E-02
         0.50380E-02
         0.17440E-02
        -0.31611E-02
        -0.15646E-02
        -0.30987E-02
        -0.37463E-03
         0.23311E-02
         0.75195E-02
        -0.55237E-02
        -0.57706E-02
         0.53394E-02
         0.30251E-02
        -0.16390E-02
        -0.11411E-02
        -0.19608E-02
        -0.11658E-01
        -0.11248E-01
        -0.11016E-01
        -0.27605E-02
         0.16562E-02
         0.11085E-02
        -0.56850E-02
         0.48138E-03
        -0.22084E-02
        -0.26576E-02
         0.41321E-02
         0.25814E-02
        -0.23679E-02
        -0.22564E-02
         0.10517E-01
         0.58632E-02
         0.67417E-02
        -0.68308E-02
        -0.13490E-02
        -0.34864E-02
        -0.12013E-01
        -0.12452E-01
        -0.12057E-01
        -0.85636E-02
        -0.65335E-02
        -0.37027E-02
         0.41238E-02
         0.49918E-02
        -0.54597E-03
         0.74901E-03
         0.77994E-02
         0.68734E-02
         0.38189E-01
         0.38496E-01
         0.34683E-01
         0.28752E-01
         0.21299E-01
         0.98279E-02
        -0.25415E-02
        -0.82107E-02
        -0.10484E-01
        -0.19276E-01
        -0.34460E-01
        -0.40773E-01
        -0.34529E-01
        -0.32966E-01
        -0.35992E-01
        -0.36744E-01
        -0.33384E-01
        -0.31363E-01
        -0.15809E-01
         0.41705E-02
         0.91110E-02
         0.93434E-02
         0.16439E-01
         0.28628E-01
         0.36616E-01
         0.36405E-01
  
SCALARS                      strain_xy  double 1
LOOKUP_TABLE default
         0.22264E-09
         0.56901E-11
         0.29137E-08
        -0.26785E-09
        -0.36526E-20
         0.35696E-21
         0.53669E-20
         0.81755E-21
        -0.12115E-08
        -0.66898E-08
         0.23890E-19
         0.18944E-19
         0.28375E-08
        -0.61216E-09
         0.21086E-20
        -0.63331E-21
        -0.78740E-09
         0.13977E-07
         0.10498E-21
         0.15997E-20
        -0.19985E-07
        -0.17661E-06
        -0.97302E-07
         0.16266E-19
         0.12954E-19
        -0.18916E-19
        -0.18180E-07
        -0.22016E-06
         0.21902E-19
         0.33705E-19
         0.20401E-08
        -0.65910E-09
        -0.54370E-09
        -0.11560E-20
         0.45604E-20
        -0.58330E-22
         0.95809E-08
        -0.53348E-08
         0.12205E-19
         0.10111E-19
         0.32494E-08
        -0.27145E-07
         0.20807E-19
         0.14022E-19
         0.27434E-07
         0.68478E-08
        -0.75796E-21
         0.56431E-20
         0.15464E-07
         0.16677E-20
         0.22154E-08
        -0.37600E-22
         0.17161E-08
         0.12605E-19
         0.95587E-08
         0.19397E-20
         0.13616E-06
        -0.41040E-08
         0.45079E-22
        -0.22115E-21
        -0.26000E-09
         0.18006E-07
         0.12284E-20
         0.31510E-20
        -0.13338E-08
        -0.24942E-21
        -0.13359E-07
         0.19986E-20
        -0.20857E-07
        -0.11220E-07
         0.15438E-20
        -0.14783E-19
        -0.44242E-07
        -0.23637E-19
         0.12904E-06
         0.15831E-19
         0.42906E-06
         0.23587E-20
         0.73055E-06
         0.30671E-20
         0.12206E-05
         0.55803E-06
         0.72107E-20
        -0.18284E-20
         0.44063E-07
        -0.22003E-21
         0.50978E-07
        -0.19844E-19
         0.38709E-07
        -0.22158E-19
         0.15665E-07
        -0.10926E-07
        -0.14026E-19
         0.15569E-19
        -0.18145E-08
         0.14176E-19
        -0.10540E-07
         0.60896E-20
        -0.11822E-07
         0.16169E-19
        -0.17758E-07
        -0.28463E-07
         0.34670E-19
         0.17335E-19
        -0.28153E-06
         0.53737E-07
        -0.22525E-19
         0.27585E-19
        -0.75872E-06
        -0.64018E-19
        -0.42415E-06
        -0.69980E-19
        -0.86296E-06
        -0.47495E-19
        -0.17497E-05
        -0.50378E-20
        -0.12453E-05
         0.14199E-19
         0.20511E-05
         0.87916E-20
         0.47062E-05
         0.80370E-20
         0.61821E-05
         0.17244E-19
         0.47628E-05
         0.20966E-19
         0.20931E-05
         0.82601E-20
         0.19622E-06
         0.50360E-20
         0.18687E-07
         0.82312E-20
         0.57092E-06
         0.55175E-20
         0.12505E-05
        -0.19676E-19
         0.16912E-05
        -0.51629E-19
         0.47025E-06
        -0.65521E-19
        -0.24514E-06
        -0.40550E-19
        -0.49126E-07
         0.77365E-20
         0.99798E-07
         0.16397E-19
        -0.22881E-07
         0.26131E-19
         0.31853E-06
         0.51459E-19
         0.28050E-06
         0.66772E-19
         0.41866E-07
         0.47439E-19
        -0.19037E-06
         0.37518E-19
        -0.25518E-05
         0.70725E-06
         0.72153E-06
        -0.43451E-06
         0.59415E-05
         0.47253E-05
         0.78378E-07
        -0.17324E-05
        -0.73078E-06
        -0.19666E-05
        -0.59922E-06
        -0.11148E-04
        -0.15628E-04
         0.57887E-06
         0.89857E-05
        -0.10944E-05
         0.81940E-06
         0.23978E-06
         0.51457E-06
        -0.41435E-06
         0.21096E-05
         0.18353E-05
        -0.56638E-05
         0.14767E-06
         0.12487E-05
         0.13772E-06
         0.23554E-07
         0.46062E-07
         0.58345E-06
        -0.18785E-05
        -0.95704E-06
         0.21122E-06
         0.32805E-06
        -0.26458E-07
        -0.14950E-05
        -0.50382E-05
        -0.10105E-04
         0.15508E-04
         0.80849E-05
         0.14938E-04
         0.29407E-04
         0.65496E-05
        -0.50891E-05
        -0.10315E-04
        -0.12473E-04
        -0.16488E-04
         0.19739E-05
         0.57255E-05
         0.17705E-05
         0.61133E-05
         0.19636E-04
         0.73096E-05
        -0.71545E-04
         0.87930E-04
        -0.21390E-03
        -0.24990E-03
        -0.23774E-03
        -0.14604E-03
         0.88389E-05
         0.96425E-04
         0.13948E-03
         0.22673E-03
         0.24016E-03
         0.12352E-03
         0.48991E-04
         0.20584E-04
        -0.32984E-04
        -0.12941E-03
        -0.21623E-03
        -0.25042E-03
        -0.15998E-03
         0.28732E-04
         0.10250E-03
         0.10798E-03
         0.17056E-03
         0.19197E-03
         0.14260E-03
         0.13063E-03
        -0.46438E-05
         0.60124E-06
        -0.10592E-05
        -0.73151E-06
         0.82167E-05
         0.31580E-05
         0.72960E-06
        -0.55682E-05
        -0.16778E-05
        -0.49788E-05
         0.53176E-06
        -0.83972E-05
        -0.16365E-04
         0.18034E-05
         0.21619E-04
        -0.34599E-05
         0.58370E-06
         0.33377E-06
         0.10124E-05
         0.34375E-06
         0.90935E-05
         0.61530E-05
        -0.35201E-05
         0.71859E-06
         0.16498E-05
        -0.27476E-06
         0.37391E-06
        -0.92292E-07
        -0.37158E-06
        -0.27426E-05
        -0.28648E-05
        -0.48830E-06
         0.12009E-05
         0.89995E-06
         0.21142E-05
        -0.35570E-05
        -0.77901E-05
         0.18220E-04
         0.26900E-05
         0.68732E-05
         0.18551E-04
        -0.47153E-05
        -0.94937E-05
        -0.85743E-05
        -0.85023E-05
        -0.10163E-04
         0.63908E-05
         0.49892E-05
        -0.82888E-06
         0.11782E-05
         0.12513E-04
         0.82706E-06
        -0.86714E-04
         0.12500E-03
        -0.26114E-03
        -0.27835E-03
        -0.26808E-03
        -0.14818E-03
         0.36034E-04
         0.10194E-03
         0.12870E-03
         0.23343E-03
         0.26036E-03
         0.10123E-03
         0.33819E-04
         0.27568E-04
        -0.14068E-04
        -0.12291E-03
        -0.22475E-03
        -0.29591E-03
        -0.19621E-03
         0.56550E-04
         0.10982E-03
         0.10518E-03
         0.18645E-03
         0.22730E-03
         0.15114E-03
         0.14266E-03
        -0.46555E-05
         0.60358E-06
        -0.10617E-05
        -0.73738E-06
         0.82097E-05
         0.31576E-05
         0.73516E-06
        -0.55635E-05
        -0.16826E-05
        -0.49934E-05
         0.52131E-06
        -0.84169E-05
        -0.16379E-04
         0.17990E-05
         0.21635E-04
        -0.34637E-05
         0.59031E-06
         0.33235E-06
         0.10126E-05
         0.34123E-06
         0.91151E-05
         0.61582E-05
        -0.35207E-05
         0.71829E-06
         0.16610E-05
        -0.27472E-06
         0.37843E-06
        -0.91064E-07
        -0.37172E-06
        -0.27501E-05
        -0.28694E-05
        -0.48718E-06
         0.11986E-05
         0.90183E-06
         0.20955E-05
        -0.35576E-05
        -0.77873E-05
         0.18278E-04
         0.27217E-05
         0.69029E-05
         0.18577E-04
        -0.47053E-05
        -0.95039E-05
        -0.85774E-05
        -0.84995E-05
        -0.10157E-04
         0.63902E-05
         0.49879E-05
        -0.82173E-06
         0.11726E-05
         0.12500E-04
         0.81333E-06
        -0.86604E-04
         0.12498E-03
        -0.26117E-03
        -0.27835E-03
        -0.26796E-03
        -0.14808E-03
         0.36059E-04
         0.10198E-03
         0.12856E-03
         0.23327E-03
         0.26026E-03
         0.10128E-03
         0.33813E-04
         0.27623E-04
        -0.13955E-04
        -0.12300E-03
        -0.22489E-03
        -0.29603E-03
        -0.19615E-03
         0.56573E-04
         0.10973E-03
         0.10513E-03
         0.18627E-03
         0.22700E-03
         0.15090E-03
         0.14241E-03
        -0.46673E-05
         0.60589E-06
        -0.10643E-05
        -0.74330E-06
         0.82025E-05
         0.31573E-05
         0.74076E-06
        -0.55587E-05
        -0.16874E-05
        -0.50077E-05
         0.51087E-06
        -0.84366E-05
        -0.16393E-04
         0.17944E-05
         0.21651E-04
        -0.34676E-05
         0.59701E-06
         0.33092E-06
         0.10128E-05
         0.33871E-06
         0.91371E-05
         0.61633E-05
        -0.35218E-05
         0.71789E-06
         0.16724E-05
        -0.27464E-06
         0.38325E-06
        -0.89869E-07
        -0.37162E-06
        -0.27575E-05
        -0.28742E-05
        -0.48585E-06
         0.11962E-05
         0.90368E-06
         0.20765E-05
        -0.35586E-05
        -0.77842E-05
         0.18335E-04
         0.27534E-05
         0.69328E-05
         0.18604E-04
        -0.46941E-05
        -0.95137E-05
        -0.85819E-05
        -0.84976E-05
        -0.10153E-04
         0.63896E-05
         0.49864E-05
        -0.81446E-06
         0.11669E-05
         0.12487E-04
         0.79970E-06
        -0.86493E-04
         0.12495E-03
        -0.26119E-03
        -0.27835E-03
        -0.26785E-03
        -0.14799E-03
         0.36085E-04
         0.10201E-03
         0.12842E-03
         0.23311E-03
         0.26017E-03
         0.10133E-03
         0.33808E-04
         0.27678E-04
        -0.13841E-04
        -0.12310E-03
        -0.22504E-03
        -0.29616E-03
        -0.19609E-03
         0.56595E-04
         0.10964E-03
         0.10509E-03
         0.18608E-03
         0.22670E-03
         0.15066E-03
         0.14216E-03
        -0.46790E-05
         0.60828E-06
        -0.10668E-05
        -0.74925E-06
         0.81954E-05
         0.31569E-05
         0.74636E-06
        -0.55537E-05
        -0.16919E-05
        -0.50210E-05
         0.50044E-06
        -0.84567E-05
        -0.16408E-04
         0.17900E-05
         0.21667E-04
        -0.34719E-05
         0.60390E-06
         0.32947E-06
         0.10131E-05
         0.33605E-06
         0.91598E-05
         0.61681E-05
        -0.35249E-05
         0.71722E-06
         0.16844E-05
        -0.27450E-06
         0.38821E-06
        -0.88875E-07
        -0.37081E-06
        -0.27642E-05
        -0.28790E-05
        -0.48415E-06
         0.11937E-05
         0.90556E-06
         0.20576E-05
        -0.35593E-05
        -0.77812E-05
         0.18393E-04
         0.27853E-05
         0.69633E-05
         0.18633E-04
        -0.46792E-05
        -0.95225E-05
        -0.85895E-05
        -0.84968E-05
        -0.10148E-04
         0.63898E-05
         0.49851E-05
        -0.80718E-06
         0.11611E-05
         0.12473E-04
         0.78612E-06
        -0.86383E-04
         0.12493E-03
        -0.26122E-03
        -0.27836E-03
        -0.26773E-03
        -0.14789E-03
         0.36112E-04
         0.10204E-03
         0.12829E-03
         0.23296E-03
         0.26008E-03
         0.10139E-03
         0.33806E-04
         0.27733E-04
        -0.13727E-04
        -0.12320E-03
        -0.22520E-03
        -0.29630E-03
        -0.19603E-03
         0.56617E-04
         0.10955E-03
         0.10504E-03
         0.18590E-03
         0.22640E-03
         0.15042E-03
         0.14191E-03
        -0.46906E-05
         0.61066E-06
        -0.10693E-05
        -0.75517E-06
         0.81885E-05
         0.31565E-05
         0.75196E-06
        -0.55485E-05
        -0.16963E-05
        -0.50332E-05
         0.48998E-06
        -0.84764E-05
        -0.16422E-04
         0.17857E-05
         0.21683E-04
        -0.34765E-05
         0.61096E-06
         0.32802E-06
         0.10134E-05
         0.33328E-06
         0.91831E-05
         0.61723E-05
        -0.35297E-05
         0.71626E-06
         0.16969E-05
        -0.27424E-06
         0.39372E-06
        -0.88060E-07
        -0.36927E-06
        -0.27702E-05
        -0.28840E-05
        -0.48198E-06
         0.11912E-05
         0.90743E-06
         0.20386E-05
        -0.35600E-05
        -0.77784E-05
         0.18450E-04
         0.28173E-05
         0.69945E-05
         0.18666E-04
        -0.46604E-05
        -0.95301E-05
        -0.86005E-05
        -0.84976E-05
        -0.10143E-04
         0.63905E-05
         0.49843E-05
        -0.79999E-06
         0.11555E-05
         0.12460E-04
         0.77251E-06
        -0.86272E-04
         0.12490E-03
        -0.26124E-03
        -0.27836E-03
        -0.26762E-03
        -0.14780E-03
         0.36137E-04
         0.10207E-03
         0.12815E-03
         0.23280E-03
         0.26000E-03
         0.10147E-03
         0.33808E-04
         0.27786E-04
        -0.13613E-04
        -0.12332E-03
        -0.22539E-03
        -0.29645E-03
        -0.19598E-03
         0.56639E-04
         0.10946E-03
         0.10500E-03
         0.18572E-03
         0.22610E-03
         0.15018E-03
         0.14166E-03
        -0.47018E-05
         0.61320E-06
        -0.10715E-05
        -0.76115E-06
         0.81814E-05
         0.31561E-05
         0.75748E-06
        -0.55427E-05
        -0.17006E-05
        -0.50447E-05
         0.47953E-06
        -0.84963E-05
        -0.16436E-04
         0.17815E-05
         0.21699E-04
        -0.34813E-05
         0.61816E-06
         0.32658E-06
         0.10136E-05
         0.33050E-06
         0.92065E-05
         0.61765E-05
        -0.35353E-05
         0.71522E-06
         0.17092E-05
        -0.27394E-06
         0.39962E-06
        -0.87311E-07
        -0.36739E-06
        -0.27763E-05
        -0.28887E-05
        -0.47954E-06
         0.11887E-05
         0.90933E-06
         0.20195E-05
        -0.35612E-05
        -0.77761E-05
         0.18508E-04
         0.28496E-05
         0.70261E-05
         0.18699E-04
        -0.46404E-05
        -0.95372E-05
        -0.86125E-05
        -0.84998E-05
        -0.10140E-04
         0.63912E-05
         0.49839E-05
        -0.79268E-06
         0.11502E-05
         0.12447E-04
         0.75897E-06
        -0.86161E-04
         0.12488E-03
        -0.26127E-03
        -0.27837E-03
        -0.26750E-03
        -0.14770E-03
         0.36162E-04
         0.10210E-03
         0.12802E-03
         0.23264E-03
         0.25991E-03
         0.10155E-03
         0.33811E-04
         0.27840E-04
        -0.13499E-04
        -0.12343E-03
        -0.22559E-03
        -0.29659E-03
        -0.19592E-03
         0.56659E-04
         0.10938E-03
         0.10495E-03
         0.18553E-03
         0.22580E-03
         0.14994E-03
         0.14140E-03
        -0.47121E-05
         0.61614E-06
        -0.10734E-05
        -0.76727E-06
         0.81746E-05
         0.31559E-05
         0.76292E-06
        -0.55356E-05
        -0.17051E-05
        -0.50558E-05
         0.46909E-06
        -0.85164E-05
        -0.16452E-04
         0.17785E-05
         0.21715E-04
        -0.34863E-05
         0.62547E-06
         0.32514E-06
         0.10139E-05
         0.32774E-06
         0.92301E-05
         0.61809E-05
        -0.35410E-05
         0.71422E-06
         0.17208E-05
        -0.27354E-06
         0.40658E-06
        -0.86544E-07
        -0.36540E-06
        -0.27826E-05
        -0.28931E-05
        -0.47684E-06
         0.11861E-05
         0.91120E-06
         0.20003E-05
        -0.35626E-05
        -0.77742E-05
         0.18567E-04
         0.28822E-05
         0.70582E-05
         0.18733E-04
        -0.46199E-05
        -0.95442E-05
        -0.86248E-05
        -0.85026E-05
        -0.10137E-04
         0.63924E-05
         0.49847E-05
        -0.78501E-06
         0.11459E-05
         0.12435E-04
         0.74531E-06
        -0.86050E-04
         0.12485E-03
        -0.26129E-03
        -0.27837E-03
        -0.26739E-03
        -0.14761E-03
         0.36186E-04
         0.10214E-03
         0.12788E-03
         0.23248E-03
         0.25983E-03
         0.10163E-03
         0.33815E-04
         0.27894E-04
        -0.13385E-04
        -0.12355E-03
        -0.22578E-03
        -0.29674E-03
        -0.19586E-03
         0.56674E-04
         0.10929E-03
         0.10491E-03
         0.18535E-03
         0.22550E-03
         0.14970E-03
         0.14115E-03
        -0.47219E-05
         0.61922E-06
        -0.10751E-05
        -0.77346E-06
         0.81682E-05
         0.31555E-05
         0.76827E-06
        -0.55280E-05
        -0.17097E-05
        -0.50667E-05
         0.45863E-06
        -0.85365E-05
        -0.16467E-04
         0.17756E-05
         0.21730E-04
        -0.34913E-05
         0.63285E-06
         0.32368E-06
         0.10141E-05
         0.32502E-06
         0.92537E-05
         0.61853E-05
        -0.35466E-05
         0.71325E-06
         0.17320E-05
        -0.27310E-06
         0.41381E-06
        -0.85753E-07
        -0.36336E-06
        -0.27890E-05
        -0.28973E-05
        -0.47396E-06
         0.11835E-05
         0.91309E-06
         0.19809E-05
        -0.35643E-05
        -0.77729E-05
         0.18626E-04
         0.29149E-05
         0.70904E-05
         0.18767E-04
        -0.45994E-05
        -0.95512E-05
        -0.86373E-05
        -0.85058E-05
        -0.10136E-04
         0.63937E-05
         0.49859E-05
        -0.77720E-06
         0.11419E-05
         0.12424E-04
         0.73172E-06
        -0.85939E-04
         0.12483E-03
        -0.26131E-03
        -0.27837E-03
        -0.26727E-03
        -0.14751E-03
         0.36211E-04
         0.10217E-03
         0.12775E-03
         0.23232E-03
         0.25974E-03
         0.10171E-03
         0.33818E-04
         0.27949E-04
        -0.13270E-04
        -0.12367E-03
        -0.22598E-03
        -0.29688E-03
        -0.19580E-03
         0.56689E-04
         0.10920E-03
         0.10487E-03
         0.18517E-03
         0.22520E-03
         0.14946E-03
         0.14090E-03
        -0.47317E-05
         0.62232E-06
        -0.10768E-05
        -0.77966E-06
         0.81615E-05
         0.31550E-05
         0.77361E-06
        -0.55203E-05
        -0.17143E-05
        -0.50776E-05
         0.44818E-06
        -0.85566E-05
        -0.16483E-04
         0.17730E-05
         0.21746E-04
        -0.34964E-05
         0.64029E-06
         0.32222E-06
         0.10144E-05
         0.32227E-06
         0.92772E-05
         0.61898E-05
        -0.35522E-05
         0.71230E-06
         0.17433E-05
        -0.27266E-06
         0.42123E-06
        -0.84916E-07
        -0.36127E-06
        -0.27953E-05
        -0.29015E-05
        -0.47113E-06
         0.11809E-05
         0.91496E-06
         0.19614E-05
        -0.35658E-05
        -0.77715E-05
         0.18685E-04
         0.29479E-05
         0.71224E-05
         0.18801E-04
        -0.45789E-05
        -0.95582E-05
        -0.86501E-05
        -0.85093E-05
        -0.10134E-04
         0.63948E-05
         0.49871E-05
        -0.76941E-06
         0.11381E-05
         0.12413E-04
         0.71809E-06
        -0.85829E-04
         0.12480E-03
        -0.26133E-03
        -0.27837E-03
        -0.26716E-03
        -0.14741E-03
         0.36235E-04
         0.10220E-03
         0.12762E-03
         0.23217E-03
         0.25966E-03
         0.10178E-03
         0.33822E-04
         0.28005E-04
        -0.13156E-04
        -0.12379E-03
        -0.22617E-03
        -0.29702E-03
        -0.19573E-03
         0.56703E-04
         0.10910E-03
         0.10482E-03
         0.18499E-03
         0.22490E-03
         0.14923E-03
         0.14065E-03
        -0.47415E-05
         0.62546E-06
        -0.10784E-05
        -0.78584E-06
         0.81548E-05
         0.31546E-05
         0.77897E-06
        -0.55126E-05
        -0.17188E-05
        -0.50884E-05
         0.43772E-06
        -0.85767E-05
        -0.16499E-04
         0.17701E-05
         0.21762E-04
        -0.35014E-05
         0.64778E-06
         0.32078E-06
         0.10146E-05
         0.31953E-06
         0.93007E-05
         0.61941E-05
        -0.35575E-05
         0.71136E-06
         0.17545E-05
        -0.27222E-06
         0.42846E-06
        -0.84044E-07
        -0.35912E-06
        -0.28017E-05
        -0.29056E-05
        -0.46827E-06
         0.11782E-05
         0.91685E-06
         0.19419E-05
        -0.35676E-05
        -0.77703E-05
         0.18743E-04
         0.29810E-05
         0.71549E-05
         0.18835E-04
        -0.45585E-05
        -0.95652E-05
        -0.86626E-05
        -0.85126E-05
        -0.10132E-04
         0.63961E-05
         0.49886E-05
        -0.76168E-06
         0.11341E-05
         0.12401E-04
         0.70455E-06
        -0.85717E-04
         0.12477E-03
        -0.26135E-03
        -0.27838E-03
        -0.26704E-03
        -0.14732E-03
         0.36259E-04
         0.10223E-03
         0.12748E-03
         0.23201E-03
         0.25958E-03
         0.10186E-03
         0.33827E-04
         0.28060E-04
        -0.13042E-04
        -0.12391E-03
        -0.22637E-03
        -0.29716E-03
        -0.19567E-03
         0.56717E-04
         0.10901E-03
         0.10478E-03
         0.18481E-03
         0.22461E-03
         0.14899E-03
         0.14040E-03
        -0.47512E-05
         0.62856E-06
        -0.10801E-05
        -0.79201E-06
         0.81484E-05
         0.31542E-05
         0.78436E-06
        -0.55047E-05
        -0.17235E-05
        -0.50991E-05
         0.42723E-06
        -0.85970E-05
        -0.16515E-04
         0.17673E-05
         0.21778E-04
        -0.35064E-05
         0.65531E-06
         0.31934E-06
         0.10149E-05
         0.31676E-06
         0.93241E-05
         0.61983E-05
        -0.35632E-05
         0.71044E-06
         0.17657E-05
        -0.27177E-06
         0.43582E-06
        -0.83119E-07
        -0.35691E-06
        -0.28080E-05
        -0.29098E-05
        -0.46543E-06
         0.11755E-05
         0.91874E-06
         0.19223E-05
        -0.35692E-05
        -0.77690E-05
         0.18803E-04
         0.30143E-05
         0.71869E-05
         0.18869E-04
        -0.45381E-05
        -0.95721E-05
        -0.86748E-05
        -0.85159E-05
        -0.10131E-04
         0.63974E-05
         0.49898E-05
        -0.75390E-06
         0.11302E-05
         0.12390E-04
         0.69102E-06
        -0.85606E-04
         0.12475E-03
        -0.26137E-03
        -0.27838E-03
        -0.26693E-03
        -0.14722E-03
         0.36281E-04
         0.10226E-03
         0.12735E-03
         0.23185E-03
         0.25949E-03
         0.10194E-03
         0.33830E-04
         0.28115E-04
        -0.12927E-04
        -0.12403E-03
        -0.22656E-03
        -0.29730E-03
        -0.19561E-03
         0.56730E-04
         0.10892E-03
         0.10474E-03
         0.18463E-03
         0.22431E-03
         0.14875E-03
         0.14015E-03
        -0.47610E-05
         0.63165E-06
        -0.10818E-05
        -0.79824E-06
         0.81417E-05
         0.31538E-05
         0.78972E-06
        -0.54969E-05
        -0.17280E-05
        -0.51098E-05
         0.41675E-06
        -0.86173E-05
        -0.16531E-04
         0.17646E-05
         0.21793E-04
        -0.35114E-05
         0.66288E-06
         0.31789E-06
         0.10152E-05
         0.31404E-06
         0.93476E-05
         0.62024E-05
        -0.35688E-05
         0.70953E-06
         0.17770E-05
        -0.27134E-06
         0.44301E-06
        -0.82162E-07
        -0.35461E-06
        -0.28145E-05
        -0.29140E-05
        -0.46258E-06
         0.11727E-05
         0.92065E-06
         0.19026E-05
        -0.35708E-05
        -0.77676E-05
         0.18862E-04
         0.30478E-05
         0.72195E-05
         0.18903E-04
        -0.45178E-05
        -0.95790E-05
        -0.86873E-05
        -0.85192E-05
        -0.10130E-04
         0.63986E-05
         0.49913E-05
        -0.74613E-06
         0.11264E-05
         0.12378E-04
         0.67753E-06
        -0.85494E-04
         0.12472E-03
        -0.26139E-03
        -0.27838E-03
        -0.26681E-03
        -0.14713E-03
         0.36304E-04
         0.10229E-03
         0.12721E-03
         0.23169E-03
         0.25940E-03
         0.10202E-03
         0.33834E-04
         0.28170E-04
        -0.12812E-04
        -0.12414E-03
        -0.22676E-03
        -0.29744E-03
        -0.19555E-03
         0.56744E-04
         0.10883E-03
         0.10470E-03
         0.18445E-03
         0.22401E-03
         0.14852E-03
         0.13991E-03
        -0.47708E-05
         0.63478E-06
        -0.10834E-05
        -0.80448E-06
         0.81351E-05
         0.31534E-05
         0.79508E-06
        -0.54889E-05
        -0.17326E-05
        -0.51203E-05
         0.40628E-06
        -0.86373E-05
        -0.16547E-04
         0.17617E-05
         0.21809E-04
        -0.35164E-05
         0.67047E-06
         0.31643E-06
         0.10154E-05
         0.31132E-06
         0.93711E-05
         0.62067E-05
        -0.35742E-05
         0.70862E-06
         0.17882E-05
        -0.27087E-06
         0.45042E-06
        -0.81157E-07
        -0.35228E-06
        -0.28208E-05
        -0.29181E-05
        -0.45970E-06
         0.11699E-05
         0.92253E-06
         0.18828E-05
        -0.35727E-05
        -0.77663E-05
         0.18921E-04
         0.30815E-05
         0.72519E-05
         0.18938E-04
        -0.44972E-05
        -0.95859E-05
        -0.87000E-05
        -0.85229E-05
        -0.10127E-04
         0.63999E-05
         0.49926E-05
        -0.73834E-06
         0.11224E-05
         0.12366E-04
         0.66411E-06
        -0.85383E-04
         0.12470E-03
        -0.26141E-03
        -0.27838E-03
        -0.26670E-03
        -0.14703E-03
         0.36328E-04
         0.10232E-03
         0.12708E-03
         0.23153E-03
         0.25932E-03
         0.10209E-03
         0.33838E-04
         0.28225E-04
        -0.12697E-04
        -0.12426E-03
        -0.22695E-03
        -0.29758E-03
        -0.19548E-03
         0.56757E-04
         0.10874E-03
         0.10465E-03
         0.18427E-03
         0.22372E-03
         0.14828E-03
         0.13966E-03
        -0.47807E-05
         0.63787E-06
        -0.10850E-05
        -0.81073E-06
         0.81287E-05
         0.31529E-05
         0.80047E-06
        -0.54809E-05
        -0.17372E-05
        -0.51308E-05
         0.39580E-06
        -0.86574E-05
        -0.16563E-04
         0.17589E-05
         0.21824E-04
        -0.35214E-05
         0.67811E-06
         0.31500E-06
         0.10158E-05
         0.30862E-06
         0.93946E-05
         0.62109E-05
        -0.35798E-05
         0.70772E-06
         0.17994E-05
        -0.27041E-06
         0.45762E-06
        -0.80117E-07
        -0.34991E-06
        -0.28271E-05
        -0.29222E-05
        -0.45685E-06
         0.11671E-05
         0.92443E-06
         0.18630E-05
        -0.35743E-05
        -0.77649E-05
         0.18980E-04
         0.31153E-05
         0.72845E-05
         0.18972E-04
        -0.44767E-05
        -0.95928E-05
        -0.87125E-05
        -0.85262E-05
        -0.10126E-04
         0.64012E-05
         0.49939E-05
        -0.73058E-06
         0.11185E-05
         0.12355E-04
         0.65081E-06
        -0.85272E-04
         0.12467E-03
        -0.26142E-03
        -0.27839E-03
        -0.26658E-03
        -0.14694E-03
         0.36352E-04
         0.10235E-03
         0.12695E-03
         0.23136E-03
         0.25923E-03
         0.10217E-03
         0.33842E-04
         0.28280E-04
        -0.12583E-04
        -0.12438E-03
        -0.22715E-03
        -0.29772E-03
        -0.19542E-03
         0.56770E-04
         0.10865E-03
         0.10461E-03
         0.18408E-03
         0.22342E-03
         0.14805E-03
         0.13941E-03
        -0.47905E-05
         0.64093E-06
        -0.10867E-05
        -0.81697E-06
         0.81220E-05
         0.31524E-05
         0.80584E-06
        -0.54729E-05
        -0.17418E-05
        -0.51412E-05
         0.38532E-06
        -0.86780E-05
        -0.16578E-04
         0.17559E-05
         0.21840E-04
        -0.35264E-05
         0.68581E-06
         0.31357E-06
         0.10160E-05
         0.30590E-06
         0.94182E-05
         0.62150E-05
        -0.35852E-05
         0.70684E-06
         0.18107E-05
        -0.26994E-06
         0.46496E-06
        -0.79028E-07
        -0.34749E-06
        -0.28334E-05
        -0.29264E-05
        -0.45397E-06
         0.11642E-05
         0.92632E-06
         0.18431E-05
        -0.35761E-05
        -0.77636E-05
         0.19039E-04
         0.31493E-05
         0.73170E-05
         0.19006E-04
        -0.44561E-05
        -0.95998E-05
        -0.87249E-05
        -0.85295E-05
        -0.10125E-04
         0.64023E-05
         0.49954E-05
        -0.72272E-06
         0.11147E-05
         0.12344E-04
         0.63745E-06
        -0.85160E-04
         0.12464E-03
        -0.26144E-03
        -0.27839E-03
        -0.26647E-03
        -0.14684E-03
         0.36374E-04
         0.10237E-03
         0.12681E-03
         0.23120E-03
         0.25915E-03
         0.10225E-03
         0.33845E-04
         0.28335E-04
        -0.12469E-04
        -0.12450E-03
        -0.22735E-03
        -0.29786E-03
        -0.19536E-03
         0.56783E-04
         0.10856E-03
         0.10457E-03
         0.18390E-03
         0.22312E-03
         0.14782E-03
         0.13916E-03
        -0.48003E-05
         0.64405E-06
        -0.10883E-05
        -0.82320E-06
         0.81154E-05
         0.31521E-05
         0.81120E-06
        -0.54647E-05
        -0.17464E-05
        -0.51516E-05
         0.37480E-06
        -0.86981E-05
        -0.16595E-04
         0.17531E-05
         0.21855E-04
        -0.35314E-05
         0.69357E-06
         0.31214E-06
         0.10163E-05
         0.30320E-06
         0.94417E-05
         0.62189E-05
        -0.35908E-05
         0.70596E-06
         0.18219E-05
        -0.26947E-06
         0.47212E-06
        -0.77897E-07
        -0.34502E-06
        -0.28397E-05
        -0.29305E-05
        -0.45112E-06
         0.11614E-05
         0.92825E-06
         0.18230E-05
        -0.35777E-05
        -0.77623E-05
         0.19098E-04
         0.31835E-05
         0.73494E-05
         0.19040E-04
        -0.44356E-05
        -0.96068E-05
        -0.87370E-05
        -0.85331E-05
        -0.10123E-04
         0.64037E-05
         0.49967E-05
        -0.71497E-06
         0.11108E-05
         0.12332E-04
         0.62413E-06
        -0.85049E-04
         0.12462E-03
        -0.26146E-03
        -0.27839E-03
        -0.26635E-03
        -0.14674E-03
         0.36395E-04
         0.10240E-03
         0.12668E-03
         0.23104E-03
         0.25907E-03
         0.10233E-03
         0.33849E-04
         0.28389E-04
        -0.12354E-04
        -0.12462E-03
        -0.22754E-03
        -0.29800E-03
        -0.19530E-03
         0.56796E-04
         0.10847E-03
         0.10453E-03
         0.18372E-03
         0.22282E-03
         0.14759E-03
         0.13891E-03
        -0.48101E-05
         0.64713E-06
        -0.10899E-05
        -0.82945E-06
         0.81090E-05
         0.31516E-05
         0.81661E-06
        -0.54565E-05
        -0.17510E-05
        -0.51617E-05
         0.36428E-06
        -0.87185E-05
        -0.16611E-04
         0.17500E-05
         0.21870E-04
        -0.35364E-05
         0.70139E-06
         0.31070E-06
         0.10166E-05
         0.30053E-06
         0.94651E-05
         0.62227E-05
        -0.35962E-05
         0.70510E-06
         0.18330E-05
        -0.26898E-06
         0.47945E-06
        -0.76708E-07
        -0.34247E-06
        -0.28459E-05
        -0.29346E-05
        -0.44827E-06
         0.11585E-05
         0.93018E-06
         0.18029E-05
        -0.35794E-05
        -0.77608E-05
         0.19158E-04
         0.32181E-05
         0.73821E-05
         0.19074E-04
        -0.44152E-05
        -0.96138E-05
        -0.87497E-05
        -0.85365E-05
        -0.10122E-04
         0.64050E-05
         0.49982E-05
        -0.70725E-06
         0.11069E-05
         0.12321E-04
         0.61096E-06
        -0.84937E-04
         0.12459E-03
        -0.26148E-03
        -0.27839E-03
        -0.26624E-03
        -0.14665E-03
         0.36416E-04
         0.10243E-03
         0.12655E-03
         0.23088E-03
         0.25898E-03
         0.10241E-03
         0.33851E-04
         0.28443E-04
        -0.12240E-04
        -0.12473E-03
        -0.22774E-03
        -0.29814E-03
        -0.19523E-03
         0.56808E-04
         0.10838E-03
         0.10448E-03
         0.18354E-03
         0.22253E-03
         0.14735E-03
         0.13866E-03
        -0.48199E-05
         0.65021E-06
        -0.10915E-05
        -0.83574E-06
         0.81024E-05
         0.31511E-05
         0.82197E-06
        -0.54482E-05
        -0.17555E-05
        -0.51711E-05
         0.35375E-06
        -0.87388E-05
        -0.16626E-04
         0.17471E-05
         0.21884E-04
        -0.35414E-05
         0.70929E-06
         0.30926E-06
         0.10170E-05
         0.29798E-06
         0.94885E-05
         0.62264E-05
        -0.36018E-05
         0.70420E-06
         0.18439E-05
        -0.26852E-06
         0.48667E-06
        -0.75431E-07
        -0.33988E-06
        -0.28520E-05
        -0.29387E-05
        -0.44535E-06
         0.11555E-05
         0.93211E-06
         0.17827E-05
        -0.35812E-05
        -0.77596E-05
         0.19217E-04
         0.32536E-05
         0.74139E-05
         0.19106E-04
        -0.43942E-05
        -0.96207E-05
        -0.87621E-05
        -0.85399E-05
        -0.10120E-04
         0.64062E-05
         0.49996E-05
        -0.69955E-06
         0.11030E-05
         0.12310E-04
         0.59779E-06
        -0.84825E-04
         0.12456E-03
        -0.26150E-03
        -0.27839E-03
        -0.26612E-03
        -0.14655E-03
         0.36437E-04
         0.10245E-03
         0.12641E-03
         0.23071E-03
         0.25890E-03
         0.10249E-03
         0.33852E-04
         0.28497E-04
        -0.12126E-04
        -0.12485E-03
        -0.22793E-03
        -0.29828E-03
        -0.19517E-03
         0.56821E-04
         0.10829E-03
         0.10444E-03
         0.18336E-03
         0.22223E-03
         0.14712E-03
         0.13841E-03
        -0.48297E-05
         0.65327E-06
        -0.10932E-05
        -0.84202E-06
         0.80957E-05
         0.31505E-05
         0.82735E-06
        -0.54398E-05
        -0.17599E-05
        -0.51798E-05
         0.34324E-06
        -0.87590E-05
        -0.16642E-04
         0.17441E-05
         0.21899E-04
        -0.35464E-05
         0.71731E-06
         0.30783E-06
         0.10173E-05
         0.29552E-06
         0.95120E-05
         0.62299E-05
        -0.36073E-05
         0.70335E-06
         0.18544E-05
        -0.26802E-06
         0.49418E-06
        -0.74053E-07
        -0.33725E-06
        -0.28577E-05
        -0.29428E-05
        -0.44249E-06
         0.11525E-05
         0.93402E-06
         0.17624E-05
        -0.35829E-05
        -0.77583E-05
         0.19276E-04
         0.32899E-05
         0.74457E-05
         0.19138E-04
        -0.43730E-05
        -0.96277E-05
        -0.87744E-05
        -0.85436E-05
        -0.10119E-04
         0.64075E-05
         0.50009E-05
        -0.69180E-06
         0.10991E-05
         0.12298E-04
         0.58457E-06
        -0.84713E-04
         0.12454E-03
        -0.26151E-03
        -0.27840E-03
        -0.26601E-03
        -0.14646E-03
         0.36458E-04
         0.10248E-03
         0.12628E-03
         0.23053E-03
         0.25883E-03
         0.10258E-03
         0.33851E-04
         0.28551E-04
        -0.12011E-04
        -0.12497E-03
        -0.22813E-03
        -0.29842E-03
        -0.19511E-03
         0.56834E-04
         0.10820E-03
         0.10440E-03
         0.18318E-03
         0.22194E-03
         0.14689E-03
         0.13817E-03
        -0.48396E-05
         0.65636E-06
        -0.10948E-05
        -0.84829E-06
         0.80895E-05
         0.31502E-05
         0.83275E-06
        -0.54315E-05
        -0.17642E-05
        -0.51884E-05
         0.33278E-06
        -0.87790E-05
        -0.16658E-04
         0.17410E-05
         0.21913E-04
        -0.35514E-05
         0.72539E-06
         0.30641E-06
         0.10176E-05
         0.29312E-06
         0.95355E-05
         0.62334E-05
        -0.36125E-05
         0.70256E-06
         0.18649E-05
        -0.26756E-06
         0.50147E-06
        -0.72606E-07
        -0.33459E-06
        -0.28634E-05
        -0.29470E-05
        -0.43968E-06
         0.11496E-05
         0.93599E-06
         0.17423E-05
        -0.35845E-05
        -0.77567E-05
         0.19335E-04
         0.33266E-05
         0.74765E-05
         0.19168E-04
        -0.43522E-05
        -0.96349E-05
        -0.87867E-05
        -0.85467E-05
        -0.10117E-04
         0.64089E-05
         0.50024E-05
        -0.68413E-06
         0.10952E-05
         0.12287E-04
         0.57149E-06
        -0.84601E-04
         0.12451E-03
        -0.26153E-03
        -0.27840E-03
        -0.26590E-03
        -0.14636E-03
         0.36478E-04
         0.10251E-03
         0.12615E-03
         0.23036E-03
         0.25875E-03
         0.10266E-03
         0.33848E-04
         0.28605E-04
        -0.11896E-04
        -0.12508E-03
        -0.22832E-03
        -0.29856E-03
        -0.19505E-03
         0.56848E-04
         0.10811E-03
         0.10435E-03
         0.18300E-03
         0.22164E-03
         0.14667E-03
         0.13792E-03
        -0.48830E-05
         0.66349E-06
        -0.11044E-05
        -0.86030E-06
         0.81369E-05
         0.31708E-05
         0.84347E-06
        -0.54615E-05
        -0.17805E-05
        -0.52326E-05
         0.32587E-06
        -0.88492E-05
        -0.16778E-04
         0.17499E-05
         0.22069E-04
        -0.35812E-05
         0.73811E-06
         0.30721E-06
         0.10246E-05
         0.29287E-06
         0.96178E-05
         0.62770E-05
        -0.36376E-05
         0.70702E-06
         0.18876E-05
        -0.26921E-06
         0.51163E-06
        -0.71608E-07
        -0.33488E-06
        -0.28887E-05
        -0.29720E-05
        -0.44069E-06
         0.11550E-05
         0.94450E-06
         0.17352E-05
        -0.36084E-05
        -0.78043E-05
         0.19517E-04
         0.33826E-05
         0.75548E-05
         0.19321E-04
        -0.43655E-05
        -0.97077E-05
        -0.88504E-05
        -0.86020E-05
        -0.10176E-04
         0.64504E-05
         0.50358E-05
        -0.68176E-06
         0.10985E-05
         0.12356E-04
         0.56235E-06
        -0.84941E-04
         0.12518E-03
        -0.26296E-03
        -0.27991E-03
        -0.26725E-03
        -0.14707E-03
         0.36719E-04
         0.10311E-03
         0.12676E-03
         0.23152E-03
         0.26017E-03
         0.10330E-03
         0.34021E-04
         0.28809E-04
        -0.11849E-04
        -0.12582E-03
        -0.22965E-03
        -0.30024E-03
        -0.19605E-03
         0.57184E-04
         0.10861E-03
         0.10487E-03
         0.18381E-03
         0.22256E-03
         0.14723E-03
         0.13841E-03
        -0.10766E-04
         0.14781E-05
        -0.24258E-05
        -0.19138E-05
         0.16618E-04
         0.66057E-05
         0.18693E-05
        -0.11898E-04
        -0.39073E-05
        -0.11358E-04
         0.68542E-06
        -0.17420E-04
        -0.34049E-04
         0.36974E-05
         0.43891E-04
        -0.79116E-05
         0.16309E-05
         0.67760E-06
         0.22010E-05
         0.63012E-06
         0.19534E-04
         0.13060E-04
        -0.74144E-05
         0.15425E-05
         0.41796E-05
        -0.59750E-06
         0.11089E-05
        -0.15569E-06
        -0.74208E-06
        -0.63742E-05
        -0.65689E-05
        -0.96733E-06
         0.25565E-05
         0.20922E-05
         0.33666E-05
        -0.74976E-05
        -0.16224E-04
         0.40616E-04
         0.72669E-05
         0.16300E-04
         0.40506E-04
        -0.92718E-05
        -0.20651E-04
        -0.18316E-04
        -0.17675E-04
        -0.19717E-04
         0.13161E-04
         0.10542E-04
        -0.14318E-05
         0.22978E-05
         0.24629E-04
         0.11454E-05
        -0.13090E-03
         0.19254E-03
        -0.40469E-03
        -0.43334E-03
        -0.41304E-03
        -0.22830E-03
         0.58370E-04
         0.16646E-03
         0.20370E-03
         0.36778E-03
         0.41446E-03
         0.16407E-03
         0.55231E-04
         0.47155E-04
        -0.18762E-04
        -0.19601E-03
        -0.35561E-03
        -0.45957E-03
        -0.29941E-03
         0.87618E-04
         0.16982E-03
         0.16545E-03
         0.28783E-03
         0.35088E-03
         0.23067E-03
         0.21527E-03
  
SCALARS                      strain_eq  double 1
LOOKUP_TABLE default
         0.63716E-01
         0.71151E-01
         0.66439E-01
         0.57960E-01
         0.90116E-09
         0.99921E-09
         0.97079E-09
         0.87352E-09
         0.71426E-01
         0.68902E-01
         0.98275E-09
         0.93984E-09
         0.81874E-01
         0.82268E-01
         0.10752E-08
         0.10239E-08
         0.59204E-01
         0.81692E-01
         0.80209E-09
         0.90212E-09
         0.89890E-01
         0.96239E-01
         0.86139E-01
         0.11074E-08
         0.10564E-08
         0.10507E-08
         0.95986E-01
         0.10521E+00
         0.10726E-08
         0.97420E-09
         0.59614E-01
         0.69424E-01
         0.50059E-01
         0.87283E-09
         0.81964E-09
         0.78512E-09
         0.65297E-01
         0.77754E-01
         0.95158E-09
         0.86753E-09
         0.70242E-01
         0.79841E-01
         0.88513E-09
         0.76360E-09
         0.62084E-01
         0.58452E-01
         0.95578E-09
         0.99118E-09
         0.87496E-01
         0.85661E-09
         0.59162E-01
         0.99603E-09
         0.98645E-01
         0.93650E-09
         0.10154E+00
         0.86443E-09
         0.10151E+00
         0.91174E-01
         0.87599E-09
         0.86138E-09
         0.59814E-01
         0.63594E-01
         0.88384E-09
         0.10005E-08
         0.57452E-01
         0.84833E-09
         0.61946E-01
         0.92911E-09
         0.73752E-01
         0.74911E-01
         0.99383E-09
         0.99319E-09
         0.77556E-01
         0.10051E-08
         0.10848E+00
         0.80341E-09
         0.11009E+00
         0.74779E-09
         0.10930E+00
         0.77899E-09
         0.10489E+00
         0.10023E+00
         0.75346E-09
         0.78260E-09
         0.90851E-01
         0.73703E-09
         0.62278E-01
         0.98960E-09
         0.66770E-01
         0.10077E-08
         0.70459E-01
         0.72452E-01
         0.10068E-08
         0.98762E-09
         0.69962E-01
         0.88627E-09
         0.68198E-01
         0.86777E-09
         0.69798E-01
         0.93861E-09
         0.70377E-01
         0.68751E-01
         0.96493E-09
         0.96230E-09
         0.79287E-01
         0.75067E-01
         0.91753E-09
         0.88565E-09
         0.80115E-01
         0.89106E-09
         0.75242E-01
         0.86995E-09
         0.80065E-01
         0.86891E-09
         0.90730E-01
         0.81463E-09
         0.10104E+00
         0.68931E-09
         0.10717E+00
         0.58245E-09
         0.10780E+00
         0.56491E-09
         0.10760E+00
         0.60187E-09
         0.10094E+00
         0.62087E-09
         0.88482E-01
         0.58162E-09
         0.74685E-01
         0.53083E-09
         0.66542E-01
         0.54938E-09
         0.58475E-01
         0.65121E-09
         0.53132E-01
         0.76024E-09
         0.53335E-01
         0.81027E-09
         0.66259E-01
         0.86518E-09
         0.75207E-01
         0.90922E-09
         0.78317E-01
         0.84832E-09
         0.73536E-01
         0.74687E-09
         0.71014E-01
         0.74542E-09
         0.75190E-01
         0.82027E-09
         0.75102E-01
         0.87041E-09
         0.71956E-01
         0.84223E-09
         0.67840E-01
         0.82345E-09
         0.23926E+00
         0.24289E+00
         0.24240E+00
         0.23763E+00
         0.24644E+00
         0.24204E+00
         0.24737E+00
         0.24460E+00
         0.23840E+00
         0.24230E+00
         0.25033E+00
         0.25145E+00
         0.24899E+00
         0.24867E+00
         0.25044E+00
         0.23786E+00
         0.23876E+00
         0.23623E+00
         0.24327E+00
         0.24201E+00
         0.24395E+00
         0.24278E+00
         0.24495E+00
         0.24426E+00
         0.24213E+00
         0.24226E+00
         0.24590E+00
         0.24556E+00
         0.24822E+00
         0.24421E+00
         0.23831E+00
         0.24293E+00
         0.23833E+00
         0.24138E+00
         0.25204E+00
         0.24863E+00
         0.24707E+00
         0.24903E+00
         0.24922E+00
         0.25221E+00
         0.25451E+00
         0.24912E+00
         0.24392E+00
         0.24457E+00
         0.24725E+00
         0.25194E+00
         0.24789E+00
         0.24357E+00
         0.24386E+00
         0.24721E+00
         0.25066E+00
         0.24605E+00
         0.26124E+00
         0.25764E+00
         0.25844E+00
         0.25769E+00
         0.25818E+00
         0.26062E+00
         0.26259E+00
         0.26282E+00
         0.26241E+00
         0.26278E+00
         0.26352E+00
         0.25816E+00
         0.25555E+00
         0.25456E+00
         0.25338E+00
         0.25251E+00
         0.25272E+00
         0.25466E+00
         0.26019E+00
         0.25906E+00
         0.25688E+00
         0.25670E+00
         0.25708E+00
         0.25883E+00
         0.25620E+00
         0.25526E+00
         0.64025E-02
         0.38470E-02
         0.36287E-02
         0.24883E-02
         0.66490E-02
         0.45971E-02
         0.20292E-02
         0.62970E-02
         0.39445E-02
         0.59336E-02
         0.28930E-02
         0.12467E-01
         0.94665E-02
         0.47346E-02
         0.13057E-01
         0.46522E-02
         0.23568E-02
         0.15037E-02
         0.31325E-02
         0.16959E-02
         0.98036E-02
         0.91975E-02
         0.89570E-02
         0.23309E-02
         0.38292E-02
         0.12176E-02
         0.44670E-02
         0.72553E-03
         0.16360E-02
         0.41534E-02
         0.39742E-02
         0.21139E-02
         0.25742E-02
         0.22269E-02
         0.85950E-02
         0.51433E-02
         0.66577E-02
         0.10648E-01
         0.81907E-02
         0.76234E-02
         0.10827E-01
         0.98152E-02
         0.98806E-02
         0.76489E-02
         0.68307E-02
         0.93443E-02
         0.61257E-02
         0.52088E-02
         0.42953E-02
         0.50722E-02
         0.82935E-02
         0.56940E-02
         0.36421E-01
         0.37292E-01
         0.38983E-01
         0.38699E-01
         0.41255E-01
         0.44297E-01
         0.42505E-01
         0.37793E-01
         0.36829E-01
         0.39417E-01
         0.38630E-01
         0.38104E-01
         0.31496E-01
         0.29940E-01
         0.32893E-01
         0.35234E-01
         0.36565E-01
         0.39933E-01
         0.38410E-01
         0.39451E-01
         0.35521E-01
         0.33726E-01
         0.35968E-01
         0.35162E-01
         0.36183E-01
         0.35878E-01
         0.64074E-02
         0.38478E-02
         0.36307E-02
         0.24918E-02
         0.66460E-02
         0.45944E-02
         0.20353E-02
         0.63031E-02
         0.39513E-02
         0.59511E-02
         0.28930E-02
         0.12466E-01
         0.94702E-02
         0.47235E-02
         0.13070E-01
         0.46559E-02
         0.23634E-02
         0.14999E-02
         0.31343E-02
         0.16922E-02
         0.98044E-02
         0.91968E-02
         0.89564E-02
         0.23308E-02
         0.38456E-02
         0.12173E-02
         0.44685E-02
         0.71785E-03
         0.16438E-02
         0.41607E-02
         0.39780E-02
         0.21132E-02
         0.25698E-02
         0.22289E-02
         0.85988E-02
         0.51419E-02
         0.66562E-02
         0.10665E-01
         0.82090E-02
         0.76340E-02
         0.10835E-01
         0.98204E-02
         0.98817E-02
         0.76488E-02
         0.68293E-02
         0.93438E-02
         0.61258E-02
         0.52084E-02
         0.42891E-02
         0.50653E-02
         0.82888E-02
         0.56852E-02
         0.36408E-01
         0.37283E-01
         0.38982E-01
         0.38700E-01
         0.41248E-01
         0.44282E-01
         0.42488E-01
         0.37783E-01
         0.36820E-01
         0.39405E-01
         0.38624E-01
         0.38106E-01
         0.31493E-01
         0.29939E-01
         0.32897E-01
         0.35242E-01
         0.36574E-01
         0.39941E-01
         0.38408E-01
         0.39448E-01
         0.35517E-01
         0.33724E-01
         0.35956E-01
         0.35139E-01
         0.36163E-01
         0.35859E-01
         0.64122E-02
         0.38488E-02
         0.36328E-02
         0.24954E-02
         0.66429E-02
         0.45919E-02
         0.20415E-02
         0.63092E-02
         0.39581E-02
         0.59684E-02
         0.28929E-02
         0.12466E-01
         0.94740E-02
         0.47124E-02
         0.13084E-01
         0.46597E-02
         0.23702E-02
         0.14961E-02
         0.31362E-02
         0.16885E-02
         0.98053E-02
         0.91962E-02
         0.89559E-02
         0.23307E-02
         0.38620E-02
         0.12169E-02
         0.44699E-02
         0.71045E-03
         0.16516E-02
         0.41678E-02
         0.39819E-02
         0.21125E-02
         0.25654E-02
         0.22309E-02
         0.86027E-02
         0.51405E-02
         0.66546E-02
         0.10681E-01
         0.82275E-02
         0.76446E-02
         0.10842E-01
         0.98256E-02
         0.98831E-02
         0.76490E-02
         0.68282E-02
         0.93435E-02
         0.61258E-02
         0.52080E-02
         0.42831E-02
         0.50583E-02
         0.82843E-02
         0.56765E-02
         0.36395E-01
         0.37274E-01
         0.38982E-01
         0.38700E-01
         0.41241E-01
         0.44267E-01
         0.42470E-01
         0.37773E-01
         0.36810E-01
         0.39393E-01
         0.38617E-01
         0.38107E-01
         0.31491E-01
         0.29938E-01
         0.32901E-01
         0.35251E-01
         0.36584E-01
         0.39950E-01
         0.38406E-01
         0.39446E-01
         0.35513E-01
         0.33721E-01
         0.35944E-01
         0.35116E-01
         0.36143E-01
         0.35840E-01
         0.64171E-02
         0.38496E-02
         0.36349E-02
         0.24990E-02
         0.66399E-02
         0.45892E-02
         0.20478E-02
         0.63152E-02
         0.39650E-02
         0.59854E-02
         0.28929E-02
         0.12465E-01
         0.94778E-02
         0.47014E-02
         0.13097E-01
         0.46639E-02
         0.23771E-02
         0.14922E-02
         0.31382E-02
         0.16847E-02
         0.98065E-02
         0.91958E-02
         0.89561E-02
         0.23305E-02
         0.38780E-02
         0.12164E-02
         0.44711E-02
         0.70393E-03
         0.16589E-02
         0.41742E-02
         0.39859E-02
         0.21120E-02
         0.25611E-02
         0.22329E-02
         0.86064E-02
         0.51391E-02
         0.66530E-02
         0.10698E-01
         0.82463E-02
         0.76559E-02
         0.10850E-01
         0.98310E-02
         0.98849E-02
         0.76498E-02
         0.68275E-02
         0.93434E-02
         0.61263E-02
         0.52078E-02
         0.42770E-02
         0.50513E-02
         0.82796E-02
         0.56677E-02
         0.36381E-01
         0.37266E-01
         0.38982E-01
         0.38700E-01
         0.41235E-01
         0.44252E-01
         0.42452E-01
         0.37763E-01
         0.36801E-01
         0.39381E-01
         0.38611E-01
         0.38109E-01
         0.31488E-01
         0.29937E-01
         0.32905E-01
         0.35261E-01
         0.36594E-01
         0.39959E-01
         0.38404E-01
         0.39444E-01
         0.35509E-01
         0.33719E-01
         0.35931E-01
         0.35093E-01
         0.36122E-01
         0.35821E-01
         0.64219E-02
         0.38505E-02
         0.36369E-02
         0.25026E-02
         0.66369E-02
         0.45866E-02
         0.20539E-02
         0.63211E-02
         0.39717E-02
         0.60020E-02
         0.28930E-02
         0.12465E-01
         0.94816E-02
         0.46903E-02
         0.13111E-01
         0.46684E-02
         0.23844E-02
         0.14883E-02
         0.31403E-02
         0.16807E-02
         0.98081E-02
         0.91956E-02
         0.89566E-02
         0.23301E-02
         0.38936E-02
         0.12155E-02
         0.44722E-02
         0.69824E-03
         0.16657E-02
         0.41800E-02
         0.39901E-02
         0.21115E-02
         0.25567E-02
         0.22350E-02
         0.86103E-02
         0.51377E-02
         0.66515E-02
         0.10715E-01
         0.82653E-02
         0.76676E-02
         0.10858E-01
         0.98367E-02
         0.98872E-02
         0.76515E-02
         0.68272E-02
         0.93438E-02
         0.61271E-02
         0.52077E-02
         0.42710E-02
         0.50442E-02
         0.82751E-02
         0.56589E-02
         0.36368E-01
         0.37257E-01
         0.38982E-01
         0.38700E-01
         0.41228E-01
         0.44237E-01
         0.42435E-01
         0.37753E-01
         0.36792E-01
         0.39369E-01
         0.38605E-01
         0.38111E-01
         0.31487E-01
         0.29936E-01
         0.32910E-01
         0.35272E-01
         0.36607E-01
         0.39969E-01
         0.38402E-01
         0.39442E-01
         0.35505E-01
         0.33717E-01
         0.35919E-01
         0.35070E-01
         0.36102E-01
         0.35802E-01
         0.64265E-02
         0.38511E-02
         0.36389E-02
         0.25062E-02
         0.66339E-02
         0.45840E-02
         0.20600E-02
         0.63267E-02
         0.39785E-02
         0.60181E-02
         0.28933E-02
         0.12465E-01
         0.94854E-02
         0.46792E-02
         0.13124E-01
         0.46730E-02
         0.23916E-02
         0.14845E-02
         0.31423E-02
         0.16769E-02
         0.98098E-02
         0.91956E-02
         0.89575E-02
         0.23298E-02
         0.39089E-02
         0.12146E-02
         0.44733E-02
         0.69299E-03
         0.16725E-02
         0.41855E-02
         0.39942E-02
         0.21109E-02
         0.25523E-02
         0.22370E-02
         0.86142E-02
         0.51365E-02
         0.66502E-02
         0.10731E-01
         0.82847E-02
         0.76797E-02
         0.10867E-01
         0.98425E-02
         0.98896E-02
         0.76533E-02
         0.68274E-02
         0.93447E-02
         0.61279E-02
         0.52078E-02
         0.42653E-02
         0.50374E-02
         0.82707E-02
         0.56504E-02
         0.36355E-01
         0.37248E-01
         0.38982E-01
         0.38701E-01
         0.41221E-01
         0.44222E-01
         0.42417E-01
         0.37743E-01
         0.36782E-01
         0.39358E-01
         0.38599E-01
         0.38114E-01
         0.31486E-01
         0.29936E-01
         0.32915E-01
         0.35284E-01
         0.36619E-01
         0.39978E-01
         0.38400E-01
         0.39439E-01
         0.35502E-01
         0.33715E-01
         0.35907E-01
         0.35047E-01
         0.36082E-01
         0.35783E-01
         0.64306E-02
         0.38513E-02
         0.36408E-02
         0.25098E-02
         0.66310E-02
         0.45815E-02
         0.20658E-02
         0.63314E-02
         0.39855E-02
         0.60335E-02
         0.28941E-02
         0.12465E-01
         0.94896E-02
         0.46683E-02
         0.13138E-01
         0.46776E-02
         0.23988E-02
         0.14806E-02
         0.31444E-02
         0.16731E-02
         0.98115E-02
         0.91956E-02
         0.89585E-02
         0.23295E-02
         0.39237E-02
         0.12135E-02
         0.44744E-02
         0.68789E-03
         0.16794E-02
         0.41911E-02
         0.39980E-02
         0.21099E-02
         0.25479E-02
         0.22389E-02
         0.86182E-02
         0.51355E-02
         0.66491E-02
         0.10748E-01
         0.83042E-02
         0.76917E-02
         0.10875E-01
         0.98484E-02
         0.98922E-02
         0.76553E-02
         0.68278E-02
         0.93459E-02
         0.61292E-02
         0.52084E-02
         0.42604E-02
         0.50309E-02
         0.82666E-02
         0.56418E-02
         0.36342E-01
         0.37239E-01
         0.38981E-01
         0.38701E-01
         0.41214E-01
         0.44207E-01
         0.42399E-01
         0.37733E-01
         0.36773E-01
         0.39345E-01
         0.38592E-01
         0.38117E-01
         0.31485E-01
         0.29935E-01
         0.32920E-01
         0.35296E-01
         0.36632E-01
         0.39988E-01
         0.38397E-01
         0.39437E-01
         0.35498E-01
         0.33714E-01
         0.35894E-01
         0.35024E-01
         0.36061E-01
         0.35764E-01
         0.64347E-02
         0.38513E-02
         0.36427E-02
         0.25134E-02
         0.66283E-02
         0.45788E-02
         0.20714E-02
         0.63357E-02
         0.39925E-02
         0.60487E-02
         0.28951E-02
         0.12465E-01
         0.94939E-02
         0.46574E-02
         0.13152E-01
         0.46823E-02
         0.24058E-02
         0.14767E-02
         0.31465E-02
         0.16695E-02
         0.98131E-02
         0.91956E-02
         0.89595E-02
         0.23292E-02
         0.39383E-02
         0.12124E-02
         0.44756E-02
         0.68298E-03
         0.16865E-02
         0.41967E-02
         0.40017E-02
         0.21086E-02
         0.25435E-02
         0.22409E-02
         0.86225E-02
         0.51348E-02
         0.66482E-02
         0.10765E-01
         0.83237E-02
         0.77039E-02
         0.10884E-01
         0.98544E-02
         0.98947E-02
         0.76574E-02
         0.68285E-02
         0.93474E-02
         0.61308E-02
         0.52092E-02
         0.42558E-02
         0.50245E-02
         0.82626E-02
         0.56334E-02
         0.36329E-01
         0.37230E-01
         0.38981E-01
         0.38701E-01
         0.41207E-01
         0.44192E-01
         0.42381E-01
         0.37722E-01
         0.36764E-01
         0.39333E-01
         0.38586E-01
         0.38119E-01
         0.31484E-01
         0.29935E-01
         0.32925E-01
         0.35308E-01
         0.36645E-01
         0.39997E-01
         0.38395E-01
         0.39434E-01
         0.35495E-01
         0.33712E-01
         0.35882E-01
         0.35001E-01
         0.36041E-01
         0.35745E-01
         0.64387E-02
         0.38513E-02
         0.36446E-02
         0.25170E-02
         0.66254E-02
         0.45762E-02
         0.20770E-02
         0.63401E-02
         0.39995E-02
         0.60638E-02
         0.28960E-02
         0.12465E-01
         0.94982E-02
         0.46466E-02
         0.13165E-01
         0.46869E-02
         0.24129E-02
         0.14728E-02
         0.31486E-02
         0.16658E-02
         0.98148E-02
         0.91957E-02
         0.89605E-02
         0.23290E-02
         0.39528E-02
         0.12112E-02
         0.44769E-02
         0.67820E-03
         0.16937E-02
         0.42022E-02
         0.40054E-02
         0.21074E-02
         0.25391E-02
         0.22428E-02
         0.86267E-02
         0.51339E-02
         0.66473E-02
         0.10783E-01
         0.83434E-02
         0.77160E-02
         0.10892E-01
         0.98604E-02
         0.98973E-02
         0.76597E-02
         0.68292E-02
         0.93489E-02
         0.61322E-02
         0.52100E-02
         0.42513E-02
         0.50182E-02
         0.82588E-02
         0.56250E-02
         0.36315E-01
         0.37221E-01
         0.38980E-01
         0.38701E-01
         0.41201E-01
         0.44177E-01
         0.42363E-01
         0.37712E-01
         0.36755E-01
         0.39321E-01
         0.38580E-01
         0.38122E-01
         0.31483E-01
         0.29934E-01
         0.32930E-01
         0.35319E-01
         0.36657E-01
         0.40006E-01
         0.38392E-01
         0.39432E-01
         0.35492E-01
         0.33710E-01
         0.35869E-01
         0.34978E-01
         0.36021E-01
         0.35726E-01
         0.64426E-02
         0.38512E-02
         0.36464E-02
         0.25207E-02
         0.66226E-02
         0.45736E-02
         0.20827E-02
         0.63444E-02
         0.40066E-02
         0.60789E-02
         0.28971E-02
         0.12465E-01
         0.95026E-02
         0.46358E-02
         0.13179E-01
         0.46915E-02
         0.24201E-02
         0.14689E-02
         0.31507E-02
         0.16621E-02
         0.98165E-02
         0.91956E-02
         0.89613E-02
         0.23287E-02
         0.39674E-02
         0.12101E-02
         0.44782E-02
         0.67360E-03
         0.17009E-02
         0.42078E-02
         0.40090E-02
         0.21061E-02
         0.25347E-02
         0.22447E-02
         0.86308E-02
         0.51331E-02
         0.66464E-02
         0.10800E-01
         0.83630E-02
         0.77282E-02
         0.10901E-01
         0.98664E-02
         0.98999E-02
         0.76618E-02
         0.68299E-02
         0.93504E-02
         0.61337E-02
         0.52109E-02
         0.42468E-02
         0.50117E-02
         0.82548E-02
         0.56165E-02
         0.36302E-01
         0.37213E-01
         0.38980E-01
         0.38702E-01
         0.41194E-01
         0.44162E-01
         0.42345E-01
         0.37702E-01
         0.36746E-01
         0.39309E-01
         0.38573E-01
         0.38124E-01
         0.31481E-01
         0.29933E-01
         0.32935E-01
         0.35331E-01
         0.36670E-01
         0.40016E-01
         0.38390E-01
         0.39429E-01
         0.35489E-01
         0.33709E-01
         0.35857E-01
         0.34955E-01
         0.36001E-01
         0.35707E-01
         0.64466E-02
         0.38512E-02
         0.36482E-02
         0.25243E-02
         0.66199E-02
         0.45711E-02
         0.20884E-02
         0.63487E-02
         0.40136E-02
         0.60940E-02
         0.28982E-02
         0.12465E-01
         0.95069E-02
         0.46250E-02
         0.13193E-01
         0.46962E-02
         0.24272E-02
         0.14651E-02
         0.31528E-02
         0.16584E-02
         0.98181E-02
         0.91956E-02
         0.89623E-02
         0.23285E-02
         0.39819E-02
         0.12090E-02
         0.44795E-02
         0.66911E-03
         0.17082E-02
         0.42133E-02
         0.40127E-02
         0.21049E-02
         0.25303E-02
         0.22467E-02
         0.86351E-02
         0.51323E-02
         0.66455E-02
         0.10817E-01
         0.83826E-02
         0.77401E-02
         0.10910E-01
         0.98723E-02
         0.99024E-02
         0.76639E-02
         0.68306E-02
         0.93519E-02
         0.61352E-02
         0.52117E-02
         0.42423E-02
         0.50054E-02
         0.82510E-02
         0.56081E-02
         0.36289E-01
         0.37204E-01
         0.38979E-01
         0.38702E-01
         0.41187E-01
         0.44147E-01
         0.42327E-01
         0.37692E-01
         0.36736E-01
         0.39297E-01
         0.38567E-01
         0.38127E-01
         0.31480E-01
         0.29933E-01
         0.32940E-01
         0.35343E-01
         0.36682E-01
         0.40025E-01
         0.38387E-01
         0.39427E-01
         0.35486E-01
         0.33707E-01
         0.35844E-01
         0.34932E-01
         0.35981E-01
         0.35688E-01
         0.64506E-02
         0.38511E-02
         0.36501E-02
         0.25280E-02
         0.66170E-02
         0.45685E-02
         0.20941E-02
         0.63530E-02
         0.40207E-02
         0.61090E-02
         0.28994E-02
         0.12465E-01
         0.95111E-02
         0.46142E-02
         0.13207E-01
         0.47008E-02
         0.24343E-02
         0.14611E-02
         0.31548E-02
         0.16548E-02
         0.98198E-02
         0.91956E-02
         0.89633E-02
         0.23284E-02
         0.39964E-02
         0.12079E-02
         0.44808E-02
         0.66481E-03
         0.17154E-02
         0.42189E-02
         0.40164E-02
         0.21036E-02
         0.25260E-02
         0.22486E-02
         0.86394E-02
         0.51315E-02
         0.66446E-02
         0.10834E-01
         0.84023E-02
         0.77523E-02
         0.10918E-01
         0.98783E-02
         0.99050E-02
         0.76660E-02
         0.68313E-02
         0.93535E-02
         0.61367E-02
         0.52127E-02
         0.42378E-02
         0.49991E-02
         0.82470E-02
         0.55997E-02
         0.36275E-01
         0.37195E-01
         0.38979E-01
         0.38702E-01
         0.41180E-01
         0.44132E-01
         0.42309E-01
         0.37682E-01
         0.36727E-01
         0.39285E-01
         0.38561E-01
         0.38129E-01
         0.31479E-01
         0.29932E-01
         0.32945E-01
         0.35355E-01
         0.36695E-01
         0.40034E-01
         0.38384E-01
         0.39425E-01
         0.35483E-01
         0.33706E-01
         0.35832E-01
         0.34909E-01
         0.35961E-01
         0.35669E-01
         0.64545E-02
         0.38511E-02
         0.36519E-02
         0.25317E-02
         0.66142E-02
         0.45659E-02
         0.20998E-02
         0.63573E-02
         0.40277E-02
         0.61240E-02
         0.29006E-02
         0.12465E-01
         0.95155E-02
         0.46034E-02
         0.13220E-01
         0.47054E-02
         0.24414E-02
         0.14572E-02
         0.31569E-02
         0.16511E-02
         0.98215E-02
         0.91956E-02
         0.89642E-02
         0.23282E-02
         0.40108E-02
         0.12068E-02
         0.44821E-02
         0.66063E-03
         0.17228E-02
         0.42244E-02
         0.40200E-02
         0.21024E-02
         0.25216E-02
         0.22506E-02
         0.86436E-02
         0.51308E-02
         0.66437E-02
         0.10851E-01
         0.84220E-02
         0.77644E-02
         0.10927E-01
         0.98842E-02
         0.99076E-02
         0.76683E-02
         0.68321E-02
         0.93548E-02
         0.61382E-02
         0.52135E-02
         0.42334E-02
         0.49927E-02
         0.82430E-02
         0.55912E-02
         0.36262E-01
         0.37186E-01
         0.38978E-01
         0.38702E-01
         0.41173E-01
         0.44117E-01
         0.42290E-01
         0.37671E-01
         0.36718E-01
         0.39272E-01
         0.38554E-01
         0.38132E-01
         0.31478E-01
         0.29932E-01
         0.32950E-01
         0.35366E-01
         0.36708E-01
         0.40043E-01
         0.38382E-01
         0.39422E-01
         0.35479E-01
         0.33704E-01
         0.35820E-01
         0.34887E-01
         0.35941E-01
         0.35650E-01
         0.64584E-02
         0.38511E-02
         0.36538E-02
         0.25353E-02
         0.66115E-02
         0.45632E-02
         0.21055E-02
         0.63616E-02
         0.40348E-02
         0.61391E-02
         0.29018E-02
         0.12465E-01
         0.95198E-02
         0.45926E-02
         0.13234E-01
         0.47100E-02
         0.24486E-02
         0.14534E-02
         0.31590E-02
         0.16475E-02
         0.98231E-02
         0.91956E-02
         0.89653E-02
         0.23280E-02
         0.40253E-02
         0.12057E-02
         0.44833E-02
         0.65662E-03
         0.17303E-02
         0.42299E-02
         0.40236E-02
         0.21011E-02
         0.25173E-02
         0.22525E-02
         0.86479E-02
         0.51300E-02
         0.66428E-02
         0.10868E-01
         0.84418E-02
         0.77764E-02
         0.10936E-01
         0.98901E-02
         0.99101E-02
         0.76704E-02
         0.68327E-02
         0.93563E-02
         0.61398E-02
         0.52143E-02
         0.42288E-02
         0.49864E-02
         0.82392E-02
         0.55829E-02
         0.36249E-01
         0.37178E-01
         0.38978E-01
         0.38702E-01
         0.41167E-01
         0.44101E-01
         0.42272E-01
         0.37661E-01
         0.36709E-01
         0.39260E-01
         0.38548E-01
         0.38134E-01
         0.31476E-01
         0.29931E-01
         0.32955E-01
         0.35378E-01
         0.36720E-01
         0.40053E-01
         0.38379E-01
         0.39420E-01
         0.35476E-01
         0.33703E-01
         0.35807E-01
         0.34864E-01
         0.35921E-01
         0.35631E-01
         0.64624E-02
         0.38511E-02
         0.36556E-02
         0.25390E-02
         0.66087E-02
         0.45606E-02
         0.21112E-02
         0.63659E-02
         0.40419E-02
         0.61541E-02
         0.29031E-02
         0.12465E-01
         0.95240E-02
         0.45819E-02
         0.13248E-01
         0.47146E-02
         0.24558E-02
         0.14495E-02
         0.31611E-02
         0.16438E-02
         0.98249E-02
         0.91956E-02
         0.89661E-02
         0.23278E-02
         0.40397E-02
         0.12046E-02
         0.44846E-02
         0.65272E-03
         0.17379E-02
         0.42354E-02
         0.40273E-02
         0.20999E-02
         0.25131E-02
         0.22545E-02
         0.86520E-02
         0.51293E-02
         0.66419E-02
         0.10886E-01
         0.84615E-02
         0.77884E-02
         0.10944E-01
         0.98961E-02
         0.99127E-02
         0.76726E-02
         0.68334E-02
         0.93579E-02
         0.61412E-02
         0.52152E-02
         0.42243E-02
         0.49800E-02
         0.82352E-02
         0.55744E-02
         0.36236E-01
         0.37169E-01
         0.38977E-01
         0.38702E-01
         0.41160E-01
         0.44086E-01
         0.42254E-01
         0.37651E-01
         0.36700E-01
         0.39247E-01
         0.38542E-01
         0.38137E-01
         0.31475E-01
         0.29931E-01
         0.32960E-01
         0.35390E-01
         0.36733E-01
         0.40062E-01
         0.38377E-01
         0.39417E-01
         0.35473E-01
         0.33701E-01
         0.35794E-01
         0.34841E-01
         0.35901E-01
         0.35612E-01
         0.64663E-02
         0.38510E-02
         0.36574E-02
         0.25427E-02
         0.66059E-02
         0.45581E-02
         0.21170E-02
         0.63702E-02
         0.40490E-02
         0.61691E-02
         0.29044E-02
         0.12465E-01
         0.95284E-02
         0.45712E-02
         0.13262E-01
         0.47193E-02
         0.24629E-02
         0.14456E-02
         0.31631E-02
         0.16402E-02
         0.98265E-02
         0.91955E-02
         0.89671E-02
         0.23276E-02
         0.40541E-02
         0.12035E-02
         0.44859E-02
         0.64897E-03
         0.17455E-02
         0.42409E-02
         0.40309E-02
         0.20986E-02
         0.25088E-02
         0.22565E-02
         0.86564E-02
         0.51285E-02
         0.66410E-02
         0.10903E-01
         0.84812E-02
         0.78003E-02
         0.10953E-01
         0.99020E-02
         0.99152E-02
         0.76746E-02
         0.68342E-02
         0.93594E-02
         0.61427E-02
         0.52161E-02
         0.42199E-02
         0.49736E-02
         0.82313E-02
         0.55660E-02
         0.36222E-01
         0.37160E-01
         0.38976E-01
         0.38703E-01
         0.41153E-01
         0.44071E-01
         0.42235E-01
         0.37640E-01
         0.36690E-01
         0.39235E-01
         0.38536E-01
         0.38139E-01
         0.31474E-01
         0.29930E-01
         0.32965E-01
         0.35402E-01
         0.36746E-01
         0.40071E-01
         0.38374E-01
         0.39415E-01
         0.35470E-01
         0.33700E-01
         0.35782E-01
         0.34818E-01
         0.35881E-01
         0.35593E-01
         0.64702E-02
         0.38509E-02
         0.36593E-02
         0.25464E-02
         0.66032E-02
         0.45555E-02
         0.21227E-02
         0.63745E-02
         0.40561E-02
         0.61841E-02
         0.29058E-02
         0.12466E-01
         0.95327E-02
         0.45604E-02
         0.13275E-01
         0.47239E-02
         0.24702E-02
         0.14418E-02
         0.31652E-02
         0.16365E-02
         0.98282E-02
         0.91954E-02
         0.89681E-02
         0.23275E-02
         0.40685E-02
         0.12024E-02
         0.44870E-02
         0.64530E-03
         0.17531E-02
         0.42463E-02
         0.40346E-02
         0.20974E-02
         0.25046E-02
         0.22585E-02
         0.86608E-02
         0.51277E-02
         0.66401E-02
         0.10920E-01
         0.85010E-02
         0.78122E-02
         0.10961E-01
         0.99078E-02
         0.99176E-02
         0.76768E-02
         0.68350E-02
         0.93609E-02
         0.61443E-02
         0.52170E-02
         0.42154E-02
         0.49673E-02
         0.82274E-02
         0.55577E-02
         0.36209E-01
         0.37151E-01
         0.38976E-01
         0.38703E-01
         0.41146E-01
         0.44056E-01
         0.42217E-01
         0.37630E-01
         0.36681E-01
         0.39222E-01
         0.38529E-01
         0.38142E-01
         0.31473E-01
         0.29930E-01
         0.32970E-01
         0.35413E-01
         0.36758E-01
         0.40080E-01
         0.38372E-01
         0.39412E-01
         0.35467E-01
         0.33698E-01
         0.35769E-01
         0.34795E-01
         0.35861E-01
         0.35574E-01
         0.64741E-02
         0.38509E-02
         0.36611E-02
         0.25501E-02
         0.66004E-02
         0.45529E-02
         0.21285E-02
         0.63787E-02
         0.40633E-02
         0.61989E-02
         0.29071E-02
         0.12466E-01
         0.95370E-02
         0.45496E-02
         0.13289E-01
         0.47285E-02
         0.24774E-02
         0.14379E-02
         0.31673E-02
         0.16330E-02
         0.98299E-02
         0.91954E-02
         0.89691E-02
         0.23273E-02
         0.40829E-02
         0.12014E-02
         0.44878E-02
         0.64160E-03
         0.17608E-02
         0.42514E-02
         0.40383E-02
         0.20962E-02
         0.25004E-02
         0.22604E-02
         0.86650E-02
         0.51270E-02
         0.66392E-02
         0.10937E-01
         0.85207E-02
         0.78235E-02
         0.10969E-01
         0.99131E-02
         0.99199E-02
         0.76790E-02
         0.68357E-02
         0.93625E-02
         0.61458E-02
         0.52179E-02
         0.42109E-02
         0.49609E-02
         0.82236E-02
         0.55492E-02
         0.36196E-01
         0.37143E-01
         0.38975E-01
         0.38703E-01
         0.41139E-01
         0.44041E-01
         0.42199E-01
         0.37620E-01
         0.36672E-01
         0.39209E-01
         0.38523E-01
         0.38146E-01
         0.31473E-01
         0.29929E-01
         0.32975E-01
         0.35425E-01
         0.36771E-01
         0.40090E-01
         0.38369E-01
         0.39410E-01
         0.35464E-01
         0.33696E-01
         0.35757E-01
         0.34772E-01
         0.35841E-01
         0.35555E-01
         0.64780E-02
         0.38509E-02
         0.36629E-02
         0.25538E-02
         0.65976E-02
         0.45503E-02
         0.21342E-02
         0.63830E-02
         0.40705E-02
         0.62136E-02
         0.29086E-02
         0.12466E-01
         0.95414E-02
         0.45387E-02
         0.13303E-01
         0.47331E-02
         0.24846E-02
         0.14340E-02
         0.31694E-02
         0.16295E-02
         0.98317E-02
         0.91951E-02
         0.89701E-02
         0.23272E-02
         0.40971E-02
         0.12003E-02
         0.44883E-02
         0.63787E-03
         0.17685E-02
         0.42563E-02
         0.40419E-02
         0.20949E-02
         0.24961E-02
         0.22624E-02
         0.86693E-02
         0.51262E-02
         0.66384E-02
         0.10955E-01
         0.85402E-02
         0.78347E-02
         0.10977E-01
         0.99179E-02
         0.99219E-02
         0.76812E-02
         0.68365E-02
         0.93641E-02
         0.61473E-02
         0.52187E-02
         0.42065E-02
         0.49545E-02
         0.82196E-02
         0.55407E-02
         0.36182E-01
         0.37134E-01
         0.38974E-01
         0.38703E-01
         0.41133E-01
         0.44025E-01
         0.42180E-01
         0.37610E-01
         0.36663E-01
         0.39195E-01
         0.38517E-01
         0.38151E-01
         0.31473E-01
         0.29929E-01
         0.32980E-01
         0.35437E-01
         0.36784E-01
         0.40099E-01
         0.38367E-01
         0.39407E-01
         0.35461E-01
         0.33695E-01
         0.35744E-01
         0.34749E-01
         0.35821E-01
         0.35536E-01
         0.64819E-02
         0.38509E-02
         0.36648E-02
         0.25576E-02
         0.65950E-02
         0.45478E-02
         0.21400E-02
         0.63872E-02
         0.40777E-02
         0.62283E-02
         0.29100E-02
         0.12466E-01
         0.95456E-02
         0.45278E-02
         0.13317E-01
         0.47377E-02
         0.24918E-02
         0.14302E-02
         0.31715E-02
         0.16261E-02
         0.98333E-02
         0.91949E-02
         0.89710E-02
         0.23271E-02
         0.41114E-02
         0.11993E-02
         0.44887E-02
         0.63415E-03
         0.17763E-02
         0.42611E-02
         0.40456E-02
         0.20937E-02
         0.24920E-02
         0.22645E-02
         0.86738E-02
         0.51256E-02
         0.66374E-02
         0.10972E-01
         0.85598E-02
         0.78455E-02
         0.10984E-01
         0.99225E-02
         0.99239E-02
         0.76833E-02
         0.68372E-02
         0.93656E-02
         0.61489E-02
         0.52197E-02
         0.42021E-02
         0.49481E-02
         0.82158E-02
         0.55325E-02
         0.36169E-01
         0.37125E-01
         0.38974E-01
         0.38703E-01
         0.41126E-01
         0.44010E-01
         0.42162E-01
         0.37599E-01
         0.36653E-01
         0.39181E-01
         0.38511E-01
         0.38156E-01
         0.31473E-01
         0.29928E-01
         0.32985E-01
         0.35448E-01
         0.36796E-01
         0.40108E-01
         0.38364E-01
         0.39405E-01
         0.35457E-01
         0.33693E-01
         0.35731E-01
         0.34727E-01
         0.35801E-01
         0.35517E-01
         0.66093E-02
         0.40450E-02
         0.38664E-02
         0.27894E-02
         0.67554E-02
         0.47377E-02
         0.25081E-02
         0.65445E-02
         0.42516E-02
         0.63983E-02
         0.32524E-02
         0.12616E-01
         0.96961E-02
         0.47659E-02
         0.13483E-01
         0.48840E-02
         0.27725E-02
         0.17672E-02
         0.34137E-02
         0.20751E-02
         0.99609E-02
         0.93280E-02
         0.90952E-02
         0.26138E-02
         0.43408E-02
         0.16474E-02
         0.47330E-02
         0.15439E-02
         0.22826E-02
         0.44897E-02
         0.42124E-02
         0.24014E-02
         0.27247E-02
         0.25444E-02
         0.88381E-02
         0.53194E-02
         0.67970E-02
         0.11143E-01
         0.87470E-02
         0.80306E-02
         0.11141E-01
         0.10072E-01
         0.10060E-01
         0.78137E-02
         0.69868E-02
         0.95193E-02
         0.63232E-02
         0.53943E-02
         0.43964E-02
         0.51294E-02
         0.83667E-02
         0.56994E-02
         0.36362E-01
         0.37317E-01
         0.39179E-01
         0.38902E-01
         0.41328E-01
         0.44218E-01
         0.42369E-01
         0.37809E-01
         0.36865E-01
         0.39396E-01
         0.38726E-01
         0.38365E-01
         0.31651E-01
         0.30095E-01
         0.33157E-01
         0.35629E-01
         0.36980E-01
         0.40308E-01
         0.38569E-01
         0.39612E-01
         0.35643E-01
         0.33872E-01
         0.35908E-01
         0.34893E-01
         0.35968E-01
         0.35684E-01
         0.15574E-01
         0.14025E-01
         0.13741E-01
         0.12177E-01
         0.16963E-01
         0.14815E-01
         0.14162E-01
         0.16804E-01
         0.13425E-01
         0.16665E-01
         0.15678E-01
         0.24285E-01
         0.20493E-01
         0.16841E-01
         0.25634E-01
         0.13704E-01
         0.13126E-01
         0.11260E-01
         0.13794E-01
         0.13839E-01
         0.19866E-01
         0.19562E-01
         0.18644E-01
         0.12975E-01
         0.15332E-01
         0.12224E-01
         0.16798E-01
         0.15233E-01
         0.15501E-01
         0.15847E-01
         0.13312E-01
         0.12840E-01
         0.12226E-01
         0.12621E-01
         0.19617E-01
         0.15977E-01
         0.17134E-01
         0.23156E-01
         0.20698E-01
         0.19941E-01
         0.22962E-01
         0.21394E-01
         0.20791E-01
         0.17243E-01
         0.16891E-01
         0.20166E-01
         0.16756E-01
         0.15428E-01
         0.14539E-01
         0.15420E-01
         0.18788E-01
         0.15836E-01
         0.51007E-01
         0.51734E-01
         0.54035E-01
         0.53547E-01
         0.56528E-01
         0.60405E-01
         0.58997E-01
         0.54172E-01
         0.53110E-01
         0.55949E-01
         0.54928E-01
         0.53808E-01
         0.45579E-01
         0.43410E-01
         0.46456E-01
         0.48930E-01
         0.50420E-01
         0.54629E-01
         0.53291E-01
         0.54543E-01
         0.49788E-01
         0.47680E-01
         0.50127E-01
         0.49051E-01
         0.50035E-01
         0.49544E-01
  
SCALARS                     nodal_mass  double 1
LOOKUP_TABLE default
         0.24608E-05
         0.19551E-05
         0.20945E-05
         0.35953E-05
         0.12304E-05
         0.97770E-06
         0.10472E-05
         0.17973E-05
         0.19315E-05
         0.24627E-05
         0.96570E-06
         0.12312E-05
         0.13823E-05
         0.16614E-05
         0.69133E-06
         0.83095E-06
         0.27274E-05
         0.20125E-05
         0.13635E-05
         0.10066E-05
         0.81737E-06
         0.15393E-05
         0.16929E-05
         0.40889E-06
         0.76975E-06
         0.84649E-06
         0.13859E-05
         0.17532E-05
         0.69345E-06
         0.87672E-06
         0.32470E-05
         0.25355E-05
         0.32225E-05
         0.16233E-05
         0.12675E-05
         0.16109E-05
         0.18980E-05
         0.21673E-05
         0.94902E-06
         0.10836E-05
         0.20482E-05
         0.22683E-05
         0.10242E-05
         0.11342E-05
         0.17426E-05
         0.10823E-05
         0.87140E-06
         0.54121E-06
         0.20598E-05
         0.10301E-05
         0.17103E-05
         0.85523E-06
         0.17977E-05
         0.89958E-06
         0.18362E-05
         0.91859E-06
         0.15911E-05
         0.19369E-05
         0.79575E-06
         0.96860E-06
         0.24553E-05
         0.17361E-05
         0.12277E-05
         0.86816E-06
         0.27409E-05
         0.13702E-05
         0.23792E-05
         0.11891E-05
         0.10821E-05
         0.16705E-05
         0.54106E-06
         0.83538E-06
         0.18955E-05
         0.94787E-06
         0.20026E-05
         0.10014E-05
         0.19316E-05
         0.96578E-06
         0.15181E-05
         0.75906E-06
         0.95443E-06
         0.15782E-05
         0.47723E-06
         0.78918E-06
         0.20886E-05
         0.10443E-05
         0.16867E-05
         0.84342E-06
         0.14838E-05
         0.74203E-06
         0.97224E-06
         0.16569E-05
         0.48620E-06
         0.82849E-06
         0.22482E-05
         0.11241E-05
         0.23568E-05
         0.11783E-05
         0.19018E-05
         0.95085E-06
         0.11709E-05
         0.20091E-05
         0.58544E-06
         0.10044E-05
         0.74681E-06
         0.94889E-06
         0.37348E-06
         0.47447E-06
         0.88885E-06
         0.44455E-06
         0.10466E-05
         0.52333E-06
         0.10205E-05
         0.51021E-06
         0.99108E-06
         0.49550E-06
         0.10560E-05
         0.52791E-06
         0.11142E-05
         0.55694E-06
         0.10497E-05
         0.52469E-06
         0.82085E-06
         0.41039E-06
         0.66950E-06
         0.33475E-06
         0.86397E-06
         0.43199E-06
         0.11504E-05
         0.57519E-06
         0.12637E-05
         0.63182E-06
         0.12132E-05
         0.60658E-06
         0.10948E-05
         0.54745E-06
         0.99429E-06
         0.49718E-06
         0.80759E-06
         0.40382E-06
         0.67982E-06
         0.33995E-06
         0.88797E-06
         0.44401E-06
         0.11753E-05
         0.58766E-06
         0.12140E-05
         0.60702E-06
         0.98236E-06
         0.49125E-06
         0.79766E-06
         0.39889E-06
         0.97540E-06
         0.48769E-06
         0.11548E-05
         0.57743E-06
         0.24609E-05
         0.19547E-05
         0.20946E-05
         0.35969E-05
         0.19318E-05
         0.24634E-05
         0.13815E-05
         0.16603E-05
         0.27283E-05
         0.20111E-05
         0.81658E-06
         0.15390E-05
         0.16927E-05
         0.13839E-05
         0.17528E-05
         0.32479E-05
         0.25367E-05
         0.32241E-05
         0.18980E-05
         0.21675E-05
         0.20481E-05
         0.22684E-05
         0.17424E-05
         0.10822E-05
         0.20589E-05
         0.17102E-05
         0.17950E-05
         0.18344E-05
         0.15904E-05
         0.19365E-05
         0.24555E-05
         0.17359E-05
         0.27423E-05
         0.23814E-05
         0.10820E-05
         0.16702E-05
         0.18953E-05
         0.20025E-05
         0.19317E-05
         0.15181E-05
         0.95442E-06
         0.15780E-05
         0.20884E-05
         0.16864E-05
         0.14835E-05
         0.97197E-06
         0.16567E-05
         0.22482E-05
         0.23571E-05
         0.19022E-05
         0.11709E-05
         0.20101E-05
         0.74658E-06
         0.94886E-06
         0.88841E-06
         0.10467E-05
         0.10207E-05
         0.99128E-06
         0.10565E-05
         0.11150E-05
         0.10503E-05
         0.82102E-06
         0.66954E-06
         0.86398E-06
         0.11506E-05
         0.12640E-05
         0.12133E-05
         0.10948E-05
         0.99421E-06
         0.80751E-06
         0.67970E-06
         0.88789E-06
         0.11752E-05
         0.12140E-05
         0.98215E-06
         0.79747E-06
         0.97551E-06
         0.11548E-05
         0.24611E-05
         0.19543E-05
         0.20949E-05
         0.35987E-05
         0.19321E-05
         0.24642E-05
         0.13808E-05
         0.16594E-05
         0.27293E-05
         0.20098E-05
         0.81582E-06
         0.15388E-05
         0.16927E-05
         0.13821E-05
         0.17525E-05
         0.32489E-05
         0.25379E-05
         0.32257E-05
         0.18982E-05
         0.21678E-05
         0.20480E-05
         0.22685E-05
         0.17423E-05
         0.10821E-05
         0.20580E-05
         0.17101E-05
         0.17924E-05
         0.18326E-05
         0.15898E-05
         0.19361E-05
         0.24558E-05
         0.17357E-05
         0.27438E-05
         0.23836E-05
         0.10821E-05
         0.16699E-05
         0.18951E-05
         0.20024E-05
         0.19318E-05
         0.15183E-05
         0.95445E-06
         0.15778E-05
         0.20884E-05
         0.16862E-05
         0.14831E-05
         0.97174E-06
         0.16566E-05
         0.22483E-05
         0.23575E-05
         0.19026E-05
         0.11709E-05
         0.20112E-05
         0.74636E-06
         0.94886E-06
         0.88800E-06
         0.10467E-05
         0.10210E-05
         0.99152E-06
         0.10570E-05
         0.11159E-05
         0.10509E-05
         0.82122E-06
         0.66961E-06
         0.86402E-06
         0.11507E-05
         0.12643E-05
         0.12135E-05
         0.10948E-05
         0.99417E-06
         0.80747E-06
         0.67961E-06
         0.88784E-06
         0.11752E-05
         0.12140E-05
         0.98197E-06
         0.79731E-06
         0.97565E-06
         0.11548E-05
         0.24612E-05
         0.19539E-05
         0.20950E-05
         0.36004E-05
         0.19324E-05
         0.24650E-05
         0.13801E-05
         0.16584E-05
         0.27303E-05
         0.20085E-05
         0.81504E-06
         0.15385E-05
         0.16925E-05
         0.13801E-05
         0.17521E-05
         0.32498E-05
         0.25390E-05
         0.32274E-05
         0.18982E-05
         0.21681E-05
         0.20479E-05
         0.22686E-05
         0.17421E-05
         0.10820E-05
         0.20571E-05
         0.17099E-05
         0.17897E-05
         0.18308E-05
         0.15891E-05
         0.19356E-05
         0.24561E-05
         0.17355E-05
         0.27453E-05
         0.23857E-05
         0.10820E-05
         0.16696E-05
         0.18948E-05
         0.20022E-05
         0.19320E-05
         0.15183E-05
         0.95445E-06
         0.15776E-05
         0.20883E-05
         0.16859E-05
         0.14828E-05
         0.97149E-06
         0.16564E-05
         0.22483E-05
         0.23578E-05
         0.19030E-05
         0.11710E-05
         0.20122E-05
         0.74613E-06
         0.94884E-06
         0.88756E-06
         0.10467E-05
         0.10212E-05
         0.99173E-06
         0.10574E-05
         0.11167E-05
         0.10515E-05
         0.82140E-06
         0.66966E-06
         0.86404E-06
         0.11509E-05
         0.12646E-05
         0.12136E-05
         0.10947E-05
         0.99410E-06
         0.80740E-06
         0.67950E-06
         0.88777E-06
         0.11752E-05
         0.12140E-05
         0.98177E-06
         0.79713E-06
         0.97576E-06
         0.11547E-05
         0.24613E-05
         0.19535E-05
         0.20952E-05
         0.36022E-05
         0.19327E-05
         0.24657E-05
         0.13794E-05
         0.16574E-05
         0.27313E-05
         0.20072E-05
         0.81426E-06
         0.15382E-05
         0.16924E-05
         0.13782E-05
         0.17517E-05
         0.32508E-05
         0.25402E-05
         0.32290E-05
         0.18983E-05
         0.21684E-05
         0.20479E-05
         0.22687E-05
         0.17420E-05
         0.10819E-05
         0.20563E-05
         0.17098E-05
         0.17870E-05
         0.18290E-05
         0.15884E-05
         0.19352E-05
         0.24563E-05
         0.17353E-05
         0.27467E-05
         0.23879E-05
         0.10820E-05
         0.16693E-05
         0.18946E-05
         0.20021E-05
         0.19321E-05
         0.15184E-05
         0.95445E-06
         0.15773E-05
         0.20882E-05
         0.16857E-05
         0.14824E-05
         0.97124E-06
         0.16563E-05
         0.22484E-05
         0.23582E-05
         0.19034E-05
         0.11710E-05
         0.20132E-05
         0.74590E-06
         0.94883E-06
         0.88713E-06
         0.10468E-05
         0.10215E-05
         0.99194E-06
         0.10579E-05
         0.11175E-05
         0.10521E-05
         0.82159E-06
         0.66972E-06
         0.86406E-06
         0.11510E-05
         0.12649E-05
         0.12138E-05
         0.10947E-05
         0.99404E-06
         0.80734E-06
         0.67940E-06
         0.88771E-06
         0.11752E-05
         0.12140E-05
         0.98157E-06
         0.79696E-06
         0.97588E-06
         0.11547E-05
         0.24615E-05
         0.19531E-05
         0.20954E-05
         0.36039E-05
         0.19331E-05
         0.24665E-05
         0.13787E-05
         0.16564E-05
         0.27322E-05
         0.20059E-05
         0.81349E-06
         0.15380E-05
         0.16923E-05
         0.13763E-05
         0.17514E-05
         0.32518E-05
         0.25414E-05
         0.32306E-05
         0.18984E-05
         0.21687E-05
         0.20478E-05
         0.22688E-05
         0.17418E-05
         0.10818E-05
         0.20554E-05
         0.17096E-05
         0.17843E-05
         0.18272E-05
         0.15878E-05
         0.19347E-05
         0.24566E-05
         0.17351E-05
         0.27482E-05
         0.23901E-05
         0.10820E-05
         0.16690E-05
         0.18943E-05
         0.20019E-05
         0.19322E-05
         0.15185E-05
         0.95446E-06
         0.15771E-05
         0.20881E-05
         0.16855E-05
         0.14821E-05
         0.97100E-06
         0.16562E-05
         0.22484E-05
         0.23586E-05
         0.19038E-05
         0.11710E-05
         0.20142E-05
         0.74568E-06
         0.94882E-06
         0.88671E-06
         0.10468E-05
         0.10217E-05
         0.99216E-06
         0.10583E-05
         0.11183E-05
         0.10528E-05
         0.82178E-06
         0.66977E-06
         0.86408E-06
         0.11512E-05
         0.12652E-05
         0.12139E-05
         0.10947E-05
         0.99398E-06
         0.80728E-06
         0.67930E-06
         0.88766E-06
         0.11752E-05
         0.12140E-05
         0.98138E-06
         0.79679E-06
         0.97601E-06
         0.11547E-05
         0.24616E-05
         0.19527E-05
         0.20956E-05
         0.36056E-05
         0.19334E-05
         0.24672E-05
         0.13779E-05
         0.16554E-05
         0.27332E-05
         0.20046E-05
         0.81271E-06
         0.15377E-05
         0.16922E-05
         0.13744E-05
         0.17510E-05
         0.32527E-05
         0.25425E-05
         0.32322E-05
         0.18984E-05
         0.21689E-05
         0.20477E-05
         0.22689E-05
         0.17416E-05
         0.10816E-05
         0.20545E-05
         0.17095E-05
         0.17817E-05
         0.18254E-05
         0.15871E-05
         0.19343E-05
         0.24568E-05
         0.17349E-05
         0.27496E-05
         0.23922E-05
         0.10820E-05
         0.16686E-05
         0.18941E-05
         0.20018E-05
         0.19324E-05
         0.15186E-05
         0.95446E-06
         0.15769E-05
         0.20880E-05
         0.16852E-05
         0.14817E-05
         0.97074E-06
         0.16560E-05
         0.22484E-05
         0.23589E-05
         0.19042E-05
         0.11710E-05
         0.20152E-05
         0.74544E-06
         0.94880E-06
         0.88627E-06
         0.10469E-05
         0.10219E-05
         0.99237E-06
         0.10588E-05
         0.11191E-05
         0.10534E-05
         0.82196E-06
         0.66982E-06
         0.86410E-06
         0.11513E-05
         0.12654E-05
         0.12140E-05
         0.10947E-05
         0.99391E-06
         0.80721E-06
         0.67919E-06
         0.88759E-06
         0.11751E-05
         0.12140E-05
         0.98118E-06
         0.79661E-06
         0.97612E-06
         0.11546E-05
         0.24618E-05
         0.19523E-05
         0.20957E-05
         0.36073E-05
         0.19337E-05
         0.24680E-05
         0.13772E-05
         0.16545E-05
         0.27341E-05
         0.20033E-05
         0.81194E-06
         0.15374E-05
         0.16921E-05
         0.13725E-05
         0.17506E-05
         0.32537E-05
         0.25437E-05
         0.32339E-05
         0.18985E-05
         0.21692E-05
         0.20476E-05
         0.22690E-05
         0.17414E-05
         0.10815E-05
         0.20536E-05
         0.17093E-05
         0.17790E-05
         0.18236E-05
         0.15864E-05
         0.19339E-05
         0.24571E-05
         0.17347E-05
         0.27511E-05
         0.23944E-05
         0.10820E-05
         0.16683E-05
         0.18938E-05
         0.20016E-05
         0.19325E-05
         0.15186E-05
         0.95446E-06
         0.15767E-05
         0.20878E-05
         0.16850E-05
         0.14814E-05
         0.97050E-06
         0.16559E-05
         0.22484E-05
         0.23593E-05
         0.19046E-05
         0.11711E-05
         0.20162E-05
         0.74522E-06
         0.94878E-06
         0.88584E-06
         0.10469E-05
         0.10222E-05
         0.99258E-06
         0.10593E-05
         0.11199E-05
         0.10540E-05
         0.82215E-06
         0.66988E-06
         0.86413E-06
         0.11515E-05
         0.12657E-05
         0.12142E-05
         0.10946E-05
         0.99385E-06
         0.80715E-06
         0.67909E-06
         0.88752E-06
         0.11751E-05
         0.12140E-05
         0.98098E-06
         0.79643E-06
         0.97624E-06
         0.11546E-05
         0.24619E-05
         0.19519E-05
         0.20959E-05
         0.36091E-05
         0.19340E-05
         0.24688E-05
         0.13765E-05
         0.16535E-05
         0.27351E-05
         0.20020E-05
         0.81117E-06
         0.15372E-05
         0.16920E-05
         0.13706E-05
         0.17503E-05
         0.32546E-05
         0.25448E-05
         0.32355E-05
         0.18986E-05
         0.21695E-05
         0.20475E-05
         0.22691E-05
         0.17413E-05
         0.10814E-05
         0.20527E-05
         0.17092E-05
         0.17763E-05
         0.18219E-05
         0.15858E-05
         0.19334E-05
         0.24573E-05
         0.17345E-05
         0.27525E-05
         0.23966E-05
         0.10820E-05
         0.16680E-05
         0.18936E-05
         0.20015E-05
         0.19326E-05
         0.15187E-05
         0.95447E-06
         0.15765E-05
         0.20878E-05
         0.16848E-05
         0.14810E-05
         0.97025E-06
         0.16557E-05
         0.22485E-05
         0.23597E-05
         0.19050E-05
         0.11711E-05
         0.20172E-05
         0.74499E-06
         0.94877E-06
         0.88541E-06
         0.10469E-05
         0.10224E-05
         0.99280E-06
         0.10597E-05
         0.11207E-05
         0.10546E-05
         0.82234E-06
         0.66994E-06
         0.86415E-06
         0.11517E-05
         0.12660E-05
         0.12143E-05
         0.10946E-05
         0.99379E-06
         0.80709E-06
         0.67898E-06
         0.88746E-06
         0.11751E-05
         0.12140E-05
         0.98079E-06
         0.79626E-06
         0.97636E-06
         0.11546E-05
         0.24621E-05
         0.19515E-05
         0.20961E-05
         0.36108E-05
         0.19343E-05
         0.24695E-05
         0.13758E-05
         0.16525E-05
         0.27361E-05
         0.20006E-05
         0.81039E-06
         0.15369E-05
         0.16919E-05
         0.13686E-05
         0.17499E-05
         0.32556E-05
         0.25460E-05
         0.32371E-05
         0.18986E-05
         0.21697E-05
         0.20474E-05
         0.22692E-05
         0.17411E-05
         0.10813E-05
         0.20519E-05
         0.17091E-05
         0.17736E-05
         0.18201E-05
         0.15851E-05
         0.19330E-05
         0.24575E-05
         0.17342E-05
         0.27540E-05
         0.23987E-05
         0.10820E-05
         0.16677E-05
         0.18933E-05
         0.20014E-05
         0.19328E-05
         0.15188E-05
         0.95448E-06
         0.15763E-05
         0.20876E-05
         0.16845E-05
         0.14807E-05
         0.97000E-06
         0.16556E-05
         0.22485E-05
         0.23600E-05
         0.19053E-05
         0.11711E-05
         0.20182E-05
         0.74476E-06
         0.94875E-06
         0.88498E-06
         0.10470E-05
         0.10227E-05
         0.99301E-06
         0.10602E-05
         0.11215E-05
         0.10553E-05
         0.82252E-06
         0.66999E-06
         0.86417E-06
         0.11518E-05
         0.12663E-05
         0.12145E-05
         0.10946E-05
         0.99373E-06
         0.80702E-06
         0.67888E-06
         0.88740E-06
         0.11751E-05
         0.12140E-05
         0.98058E-06
         0.79608E-06
         0.97648E-06
         0.11546E-05
         0.24622E-05
         0.19511E-05
         0.20963E-05
         0.36125E-05
         0.19346E-05
         0.24703E-05
         0.13751E-05
         0.16515E-05
         0.27370E-05
         0.19993E-05
         0.80962E-06
         0.15366E-05
         0.16917E-05
         0.13667E-05
         0.17495E-05
         0.32565E-05
         0.25471E-05
         0.32388E-05
         0.18987E-05
         0.21700E-05
         0.20473E-05
         0.22693E-05
         0.17409E-05
         0.10812E-05
         0.20510E-05
         0.17089E-05
         0.17710E-05
         0.18183E-05
         0.15844E-05
         0.19325E-05
         0.24578E-05
         0.17340E-05
         0.27554E-05
         0.24009E-05
         0.10820E-05
         0.16674E-05
         0.18931E-05
         0.20012E-05
         0.19329E-05
         0.15189E-05
         0.95448E-06
         0.15760E-05
         0.20875E-05
         0.16843E-05
         0.14803E-05
         0.96975E-06
         0.16555E-05
         0.22485E-05
         0.23604E-05
         0.19057E-05
         0.11712E-05
         0.20192E-05
         0.74453E-06
         0.94874E-06
         0.88455E-06
         0.10470E-05
         0.10229E-05
         0.99322E-06
         0.10606E-05
         0.11223E-05
         0.10559E-05
         0.82270E-06
         0.67004E-06
         0.86419E-06
         0.11520E-05
         0.12666E-05
         0.12146E-05
         0.10945E-05
         0.99366E-06
         0.80696E-06
         0.67877E-06
         0.88733E-06
         0.11751E-05
         0.12140E-05
         0.98038E-06
         0.79590E-06
         0.97660E-06
         0.11545E-05
         0.24623E-05
         0.19507E-05
         0.20964E-05
         0.36142E-05
         0.19349E-05
         0.24710E-05
         0.13743E-05
         0.16505E-05
         0.27380E-05
         0.19980E-05
         0.80885E-06
         0.15364E-05
         0.16916E-05
         0.13648E-05
         0.17492E-05
         0.32575E-05
         0.25483E-05
         0.32404E-05
         0.18988E-05
         0.21703E-05
         0.20473E-05
         0.22694E-05
         0.17407E-05
         0.10811E-05
         0.20501E-05
         0.17088E-05
         0.17683E-05
         0.18165E-05
         0.15837E-05
         0.19321E-05
         0.24580E-05
         0.17338E-05
         0.27569E-05
         0.24031E-05
         0.10820E-05
         0.16670E-05
         0.18928E-05
         0.20011E-05
         0.19330E-05
         0.15189E-05
         0.95448E-06
         0.15758E-05
         0.20874E-05
         0.16840E-05
         0.14800E-05
         0.96950E-06
         0.16553E-05
         0.22485E-05
         0.23608E-05
         0.19061E-05
         0.11712E-05
         0.20202E-05
         0.74430E-06
         0.94872E-06
         0.88412E-06
         0.10470E-05
         0.10231E-05
         0.99344E-06
         0.10611E-05
         0.11231E-05
         0.10565E-05
         0.82289E-06
         0.67009E-06
         0.86422E-06
         0.11521E-05
         0.12669E-05
         0.12147E-05
         0.10945E-05
         0.99360E-06
         0.80690E-06
         0.67867E-06
         0.88727E-06
         0.11750E-05
         0.12140E-05
         0.98019E-06
         0.79573E-06
         0.97672E-06
         0.11545E-05
         0.24625E-05
         0.19503E-05
         0.20966E-05
         0.36160E-05
         0.19352E-05
         0.24718E-05
         0.13736E-05
         0.16496E-05
         0.27389E-05
         0.19967E-05
         0.80807E-06
         0.15361E-05
         0.16915E-05
         0.13629E-05
         0.17488E-05
         0.32584E-05
         0.25495E-05
         0.32420E-05
         0.18988E-05
         0.21705E-05
         0.20472E-05
         0.22695E-05
         0.17406E-05
         0.10810E-05
         0.20492E-05
         0.17086E-05
         0.17656E-05
         0.18147E-05
         0.15831E-05
         0.19317E-05
         0.24583E-05
         0.17336E-05
         0.27583E-05
         0.24053E-05
         0.10820E-05
         0.16667E-05
         0.18926E-05
         0.20009E-05
         0.19331E-05
         0.15190E-05
         0.95449E-06
         0.15756E-05
         0.20873E-05
         0.16838E-05
         0.14796E-05
         0.96925E-06
         0.16552E-05
         0.22486E-05
         0.23611E-05
         0.19065E-05
         0.11712E-05
         0.20212E-05
         0.74407E-06
         0.94870E-06
         0.88368E-06
         0.10471E-05
         0.10234E-05
         0.99365E-06
         0.10616E-05
         0.11239E-05
         0.10571E-05
         0.82307E-06
         0.67014E-06
         0.86424E-06
         0.11523E-05
         0.12672E-05
         0.12149E-05
         0.10945E-05
         0.99354E-06
         0.80683E-06
         0.67856E-06
         0.88721E-06
         0.11750E-05
         0.12140E-05
         0.97999E-06
         0.79555E-06
         0.97684E-06
         0.11545E-05
         0.24626E-05
         0.19499E-05
         0.20968E-05
         0.36177E-05
         0.19355E-05
         0.24725E-05
         0.13729E-05
         0.16486E-05
         0.27399E-05
         0.19954E-05
         0.80730E-06
         0.15358E-05
         0.16914E-05
         0.13610E-05
         0.17484E-05
         0.32594E-05
         0.25506E-05
         0.32437E-05
         0.18989E-05
         0.21708E-05
         0.20471E-05
         0.22696E-05
         0.17404E-05
         0.10808E-05
         0.20483E-05
         0.17085E-05
         0.17629E-05
         0.18129E-05
         0.15824E-05
         0.19312E-05
         0.24585E-05
         0.17334E-05
         0.27598E-05
         0.24074E-05
         0.10820E-05
         0.16664E-05
         0.18923E-05
         0.20008E-05
         0.19333E-05
         0.15191E-05
         0.95449E-06
         0.15754E-05
         0.20872E-05
         0.16835E-05
         0.14793E-05
         0.96901E-06
         0.16550E-05
         0.22486E-05
         0.23615E-05
         0.19069E-05
         0.11713E-05
         0.20222E-05
         0.74384E-06
         0.94869E-06
         0.88325E-06
         0.10471E-05
         0.10236E-05
         0.99386E-06
         0.10620E-05
         0.11247E-05
         0.10577E-05
         0.82326E-06
         0.67020E-06
         0.86426E-06
         0.11524E-05
         0.12674E-05
         0.12150E-05
         0.10944E-05
         0.99348E-06
         0.80677E-06
         0.67846E-06
         0.88714E-06
         0.11750E-05
         0.12140E-05
         0.97979E-06
         0.79538E-06
         0.97696E-06
         0.11544E-05
         0.24628E-05
         0.19495E-05
         0.20970E-05
         0.36194E-05
         0.19358E-05
         0.24733E-05
         0.13722E-05
         0.16476E-05
         0.27409E-05
         0.19941E-05
         0.80652E-06
         0.15355E-05
         0.16913E-05
         0.13591E-05
         0.17481E-05
         0.32604E-05
         0.25518E-05
         0.32453E-05
         0.18990E-05
         0.21711E-05
         0.20470E-05
         0.22697E-05
         0.17402E-05
         0.10807E-05
         0.20474E-05
         0.17084E-05
         0.17603E-05
         0.18111E-05
         0.15817E-05
         0.19308E-05
         0.24588E-05
         0.17332E-05
         0.27613E-05
         0.24096E-05
         0.10819E-05
         0.16661E-05
         0.18921E-05
         0.20006E-05
         0.19334E-05
         0.15192E-05
         0.95450E-06
         0.15752E-05
         0.20871E-05
         0.16833E-05
         0.14789E-05
         0.96876E-06
         0.16549E-05
         0.22486E-05
         0.23619E-05
         0.19073E-05
         0.11713E-05
         0.20232E-05
         0.74362E-06
         0.94868E-06
         0.88282E-06
         0.10472E-05
         0.10238E-05
         0.99408E-06
         0.10625E-05
         0.11255E-05
         0.10584E-05
         0.82345E-06
         0.67025E-06
         0.86428E-06
         0.11526E-05
         0.12677E-05
         0.12152E-05
         0.10944E-05
         0.99342E-06
         0.80671E-06
         0.67836E-06
         0.88709E-06
         0.11750E-05
         0.12140E-05
         0.97959E-06
         0.79521E-06
         0.97708E-06
         0.11544E-05
         0.24629E-05
         0.19491E-05
         0.20972E-05
         0.36212E-05
         0.19361E-05
         0.24741E-05
         0.13715E-05
         0.16466E-05
         0.27418E-05
         0.19928E-05
         0.80575E-06
         0.15353E-05
         0.16912E-05
         0.13572E-05
         0.17477E-05
         0.32613E-05
         0.25529E-05
         0.32469E-05
         0.18990E-05
         0.21714E-05
         0.20469E-05
         0.22698E-05
         0.17400E-05
         0.10806E-05
         0.20466E-05
         0.17082E-05
         0.17576E-05
         0.18093E-05
         0.15810E-05
         0.19303E-05
         0.24590E-05
         0.17330E-05
         0.27627E-05
         0.24118E-05
         0.10819E-05
         0.16658E-05
         0.18919E-05
         0.20005E-05
         0.19335E-05
         0.15192E-05
         0.95450E-06
         0.15750E-05
         0.20870E-05
         0.16831E-05
         0.14786E-05
         0.96851E-06
         0.16548E-05
         0.22487E-05
         0.23622E-05
         0.19077E-05
         0.11713E-05
         0.20242E-05
         0.74339E-06
         0.94866E-06
         0.88239E-06
         0.10472E-05
         0.10241E-05
         0.99429E-06
         0.10630E-05
         0.11263E-05
         0.10590E-05
         0.82363E-06
         0.67030E-06
         0.86430E-06
         0.11527E-05
         0.12680E-05
         0.12153E-05
         0.10944E-05
         0.99335E-06
         0.80665E-06
         0.67825E-06
         0.88702E-06
         0.11749E-05
         0.12140E-05
         0.97939E-06
         0.79503E-06
         0.97720E-06
         0.11544E-05
         0.24631E-05
         0.19487E-05
         0.20973E-05
         0.36229E-05
         0.19364E-05
         0.24748E-05
         0.13707E-05
         0.16456E-05
         0.27428E-05
         0.19915E-05
         0.80498E-06
         0.15350E-05
         0.16911E-05
         0.13553E-05
         0.17473E-05
         0.32623E-05
         0.25541E-05
         0.32486E-05
         0.18991E-05
         0.21716E-05
         0.20468E-05
         0.22699E-05
         0.17399E-05
         0.10805E-05
         0.20457E-05
         0.17081E-05
         0.17549E-05
         0.18075E-05
         0.15804E-05
         0.19299E-05
         0.24592E-05
         0.17328E-05
         0.27642E-05
         0.24140E-05
         0.10819E-05
         0.16654E-05
         0.18916E-05
         0.20003E-05
         0.19337E-05
         0.15193E-05
         0.95450E-06
         0.15748E-05
         0.20869E-05
         0.16828E-05
         0.14782E-05
         0.96826E-06
         0.16546E-05
         0.22487E-05
         0.23626E-05
         0.19081E-05
         0.11714E-05
         0.20253E-05
         0.74316E-06
         0.94864E-06
         0.88196E-06
         0.10472E-05
         0.10243E-05
         0.99450E-06
         0.10634E-05
         0.11271E-05
         0.10596E-05
         0.82381E-06
         0.67036E-06
         0.86432E-06
         0.11529E-05
         0.12683E-05
         0.12154E-05
         0.10943E-05
         0.99329E-06
         0.80658E-06
         0.67815E-06
         0.88696E-06
         0.11749E-05
         0.12140E-05
         0.97919E-06
         0.79485E-06
         0.97732E-06
         0.11544E-05
         0.24632E-05
         0.19483E-05
         0.20975E-05
         0.36246E-05
         0.19368E-05
         0.24756E-05
         0.13700E-05
         0.16447E-05
         0.27437E-05
         0.19902E-05
         0.80421E-06
         0.15347E-05
         0.16910E-05
         0.13534E-05
         0.17470E-05
         0.32632E-05
         0.25552E-05
         0.32502E-05
         0.18992E-05
         0.21719E-05
         0.20467E-05
         0.22700E-05
         0.17397E-05
         0.10804E-05
         0.20448E-05
         0.17079E-05
         0.17523E-05
         0.18057E-05
         0.15797E-05
         0.19295E-05
         0.24595E-05
         0.17326E-05
         0.27656E-05
         0.24161E-05
         0.10819E-05
         0.16651E-05
         0.18914E-05
         0.20002E-05
         0.19338E-05
         0.15194E-05
         0.95451E-06
         0.15745E-05
         0.20868E-05
         0.16826E-05
         0.14779E-05
         0.96801E-06
         0.16545E-05
         0.22487E-05
         0.23630E-05
         0.19085E-05
         0.11714E-05
         0.20263E-05
         0.74293E-06
         0.94863E-06
         0.88153E-06
         0.10473E-05
         0.10245E-05
         0.99472E-06
         0.10639E-05
         0.11279E-05
         0.10602E-05
         0.82400E-06
         0.67041E-06
         0.86435E-06
         0.11530E-05
         0.12686E-05
         0.12156E-05
         0.10943E-05
         0.99323E-06
         0.80652E-06
         0.67804E-06
         0.88690E-06
         0.11749E-05
         0.12140E-05
         0.97900E-06
         0.79468E-06
         0.97744E-06
         0.11543E-05
         0.24633E-05
         0.19479E-05
         0.20977E-05
         0.36264E-05
         0.19371E-05
         0.24763E-05
         0.13693E-05
         0.16437E-05
         0.27447E-05
         0.19888E-05
         0.80343E-06
         0.15345E-05
         0.16908E-05
         0.13515E-05
         0.17466E-05
         0.32642E-05
         0.25564E-05
         0.32518E-05
         0.18992E-05
         0.21722E-05
         0.20466E-05
         0.22701E-05
         0.17395E-05
         0.10803E-05
         0.20439E-05
         0.17078E-05
         0.17496E-05
         0.18039E-05
         0.15790E-05
         0.19290E-05
         0.24597E-05
         0.17323E-05
         0.27671E-05
         0.24183E-05
         0.10819E-05
         0.16648E-05
         0.18911E-05
         0.20001E-05
         0.19339E-05
         0.15195E-05
         0.95452E-06
         0.15743E-05
         0.20867E-05
         0.16823E-05
         0.14775E-05
         0.96776E-06
         0.16543E-05
         0.22487E-05
         0.23633E-05
         0.19089E-05
         0.11714E-05
         0.20273E-05
         0.74270E-06
         0.94861E-06
         0.88109E-06
         0.10473E-05
         0.10248E-05
         0.99493E-06
         0.10643E-05
         0.11287E-05
         0.10609E-05
         0.82418E-06
         0.67046E-06
         0.86437E-06
         0.11532E-05
         0.12689E-05
         0.12157E-05
         0.10943E-05
         0.99316E-06
         0.80646E-06
         0.67794E-06
         0.88683E-06
         0.11749E-05
         0.12140E-05
         0.97879E-06
         0.79450E-06
         0.97755E-06
         0.11543E-05
         0.24635E-05
         0.19475E-05
         0.20979E-05
         0.36281E-05
         0.19374E-05
         0.24771E-05
         0.13686E-05
         0.16427E-05
         0.27456E-05
         0.19875E-05
         0.80266E-06
         0.15342E-05
         0.16907E-05
         0.13496E-05
         0.17463E-05
         0.32651E-05
         0.25575E-05
         0.32534E-05
         0.18993E-05
         0.21724E-05
         0.20466E-05
         0.22702E-05
         0.17393E-05
         0.10802E-05
         0.20430E-05
         0.17076E-05
         0.17469E-05
         0.18021E-05
         0.15784E-05
         0.19286E-05
         0.24600E-05
         0.17321E-05
         0.27685E-05
         0.24205E-05
         0.10819E-05
         0.16645E-05
         0.18909E-05
         0.19999E-05
         0.19341E-05
         0.15195E-05
         0.95452E-06
         0.15741E-05
         0.20866E-05
         0.16821E-05
         0.14772E-05
         0.96751E-06
         0.16542E-05
         0.22488E-05
         0.23637E-05
         0.19092E-05
         0.11715E-05
         0.20283E-05
         0.74247E-06
         0.94860E-06
         0.88066E-06
         0.10473E-05
         0.10250E-05
         0.99514E-06
         0.10648E-05
         0.11295E-05
         0.10615E-05
         0.82437E-06
         0.67052E-06
         0.86439E-06
         0.11533E-05
         0.12691E-05
         0.12159E-05
         0.10942E-05
         0.99310E-06
         0.80639E-06
         0.67783E-06
         0.88676E-06
         0.11748E-05
         0.12140E-05
         0.97859E-06
         0.79433E-06
         0.97767E-06
         0.11543E-05
         0.24636E-05
         0.19471E-05
         0.20980E-05
         0.36298E-05
         0.19377E-05
         0.24779E-05
         0.13679E-05
         0.16417E-05
         0.27466E-05
         0.19862E-05
         0.80189E-06
         0.15339E-05
         0.16906E-05
         0.13477E-05
         0.17459E-05
         0.32661E-05
         0.25587E-05
         0.32551E-05
         0.18994E-05
         0.21727E-05
         0.20465E-05
         0.22703E-05
         0.17392E-05
         0.10800E-05
         0.20421E-05
         0.17075E-05
         0.17443E-05
         0.18003E-05
         0.15777E-05
         0.19281E-05
         0.24602E-05
         0.17319E-05
         0.27700E-05
         0.24227E-05
         0.10819E-05
         0.16642E-05
         0.18906E-05
         0.19998E-05
         0.19342E-05
         0.15196E-05
         0.95453E-06
         0.15739E-05
         0.20865E-05
         0.16819E-05
         0.14768E-05
         0.96727E-06
         0.16541E-05
         0.22488E-05
         0.23640E-05
         0.19096E-05
         0.11715E-05
         0.20293E-05
         0.74225E-06
         0.94859E-06
         0.88023E-06
         0.10474E-05
         0.10253E-05
         0.99535E-06
         0.10653E-05
         0.11303E-05
         0.10621E-05
         0.82456E-06
         0.67057E-06
         0.86441E-06
         0.11535E-05
         0.12694E-05
         0.12160E-05
         0.10942E-05
         0.99304E-06
         0.80633E-06
         0.67773E-06
         0.88671E-06
         0.11748E-05
         0.12140E-05
         0.97840E-06
         0.79415E-06
         0.97780E-06
         0.11542E-05
         0.24637E-05
         0.19466E-05
         0.20982E-05
         0.36315E-05
         0.19380E-05
         0.24786E-05
         0.13671E-05
         0.16407E-05
         0.27475E-05
         0.19849E-05
         0.80110E-06
         0.15336E-05
         0.16905E-05
         0.13457E-05
         0.17455E-05
         0.32669E-05
         0.25598E-05
         0.32567E-05
         0.18994E-05
         0.21729E-05
         0.20464E-05
         0.22703E-05
         0.17390E-05
         0.10799E-05
         0.20412E-05
         0.17073E-05
         0.17416E-05
         0.17985E-05
         0.15770E-05
         0.19277E-05
         0.24604E-05
         0.17317E-05
         0.27714E-05
         0.24248E-05
         0.10819E-05
         0.16638E-05
         0.18903E-05
         0.19996E-05
         0.19343E-05
         0.15196E-05
         0.95451E-06
         0.15737E-05
         0.20864E-05
         0.16816E-05
         0.14765E-05
         0.96700E-06
         0.16539E-05
         0.22488E-05
         0.23644E-05
         0.19100E-05
         0.11715E-05
         0.20303E-05
         0.74200E-06
         0.94855E-06
         0.87978E-06
         0.10474E-05
         0.10255E-05
         0.99555E-06
         0.10657E-05
         0.11311E-05
         0.10627E-05
         0.82472E-06
         0.67061E-06
         0.86442E-06
         0.11536E-05
         0.12697E-05
         0.12161E-05
         0.10941E-05
         0.99295E-06
         0.80625E-06
         0.67761E-06
         0.88662E-06
         0.11748E-05
         0.12140E-05
         0.97818E-06
         0.79396E-06
         0.97790E-06
         0.11542E-05
         0.24639E-05
         0.19463E-05
         0.20984E-05
         0.36333E-05
         0.19383E-05
         0.24794E-05
         0.13664E-05
         0.16398E-05
         0.27485E-05
         0.19836E-05
         0.80034E-06
         0.15334E-05
         0.16904E-05
         0.13439E-05
         0.17452E-05
         0.32679E-05
         0.25610E-05
         0.32583E-05
         0.18995E-05
         0.21732E-05
         0.20463E-05
         0.22704E-05
         0.17388E-05
         0.10798E-05
         0.20404E-05
         0.17072E-05
         0.17389E-05
         0.17967E-05
         0.15763E-05
         0.19272E-05
         0.24607E-05
         0.17315E-05
         0.27729E-05
         0.24270E-05
         0.10819E-05
         0.16635E-05
         0.18901E-05
         0.19995E-05
         0.19345E-05
         0.15197E-05
         0.95453E-06
         0.15735E-05
         0.20863E-05
         0.16814E-05
         0.14761E-05
         0.96677E-06
         0.16538E-05
         0.22488E-05
         0.23647E-05
         0.19104E-05
         0.11716E-05
         0.20313E-05
         0.74179E-06
         0.94855E-06
         0.87936E-06
         0.10475E-05
         0.10257E-05
         0.99577E-06
         0.10662E-05
         0.11319E-05
         0.10633E-05
         0.82492E-06
         0.67068E-06
         0.86446E-06
         0.11538E-05
         0.12700E-05
         0.12163E-05
         0.10941E-05
         0.99291E-06
         0.80620E-06
         0.67752E-06
         0.88657E-06
         0.11748E-05
         0.12140E-05
         0.97800E-06
         0.79380E-06
         0.97803E-06
         0.11542E-05
         0.12320E-05
         0.97306E-06
         0.10493E-05
         0.18171E-05
         0.96926E-06
         0.12399E-05
         0.68306E-06
         0.81967E-06
         0.13745E-05
         0.99152E-06
         0.39999E-06
         0.76665E-06
         0.84519E-06
         0.67148E-06
         0.87252E-06
         0.16343E-05
         0.12808E-05
         0.16296E-05
         0.94981E-06
         0.10867E-05
         0.10232E-05
         0.11353E-05
         0.86940E-06
         0.53990E-06
         0.10200E-05
         0.85360E-06
         0.86884E-06
         0.89793E-06
         0.78802E-06
         0.96354E-06
         0.12305E-05
         0.86572E-06
         0.13869E-05
         0.12141E-05
         0.54095E-06
         0.83170E-06
         0.94503E-06
         0.99975E-06
         0.96729E-06
         0.75992E-06
         0.47728E-06
         0.78670E-06
         0.10432E-05
         0.84065E-06
         0.73800E-06
         0.48334E-06
         0.82688E-06
         0.11245E-05
         0.11825E-05
         0.95534E-06
         0.58581E-06
         0.10159E-05
         0.37085E-06
         0.47429E-06
         0.43959E-06
         0.52375E-06
         0.51294E-06
         0.49796E-06
         0.53322E-06
         0.56619E-06
         0.53185E-06
         0.41252E-06
         0.33536E-06
         0.43225E-06
         0.57696E-06
         0.63509E-06
         0.60820E-06
         0.54708E-06
         0.49646E-06
         0.40310E-06
         0.33875E-06
         0.44329E-06
         0.58740E-06
         0.60700E-06
         0.48897E-06
         0.39687E-06
         0.48906E-06
         0.57710E-06
  
SCALARS                 Poissons_ratio  double 1
LOOKUP_TABLE default
         0.30000E+00
         0.30000E+00
         0.30000E+00
         0.30000E+00
         0.30000E+00
         0.30000E+00
         0.30000E+00
         0.30000E+00
         0.30000E+00
         0.30000E+00
         0.30000E+00
         0.30000E+00
         0.30000E+00
         0.30000E+00
         0.30000E+00
         0.30000E+00
         0.30000E+00
         0.30000E+00
         0.30000E+00
         0.30000E+00
         0.30000E+00
         0.30000E+00
         0.30000E+00
         0.30000E+00
         0.30000E+00
         0.30000E+00
         0.30000E+00
         0.30000E+00
         0.30000E+00
         0.30000E+00
         0.30000E+00
         0.30000E+00
         0.30000E+00
         0.30000E+00
         0.30000E+00
         0.30000E+00
         0.30000E+00
         0.30000E+00
         0.30000E+00
         0.30000E+00
         0.30000E+00
         0.30000E+00
         0.30000E+00
         0.30000E+00
         0.30000E+00
         0.30000E+00
         0.30000E+00
         0.30000E+00
         0.30000E+00
         0.30000E+00
         0.30000E+00
         0.30000E+00
         0.30000E+00
         0.30000E+00
         0.30000E+00
         0.30000E+00
         0.30000E+00
         0.30000E+00
         0.30000E+00
         0.30000E+00
         0.30000E+00
         0.30000E+00
         0.30000E+00
         0.30000E+00
         0.30000E+00
         0.30000E+00
         0.30000E+00
         0.30000E+00
         0.30000E+00
         0.30000E+00
         0.30000E+00
         0.30000E+00
         0.30000E+00
         0.30000E+00
         0.30000E+00
         0.30000E+00
         0.30000E+00
         0.30000E+00
         0.30000E+00
         0.30000E+00
         0.30000E+00
         0.30000E+00
         0.30000E+00
         0.30000E+00
         0.30000E+00
         0.30000E+00
         0.30000E+00
         0.30000E+00
         0.30000E+00
         0.30000E+00
         0.30000E+00
         0.30000E+00
         0.30000E+00
         0.30000E+00
         0.30000E+00
         0.30000E+00
         0.30000E+00
         0.30000E+00
         0.30000E+00
         0.30000E+00
         0.30000E+00
         0.30000E+00
         0.30000E+00
         0.30000E+00
         0.30000E+00
         0.30000E+00
         0.30000E+00
         0.30000E+00
         0.30000E+00
         0.30000E+00
         0.30000E+00
         0.30000E+00
         0.30000E+00
         0.30000E+00
         0.30000E+00
         0.30000E+00
         0.30000E+00
         0.30000E+00
         0.30000E+00
         0.30000E+00
         0.30000E+00
         0.30000E+00
         0.30000E+00
         0.30000E+00
         0.30000E+00
         0.30000E+00
         0.30000E+00
         0.30000E+00
         0.30000E+00
         0.30000E+00
         0.30000E+00
         0.30000E+00
         0.30000E+00
         0.30000E+00
         0.30000E+00
         0.30000E+00
         0.30000E+00
         0.30000E+00
         0.30000E+00
         0.30000E+00
         0.30000E+00
         0.30000E+00
         0.30000E+00
         0.30000E+00
         0.30000E+00
         0.30000E+00
         0.30000E+00
         0.30000E+00
         0.30000E+00
         0.30000E+00
         0.30000E+00
         0.30000E+00
         0.30000E+00
         0.30000E+00
         0.30000E+00
         0.30000E+00
         0.30000E+00
         0.30000E+00
         0.30000E+00
         0.30000E+00
         0.30000E+00
         0.30000E+00
         0.30000E+00
         0.30000E+00
         0.30000E+00
         0.30000E+00
         0.30000E+00
         0.30000E+00
         0.30000E+00
         0.30000E+00
         0.30000E+00
         0.30000E+00
         0.30000E+00
         0.30000E+00
         0.30000E+00
         0.30000E+00
         0.30000E+00
         0.30000E+00
         0.30000E+00
         0.30000E+00
         0.30000E+00
         0.30000E+00
         0.30000E+00
         0.30000E+00
         0.30000E+00
         0.30000E+00
         0.30000E+00
         0.30000E+00
         0.30000E+00
         0.30000E+00
         0.30000E+00
         0.30000E+00
         0.30000E+00
         0.30000E+00
         0.30000E+00
         0.30000E+00
         0.30000E+00
         0.30000E+00
         0.30000E+00
         0.30000E+00
         0.30000E+00
         0.30000E+00
         0.30000E+00
         0.30000E+00
         0.30000E+00
         0.30000E+00
         0.30000E+00
         0.30000E+00
         0.30000E+00
         0.30000E+00
         0.30000E+00
         0.30000E+00
         0.30000E+00
         0.30000E+00
         0.30000E+00
         0.30000E+00
         0.30000E+00
         0.30000E+00
         0.30000E+00
         0.30000E+00
         0.30000E+00
         0.30000E+00
         0.30000E+00
         0.30000E+00
         0.30000E+00
         0.30000E+00
         0.30000E+00
         0.30000E+00
         0.30000E+00
         0.30000E+00
         0.30000E+00
         0.30000E+00
         0.30000E+00
         0.30000E+00
         0.30000E+00
         0.30000E+00
         0.30000E+00
         0.30000E+00
         0.30000E+00
         0.30000E+00
         0.30000E+00
         0.30000E+00
         0.30000E+00
         0.30000E+00
         0.30000E+00
         0.30000E+00
         0.30000E+00
         0.30000E+00
         0.30000E+00
         0.30000E+00
         0.30000E+00
         0.30000E+00
         0.30000E+00
         0.30000E+00
         0.30000E+00
         0.30000E+00
         0.30000E+00
         0.30000E+00
         0.30000E+00
         0.30000E+00
         0.30000E+00
         0.30000E+00
         0.30000E+00
         0.30000E+00
         0.30000E+00
         0.30000E+00
         0.30000E+00
         0.30000E+00
         0.30000E+00
         0.30000E+00
         0.30000E+00
         0.30000E+00
         0.30000E+00
         0.30000E+00
         0.30000E+00
         0.30000E+00
         0.30000E+00
         0.30000E+00
         0.30000E+00
         0.30000E+00
         0.30000E+00
         0.30000E+00
         0.30000E+00
         0.30000E+00
         0.30000E+00
         0.30000E+00
         0.30000E+00
         0.30000E+00
         0.30000E+00
         0.30000E+00
         0.30000E+00
         0.30000E+00
         0.30000E+00
         0.30000E+00
         0.30000E+00
         0.30000E+00
         0.30000E+00
         0.30000E+00
         0.30000E+00
         0.30000E+00
         0.30000E+00
         0.30000E+00
         0.30000E+00
         0.30000E+00
         0.30000E+00
         0.30000E+00
         0.30000E+00
         0.30000E+00
         0.30000E+00
         0.30000E+00
         0.30000E+00
         0.30000E+00
         0.30000E+00
         0.30000E+00
         0.30000E+00
         0.30000E+00
         0.30000E+00
         0.30000E+00
         0.30000E+00
         0.30000E+00
         0.30000E+00
         0.30000E+00
         0.30000E+00
         0.30000E+00
         0.30000E+00
         0.30000E+00
         0.30000E+00
         0.30000E+00
         0.30000E+00
         0.30000E+00
         0.30000E+00
         0.30000E+00
         0.30000E+00
         0.30000E+00
         0.30000E+00
         0.30000E+00
         0.30000E+00
         0.30000E+00
         0.30000E+00
         0.30000E+00
         0.30000E+00
         0.30000E+00
         0.30000E+00
         0.30000E+00
         0.30000E+00
         0.30000E+00
         0.30000E+00
         0.30000E+00
         0.30000E+00
         0.30000E+00
         0.30000E+00
         0.30000E+00
         0.30000E+00
         0.30000E+00
         0.30000E+00
         0.30000E+00
         0.30000E+00
         0.30000E+00
         0.30000E+00
         0.30000E+00
         0.30000E+00
         0.30000E+00
         0.30000E+00
         0.30000E+00
         0.30000E+00
         0.30000E+00
         0.30000E+00
         0.30000E+00
         0.30000E+00
         0.30000E+00
         0.30000E+00
         0.30000E+00
         0.30000E+00
         0.30000E+00
         0.30000E+00
         0.30000E+00
         0.30000E+00
         0.30000E+00
         0.30000E+00
         0.30000E+00
         0.30000E+00
         0.30000E+00
         0.30000E+00
         0.30000E+00
         0.30000E+00
         0.30000E+00
         0.30000E+00
         0.30000E+00
         0.30000E+00
         0.30000E+00
         0.30000E+00
         0.30000E+00
         0.30000E+00
         0.30000E+00
         0.30000E+00
         0.30000E+00
         0.30000E+00
         0.30000E+00
         0.30000E+00
         0.30000E+00
         0.30000E+00
         0.30000E+00
         0.30000E+00
         0.30000E+00
         0.30000E+00
         0.30000E+00
         0.30000E+00
         0.30000E+00
         0.30000E+00
         0.30000E+00
         0.30000E+00
         0.30000E+00
         0.30000E+00
         0.30000E+00
         0.30000E+00
         0.30000E+00
         0.30000E+00
         0.30000E+00
         0.30000E+00
         0.30000E+00
         0.30000E+00
         0.30000E+00
         0.30000E+00
         0.30000E+00
         0.30000E+00
         0.30000E+00
         0.30000E+00
         0.30000E+00
         0.30000E+00
         0.30000E+00
         0.30000E+00
         0.30000E+00
         0.30000E+00
         0.30000E+00
         0.30000E+00
         0.30000E+00
         0.30000E+00
         0.30000E+00
         0.30000E+00
         0.30000E+00
         0.30000E+00
         0.30000E+00
         0.30000E+00
         0.30000E+00
         0.30000E+00
         0.30000E+00
         0.30000E+00
         0.30000E+00
         0.30000E+00
         0.30000E+00
         0.30000E+00
         0.30000E+00
         0.30000E+00
         0.30000E+00
         0.30000E+00
         0.30000E+00
         0.30000E+00
         0.30000E+00
         0.30000E+00
         0.30000E+00
         0.30000E+00
         0.30000E+00
         0.30000E+00
         0.30000E+00
         0.30000E+00
         0.30000E+00
         0.30000E+00
         0.30000E+00
         0.30000E+00
         0.30000E+00
         0.30000E+00
         0.30000E+00
         0.30000E+00
         0.30000E+00
         0.30000E+00
         0.30000E+00
         0.30000E+00
         0.30000E+00
         0.30000E+00
         0.30000E+00
         0.30000E+00
         0.30000E+00
         0.30000E+00
         0.30000E+00
         0.30000E+00
         0.30000E+00
         0.30000E+00
         0.30000E+00
         0.30000E+00
         0.30000E+00
         0.30000E+00
         0.30000E+00
         0.30000E+00
         0.30000E+00
         0.30000E+00
         0.30000E+00
         0.30000E+00
         0.30000E+00
         0.30000E+00
         0.30000E+00
         0.30000E+00
         0.30000E+00
         0.30000E+00
         0.30000E+00
         0.30000E+00
         0.30000E+00
         0.30000E+00
         0.30000E+00
         0.30000E+00
         0.30000E+00
         0.30000E+00
         0.30000E+00
         0.30000E+00
         0.30000E+00
         0.30000E+00
         0.30000E+00
         0.30000E+00
         0.30000E+00
         0.30000E+00
         0.30000E+00
         0.30000E+00
         0.30000E+00
         0.30000E+00
         0.30000E+00
         0.30000E+00
         0.30000E+00
         0.30000E+00
         0.30000E+00
         0.30000E+00
         0.30000E+00
         0.30000E+00
         0.30000E+00
         0.30000E+00
         0.30000E+00
         0.30000E+00
         0.30000E+00
         0.30000E+00
         0.30000E+00
         0.30000E+00
         0.30000E+00
         0.30000E+00
         0.30000E+00
         0.30000E+00
         0.30000E+00
         0.30000E+00
         0.30000E+00
         0.30000E+00
         0.30000E+00
         0.30000E+00
         0.30000E+00
         0.30000E+00
         0.30000E+00
         0.30000E+00
         0.30000E+00
         0.30000E+00
         0.30000E+00
         0.30000E+00
         0.30000E+00
         0.30000E+00
         0.30000E+00
         0.30000E+00
         0.30000E+00
         0.30000E+00
         0.30000E+00
         0.30000E+00
         0.30000E+00
         0.30000E+00
         0.30000E+00
         0.30000E+00
         0.30000E+00
         0.30000E+00
         0.30000E+00
         0.30000E+00
         0.30000E+00
         0.30000E+00
         0.30000E+00
         0.30000E+00
         0.30000E+00
         0.30000E+00
         0.30000E+00
         0.30000E+00
         0.30000E+00
         0.30000E+00
         0.30000E+00
         0.30000E+00
         0.30000E+00
         0.30000E+00
         0.30000E+00
         0.30000E+00
         0.30000E+00
         0.30000E+00
         0.30000E+00
         0.30000E+00
         0.30000E+00
         0.30000E+00
         0.30000E+00
         0.30000E+00
         0.30000E+00
         0.30000E+00
         0.30000E+00
         0.30000E+00
         0.30000E+00
         0.30000E+00
         0.30000E+00
         0.30000E+00
         0.30000E+00
         0.30000E+00
         0.30000E+00
         0.30000E+00
         0.30000E+00
         0.30000E+00
         0.30000E+00
         0.30000E+00
         0.30000E+00
         0.30000E+00
         0.30000E+00
         0.30000E+00
         0.30000E+00
         0.30000E+00
         0.30000E+00
         0.30000E+00
         0.30000E+00
         0.30000E+00
         0.30000E+00
         0.30000E+00
         0.30000E+00
         0.30000E+00
         0.30000E+00
         0.30000E+00
         0.30000E+00
         0.30000E+00
         0.30000E+00
         0.30000E+00
         0.30000E+00
         0.30000E+00
         0.30000E+00
         0.30000E+00
         0.30000E+00
         0.30000E+00
         0.30000E+00
         0.30000E+00
         0.30000E+00
         0.30000E+00
         0.30000E+00
         0.30000E+00
         0.30000E+00
         0.30000E+00
         0.30000E+00
         0.30000E+00
         0.30000E+00
         0.30000E+00
         0.30000E+00
         0.30000E+00
         0.30000E+00
         0.30000E+00
         0.30000E+00
         0.30000E+00
         0.30000E+00
         0.30000E+00
         0.30000E+00
         0.30000E+00
         0.30000E+00
         0.30000E+00
         0.30000E+00
         0.30000E+00
         0.30000E+00
         0.30000E+00
         0.30000E+00
         0.30000E+00
         0.30000E+00
         0.30000E+00
         0.30000E+00
         0.30000E+00
         0.30000E+00
         0.30000E+00
         0.30000E+00
         0.30000E+00
         0.30000E+00
         0.30000E+00
         0.30000E+00
         0.30000E+00
         0.30000E+00
         0.30000E+00
         0.30000E+00
         0.30000E+00
         0.30000E+00
         0.30000E+00
         0.30000E+00
         0.30000E+00
         0.30000E+00
         0.30000E+00
         0.30000E+00
         0.30000E+00
         0.30000E+00
         0.30000E+00
         0.30000E+00
         0.30000E+00
         0.30000E+00
         0.30000E+00
         0.30000E+00
         0.30000E+00
         0.30000E+00
         0.30000E+00
         0.30000E+00
         0.30000E+00
         0.30000E+00
         0.30000E+00
         0.30000E+00
         0.30000E+00
         0.30000E+00
         0.30000E+00
         0.30000E+00
         0.30000E+00
         0.30000E+00
         0.30000E+00
         0.30000E+00
         0.30000E+00
         0.30000E+00
         0.30000E+00
         0.30000E+00
         0.30000E+00
         0.30000E+00
         0.30000E+00
         0.30000E+00
         0.30000E+00
         0.30000E+00
         0.30000E+00
         0.30000E+00
         0.30000E+00
         0.30000E+00
         0.30000E+00
         0.30000E+00
         0.30000E+00
         0.30000E+00
         0.30000E+00
         0.30000E+00
         0.30000E+00
         0.30000E+00
         0.30000E+00
         0.30000E+00
         0.30000E+00
         0.30000E+00
         0.30000E+00
         0.30000E+00
         0.30000E+00
         0.30000E+00
         0.30000E+00
         0.30000E+00
         0.30000E+00
         0.30000E+00
         0.30000E+00
         0.30000E+00
         0.30000E+00
         0.30000E+00
         0.30000E+00
         0.30000E+00
         0.30000E+00
         0.30000E+00
         0.30000E+00
         0.30000E+00
         0.30000E+00
         0.30000E+00
         0.30000E+00
         0.30000E+00
         0.30000E+00
         0.30000E+00
         0.30000E+00
         0.30000E+00
         0.30000E+00
         0.30000E+00
         0.30000E+00
         0.30000E+00
         0.30000E+00
         0.30000E+00
         0.30000E+00
         0.30000E+00
         0.30000E+00
         0.30000E+00
         0.30000E+00
         0.30000E+00
         0.30000E+00
         0.30000E+00
         0.30000E+00
         0.30000E+00
         0.30000E+00
         0.30000E+00
         0.30000E+00
         0.30000E+00
         0.30000E+00
         0.30000E+00
         0.30000E+00
         0.30000E+00
         0.30000E+00
         0.30000E+00
         0.30000E+00
         0.30000E+00
         0.30000E+00
         0.30000E+00
         0.30000E+00
         0.30000E+00
         0.30000E+00
         0.30000E+00
         0.30000E+00
         0.30000E+00
         0.30000E+00
         0.30000E+00
         0.30000E+00
         0.30000E+00
         0.30000E+00
         0.30000E+00
         0.30000E+00
         0.30000E+00
         0.30000E+00
         0.30000E+00
         0.30000E+00
         0.30000E+00
         0.30000E+00
         0.30000E+00
         0.30000E+00
         0.30000E+00
         0.30000E+00
         0.30000E+00
         0.30000E+00
         0.30000E+00
         0.30000E+00
         0.30000E+00
         0.30000E+00
         0.30000E+00
         0.30000E+00
         0.30000E+00
         0.30000E+00
         0.30000E+00
         0.30000E+00
         0.30000E+00
         0.30000E+00
         0.30000E+00
         0.30000E+00
         0.30000E+00
         0.30000E+00
         0.30000E+00
         0.30000E+00
         0.30000E+00
         0.30000E+00
         0.30000E+00
         0.30000E+00
         0.30000E+00
         0.30000E+00
         0.30000E+00
         0.30000E+00
         0.30000E+00
         0.30000E+00
         0.30000E+00
         0.30000E+00
         0.30000E+00
         0.30000E+00
         0.30000E+00
         0.30000E+00
         0.30000E+00
         0.30000E+00
         0.30000E+00
         0.30000E+00
         0.30000E+00
         0.30000E+00
         0.30000E+00
         0.30000E+00
         0.30000E+00
         0.30000E+00
         0.30000E+00
         0.30000E+00
         0.30000E+00
         0.30000E+00
         0.30000E+00
         0.30000E+00
         0.30000E+00
         0.30000E+00
         0.30000E+00
         0.30000E+00
         0.30000E+00
         0.30000E+00
         0.30000E+00
         0.30000E+00
         0.30000E+00
         0.30000E+00
         0.30000E+00
         0.30000E+00
         0.30000E+00
         0.30000E+00
         0.30000E+00
         0.30000E+00
         0.30000E+00
         0.30000E+00
         0.30000E+00
         0.30000E+00
         0.30000E+00
         0.30000E+00
         0.30000E+00
         0.30000E+00
         0.30000E+00
         0.30000E+00
         0.30000E+00
         0.30000E+00
         0.30000E+00
         0.30000E+00
         0.30000E+00
         0.30000E+00
         0.30000E+00
         0.30000E+00
         0.30000E+00
         0.30000E+00
         0.30000E+00
         0.30000E+00
         0.30000E+00
         0.30000E+00
         0.30000E+00
         0.30000E+00
         0.30000E+00
         0.30000E+00
         0.30000E+00
         0.30000E+00
         0.30000E+00
         0.30000E+00
         0.30000E+00
         0.30000E+00
         0.30000E+00
         0.30000E+00
         0.30000E+00
         0.30000E+00
         0.30000E+00
         0.30000E+00
         0.30000E+00
         0.30000E+00
         0.30000E+00
         0.30000E+00
         0.30000E+00
         0.30000E+00
         0.30000E+00
         0.30000E+00
         0.30000E+00
         0.30000E+00
         0.30000E+00
         0.30000E+00
         0.30000E+00
         0.30000E+00
         0.30000E+00
         0.30000E+00
         0.30000E+00
         0.30000E+00
         0.30000E+00
         0.30000E+00
         0.30000E+00
         0.30000E+00
         0.30000E+00
         0.30000E+00
         0.30000E+00
         0.30000E+00
         0.30000E+00
         0.30000E+00
         0.30000E+00
         0.30000E+00
         0.30000E+00
         0.30000E+00
         0.30000E+00
         0.30000E+00
         0.30000E+00
         0.30000E+00
         0.30000E+00
         0.30000E+00
         0.30000E+00
         0.30000E+00
         0.30000E+00
         0.30000E+00
         0.30000E+00
         0.30000E+00
         0.30000E+00
         0.30000E+00
         0.30000E+00
         0.30000E+00
         0.30000E+00
         0.30000E+00
         0.30000E+00
         0.30000E+00
         0.30000E+00
         0.30000E+00
         0.30000E+00
         0.30000E+00
         0.30000E+00
         0.30000E+00
         0.30000E+00
         0.30000E+00
         0.30000E+00
         0.30000E+00
         0.30000E+00
         0.30000E+00
         0.30000E+00
         0.30000E+00
         0.30000E+00
         0.30000E+00
         0.30000E+00
         0.30000E+00
         0.30000E+00
         0.30000E+00
         0.30000E+00
         0.30000E+00
         0.30000E+00
         0.30000E+00
         0.30000E+00
         0.30000E+00
         0.30000E+00
         0.30000E+00
         0.30000E+00
         0.30000E+00
         0.30000E+00
         0.30000E+00
         0.30000E+00
         0.30000E+00
         0.30000E+00
         0.30000E+00
         0.30000E+00
         0.30000E+00
         0.30000E+00
         0.30000E+00
         0.30000E+00
         0.30000E+00
         0.30000E+00
         0.30000E+00
         0.30000E+00
         0.30000E+00
         0.30000E+00
         0.30000E+00
         0.30000E+00
         0.30000E+00
         0.30000E+00
         0.30000E+00
         0.30000E+00
         0.30000E+00
         0.30000E+00
         0.30000E+00
         0.30000E+00
         0.30000E+00
         0.30000E+00
         0.30000E+00
         0.30000E+00
         0.30000E+00
         0.30000E+00
         0.30000E+00
         0.30000E+00
         0.30000E+00
         0.30000E+00
         0.30000E+00
         0.30000E+00
         0.30000E+00
         0.30000E+00
         0.30000E+00
         0.30000E+00
         0.30000E+00
         0.30000E+00
         0.30000E+00
         0.30000E+00
         0.30000E+00
         0.30000E+00
         0.30000E+00
         0.30000E+00
         0.30000E+00
         0.30000E+00
         0.30000E+00
         0.30000E+00
         0.30000E+00
         0.30000E+00
         0.30000E+00
         0.30000E+00
         0.30000E+00
         0.30000E+00
         0.30000E+00
         0.30000E+00
         0.30000E+00
         0.30000E+00
         0.30000E+00
         0.30000E+00
         0.30000E+00
         0.30000E+00
         0.30000E+00
         0.30000E+00
         0.30000E+00
         0.30000E+00
         0.30000E+00
         0.30000E+00
         0.30000E+00
         0.30000E+00
         0.30000E+00
         0.30000E+00
         0.30000E+00
         0.30000E+00
         0.30000E+00
         0.30000E+00
         0.30000E+00
         0.30000E+00
         0.30000E+00
         0.30000E+00
         0.30000E+00
         0.30000E+00
         0.30000E+00
         0.30000E+00
         0.30000E+00
         0.30000E+00
         0.30000E+00
         0.30000E+00
         0.30000E+00
         0.30000E+00
         0.30000E+00
         0.30000E+00
         0.30000E+00
         0.30000E+00
         0.30000E+00
         0.30000E+00
         0.30000E+00
         0.30000E+00
         0.30000E+00
         0.30000E+00
         0.30000E+00
         0.30000E+00
         0.30000E+00
         0.30000E+00
         0.30000E+00
         0.30000E+00
         0.30000E+00
         0.30000E+00
         0.30000E+00
         0.30000E+00
         0.30000E+00
         0.30000E+00
         0.30000E+00
         0.30000E+00
         0.30000E+00
         0.30000E+00
         0.30000E+00
         0.30000E+00
         0.30000E+00
         0.30000E+00
         0.30000E+00
         0.30000E+00
         0.30000E+00
         0.30000E+00
         0.30000E+00
         0.30000E+00
         0.30000E+00
         0.30000E+00
         0.30000E+00
         0.30000E+00
         0.30000E+00
         0.30000E+00
         0.30000E+00
         0.30000E+00
         0.30000E+00
         0.30000E+00
         0.30000E+00
         0.30000E+00
         0.30000E+00
         0.30000E+00
         0.30000E+00
         0.30000E+00
         0.30000E+00
         0.30000E+00
         0.30000E+00
         0.30000E+00
         0.30000E+00
         0.30000E+00
         0.30000E+00
         0.30000E+00
         0.30000E+00
         0.30000E+00
         0.30000E+00
         0.30000E+00
         0.30000E+00
         0.30000E+00
         0.30000E+00
         0.30000E+00
         0.30000E+00
         0.30000E+00
         0.30000E+00
         0.30000E+00
         0.30000E+00
         0.30000E+00
         0.30000E+00
         0.30000E+00
         0.30000E+00
         0.30000E+00
         0.30000E+00
         0.30000E+00
         0.30000E+00
         0.30000E+00
         0.30000E+00
         0.30000E+00
         0.30000E+00
         0.30000E+00
         0.30000E+00
         0.30000E+00
         0.30000E+00
         0.30000E+00
         0.30000E+00
         0.30000E+00
         0.30000E+00
         0.30000E+00
         0.30000E+00
         0.30000E+00
         0.30000E+00
         0.30000E+00
         0.30000E+00
         0.30000E+00
         0.30000E+00
         0.30000E+00
         0.30000E+00
         0.30000E+00
         0.30000E+00
         0.30000E+00
         0.30000E+00
         0.30000E+00
         0.30000E+00
         0.30000E+00
         0.30000E+00
         0.30000E+00
         0.30000E+00
         0.30000E+00
         0.30000E+00
         0.30000E+00
         0.30000E+00
         0.30000E+00
         0.30000E+00
         0.30000E+00
         0.30000E+00
         0.30000E+00
         0.30000E+00
         0.30000E+00
         0.30000E+00
         0.30000E+00
         0.30000E+00
         0.30000E+00
         0.30000E+00
         0.30000E+00
         0.30000E+00
         0.30000E+00
         0.30000E+00
         0.30000E+00
         0.30000E+00
         0.30000E+00
         0.30000E+00
         0.30000E+00
         0.30000E+00
         0.30000E+00
         0.30000E+00
         0.30000E+00
         0.30000E+00
         0.30000E+00
         0.30000E+00
         0.30000E+00
         0.30000E+00
         0.30000E+00
         0.30000E+00
         0.30000E+00
         0.30000E+00
         0.30000E+00
         0.30000E+00
         0.30000E+00
         0.30000E+00
         0.30000E+00
         0.30000E+00
         0.30000E+00
         0.30000E+00
         0.30000E+00
         0.30000E+00
         0.30000E+00
         0.30000E+00
         0.30000E+00
         0.30000E+00
         0.30000E+00
         0.30000E+00
         0.30000E+00
         0.30000E+00
         0.30000E+00
         0.30000E+00
         0.30000E+00
         0.30000E+00
         0.30000E+00
         0.30000E+00
         0.30000E+00
         0.30000E+00
         0.30000E+00
         0.30000E+00
         0.30000E+00
         0.30000E+00
         0.30000E+00
         0.30000E+00
         0.30000E+00
         0.30000E+00
         0.30000E+00
         0.30000E+00
         0.30000E+00
         0.30000E+00
         0.30000E+00
         0.30000E+00
         0.30000E+00
         0.30000E+00
         0.30000E+00
         0.30000E+00
         0.30000E+00
         0.30000E+00
         0.30000E+00
         0.30000E+00
         0.30000E+00
         0.30000E+00
         0.30000E+00
         0.30000E+00
         0.30000E+00
         0.30000E+00
         0.30000E+00
         0.30000E+00
         0.30000E+00
         0.30000E+00
         0.30000E+00
         0.30000E+00
         0.30000E+00
         0.30000E+00
         0.30000E+00
         0.30000E+00
         0.30000E+00
         0.30000E+00
         0.30000E+00
         0.30000E+00
         0.30000E+00
         0.30000E+00
         0.30000E+00
         0.30000E+00
         0.30000E+00
         0.30000E+00
         0.30000E+00
         0.30000E+00
         0.30000E+00
         0.30000E+00
         0.30000E+00
         0.30000E+00
         0.30000E+00
         0.30000E+00
         0.30000E+00
         0.30000E+00
         0.30000E+00
         0.30000E+00
         0.30000E+00
         0.30000E+00
         0.30000E+00
         0.30000E+00
         0.30000E+00
         0.30000E+00
         0.30000E+00
         0.30000E+00
         0.30000E+00
         0.30000E+00
         0.30000E+00
         0.30000E+00
         0.30000E+00
         0.30000E+00
         0.30000E+00
         0.30000E+00
         0.30000E+00
         0.30000E+00
         0.30000E+00
         0.30000E+00
         0.30000E+00
         0.30000E+00
         0.30000E+00
         0.30000E+00
         0.30000E+00
         0.30000E+00
         0.30000E+00
         0.30000E+00
         0.30000E+00
         0.30000E+00
         0.30000E+00
         0.30000E+00
         0.30000E+00
         0.30000E+00
         0.30000E+00
         0.30000E+00
         0.30000E+00
         0.30000E+00
         0.30000E+00
         0.30000E+00
         0.30000E+00
         0.30000E+00
         0.30000E+00
         0.30000E+00
         0.30000E+00
         0.30000E+00
         0.30000E+00
         0.30000E+00
         0.30000E+00
         0.30000E+00
         0.30000E+00
         0.30000E+00
         0.30000E+00
         0.30000E+00
         0.30000E+00
         0.30000E+00
         0.30000E+00
         0.30000E+00
         0.30000E+00
         0.30000E+00
         0.30000E+00
         0.30000E+00
         0.30000E+00
         0.30000E+00
         0.30000E+00
         0.30000E+00
         0.30000E+00
         0.30000E+00
         0.30000E+00
         0.30000E+00
         0.30000E+00
         0.30000E+00
         0.30000E+00
         0.30000E+00
         0.30000E+00
         0.30000E+00
         0.30000E+00
         0.30000E+00
         0.30000E+00
         0.30000E+00
         0.30000E+00
         0.30000E+00
         0.30000E+00
         0.30000E+00
         0.30000E+00
         0.30000E+00
         0.30000E+00
         0.30000E+00
         0.30000E+00
         0.30000E+00
         0.30000E+00
         0.30000E+00
         0.30000E+00
         0.30000E+00
         0.30000E+00
         0.30000E+00
         0.30000E+00
         0.30000E+00
         0.30000E+00
         0.30000E+00
         0.30000E+00
         0.30000E+00
         0.30000E+00
         0.30000E+00
         0.30000E+00
         0.30000E+00
         0.30000E+00
         0.30000E+00
         0.30000E+00
         0.30000E+00
         0.30000E+00
         0.30000E+00
         0.30000E+00
         0.30000E+00
         0.30000E+00
         0.30000E+00
         0.30000E+00
         0.30000E+00
         0.30000E+00
         0.30000E+00
         0.30000E+00
         0.30000E+00
         0.30000E+00
         0.30000E+00
         0.30000E+00
         0.30000E+00
         0.30000E+00
         0.30000E+00
         0.30000E+00
         0.30000E+00
         0.30000E+00
         0.30000E+00
         0.30000E+00
         0.30000E+00
         0.30000E+00
         0.30000E+00
         0.30000E+00
         0.30000E+00
         0.30000E+00
         0.30000E+00
         0.30000E+00
         0.30000E+00
         0.30000E+00
         0.30000E+00
         0.30000E+00
         0.30000E+00
         0.30000E+00
         0.30000E+00
         0.30000E+00
         0.30000E+00
         0.30000E+00
         0.30000E+00
         0.30000E+00
         0.30000E+00
         0.30000E+00
         0.30000E+00
         0.30000E+00
         0.30000E+00
         0.30000E+00
         0.30000E+00
         0.30000E+00
         0.30000E+00
         0.30000E+00
         0.30000E+00
         0.30000E+00
         0.30000E+00
         0.30000E+00
         0.30000E+00
         0.30000E+00
         0.30000E+00
         0.30000E+00
         0.30000E+00
         0.30000E+00
         0.30000E+00
         0.30000E+00
         0.30000E+00
         0.30000E+00
         0.30000E+00
         0.30000E+00
         0.30000E+00
         0.30000E+00
         0.30000E+00
         0.30000E+00
         0.30000E+00
         0.30000E+00
         0.30000E+00
         0.30000E+00
         0.30000E+00
         0.30000E+00
         0.30000E+00
         0.30000E+00
         0.30000E+00
         0.30000E+00
         0.30000E+00
         0.30000E+00
         0.30000E+00
         0.30000E+00
         0.30000E+00
         0.30000E+00
         0.30000E+00
         0.30000E+00
         0.30000E+00
         0.30000E+00
         0.30000E+00
         0.30000E+00
         0.30000E+00
         0.30000E+00
         0.30000E+00
         0.30000E+00
         0.30000E+00
         0.30000E+00
         0.30000E+00
         0.30000E+00
         0.30000E+00
         0.30000E+00
         0.30000E+00
         0.30000E+00
         0.30000E+00
         0.30000E+00
         0.30000E+00
         0.30000E+00
         0.30000E+00
         0.30000E+00
         0.30000E+00
         0.30000E+00
         0.30000E+00
         0.30000E+00
         0.30000E+00
         0.30000E+00
         0.30000E+00
         0.30000E+00
         0.30000E+00
         0.30000E+00
         0.30000E+00
         0.30000E+00
         0.30000E+00
         0.30000E+00
         0.30000E+00
         0.30000E+00
         0.30000E+00
         0.30000E+00
         0.30000E+00
         0.30000E+00
         0.30000E+00
         0.30000E+00
         0.30000E+00
         0.30000E+00
         0.30000E+00
         0.30000E+00
         0.30000E+00
         0.30000E+00
         0.30000E+00
         0.30000E+00
         0.30000E+00
         0.30000E+00
         0.30000E+00
         0.30000E+00
         0.30000E+00
         0.30000E+00
         0.30000E+00
         0.30000E+00
         0.30000E+00
         0.30000E+00
         0.30000E+00
         0.30000E+00
         0.30000E+00
         0.30000E+00
         0.30000E+00
         0.30000E+00
         0.30000E+00
         0.30000E+00
         0.30000E+00
         0.30000E+00
         0.30000E+00
         0.30000E+00
         0.30000E+00
         0.30000E+00
         0.30000E+00
         0.30000E+00
         0.30000E+00
         0.30000E+00
         0.30000E+00
         0.30000E+00
         0.30000E+00
         0.30000E+00
         0.30000E+00
         0.30000E+00
         0.30000E+00
         0.30000E+00
         0.30000E+00
         0.30000E+00
         0.30000E+00
         0.30000E+00
         0.30000E+00
         0.30000E+00
         0.30000E+00
         0.30000E+00
         0.30000E+00
         0.30000E+00
         0.30000E+00
         0.30000E+00
         0.30000E+00
         0.30000E+00
         0.30000E+00
         0.30000E+00
         0.30000E+00
         0.30000E+00
         0.30000E+00
         0.30000E+00
         0.30000E+00
         0.30000E+00
         0.30000E+00
         0.30000E+00
         0.30000E+00
         0.30000E+00
         0.30000E+00
         0.30000E+00
         0.30000E+00
         0.30000E+00
         0.30000E+00
         0.30000E+00
         0.30000E+00
         0.30000E+00
         0.30000E+00
         0.30000E+00
         0.30000E+00
         0.30000E+00
         0.30000E+00
         0.30000E+00
         0.30000E+00
         0.30000E+00
         0.30000E+00
         0.30000E+00
         0.30000E+00
         0.30000E+00
         0.30000E+00
         0.30000E+00
         0.30000E+00
         0.30000E+00
         0.30000E+00
         0.30000E+00
         0.30000E+00
         0.30000E+00
         0.30000E+00
         0.30000E+00
         0.30000E+00
         0.30000E+00
         0.30000E+00
         0.30000E+00
         0.30000E+00
         0.30000E+00
         0.30000E+00
         0.30000E+00
         0.30000E+00
         0.30000E+00
         0.30000E+00
         0.30000E+00
         0.30000E+00
         0.30000E+00
         0.30000E+00
         0.30000E+00
         0.30000E+00
         0.30000E+00
         0.30000E+00
         0.30000E+00
         0.30000E+00
         0.30000E+00
         0.30000E+00
         0.30000E+00
         0.30000E+00
         0.30000E+00
         0.30000E+00
         0.30000E+00
         0.30000E+00
         0.30000E+00
         0.30000E+00
         0.30000E+00
         0.30000E+00
         0.30000E+00
         0.30000E+00
         0.30000E+00
         0.30000E+00
         0.30000E+00
         0.30000E+00
         0.30000E+00
         0.30000E+00
         0.30000E+00
         0.30000E+00
         0.30000E+00
         0.30000E+00
         0.30000E+00
         0.30000E+00
         0.30000E+00
         0.30000E+00
         0.30000E+00
         0.30000E+00
         0.30000E+00
         0.30000E+00
         0.30000E+00
         0.30000E+00
         0.30000E+00
         0.30000E+00
         0.30000E+00
         0.30000E+00
         0.30000E+00
         0.30000E+00
         0.30000E+00
         0.30000E+00
         0.30000E+00
         0.30000E+00
         0.30000E+00
         0.30000E+00
         0.30000E+00
         0.30000E+00
         0.30000E+00
         0.30000E+00
         0.30000E+00
         0.30000E+00
         0.30000E+00
         0.30000E+00
         0.30000E+00
         0.30000E+00
         0.30000E+00
         0.30000E+00
         0.30000E+00
         0.30000E+00
         0.30000E+00
         0.30000E+00
         0.30000E+00
         0.30000E+00
         0.30000E+00
         0.30000E+00
         0.30000E+00
         0.30000E+00
         0.30000E+00
         0.30000E+00
         0.30000E+00
         0.30000E+00
         0.30000E+00
         0.30000E+00
         0.30000E+00
         0.30000E+00
         0.30000E+00
         0.30000E+00
         0.30000E+00
         0.30000E+00
         0.30000E+00
         0.30000E+00
         0.30000E+00
         0.30000E+00
         0.30000E+00
         0.30000E+00
         0.30000E+00
         0.30000E+00
         0.30000E+00
         0.30000E+00
         0.30000E+00
         0.30000E+00
         0.30000E+00
         0.30000E+00
         0.30000E+00
         0.30000E+00
         0.30000E+00
         0.30000E+00
         0.30000E+00
         0.30000E+00
         0.30000E+00
         0.30000E+00
         0.30000E+00
         0.30000E+00
         0.30000E+00
         0.30000E+00
         0.30000E+00
         0.30000E+00
         0.30000E+00
         0.30000E+00
         0.30000E+00
         0.30000E+00
         0.30000E+00
         0.30000E+00
         0.30000E+00
         0.30000E+00
         0.30000E+00
         0.30000E+00
         0.30000E+00
         0.30000E+00
         0.30000E+00
         0.30000E+00
         0.30000E+00
         0.30000E+00
         0.30000E+00
         0.30000E+00
         0.30000E+00
         0.30000E+00
         0.30000E+00
         0.30000E+00
         0.30000E+00
         0.30000E+00
         0.30000E+00
         0.30000E+00
         0.30000E+00
         0.30000E+00
         0.30000E+00
         0.30000E+00
         0.30000E+00
         0.30000E+00
         0.30000E+00
         0.30000E+00
         0.30000E+00
         0.30000E+00
         0.30000E+00
         0.30000E+00
         0.30000E+00
         0.30000E+00
         0.30000E+00
         0.30000E+00
         0.30000E+00
         0.30000E+00
         0.30000E+00
         0.30000E+00
         0.30000E+00
         0.30000E+00
         0.30000E+00
         0.30000E+00
         0.30000E+00
         0.30000E+00
         0.30000E+00
         0.30000E+00
         0.30000E+00
         0.30000E+00
         0.30000E+00
         0.30000E+00
         0.30000E+00
         0.30000E+00
         0.30000E+00
         0.30000E+00
         0.30000E+00
         0.30000E+00
         0.30000E+00
         0.30000E+00
         0.30000E+00
         0.30000E+00
         0.30000E+00
         0.30000E+00
         0.30000E+00
         0.30000E+00
         0.30000E+00
         0.30000E+00
         0.30000E+00
         0.30000E+00
         0.30000E+00
         0.30000E+00
         0.30000E+00
         0.30000E+00
         0.30000E+00
         0.30000E+00
         0.30000E+00
         0.30000E+00
         0.30000E+00
         0.30000E+00
         0.30000E+00
         0.30000E+00
         0.30000E+00
         0.30000E+00
         0.30000E+00
         0.30000E+00
         0.30000E+00
         0.30000E+00
         0.30000E+00
         0.30000E+00
         0.30000E+00
         0.30000E+00
         0.30000E+00
         0.30000E+00
         0.30000E+00
         0.30000E+00
         0.30000E+00
         0.30000E+00
         0.30000E+00
         0.30000E+00
         0.30000E+00
         0.30000E+00
         0.30000E+00
         0.30000E+00
         0.30000E+00
         0.30000E+00
         0.30000E+00
         0.30000E+00
         0.30000E+00
         0.30000E+00
         0.30000E+00
         0.30000E+00
         0.30000E+00
         0.30000E+00
         0.30000E+00
         0.30000E+00
         0.30000E+00
         0.30000E+00
         0.30000E+00
         0.30000E+00
         0.30000E+00
         0.30000E+00
         0.30000E+00
         0.30000E+00
         0.30000E+00
  
SCALARS                 Youngs_modulus  double 1
LOOKUP_TABLE default
         0.78200E+11
         0.78200E+11
         0.78200E+11
         0.78200E+11
         0.78200E+11
         0.78200E+11
         0.78200E+11
         0.78200E+11
         0.78200E+11
         0.78200E+11
         0.78200E+11
         0.78200E+11
         0.78200E+11
         0.78200E+11
         0.78200E+11
         0.78200E+11
         0.78200E+11
         0.78200E+11
         0.78200E+11
         0.78200E+11
         0.78200E+11
         0.78200E+11
         0.78200E+11
         0.78200E+11
         0.78200E+11
         0.78200E+11
         0.78200E+11
         0.78200E+11
         0.78200E+11
         0.78200E+11
         0.78200E+11
         0.78200E+11
         0.78200E+11
         0.78200E+11
         0.78200E+11
         0.78200E+11
         0.78200E+11
         0.78200E+11
         0.78200E+11
         0.78200E+11
         0.78200E+11
         0.78200E+11
         0.78200E+11
         0.78200E+11
         0.78200E+11
         0.78200E+11
         0.78200E+11
         0.78200E+11
         0.78200E+11
         0.78200E+11
         0.78200E+11
         0.78200E+11
         0.78200E+11
         0.78200E+11
         0.78200E+11
         0.78200E+11
         0.78200E+11
         0.78200E+11
         0.78200E+11
         0.78200E+11
         0.78200E+11
         0.78200E+11
         0.78200E+11
         0.78200E+11
         0.78200E+11
         0.78200E+11
         0.78200E+11
         0.78200E+11
         0.78200E+11
         0.78200E+11
         0.78200E+11
         0.78200E+11
         0.78200E+11
         0.78200E+11
         0.78200E+11
         0.78200E+11
         0.78200E+11
         0.78200E+11
         0.78200E+11
         0.78200E+11
         0.78200E+11
         0.78200E+11
         0.78200E+11
         0.78200E+11
         0.78200E+11
         0.78200E+11
         0.78200E+11
         0.78200E+11
         0.78200E+11
         0.78200E+11
         0.78200E+11
         0.78200E+11
         0.78200E+11
         0.78200E+11
         0.78200E+11
         0.78200E+11
         0.78200E+11
         0.78200E+11
         0.78200E+11
         0.78200E+11
         0.78200E+11
         0.78200E+11
         0.78200E+11
         0.78200E+11
         0.78200E+11
         0.78200E+11
         0.78200E+11
         0.78200E+11
         0.78200E+11
         0.78200E+11
         0.78200E+11
         0.78200E+11
         0.78200E+11
         0.78200E+11
         0.78200E+11
         0.78200E+11
         0.78200E+11
         0.78200E+11
         0.78200E+11
         0.78200E+11
         0.78200E+11
         0.78200E+11
         0.78200E+11
         0.78200E+11
         0.78200E+11
         0.78200E+11
         0.78200E+11
         0.78200E+11
         0.78200E+11
         0.78200E+11
         0.78200E+11
         0.78200E+11
         0.78200E+11
         0.78200E+11
         0.78200E+11
         0.78200E+11
         0.78200E+11
         0.78200E+11
         0.78200E+11
         0.78200E+11
         0.78200E+11
         0.78200E+11
         0.78200E+11
         0.78200E+11
         0.78200E+11
         0.78200E+11
         0.78200E+11
         0.78200E+11
         0.78200E+11
         0.78200E+11
         0.78200E+11
         0.78200E+11
         0.78200E+11
         0.78200E+11
         0.78200E+11
         0.78200E+11
         0.78200E+11
         0.78200E+11
         0.78200E+11
         0.78200E+11
         0.78200E+11
         0.78200E+11
         0.78200E+11
         0.78200E+11
         0.78200E+11
         0.78200E+11
         0.78200E+11
         0.78200E+11
         0.78200E+11
         0.78200E+11
         0.78200E+11
         0.78200E+11
         0.78200E+11
         0.78200E+11
         0.78200E+11
         0.78200E+11
         0.78200E+11
         0.78200E+11
         0.78200E+11
         0.78200E+11
         0.78200E+11
         0.78200E+11
         0.78200E+11
         0.78200E+11
         0.78200E+11
         0.78200E+11
         0.78200E+11
         0.78200E+11
         0.78200E+11
         0.78200E+11
         0.78200E+11
         0.78200E+11
         0.78200E+11
         0.78200E+11
         0.78200E+11
         0.78200E+11
         0.78200E+11
         0.78200E+11
         0.78200E+11
         0.78200E+11
         0.78200E+11
         0.78200E+11
         0.78200E+11
         0.78200E+11
         0.78200E+11
         0.78200E+11
         0.78200E+11
         0.78200E+11
         0.78200E+11
         0.78200E+11
         0.78200E+11
         0.78200E+11
         0.78200E+11
         0.78200E+11
         0.78200E+11
         0.78200E+11
         0.78200E+11
         0.78200E+11
         0.78200E+11
         0.78200E+11
         0.78200E+11
         0.78200E+11
         0.78200E+11
         0.78200E+11
         0.78200E+11
         0.78200E+11
         0.78200E+11
         0.78200E+11
         0.78200E+11
         0.78200E+11
         0.78200E+11
         0.78200E+11
         0.78200E+11
         0.78200E+11
         0.78200E+11
         0.78200E+11
         0.78200E+11
         0.78200E+11
         0.78200E+11
         0.78200E+11
         0.78200E+11
         0.78200E+11
         0.78200E+11
         0.78200E+11
         0.78200E+11
         0.78200E+11
         0.78200E+11
         0.78200E+11
         0.78200E+11
         0.78200E+11
         0.78200E+11
         0.78200E+11
         0.78200E+11
         0.78200E+11
         0.78200E+11
         0.78200E+11
         0.78200E+11
         0.78200E+11
         0.78200E+11
         0.78200E+11
         0.78200E+11
         0.78200E+11
         0.78200E+11
         0.78200E+11
         0.78200E+11
         0.78200E+11
         0.78200E+11
         0.78200E+11
         0.78200E+11
         0.78200E+11
         0.78200E+11
         0.78200E+11
         0.78200E+11
         0.78200E+11
         0.78200E+11
         0.78200E+11
         0.78200E+11
         0.78200E+11
         0.78200E+11
         0.78200E+11
         0.78200E+11
         0.78200E+11
         0.78200E+11
         0.78200E+11
         0.78200E+11
         0.78200E+11
         0.78200E+11
         0.78200E+11
         0.78200E+11
         0.78200E+11
         0.78200E+11
         0.78200E+11
         0.78200E+11
         0.78200E+11
         0.78200E+11
         0.78200E+11
         0.78200E+11
         0.78200E+11
         0.78200E+11
         0.78200E+11
         0.78200E+11
         0.78200E+11
         0.78200E+11
         0.78200E+11
         0.78200E+11
         0.78200E+11
         0.78200E+11
         0.78200E+11
         0.78200E+11
         0.78200E+11
         0.78200E+11
         0.78200E+11
         0.78200E+11
         0.78200E+11
         0.78200E+11
         0.78200E+11
         0.78200E+11
         0.78200E+11
         0.78200E+11
         0.78200E+11
         0.78200E+11
         0.78200E+11
         0.78200E+11
         0.78200E+11
         0.78200E+11
         0.78200E+11
         0.78200E+11
         0.78200E+11
         0.78200E+11
         0.78200E+11
         0.78200E+11
         0.78200E+11
         0.78200E+11
         0.78200E+11
         0.78200E+11
         0.78200E+11
         0.78200E+11
         0.78200E+11
         0.78200E+11
         0.78200E+11
         0.78200E+11
         0.78200E+11
         0.78200E+11
         0.78200E+11
         0.78200E+11
         0.78200E+11
         0.78200E+11
         0.78200E+11
         0.78200E+11
         0.78200E+11
         0.78200E+11
         0.78200E+11
         0.78200E+11
         0.78200E+11
         0.78200E+11
         0.78200E+11
         0.78200E+11
         0.78200E+11
         0.78200E+11
         0.78200E+11
         0.78200E+11
         0.78200E+11
         0.78200E+11
         0.78200E+11
         0.78200E+11
         0.78200E+11
         0.78200E+11
         0.78200E+11
         0.78200E+11
         0.78200E+11
         0.78200E+11
         0.78200E+11
         0.78200E+11
         0.78200E+11
         0.78200E+11
         0.78200E+11
         0.78200E+11
         0.78200E+11
         0.78200E+11
         0.78200E+11
         0.78200E+11
         0.78200E+11
         0.78200E+11
         0.78200E+11
         0.78200E+11
         0.78200E+11
         0.78200E+11
         0.78200E+11
         0.78200E+11
         0.78200E+11
         0.78200E+11
         0.78200E+11
         0.78200E+11
         0.78200E+11
         0.78200E+11
         0.78200E+11
         0.78200E+11
         0.78200E+11
         0.78200E+11
         0.78200E+11
         0.78200E+11
         0.78200E+11
         0.78200E+11
         0.78200E+11
         0.78200E+11
         0.78200E+11
         0.78200E+11
         0.78200E+11
         0.78200E+11
         0.78200E+11
         0.78200E+11
         0.78200E+11
         0.78200E+11
         0.78200E+11
         0.78200E+11
         0.78200E+11
         0.78200E+11
         0.78200E+11
         0.78200E+11
         0.78200E+11
         0.78200E+11
         0.78200E+11
         0.78200E+11
         0.78200E+11
         0.78200E+11
         0.78200E+11
         0.78200E+11
         0.78200E+11
         0.78200E+11
         0.78200E+11
         0.78200E+11
         0.78200E+11
         0.78200E+11
         0.78200E+11
         0.78200E+11
         0.78200E+11
         0.78200E+11
         0.78200E+11
         0.78200E+11
         0.78200E+11
         0.78200E+11
         0.78200E+11
         0.78200E+11
         0.78200E+11
         0.78200E+11
         0.78200E+11
         0.78200E+11
         0.78200E+11
         0.78200E+11
         0.78200E+11
         0.78200E+11
         0.78200E+11
         0.78200E+11
         0.78200E+11
         0.78200E+11
         0.78200E+11
         0.78200E+11
         0.78200E+11
         0.78200E+11
         0.78200E+11
         0.78200E+11
         0.78200E+11
         0.78200E+11
         0.78200E+11
         0.78200E+11
         0.78200E+11
         0.78200E+11
         0.78200E+11
         0.78200E+11
         0.78200E+11
         0.78200E+11
         0.78200E+11
         0.78200E+11
         0.78200E+11
         0.78200E+11
         0.78200E+11
         0.78200E+11
         0.78200E+11
         0.78200E+11
         0.78200E+11
         0.78200E+11
         0.78200E+11
         0.78200E+11
         0.78200E+11
         0.78200E+11
         0.78200E+11
         0.78200E+11
         0.78200E+11
         0.78200E+11
         0.78200E+11
         0.78200E+11
         0.78200E+11
         0.78200E+11
         0.78200E+11
         0.78200E+11
         0.78200E+11
         0.78200E+11
         0.78200E+11
         0.78200E+11
         0.78200E+11
         0.78200E+11
         0.78200E+11
         0.78200E+11
         0.78200E+11
         0.78200E+11
         0.78200E+11
         0.78200E+11
         0.78200E+11
         0.78200E+11
         0.78200E+11
         0.78200E+11
         0.78200E+11
         0.78200E+11
         0.78200E+11
         0.78200E+11
         0.78200E+11
         0.78200E+11
         0.78200E+11
         0.78200E+11
         0.78200E+11
         0.78200E+11
         0.78200E+11
         0.78200E+11
         0.78200E+11
         0.78200E+11
         0.78200E+11
         0.78200E+11
         0.78200E+11
         0.78200E+11
         0.78200E+11
         0.78200E+11
         0.78200E+11
         0.78200E+11
         0.78200E+11
         0.78200E+11
         0.78200E+11
         0.78200E+11
         0.78200E+11
         0.78200E+11
         0.78200E+11
         0.78200E+11
         0.78200E+11
         0.78200E+11
         0.78200E+11
         0.78200E+11
         0.78200E+11
         0.78200E+11
         0.78200E+11
         0.78200E+11
         0.78200E+11
         0.78200E+11
         0.78200E+11
         0.78200E+11
         0.78200E+11
         0.78200E+11
         0.78200E+11
         0.78200E+11
         0.78200E+11
         0.78200E+11
         0.78200E+11
         0.78200E+11
         0.78200E+11
         0.78200E+11
         0.78200E+11
         0.78200E+11
         0.78200E+11
         0.78200E+11
         0.78200E+11
         0.78200E+11
         0.78200E+11
         0.78200E+11
         0.78200E+11
         0.78200E+11
         0.78200E+11
         0.78200E+11
         0.78200E+11
         0.78200E+11
         0.78200E+11
         0.78200E+11
         0.78200E+11
         0.78200E+11
         0.78200E+11
         0.78200E+11
         0.78200E+11
         0.78200E+11
         0.78200E+11
         0.78200E+11
         0.78200E+11
         0.78200E+11
         0.78200E+11
         0.78200E+11
         0.78200E+11
         0.78200E+11
         0.78200E+11
         0.78200E+11
         0.78200E+11
         0.78200E+11
         0.78200E+11
         0.78200E+11
         0.78200E+11
         0.78200E+11
         0.78200E+11
         0.78200E+11
         0.78200E+11
         0.78200E+11
         0.78200E+11
         0.78200E+11
         0.78200E+11
         0.78200E+11
         0.78200E+11
         0.78200E+11
         0.78200E+11
         0.78200E+11
         0.78200E+11
         0.78200E+11
         0.78200E+11
         0.78200E+11
         0.78200E+11
         0.78200E+11
         0.78200E+11
         0.78200E+11
         0.78200E+11
         0.78200E+11
         0.78200E+11
         0.78200E+11
         0.78200E+11
         0.78200E+11
         0.78200E+11
         0.78200E+11
         0.78200E+11
         0.78200E+11
         0.78200E+11
         0.78200E+11
         0.78200E+11
         0.78200E+11
         0.78200E+11
         0.78200E+11
         0.78200E+11
         0.78200E+11
         0.78200E+11
         0.78200E+11
         0.78200E+11
         0.78200E+11
         0.78200E+11
         0.78200E+11
         0.78200E+11
         0.78200E+11
         0.78200E+11
         0.78200E+11
         0.78200E+11
         0.78200E+11
         0.78200E+11
         0.78200E+11
         0.78200E+11
         0.78200E+11
         0.78200E+11
         0.78200E+11
         0.78200E+11
         0.78200E+11
         0.78200E+11
         0.78200E+11
         0.78200E+11
         0.78200E+11
         0.78200E+11
         0.78200E+11
         0.78200E+11
         0.78200E+11
         0.78200E+11
         0.78200E+11
         0.78200E+11
         0.78200E+11
         0.78200E+11
         0.78200E+11
         0.78200E+11
         0.78200E+11
         0.78200E+11
         0.78200E+11
         0.78200E+11
         0.78200E+11
         0.78200E+11
         0.78200E+11
         0.78200E+11
         0.78200E+11
         0.78200E+11
         0.78200E+11
         0.78200E+11
         0.78200E+11
         0.78200E+11
         0.78200E+11
         0.78200E+11
         0.78200E+11
         0.78200E+11
         0.78200E+11
         0.78200E+11
         0.78200E+11
         0.78200E+11
         0.78200E+11
         0.78200E+11
         0.78200E+11
         0.78200E+11
         0.78200E+11
         0.78200E+11
         0.78200E+11
         0.78200E+11
         0.78200E+11
         0.78200E+11
         0.78200E+11
         0.78200E+11
         0.78200E+11
         0.78200E+11
         0.78200E+11
         0.78200E+11
         0.78200E+11
         0.78200E+11
         0.78200E+11
         0.78200E+11
         0.78200E+11
         0.78200E+11
         0.78200E+11
         0.78200E+11
         0.78200E+11
         0.78200E+11
         0.78200E+11
         0.78200E+11
         0.78200E+11
         0.78200E+11
         0.78200E+11
         0.78200E+11
         0.78200E+11
         0.78200E+11
         0.78200E+11
         0.78200E+11
         0.78200E+11
         0.78200E+11
         0.78200E+11
         0.78200E+11
         0.78200E+11
         0.78200E+11
         0.78200E+11
         0.78200E+11
         0.78200E+11
         0.78200E+11
         0.78200E+11
         0.78200E+11
         0.78200E+11
         0.78200E+11
         0.78200E+11
         0.78200E+11
         0.78200E+11
         0.78200E+11
         0.78200E+11
         0.78200E+11
         0.78200E+11
         0.78200E+11
         0.78200E+11
         0.78200E+11
         0.78200E+11
         0.78200E+11
         0.78200E+11
         0.78200E+11
         0.78200E+11
         0.78200E+11
         0.78200E+11
         0.78200E+11
         0.78200E+11
         0.78200E+11
         0.78200E+11
         0.78200E+11
         0.78200E+11
         0.78200E+11
         0.78200E+11
         0.78200E+11
         0.78200E+11
         0.78200E+11
         0.78200E+11
         0.78200E+11
         0.78200E+11
         0.78200E+11
         0.78200E+11
         0.78200E+11
         0.78200E+11
         0.78200E+11
         0.78200E+11
         0.78200E+11
         0.78200E+11
         0.78200E+11
         0.78200E+11
         0.78200E+11
         0.78200E+11
         0.78200E+11
         0.78200E+11
         0.78200E+11
         0.78200E+11
         0.78200E+11
         0.78200E+11
         0.78200E+11
         0.78200E+11
         0.78200E+11
         0.78200E+11
         0.78200E+11
         0.78200E+11
         0.78200E+11
         0.78200E+11
         0.78200E+11
         0.78200E+11
         0.78200E+11
         0.78200E+11
         0.78200E+11
         0.78200E+11
         0.78200E+11
         0.78200E+11
         0.78200E+11
         0.78200E+11
         0.78200E+11
         0.78200E+11
         0.78200E+11
         0.78200E+11
         0.78200E+11
         0.78200E+11
         0.78200E+11
         0.78200E+11
         0.78200E+11
         0.78200E+11
         0.78200E+11
         0.78200E+11
         0.78200E+11
         0.78200E+11
         0.78200E+11
         0.78200E+11
         0.78200E+11
         0.78200E+11
         0.78200E+11
         0.78200E+11
         0.78200E+11
         0.78200E+11
         0.78200E+11
         0.78200E+11
         0.78200E+11
         0.78200E+11
         0.78200E+11
         0.78200E+11
         0.78200E+11
         0.78200E+11
         0.78200E+11
         0.78200E+11
         0.78200E+11
         0.78200E+11
         0.78200E+11
         0.78200E+11
         0.78200E+11
         0.78200E+11
         0.78200E+11
         0.78200E+11
         0.78200E+11
         0.78200E+11
         0.78200E+11
         0.78200E+11
         0.78200E+11
         0.78200E+11
         0.78200E+11
         0.78200E+11
         0.78200E+11
         0.78200E+11
         0.78200E+11
         0.78200E+11
         0.78200E+11
         0.78200E+11
         0.78200E+11
         0.78200E+11
         0.78200E+11
         0.78200E+11
         0.78200E+11
         0.78200E+11
         0.78200E+11
         0.78200E+11
         0.78200E+11
         0.78200E+11
         0.78200E+11
         0.78200E+11
         0.78200E+11
         0.78200E+11
         0.78200E+11
         0.78200E+11
         0.78200E+11
         0.78200E+11
         0.78200E+11
         0.78200E+11
         0.78200E+11
         0.78200E+11
         0.78200E+11
         0.78200E+11
         0.78200E+11
         0.78200E+11
         0.78200E+11
         0.78200E+11
         0.78200E+11
         0.78200E+11
         0.78200E+11
         0.78200E+11
         0.78200E+11
         0.78200E+11
         0.78200E+11
         0.78200E+11
         0.78200E+11
         0.78200E+11
         0.78200E+11
         0.78200E+11
         0.78200E+11
         0.78200E+11
         0.78200E+11
         0.78200E+11
         0.78200E+11
         0.78200E+11
         0.78200E+11
         0.78200E+11
         0.78200E+11
         0.78200E+11
         0.78200E+11
         0.78200E+11
         0.78200E+11
         0.78200E+11
         0.78200E+11
         0.78200E+11
         0.78200E+11
         0.78200E+11
         0.78200E+11
         0.78200E+11
         0.78200E+11
         0.78200E+11
         0.78200E+11
         0.78200E+11
         0.78200E+11
         0.78200E+11
         0.78200E+11
         0.78200E+11
         0.78200E+11
         0.78200E+11
         0.78200E+11
         0.78200E+11
         0.78200E+11
         0.78200E+11
         0.78200E+11
         0.78200E+11
         0.78200E+11
         0.78200E+11
         0.78200E+11
         0.78200E+11
         0.78200E+11
         0.78200E+11
         0.78200E+11
         0.78200E+11
         0.78200E+11
         0.78200E+11
         0.78200E+11
         0.78200E+11
         0.78200E+11
         0.78200E+11
         0.78200E+11
         0.78200E+11
         0.78200E+11
         0.78200E+11
         0.78200E+11
         0.78200E+11
         0.78200E+11
         0.78200E+11
         0.78200E+11
         0.78200E+11
         0.78200E+11
         0.78200E+11
         0.78200E+11
         0.78200E+11
         0.78200E+11
         0.78200E+11
         0.78200E+11
         0.78200E+11
         0.78200E+11
         0.78200E+11
         0.78200E+11
         0.78200E+11
         0.78200E+11
         0.78200E+11
         0.78200E+11
         0.78200E+11
         0.78200E+11
         0.78200E+11
         0.78200E+11
         0.78200E+11
         0.78200E+11
         0.78200E+11
         0.78200E+11
         0.78200E+11
         0.78200E+11
         0.78200E+11
         0.78200E+11
         0.78200E+11
         0.78200E+11
         0.78200E+11
         0.78200E+11
         0.78200E+11
         0.78200E+11
         0.78200E+11
         0.78200E+11
         0.78200E+11
         0.78200E+11
         0.78200E+11
         0.78200E+11
         0.78200E+11
         0.78200E+11
         0.78200E+11
         0.78200E+11
         0.78200E+11
         0.78200E+11
         0.78200E+11
         0.78200E+11
         0.78200E+11
         0.78200E+11
         0.78200E+11
         0.78200E+11
         0.78200E+11
         0.78200E+11
         0.78200E+11
         0.78200E+11
         0.78200E+11
         0.78200E+11
         0.78200E+11
         0.78200E+11
         0.78200E+11
         0.78200E+11
         0.78200E+11
         0.78200E+11
         0.78200E+11
         0.78200E+11
         0.78200E+11
         0.78200E+11
         0.78200E+11
         0.78200E+11
         0.78200E+11
         0.78200E+11
         0.78200E+11
         0.78200E+11
         0.78200E+11
         0.78200E+11
         0.78200E+11
         0.78200E+11
         0.78200E+11
         0.78200E+11
         0.78200E+11
         0.78200E+11
         0.78200E+11
         0.78200E+11
         0.78200E+11
         0.78200E+11
         0.78200E+11
         0.78200E+11
         0.78200E+11
         0.78200E+11
         0.78200E+11
         0.78200E+11
         0.78200E+11
         0.78200E+11
         0.78200E+11
         0.78200E+11
         0.78200E+11
         0.78200E+11
         0.78200E+11
         0.78200E+11
         0.78200E+11
         0.78200E+11
         0.78200E+11
         0.78200E+11
         0.78200E+11
         0.78200E+11
         0.78200E+11
         0.78200E+11
         0.78200E+11
         0.78200E+11
         0.78200E+11
         0.78200E+11
         0.78200E+11
         0.78200E+11
         0.78200E+11
         0.78200E+11
         0.78200E+11
         0.78200E+11
         0.78200E+11
         0.78200E+11
         0.78200E+11
         0.78200E+11
         0.78200E+11
         0.78200E+11
         0.78200E+11
         0.78200E+11
         0.78200E+11
         0.78200E+11
         0.78200E+11
         0.78200E+11
         0.78200E+11
         0.78200E+11
         0.78200E+11
         0.78200E+11
         0.78200E+11
         0.78200E+11
         0.78200E+11
         0.78200E+11
         0.78200E+11
         0.78200E+11
         0.78200E+11
         0.78200E+11
         0.78200E+11
         0.78200E+11
         0.78200E+11
         0.78200E+11
         0.78200E+11
         0.78200E+11
         0.78200E+11
         0.78200E+11
         0.78200E+11
         0.78200E+11
         0.78200E+11
         0.78200E+11
         0.78200E+11
         0.78200E+11
         0.78200E+11
         0.78200E+11
         0.78200E+11
         0.78200E+11
         0.78200E+11
         0.78200E+11
         0.78200E+11
         0.78200E+11
         0.78200E+11
         0.78200E+11
         0.78200E+11
         0.78200E+11
         0.78200E+11
         0.78200E+11
         0.78200E+11
         0.78200E+11
         0.78200E+11
         0.78200E+11
         0.78200E+11
         0.78200E+11
         0.78200E+11
         0.78200E+11
         0.78200E+11
         0.78200E+11
         0.78200E+11
         0.78200E+11
         0.78200E+11
         0.78200E+11
         0.78200E+11
         0.78200E+11
         0.78200E+11
         0.78200E+11
         0.78200E+11
         0.78200E+11
         0.78200E+11
         0.78200E+11
         0.78200E+11
         0.78200E+11
         0.78200E+11
         0.78200E+11
         0.78200E+11
         0.78200E+11
         0.78200E+11
         0.78200E+11
         0.78200E+11
         0.78200E+11
         0.78200E+11
         0.78200E+11
         0.78200E+11
         0.78200E+11
         0.78200E+11
         0.78200E+11
         0.78200E+11
         0.78200E+11
         0.78200E+11
         0.78200E+11
         0.78200E+11
         0.78200E+11
         0.78200E+11
         0.78200E+11
         0.78200E+11
         0.78200E+11
         0.78200E+11
         0.78200E+11
         0.78200E+11
         0.78200E+11
         0.78200E+11
         0.78200E+11
         0.78200E+11
         0.78200E+11
         0.78200E+11
         0.78200E+11
         0.78200E+11
         0.78200E+11
         0.78200E+11
         0.78200E+11
         0.78200E+11
         0.78200E+11
         0.78200E+11
         0.78200E+11
         0.78200E+11
         0.78200E+11
         0.78200E+11
         0.78200E+11
         0.78200E+11
         0.78200E+11
         0.78200E+11
         0.78200E+11
         0.78200E+11
         0.78200E+11
         0.78200E+11
         0.78200E+11
         0.78200E+11
         0.78200E+11
         0.78200E+11
         0.78200E+11
         0.78200E+11
         0.78200E+11
         0.78200E+11
         0.78200E+11
         0.78200E+11
         0.78200E+11
         0.78200E+11
         0.78200E+11
         0.78200E+11
         0.78200E+11
         0.78200E+11
         0.78200E+11
         0.78200E+11
         0.78200E+11
         0.78200E+11
         0.78200E+11
         0.78200E+11
         0.78200E+11
         0.78200E+11
         0.78200E+11
         0.78200E+11
         0.78200E+11
         0.78200E+11
         0.78200E+11
         0.78200E+11
         0.78200E+11
         0.78200E+11
         0.78200E+11
         0.78200E+11
         0.78200E+11
         0.78200E+11
         0.78200E+11
         0.78200E+11
         0.78200E+11
         0.78200E+11
         0.78200E+11
         0.78200E+11
         0.78200E+11
         0.78200E+11
         0.78200E+11
         0.78200E+11
         0.78200E+11
         0.78200E+11
         0.78200E+11
         0.78200E+11
         0.78200E+11
         0.78200E+11
         0.78200E+11
         0.78200E+11
         0.78200E+11
         0.78200E+11
         0.78200E+11
         0.78200E+11
         0.78200E+11
         0.78200E+11
         0.78200E+11
         0.78200E+11
         0.78200E+11
         0.78200E+11
         0.78200E+11
         0.78200E+11
         0.78200E+11
         0.78200E+11
         0.78200E+11
         0.78200E+11
         0.78200E+11
         0.78200E+11
         0.78200E+11
         0.78200E+11
         0.78200E+11
         0.78200E+11
         0.78200E+11
         0.78200E+11
         0.78200E+11
         0.78200E+11
         0.78200E+11
         0.78200E+11
         0.78200E+11
         0.78200E+11
         0.78200E+11
         0.78200E+11
         0.78200E+11
         0.78200E+11
         0.78200E+11
         0.78200E+11
         0.78200E+11
         0.78200E+11
         0.78200E+11
         0.78200E+11
         0.78200E+11
         0.78200E+11
         0.78200E+11
         0.78200E+11
         0.78200E+11
         0.78200E+11
         0.78200E+11
         0.78200E+11
         0.78200E+11
         0.78200E+11
         0.78200E+11
         0.78200E+11
         0.78200E+11
         0.78200E+11
         0.78200E+11
         0.78200E+11
         0.78200E+11
         0.78200E+11
         0.78200E+11
         0.78200E+11
         0.78200E+11
         0.78200E+11
         0.78200E+11
         0.78200E+11
         0.78200E+11
         0.78200E+11
         0.78200E+11
         0.78200E+11
         0.78200E+11
         0.78200E+11
         0.78200E+11
         0.78200E+11
         0.78200E+11
         0.78200E+11
         0.78200E+11
         0.78200E+11
         0.78200E+11
         0.78200E+11
         0.78200E+11
         0.78200E+11
         0.78200E+11
         0.78200E+11
         0.78200E+11
         0.78200E+11
         0.78200E+11
         0.78200E+11
         0.78200E+11
         0.78200E+11
         0.78200E+11
         0.78200E+11
         0.78200E+11
         0.78200E+11
         0.78200E+11
         0.78200E+11
         0.78200E+11
         0.78200E+11
         0.78200E+11
         0.78200E+11
         0.78200E+11
         0.78200E+11
         0.78200E+11
         0.78200E+11
         0.78200E+11
         0.78200E+11
         0.78200E+11
         0.78200E+11
         0.78200E+11
         0.78200E+11
         0.78200E+11
         0.78200E+11
         0.78200E+11
         0.78200E+11
         0.78200E+11
         0.78200E+11
         0.78200E+11
         0.78200E+11
         0.78200E+11
         0.78200E+11
         0.78200E+11
         0.78200E+11
         0.78200E+11
         0.78200E+11
         0.78200E+11
         0.78200E+11
         0.78200E+11
         0.78200E+11
         0.78200E+11
         0.78200E+11
         0.78200E+11
         0.78200E+11
         0.78200E+11
         0.78200E+11
         0.78200E+11
         0.78200E+11
         0.78200E+11
         0.78200E+11
         0.78200E+11
         0.78200E+11
         0.78200E+11
         0.78200E+11
         0.78200E+11
         0.78200E+11
         0.78200E+11
         0.78200E+11
         0.78200E+11
         0.78200E+11
         0.78200E+11
         0.78200E+11
         0.78200E+11
         0.78200E+11
         0.78200E+11
         0.78200E+11
         0.78200E+11
         0.78200E+11
         0.78200E+11
         0.78200E+11
         0.78200E+11
         0.78200E+11
         0.78200E+11
         0.78200E+11
         0.78200E+11
         0.78200E+11
         0.78200E+11
         0.78200E+11
         0.78200E+11
         0.78200E+11
         0.78200E+11
         0.78200E+11
         0.78200E+11
         0.78200E+11
         0.78200E+11
         0.78200E+11
         0.78200E+11
         0.78200E+11
         0.78200E+11
         0.78200E+11
         0.78200E+11
         0.78200E+11
         0.78200E+11
         0.78200E+11
         0.78200E+11
         0.78200E+11
         0.78200E+11
         0.78200E+11
         0.78200E+11
         0.78200E+11
         0.78200E+11
         0.78200E+11
         0.78200E+11
         0.78200E+11
         0.78200E+11
         0.78200E+11
         0.78200E+11
         0.78200E+11
         0.78200E+11
         0.78200E+11
         0.78200E+11
         0.78200E+11
         0.78200E+11
         0.78200E+11
         0.78200E+11
         0.78200E+11
         0.78200E+11
         0.78200E+11
         0.78200E+11
         0.78200E+11
         0.78200E+11
         0.78200E+11
         0.78200E+11
         0.78200E+11
         0.78200E+11
         0.78200E+11
         0.78200E+11
         0.78200E+11
         0.78200E+11
         0.78200E+11
         0.78200E+11
         0.78200E+11
         0.78200E+11
         0.78200E+11
         0.78200E+11
         0.78200E+11
         0.78200E+11
         0.78200E+11
         0.78200E+11
         0.78200E+11
         0.78200E+11
         0.78200E+11
         0.78200E+11
         0.78200E+11
         0.78200E+11
         0.78200E+11
         0.78200E+11
         0.78200E+11
         0.78200E+11
         0.78200E+11
         0.78200E+11
         0.78200E+11
         0.78200E+11
         0.78200E+11
         0.78200E+11
         0.78200E+11
         0.78200E+11
         0.78200E+11
         0.78200E+11
         0.78200E+11
         0.78200E+11
         0.78200E+11
         0.78200E+11
         0.78200E+11
         0.78200E+11
         0.78200E+11
         0.78200E+11
         0.78200E+11
         0.78200E+11
         0.78200E+11
         0.78200E+11
         0.78200E+11
         0.78200E+11
         0.78200E+11
         0.78200E+11
         0.78200E+11
         0.78200E+11
         0.78200E+11
         0.78200E+11
         0.78200E+11
         0.78200E+11
         0.78200E+11
         0.78200E+11
         0.78200E+11
         0.78200E+11
         0.78200E+11
         0.78200E+11
         0.78200E+11
         0.78200E+11
         0.78200E+11
         0.78200E+11
         0.78200E+11
         0.78200E+11
         0.78200E+11
         0.78200E+11
         0.78200E+11
         0.78200E+11
         0.78200E+11
         0.78200E+11
         0.78200E+11
         0.78200E+11
         0.78200E+11
         0.78200E+11
         0.78200E+11
         0.78200E+11
         0.78200E+11
         0.78200E+11
         0.78200E+11
         0.78200E+11
         0.78200E+11
         0.78200E+11
         0.78200E+11
         0.78200E+11
         0.78200E+11
         0.78200E+11
         0.78200E+11
         0.78200E+11
         0.78200E+11
         0.78200E+11
         0.78200E+11
         0.78200E+11
         0.78200E+11
         0.78200E+11
         0.78200E+11
         0.78200E+11
         0.78200E+11
         0.78200E+11
         0.78200E+11
         0.78200E+11
         0.78200E+11
         0.78200E+11
         0.78200E+11
         0.78200E+11
         0.78200E+11
         0.78200E+11
         0.78200E+11
         0.78200E+11
         0.78200E+11
         0.78200E+11
         0.78200E+11
         0.78200E+11
         0.78200E+11
         0.78200E+11
         0.78200E+11
         0.78200E+11
         0.78200E+11
         0.78200E+11
         0.78200E+11
         0.78200E+11
         0.78200E+11
         0.78200E+11
         0.78200E+11
         0.78200E+11
         0.78200E+11
         0.78200E+11
         0.78200E+11
         0.78200E+11
         0.78200E+11
         0.78200E+11
         0.78200E+11
         0.78200E+11
         0.78200E+11
         0.78200E+11
         0.78200E+11
         0.78200E+11
         0.78200E+11
         0.78200E+11
         0.78200E+11
         0.78200E+11
         0.78200E+11
         0.78200E+11
         0.78200E+11
         0.78200E+11
         0.78200E+11
         0.78200E+11
         0.78200E+11
         0.78200E+11
         0.78200E+11
         0.78200E+11
         0.78200E+11
         0.78200E+11
         0.78200E+11
         0.78200E+11
         0.78200E+11
         0.78200E+11
         0.78200E+11
         0.78200E+11
         0.78200E+11
         0.78200E+11
         0.78200E+11
         0.78200E+11
         0.78200E+11
         0.78200E+11
         0.78200E+11
         0.78200E+11
         0.78200E+11
         0.78200E+11
         0.78200E+11
         0.78200E+11
         0.78200E+11
         0.78200E+11
         0.78200E+11
         0.78200E+11
         0.78200E+11
         0.78200E+11
         0.78200E+11
         0.78200E+11
         0.78200E+11
         0.78200E+11
         0.78200E+11
         0.78200E+11
         0.78200E+11
         0.78200E+11
         0.78200E+11
         0.78200E+11
         0.78200E+11
         0.78200E+11
         0.78200E+11
         0.78200E+11
         0.78200E+11
         0.78200E+11
         0.78200E+11
         0.78200E+11
         0.78200E+11
         0.78200E+11
         0.78200E+11
         0.78200E+11
         0.78200E+11
         0.78200E+11
         0.78200E+11
         0.78200E+11
         0.78200E+11
         0.78200E+11
         0.78200E+11
         0.78200E+11
         0.78200E+11
         0.78200E+11
         0.78200E+11
         0.78200E+11
         0.78200E+11
         0.78200E+11
         0.78200E+11
         0.78200E+11
         0.78200E+11
         0.78200E+11
         0.78200E+11
         0.78200E+11
         0.78200E+11
         0.78200E+11
         0.78200E+11
         0.78200E+11
         0.78200E+11
         0.78200E+11
         0.78200E+11
         0.78200E+11
         0.78200E+11
         0.78200E+11
         0.78200E+11
         0.78200E+11
         0.78200E+11
         0.78200E+11
         0.78200E+11
         0.78200E+11
         0.78200E+11
         0.78200E+11
         0.78200E+11
         0.78200E+11
         0.78200E+11
         0.78200E+11
         0.78200E+11
         0.78200E+11
         0.78200E+11
         0.78200E+11
         0.78200E+11
         0.78200E+11
         0.78200E+11
         0.78200E+11
         0.78200E+11
         0.78200E+11
         0.78200E+11
         0.78200E+11
         0.78200E+11
         0.78200E+11
         0.78200E+11
         0.78200E+11
         0.78200E+11
         0.78200E+11
         0.78200E+11
         0.78200E+11
         0.78200E+11
         0.78200E+11
         0.78200E+11
         0.78200E+11
         0.78200E+11
         0.78200E+11
         0.78200E+11
         0.78200E+11
         0.78200E+11
         0.78200E+11
         0.78200E+11
         0.78200E+11
         0.78200E+11
         0.78200E+11
         0.78200E+11
         0.78200E+11
         0.78200E+11
         0.78200E+11
         0.78200E+11
         0.78200E+11
         0.78200E+11
         0.78200E+11
         0.78200E+11
         0.78200E+11
         0.78200E+11
         0.78200E+11
         0.78200E+11
         0.78200E+11
         0.78200E+11
         0.78200E+11
         0.78200E+11
         0.78200E+11
         0.78200E+11
         0.78200E+11
         0.78200E+11
         0.78200E+11
         0.78200E+11
         0.78200E+11
         0.78200E+11
         0.78200E+11
         0.78200E+11
         0.78200E+11
         0.78200E+11
         0.78200E+11
         0.78200E+11
         0.78200E+11
         0.78200E+11
         0.78200E+11
         0.78200E+11
         0.78200E+11
         0.78200E+11
         0.78200E+11
         0.78200E+11
         0.78200E+11
         0.78200E+11
         0.78200E+11
         0.78200E+11
         0.78200E+11
         0.78200E+11
         0.78200E+11
         0.78200E+11
         0.78200E+11
         0.78200E+11
         0.78200E+11
         0.78200E+11
         0.78200E+11
         0.78200E+11
         0.78200E+11
         0.78200E+11
         0.78200E+11
         0.78200E+11
         0.78200E+11
         0.78200E+11
         0.78200E+11
         0.78200E+11
         0.78200E+11
         0.78200E+11
         0.78200E+11
         0.78200E+11
         0.78200E+11
         0.78200E+11
         0.78200E+11
         0.78200E+11
         0.78200E+11
         0.78200E+11
         0.78200E+11
         0.78200E+11
         0.78200E+11
         0.78200E+11
         0.78200E+11
         0.78200E+11
         0.78200E+11
         0.78200E+11
         0.78200E+11
         0.78200E+11
         0.78200E+11
         0.78200E+11
         0.78200E+11
         0.78200E+11
         0.78200E+11
         0.78200E+11
         0.78200E+11
         0.78200E+11
         0.78200E+11
         0.78200E+11
         0.78200E+11
         0.78200E+11
         0.78200E+11
         0.78200E+11
         0.78200E+11
         0.78200E+11
         0.78200E+11
         0.78200E+11
         0.78200E+11
         0.78200E+11
         0.78200E+11
         0.78200E+11
         0.78200E+11
         0.78200E+11
         0.78200E+11
         0.78200E+11
         0.78200E+11
         0.78200E+11
         0.78200E+11
         0.78200E+11
         0.78200E+11
         0.78200E+11
         0.78200E+11
         0.78200E+11
         0.78200E+11
         0.78200E+11
         0.78200E+11
         0.78200E+11
         0.78200E+11
         0.78200E+11
         0.78200E+11
         0.78200E+11
         0.78200E+11
         0.78200E+11
         0.78200E+11
         0.78200E+11
         0.78200E+11
         0.78200E+11
         0.78200E+11
         0.78200E+11
         0.78200E+11
         0.78200E+11
         0.78200E+11
         0.78200E+11
         0.78200E+11
         0.78200E+11
         0.78200E+11
         0.78200E+11
         0.78200E+11
         0.78200E+11
         0.78200E+11
         0.78200E+11
         0.78200E+11
         0.78200E+11
         0.78200E+11
         0.78200E+11
         0.78200E+11
         0.78200E+11
         0.78200E+11
         0.78200E+11
         0.78200E+11
         0.78200E+11
         0.78200E+11
         0.78200E+11
         0.78200E+11
         0.78200E+11
         0.78200E+11
         0.78200E+11
         0.78200E+11
         0.78200E+11
         0.78200E+11
         0.78200E+11
         0.78200E+11
         0.78200E+11
         0.78200E+11
         0.78200E+11
         0.78200E+11
         0.78200E+11
         0.78200E+11
         0.78200E+11
         0.78200E+11
         0.78200E+11
         0.78200E+11
         0.78200E+11
         0.78200E+11
         0.78200E+11
         0.78200E+11
         0.78200E+11
         0.78200E+11
         0.78200E+11
         0.78200E+11
         0.78200E+11
         0.78200E+11
         0.78200E+11
         0.78200E+11
         0.78200E+11
         0.78200E+11
         0.78200E+11
         0.78200E+11
         0.78200E+11
         0.78200E+11
         0.78200E+11
         0.78200E+11
  
SCALARS                        density  double 1
LOOKUP_TABLE default
         0.27000E+04
         0.27000E+04
         0.27000E+04
         0.27000E+04
         0.27000E+04
         0.27000E+04
         0.27000E+04
         0.27000E+04
         0.27000E+04
         0.27000E+04
         0.27000E+04
         0.27000E+04
         0.27000E+04
         0.27000E+04
         0.27000E+04
         0.27000E+04
         0.27000E+04
         0.27000E+04
         0.27000E+04
         0.27000E+04
         0.27000E+04
         0.27000E+04
         0.27000E+04
         0.27000E+04
         0.27000E+04
         0.27000E+04
         0.27000E+04
         0.27000E+04
         0.27000E+04
         0.27000E+04
         0.27000E+04
         0.27000E+04
         0.27000E+04
         0.27000E+04
         0.27000E+04
         0.27000E+04
         0.27000E+04
         0.27000E+04
         0.27000E+04
         0.27000E+04
         0.27000E+04
         0.27000E+04
         0.27000E+04
         0.27000E+04
         0.27000E+04
         0.27000E+04
         0.27000E+04
         0.27000E+04
         0.27000E+04
         0.27000E+04
         0.27000E+04
         0.27000E+04
         0.27000E+04
         0.27000E+04
         0.27000E+04
         0.27000E+04
         0.27000E+04
         0.27000E+04
         0.27000E+04
         0.27000E+04
         0.27000E+04
         0.27000E+04
         0.27000E+04
         0.27000E+04
         0.27000E+04
         0.27000E+04
         0.27000E+04
         0.27000E+04
         0.27000E+04
         0.27000E+04
         0.27000E+04
         0.27000E+04
         0.27000E+04
         0.27000E+04
         0.27000E+04
         0.27000E+04
         0.27000E+04
         0.27000E+04
         0.27000E+04
         0.27000E+04
         0.27000E+04
         0.27000E+04
         0.27000E+04
         0.27000E+04
         0.27000E+04
         0.27000E+04
         0.27000E+04
         0.27000E+04
         0.27000E+04
         0.27000E+04
         0.27000E+04
         0.27000E+04
         0.27000E+04
         0.27000E+04
         0.27000E+04
         0.27000E+04
         0.27000E+04
         0.27000E+04
         0.27000E+04
         0.27000E+04
         0.27000E+04
         0.27000E+04
         0.27000E+04
         0.27000E+04
         0.27000E+04
         0.27000E+04
         0.27000E+04
         0.27000E+04
         0.27000E+04
         0.27000E+04
         0.27000E+04
         0.27000E+04
         0.27000E+04
         0.27000E+04
         0.27000E+04
         0.27000E+04
         0.27000E+04
         0.27000E+04
         0.27000E+04
         0.27000E+04
         0.27000E+04
         0.27000E+04
         0.27000E+04
         0.27000E+04
         0.27000E+04
         0.27000E+04
         0.27000E+04
         0.27000E+04
         0.27000E+04
         0.27000E+04
         0.27000E+04
         0.27000E+04
         0.27000E+04
         0.27000E+04
         0.27000E+04
         0.27000E+04
         0.27000E+04
         0.27000E+04
         0.27000E+04
         0.27000E+04
         0.27000E+04
         0.27000E+04
         0.27000E+04
         0.27000E+04
         0.27000E+04
         0.27000E+04
         0.27000E+04
         0.27000E+04
         0.27000E+04
         0.27000E+04
         0.27000E+04
         0.27000E+04
         0.27000E+04
         0.27000E+04
         0.27000E+04
         0.27000E+04
         0.27000E+04
         0.27000E+04
         0.27000E+04
         0.27000E+04
         0.27000E+04
         0.27000E+04
         0.27000E+04
         0.27000E+04
         0.27000E+04
         0.27000E+04
         0.27000E+04
         0.27000E+04
         0.27000E+04
         0.27000E+04
         0.27000E+04
         0.27000E+04
         0.27000E+04
         0.27000E+04
         0.27000E+04
         0.27000E+04
         0.27000E+04
         0.27000E+04
         0.27000E+04
         0.27000E+04
         0.27000E+04
         0.27000E+04
         0.27000E+04
         0.27000E+04
         0.27000E+04
         0.27000E+04
         0.27000E+04
         0.27000E+04
         0.27000E+04
         0.27000E+04
         0.27000E+04
         0.27000E+04
         0.27000E+04
         0.27000E+04
         0.27000E+04
         0.27000E+04
         0.27000E+04
         0.27000E+04
         0.27000E+04
         0.27000E+04
         0.27000E+04
         0.27000E+04
         0.27000E+04
         0.27000E+04
         0.27000E+04
         0.27000E+04
         0.27000E+04
         0.27000E+04
         0.27000E+04
         0.27000E+04
         0.27000E+04
         0.27000E+04
         0.27000E+04
         0.27000E+04
         0.27000E+04
         0.27000E+04
         0.27000E+04
         0.27000E+04
         0.27000E+04
         0.27000E+04
         0.27000E+04
         0.27000E+04
         0.27000E+04
         0.27000E+04
         0.27000E+04
         0.27000E+04
         0.27000E+04
         0.27000E+04
         0.27000E+04
         0.27000E+04
         0.27000E+04
         0.27000E+04
         0.27000E+04
         0.27000E+04
         0.27000E+04
         0.27000E+04
         0.27000E+04
         0.27000E+04
         0.27000E+04
         0.27000E+04
         0.27000E+04
         0.27000E+04
         0.27000E+04
         0.27000E+04
         0.27000E+04
         0.27000E+04
         0.27000E+04
         0.27000E+04
         0.27000E+04
         0.27000E+04
         0.27000E+04
         0.27000E+04
         0.27000E+04
         0.27000E+04
         0.27000E+04
         0.27000E+04
         0.27000E+04
         0.27000E+04
         0.27000E+04
         0.27000E+04
         0.27000E+04
         0.27000E+04
         0.27000E+04
         0.27000E+04
         0.27000E+04
         0.27000E+04
         0.27000E+04
         0.27000E+04
         0.27000E+04
         0.27000E+04
         0.27000E+04
         0.27000E+04
         0.27000E+04
         0.27000E+04
         0.27000E+04
         0.27000E+04
         0.27000E+04
         0.27000E+04
         0.27000E+04
         0.27000E+04
         0.27000E+04
         0.27000E+04
         0.27000E+04
         0.27000E+04
         0.27000E+04
         0.27000E+04
         0.27000E+04
         0.27000E+04
         0.27000E+04
         0.27000E+04
         0.27000E+04
         0.27000E+04
         0.27000E+04
         0.27000E+04
         0.27000E+04
         0.27000E+04
         0.27000E+04
         0.27000E+04
         0.27000E+04
         0.27000E+04
         0.27000E+04
         0.27000E+04
         0.27000E+04
         0.27000E+04
         0.27000E+04
         0.27000E+04
         0.27000E+04
         0.27000E+04
         0.27000E+04
         0.27000E+04
         0.27000E+04
         0.27000E+04
         0.27000E+04
         0.27000E+04
         0.27000E+04
         0.27000E+04
         0.27000E+04
         0.27000E+04
         0.27000E+04
         0.27000E+04
         0.27000E+04
         0.27000E+04
         0.27000E+04
         0.27000E+04
         0.27000E+04
         0.27000E+04
         0.27000E+04
         0.27000E+04
         0.27000E+04
         0.27000E+04
         0.27000E+04
         0.27000E+04
         0.27000E+04
         0.27000E+04
         0.27000E+04
         0.27000E+04
         0.27000E+04
         0.27000E+04
         0.27000E+04
         0.27000E+04
         0.27000E+04
         0.27000E+04
         0.27000E+04
         0.27000E+04
         0.27000E+04
         0.27000E+04
         0.27000E+04
         0.27000E+04
         0.27000E+04
         0.27000E+04
         0.27000E+04
         0.27000E+04
         0.27000E+04
         0.27000E+04
         0.27000E+04
         0.27000E+04
         0.27000E+04
         0.27000E+04
         0.27000E+04
         0.27000E+04
         0.27000E+04
         0.27000E+04
         0.27000E+04
         0.27000E+04
         0.27000E+04
         0.27000E+04
         0.27000E+04
         0.27000E+04
         0.27000E+04
         0.27000E+04
         0.27000E+04
         0.27000E+04
         0.27000E+04
         0.27000E+04
         0.27000E+04
         0.27000E+04
         0.27000E+04
         0.27000E+04
         0.27000E+04
         0.27000E+04
         0.27000E+04
         0.27000E+04
         0.27000E+04
         0.27000E+04
         0.27000E+04
         0.27000E+04
         0.27000E+04
         0.27000E+04
         0.27000E+04
         0.27000E+04
         0.27000E+04
         0.27000E+04
         0.27000E+04
         0.27000E+04
         0.27000E+04
         0.27000E+04
         0.27000E+04
         0.27000E+04
         0.27000E+04
         0.27000E+04
         0.27000E+04
         0.27000E+04
         0.27000E+04
         0.27000E+04
         0.27000E+04
         0.27000E+04
         0.27000E+04
         0.27000E+04
         0.27000E+04
         0.27000E+04
         0.27000E+04
         0.27000E+04
         0.27000E+04
         0.27000E+04
         0.27000E+04
         0.27000E+04
         0.27000E+04
         0.27000E+04
         0.27000E+04
         0.27000E+04
         0.27000E+04
         0.27000E+04
         0.27000E+04
         0.27000E+04
         0.27000E+04
         0.27000E+04
         0.27000E+04
         0.27000E+04
         0.27000E+04
         0.27000E+04
         0.27000E+04
         0.27000E+04
         0.27000E+04
         0.27000E+04
         0.27000E+04
         0.27000E+04
         0.27000E+04
         0.27000E+04
         0.27000E+04
         0.27000E+04
         0.27000E+04
         0.27000E+04
         0.27000E+04
         0.27000E+04
         0.27000E+04
         0.27000E+04
         0.27000E+04
         0.27000E+04
         0.27000E+04
         0.27000E+04
         0.27000E+04
         0.27000E+04
         0.27000E+04
         0.27000E+04
         0.27000E+04
         0.27000E+04
         0.27000E+04
         0.27000E+04
         0.27000E+04
         0.27000E+04
         0.27000E+04
         0.27000E+04
         0.27000E+04
         0.27000E+04
         0.27000E+04
         0.27000E+04
         0.27000E+04
         0.27000E+04
         0.27000E+04
         0.27000E+04
         0.27000E+04
         0.27000E+04
         0.27000E+04
         0.27000E+04
         0.27000E+04
         0.27000E+04
         0.27000E+04
         0.27000E+04
         0.27000E+04
         0.27000E+04
         0.27000E+04
         0.27000E+04
         0.27000E+04
         0.27000E+04
         0.27000E+04
         0.27000E+04
         0.27000E+04
         0.27000E+04
         0.27000E+04
         0.27000E+04
         0.27000E+04
         0.27000E+04
         0.27000E+04
         0.27000E+04
         0.27000E+04
         0.27000E+04
         0.27000E+04
         0.27000E+04
         0.27000E+04
         0.27000E+04
         0.27000E+04
         0.27000E+04
         0.27000E+04
         0.27000E+04
         0.27000E+04
         0.27000E+04
         0.27000E+04
         0.27000E+04
         0.27000E+04
         0.27000E+04
         0.27000E+04
         0.27000E+04
         0.27000E+04
         0.27000E+04
         0.27000E+04
         0.27000E+04
         0.27000E+04
         0.27000E+04
         0.27000E+04
         0.27000E+04
         0.27000E+04
         0.27000E+04
         0.27000E+04
         0.27000E+04
         0.27000E+04
         0.27000E+04
         0.27000E+04
         0.27000E+04
         0.27000E+04
         0.27000E+04
         0.27000E+04
         0.27000E+04
         0.27000E+04
         0.27000E+04
         0.27000E+04
         0.27000E+04
         0.27000E+04
         0.27000E+04
         0.27000E+04
         0.27000E+04
         0.27000E+04
         0.27000E+04
         0.27000E+04
         0.27000E+04
         0.27000E+04
         0.27000E+04
         0.27000E+04
         0.27000E+04
         0.27000E+04
         0.27000E+04
         0.27000E+04
         0.27000E+04
         0.27000E+04
         0.27000E+04
         0.27000E+04
         0.27000E+04
         0.27000E+04
         0.27000E+04
         0.27000E+04
         0.27000E+04
         0.27000E+04
         0.27000E+04
         0.27000E+04
         0.27000E+04
         0.27000E+04
         0.27000E+04
         0.27000E+04
         0.27000E+04
         0.27000E+04
         0.27000E+04
         0.27000E+04
         0.27000E+04
         0.27000E+04
         0.27000E+04
         0.27000E+04
         0.27000E+04
         0.27000E+04
         0.27000E+04
         0.27000E+04
         0.27000E+04
         0.27000E+04
         0.27000E+04
         0.27000E+04
         0.27000E+04
         0.27000E+04
         0.27000E+04
         0.27000E+04
         0.27000E+04
         0.27000E+04
         0.27000E+04
         0.27000E+04
         0.27000E+04
         0.27000E+04
         0.27000E+04
         0.27000E+04
         0.27000E+04
         0.27000E+04
         0.27000E+04
         0.27000E+04
         0.27000E+04
         0.27000E+04
         0.27000E+04
         0.27000E+04
         0.27000E+04
         0.27000E+04
         0.27000E+04
         0.27000E+04
         0.27000E+04
         0.27000E+04
         0.27000E+04
         0.27000E+04
         0.27000E+04
         0.27000E+04
         0.27000E+04
         0.27000E+04
         0.27000E+04
         0.27000E+04
         0.27000E+04
         0.27000E+04
         0.27000E+04
         0.27000E+04
         0.27000E+04
         0.27000E+04
         0.27000E+04
         0.27000E+04
         0.27000E+04
         0.27000E+04
         0.27000E+04
         0.27000E+04
         0.27000E+04
         0.27000E+04
         0.27000E+04
         0.27000E+04
         0.27000E+04
         0.27000E+04
         0.27000E+04
         0.27000E+04
         0.27000E+04
         0.27000E+04
         0.27000E+04
         0.27000E+04
         0.27000E+04
         0.27000E+04
         0.27000E+04
         0.27000E+04
         0.27000E+04
         0.27000E+04
         0.27000E+04
         0.27000E+04
         0.27000E+04
         0.27000E+04
         0.27000E+04
         0.27000E+04
         0.27000E+04
         0.27000E+04
         0.27000E+04
         0.27000E+04
         0.27000E+04
         0.27000E+04
         0.27000E+04
         0.27000E+04
         0.27000E+04
         0.27000E+04
         0.27000E+04
         0.27000E+04
         0.27000E+04
         0.27000E+04
         0.27000E+04
         0.27000E+04
         0.27000E+04
         0.27000E+04
         0.27000E+04
         0.27000E+04
         0.27000E+04
         0.27000E+04
         0.27000E+04
         0.27000E+04
         0.27000E+04
         0.27000E+04
         0.27000E+04
         0.27000E+04
         0.27000E+04
         0.27000E+04
         0.27000E+04
         0.27000E+04
         0.27000E+04
         0.27000E+04
         0.27000E+04
         0.27000E+04
         0.27000E+04
         0.27000E+04
         0.27000E+04
         0.27000E+04
         0.27000E+04
         0.27000E+04
         0.27000E+04
         0.27000E+04
         0.27000E+04
         0.27000E+04
         0.27000E+04
         0.27000E+04
         0.27000E+04
         0.27000E+04
         0.27000E+04
         0.27000E+04
         0.27000E+04
         0.27000E+04
         0.27000E+04
         0.27000E+04
         0.27000E+04
         0.27000E+04
         0.27000E+04
         0.27000E+04
         0.27000E+04
         0.27000E+04
         0.27000E+04
         0.27000E+04
         0.27000E+04
         0.27000E+04
         0.27000E+04
         0.27000E+04
         0.27000E+04
         0.27000E+04
         0.27000E+04
         0.27000E+04
         0.27000E+04
         0.27000E+04
         0.27000E+04
         0.27000E+04
         0.27000E+04
         0.27000E+04
         0.27000E+04
         0.27000E+04
         0.27000E+04
         0.27000E+04
         0.27000E+04
         0.27000E+04
         0.27000E+04
         0.27000E+04
         0.27000E+04
         0.27000E+04
         0.27000E+04
         0.27000E+04
         0.27000E+04
         0.27000E+04
         0.27000E+04
         0.27000E+04
         0.27000E+04
         0.27000E+04
         0.27000E+04
         0.27000E+04
         0.27000E+04
         0.27000E+04
         0.27000E+04
         0.27000E+04
         0.27000E+04
         0.27000E+04
         0.27000E+04
         0.27000E+04
         0.27000E+04
         0.27000E+04
         0.27000E+04
         0.27000E+04
         0.27000E+04
         0.27000E+04
         0.27000E+04
         0.27000E+04
         0.27000E+04
         0.27000E+04
         0.27000E+04
         0.27000E+04
         0.27000E+04
         0.27000E+04
         0.27000E+04
         0.27000E+04
         0.27000E+04
         0.27000E+04
         0.27000E+04
         0.27000E+04
         0.27000E+04
         0.27000E+04
         0.27000E+04
         0.27000E+04
         0.27000E+04
         0.27000E+04
         0.27000E+04
         0.27000E+04
         0.27000E+04
         0.27000E+04
         0.27000E+04
         0.27000E+04
         0.27000E+04
         0.27000E+04
         0.27000E+04
         0.27000E+04
         0.27000E+04
         0.27000E+04
         0.27000E+04
         0.27000E+04
         0.27000E+04
         0.27000E+04
         0.27000E+04
         0.27000E+04
         0.27000E+04
         0.27000E+04
         0.27000E+04
         0.27000E+04
         0.27000E+04
         0.27000E+04
         0.27000E+04
         0.27000E+04
         0.27000E+04
         0.27000E+04
         0.27000E+04
         0.27000E+04
         0.27000E+04
         0.27000E+04
         0.27000E+04
         0.27000E+04
         0.27000E+04
         0.27000E+04
         0.27000E+04
         0.27000E+04
         0.27000E+04
         0.27000E+04
         0.27000E+04
         0.27000E+04
         0.27000E+04
         0.27000E+04
         0.27000E+04
         0.27000E+04
         0.27000E+04
         0.27000E+04
         0.27000E+04
         0.27000E+04
         0.27000E+04
         0.27000E+04
         0.27000E+04
         0.27000E+04
         0.27000E+04
         0.27000E+04
         0.27000E+04
         0.27000E+04
         0.27000E+04
         0.27000E+04
         0.27000E+04
         0.27000E+04
         0.27000E+04
         0.27000E+04
         0.27000E+04
         0.27000E+04
         0.27000E+04
         0.27000E+04
         0.27000E+04
         0.27000E+04
         0.27000E+04
         0.27000E+04
         0.27000E+04
         0.27000E+04
         0.27000E+04
         0.27000E+04
         0.27000E+04
         0.27000E+04
         0.27000E+04
         0.27000E+04
         0.27000E+04
         0.27000E+04
         0.27000E+04
         0.27000E+04
         0.27000E+04
         0.27000E+04
         0.27000E+04
         0.27000E+04
         0.27000E+04
         0.27000E+04
         0.27000E+04
         0.27000E+04
         0.27000E+04
         0.27000E+04
         0.27000E+04
         0.27000E+04
         0.27000E+04
         0.27000E+04
         0.27000E+04
         0.27000E+04
         0.27000E+04
         0.27000E+04
         0.27000E+04
         0.27000E+04
         0.27000E+04
         0.27000E+04
         0.27000E+04
         0.27000E+04
         0.27000E+04
         0.27000E+04
         0.27000E+04
         0.27000E+04
         0.27000E+04
         0.27000E+04
         0.27000E+04
         0.27000E+04
         0.27000E+04
         0.27000E+04
         0.27000E+04
         0.27000E+04
         0.27000E+04
         0.27000E+04
         0.27000E+04
         0.27000E+04
         0.27000E+04
         0.27000E+04
         0.27000E+04
         0.27000E+04
         0.27000E+04
         0.27000E+04
         0.27000E+04
         0.27000E+04
         0.27000E+04
         0.27000E+04
         0.27000E+04
         0.27000E+04
         0.27000E+04
         0.27000E+04
         0.27000E+04
         0.27000E+04
         0.27000E+04
         0.27000E+04
         0.27000E+04
         0.27000E+04
         0.27000E+04
         0.27000E+04
         0.27000E+04
         0.27000E+04
         0.27000E+04
         0.27000E+04
         0.27000E+04
         0.27000E+04
         0.27000E+04
         0.27000E+04
         0.27000E+04
         0.27000E+04
         0.27000E+04
         0.27000E+04
         0.27000E+04
         0.27000E+04
         0.27000E+04
         0.27000E+04
         0.27000E+04
         0.27000E+04
         0.27000E+04
         0.27000E+04
         0.27000E+04
         0.27000E+04
         0.27000E+04
         0.27000E+04
         0.27000E+04
         0.27000E+04
         0.27000E+04
         0.27000E+04
         0.27000E+04
         0.27000E+04
         0.27000E+04
         0.27000E+04
         0.27000E+04
         0.27000E+04
         0.27000E+04
         0.27000E+04
         0.27000E+04
         0.27000E+04
         0.27000E+04
         0.27000E+04
         0.27000E+04
         0.27000E+04
         0.27000E+04
         0.27000E+04
         0.27000E+04
         0.27000E+04
         0.27000E+04
         0.27000E+04
         0.27000E+04
         0.27000E+04
         0.27000E+04
         0.27000E+04
         0.27000E+04
         0.27000E+04
         0.27000E+04
         0.27000E+04
         0.27000E+04
         0.27000E+04
         0.27000E+04
         0.27000E+04
         0.27000E+04
         0.27000E+04
         0.27000E+04
         0.27000E+04
         0.27000E+04
         0.27000E+04
         0.27000E+04
         0.27000E+04
         0.27000E+04
         0.27000E+04
         0.27000E+04
         0.27000E+04
         0.27000E+04
         0.27000E+04
         0.27000E+04
         0.27000E+04
         0.27000E+04
         0.27000E+04
         0.27000E+04
         0.27000E+04
         0.27000E+04
         0.27000E+04
         0.27000E+04
         0.27000E+04
         0.27000E+04
         0.27000E+04
         0.27000E+04
         0.27000E+04
         0.27000E+04
         0.27000E+04
         0.27000E+04
         0.27000E+04
         0.27000E+04
         0.27000E+04
         0.27000E+04
         0.27000E+04
         0.27000E+04
         0.27000E+04
         0.27000E+04
         0.27000E+04
         0.27000E+04
         0.27000E+04
         0.27000E+04
         0.27000E+04
         0.27000E+04
         0.27000E+04
         0.27000E+04
         0.27000E+04
         0.27000E+04
         0.27000E+04
         0.27000E+04
         0.27000E+04
         0.27000E+04
         0.27000E+04
         0.27000E+04
         0.27000E+04
         0.27000E+04
         0.27000E+04
         0.27000E+04
         0.27000E+04
         0.27000E+04
         0.27000E+04
         0.27000E+04
         0.27000E+04
         0.27000E+04
         0.27000E+04
         0.27000E+04
         0.27000E+04
         0.27000E+04
         0.27000E+04
         0.27000E+04
         0.27000E+04
         0.27000E+04
         0.27000E+04
         0.27000E+04
         0.27000E+04
         0.27000E+04
         0.27000E+04
         0.27000E+04
         0.27000E+04
         0.27000E+04
         0.27000E+04
         0.27000E+04
         0.27000E+04
         0.27000E+04
         0.27000E+04
         0.27000E+04
         0.27000E+04
         0.27000E+04
         0.27000E+04
         0.27000E+04
         0.27000E+04
         0.27000E+04
         0.27000E+04
         0.27000E+04
         0.27000E+04
         0.27000E+04
         0.27000E+04
         0.27000E+04
         0.27000E+04
         0.27000E+04
         0.27000E+04
         0.27000E+04
         0.27000E+04
         0.27000E+04
         0.27000E+04
         0.27000E+04
         0.27000E+04
         0.27000E+04
         0.27000E+04
         0.27000E+04
         0.27000E+04
         0.27000E+04
         0.27000E+04
         0.27000E+04
         0.27000E+04
         0.27000E+04
         0.27000E+04
         0.27000E+04
         0.27000E+04
         0.27000E+04
         0.27000E+04
         0.27000E+04
         0.27000E+04
         0.27000E+04
         0.27000E+04
         0.27000E+04
         0.27000E+04
         0.27000E+04
         0.27000E+04
         0.27000E+04
         0.27000E+04
         0.27000E+04
         0.27000E+04
         0.27000E+04
         0.27000E+04
         0.27000E+04
         0.27000E+04
         0.27000E+04
         0.27000E+04
         0.27000E+04
         0.27000E+04
         0.27000E+04
         0.27000E+04
         0.27000E+04
         0.27000E+04
         0.27000E+04
         0.27000E+04
         0.27000E+04
         0.27000E+04
         0.27000E+04
         0.27000E+04
         0.27000E+04
         0.27000E+04
         0.27000E+04
         0.27000E+04
         0.27000E+04
         0.27000E+04
         0.27000E+04
         0.27000E+04
         0.27000E+04
         0.27000E+04
         0.27000E+04
         0.27000E+04
         0.27000E+04
         0.27000E+04
         0.27000E+04
         0.27000E+04
         0.27000E+04
         0.27000E+04
         0.27000E+04
         0.27000E+04
         0.27000E+04
         0.27000E+04
         0.27000E+04
         0.27000E+04
         0.27000E+04
         0.27000E+04
         0.27000E+04
         0.27000E+04
         0.27000E+04
         0.27000E+04
         0.27000E+04
         0.27000E+04
         0.27000E+04
         0.27000E+04
         0.27000E+04
         0.27000E+04
         0.27000E+04
         0.27000E+04
         0.27000E+04
         0.27000E+04
         0.27000E+04
         0.27000E+04
         0.27000E+04
         0.27000E+04
         0.27000E+04
         0.27000E+04
         0.27000E+04
         0.27000E+04
         0.27000E+04
         0.27000E+04
         0.27000E+04
         0.27000E+04
         0.27000E+04
         0.27000E+04
         0.27000E+04
         0.27000E+04
         0.27000E+04
         0.27000E+04
         0.27000E+04
         0.27000E+04
         0.27000E+04
         0.27000E+04
         0.27000E+04
         0.27000E+04
         0.27000E+04
         0.27000E+04
         0.27000E+04
         0.27000E+04
         0.27000E+04
         0.27000E+04
         0.27000E+04
         0.27000E+04
         0.27000E+04
         0.27000E+04
         0.27000E+04
         0.27000E+04
         0.27000E+04
         0.27000E+04
         0.27000E+04
         0.27000E+04
         0.27000E+04
         0.27000E+04
         0.27000E+04
         0.27000E+04
         0.27000E+04
         0.27000E+04
         0.27000E+04
         0.27000E+04
         0.27000E+04
         0.27000E+04
         0.27000E+04
         0.27000E+04
         0.27000E+04
         0.27000E+04
         0.27000E+04
         0.27000E+04
         0.27000E+04
         0.27000E+04
         0.27000E+04
         0.27000E+04
         0.27000E+04
         0.27000E+04
         0.27000E+04
         0.27000E+04
         0.27000E+04
         0.27000E+04
         0.27000E+04
         0.27000E+04
         0.27000E+04
         0.27000E+04
         0.27000E+04
         0.27000E+04
         0.27000E+04
         0.27000E+04
         0.27000E+04
         0.27000E+04
         0.27000E+04
         0.27000E+04
         0.27000E+04
         0.27000E+04
         0.27000E+04
         0.27000E+04
         0.27000E+04
         0.27000E+04
         0.27000E+04
         0.27000E+04
         0.27000E+04
         0.27000E+04
         0.27000E+04
         0.27000E+04
         0.27000E+04
         0.27000E+04
         0.27000E+04
         0.27000E+04
         0.27000E+04
         0.27000E+04
         0.27000E+04
         0.27000E+04
         0.27000E+04
         0.27000E+04
         0.27000E+04
         0.27000E+04
         0.27000E+04
         0.27000E+04
         0.27000E+04
         0.27000E+04
         0.27000E+04
         0.27000E+04
         0.27000E+04
         0.27000E+04
         0.27000E+04
         0.27000E+04
         0.27000E+04
         0.27000E+04
         0.27000E+04
         0.27000E+04
         0.27000E+04
         0.27000E+04
         0.27000E+04
         0.27000E+04
         0.27000E+04
         0.27000E+04
         0.27000E+04
         0.27000E+04
         0.27000E+04
         0.27000E+04
         0.27000E+04
         0.27000E+04
         0.27000E+04
         0.27000E+04
         0.27000E+04
         0.27000E+04
         0.27000E+04
         0.27000E+04
         0.27000E+04
         0.27000E+04
         0.27000E+04
         0.27000E+04
         0.27000E+04
         0.27000E+04
         0.27000E+04
         0.27000E+04
         0.27000E+04
         0.27000E+04
         0.27000E+04
         0.27000E+04
         0.27000E+04
         0.27000E+04
         0.27000E+04
         0.27000E+04
         0.27000E+04
         0.27000E+04
         0.27000E+04
         0.27000E+04
         0.27000E+04
         0.27000E+04
         0.27000E+04
         0.27000E+04
         0.27000E+04
         0.27000E+04
         0.27000E+04
         0.27000E+04
         0.27000E+04
         0.27000E+04
         0.27000E+04
         0.27000E+04
         0.27000E+04
         0.27000E+04
         0.27000E+04
         0.27000E+04
         0.27000E+04
         0.27000E+04
         0.27000E+04
         0.27000E+04
         0.27000E+04
         0.27000E+04
         0.27000E+04
         0.27000E+04
         0.27000E+04
         0.27000E+04
         0.27000E+04
         0.27000E+04
         0.27000E+04
         0.27000E+04
         0.27000E+04
         0.27000E+04
         0.27000E+04
         0.27000E+04
         0.27000E+04
         0.27000E+04
         0.27000E+04
         0.27000E+04
         0.27000E+04
         0.27000E+04
         0.27000E+04
         0.27000E+04
         0.27000E+04
         0.27000E+04
         0.27000E+04
         0.27000E+04
         0.27000E+04
         0.27000E+04
         0.27000E+04
         0.27000E+04
         0.27000E+04
         0.27000E+04
         0.27000E+04
         0.27000E+04
         0.27000E+04
         0.27000E+04
         0.27000E+04
         0.27000E+04
         0.27000E+04
         0.27000E+04
         0.27000E+04
         0.27000E+04
         0.27000E+04
         0.27000E+04
         0.27000E+04
         0.27000E+04
         0.27000E+04
         0.27000E+04
         0.27000E+04
         0.27000E+04
         0.27000E+04
         0.27000E+04
         0.27000E+04
         0.27000E+04
         0.27000E+04
         0.27000E+04
         0.27000E+04
         0.27000E+04
         0.27000E+04
         0.27000E+04
         0.27000E+04
         0.27000E+04
         0.27000E+04
         0.27000E+04
         0.27000E+04
         0.27000E+04
         0.27000E+04
         0.27000E+04
         0.27000E+04
         0.27000E+04
         0.27000E+04
         0.27000E+04
         0.27000E+04
         0.27000E+04
         0.27000E+04
         0.27000E+04
         0.27000E+04
         0.27000E+04
         0.27000E+04
         0.27000E+04
         0.27000E+04
         0.27000E+04
         0.27000E+04
         0.27000E+04
         0.27000E+04
         0.27000E+04
         0.27000E+04
         0.27000E+04
         0.27000E+04
         0.27000E+04
         0.27000E+04
         0.27000E+04
         0.27000E+04
         0.27000E+04
         0.27000E+04
         0.27000E+04
         0.27000E+04
         0.27000E+04
         0.27000E+04
         0.27000E+04
         0.27000E+04
         0.27000E+04
         0.27000E+04
         0.27000E+04
         0.27000E+04
         0.27000E+04
         0.27000E+04
         0.27000E+04
         0.27000E+04
         0.27000E+04
         0.27000E+04
         0.27000E+04
         0.27000E+04
         0.27000E+04
         0.27000E+04
         0.27000E+04
         0.27000E+04
         0.27000E+04
         0.27000E+04
         0.27000E+04
         0.27000E+04
         0.27000E+04
         0.27000E+04
         0.27000E+04
         0.27000E+04
         0.27000E+04
         0.27000E+04
         0.27000E+04
         0.27000E+04
         0.27000E+04
         0.27000E+04
         0.27000E+04
         0.27000E+04
         0.27000E+04
         0.27000E+04
         0.27000E+04
         0.27000E+04
         0.27000E+04
         0.27000E+04
         0.27000E+04
         0.27000E+04
         0.27000E+04
         0.27000E+04
         0.27000E+04
         0.27000E+04
         0.27000E+04
         0.27000E+04
         0.27000E+04
         0.27000E+04
         0.27000E+04
         0.27000E+04
         0.27000E+04
         0.27000E+04
         0.27000E+04
         0.27000E+04
         0.27000E+04
         0.27000E+04
         0.27000E+04
         0.27000E+04
         0.27000E+04
         0.27000E+04
         0.27000E+04
         0.27000E+04
         0.27000E+04
         0.27000E+04
         0.27000E+04
         0.27000E+04
         0.27000E+04
         0.27000E+04
         0.27000E+04
         0.27000E+04
         0.27000E+04
         0.27000E+04
         0.27000E+04
         0.27000E+04
         0.27000E+04
         0.27000E+04
         0.27000E+04
         0.27000E+04
         0.27000E+04
         0.27000E+04
         0.27000E+04
         0.27000E+04
         0.27000E+04
         0.27000E+04
         0.27000E+04
         0.27000E+04
         0.27000E+04
         0.27000E+04
         0.27000E+04
         0.27000E+04
         0.27000E+04
         0.27000E+04
         0.27000E+04
         0.27000E+04
         0.27000E+04
         0.27000E+04
         0.27000E+04
         0.27000E+04
         0.27000E+04
         0.27000E+04
         0.27000E+04
         0.27000E+04
         0.27000E+04
         0.27000E+04
         0.27000E+04
         0.27000E+04
         0.27000E+04
         0.27000E+04
         0.27000E+04
         0.27000E+04
         0.27000E+04
         0.27000E+04
         0.27000E+04
         0.27000E+04
         0.27000E+04
         0.27000E+04
         0.27000E+04
         0.27000E+04
         0.27000E+04
         0.27000E+04
         0.27000E+04
         0.27000E+04
         0.27000E+04
         0.27000E+04
         0.27000E+04
         0.27000E+04
         0.27000E+04
         0.27000E+04
         0.27000E+04
         0.27000E+04
         0.27000E+04
         0.27000E+04
         0.27000E+04
         0.27000E+04
         0.27000E+04
         0.27000E+04
         0.27000E+04
         0.27000E+04
         0.27000E+04
         0.27000E+04
         0.27000E+04
         0.27000E+04
         0.27000E+04
         0.27000E+04
         0.27000E+04
         0.27000E+04
         0.27000E+04
         0.27000E+04
         0.27000E+04
         0.27000E+04
         0.27000E+04
         0.27000E+04
         0.27000E+04
         0.27000E+04
         0.27000E+04
         0.27000E+04
         0.27000E+04
         0.27000E+04
         0.27000E+04
         0.27000E+04
         0.27000E+04
         0.27000E+04
         0.27000E+04
         0.27000E+04
         0.27000E+04
         0.27000E+04
         0.27000E+04
         0.27000E+04
         0.27000E+04
         0.27000E+04
         0.27000E+04
         0.27000E+04
         0.27000E+04
         0.27000E+04
         0.27000E+04
         0.27000E+04
         0.27000E+04
         0.27000E+04
         0.27000E+04
         0.27000E+04
         0.27000E+04
         0.27000E+04
         0.27000E+04
         0.27000E+04
         0.27000E+04
         0.27000E+04
         0.27000E+04
         0.27000E+04
         0.27000E+04
         0.27000E+04
         0.27000E+04
         0.27000E+04
         0.27000E+04
         0.27000E+04
         0.27000E+04
         0.27000E+04
         0.27000E+04
         0.27000E+04
         0.27000E+04
         0.27000E+04
         0.27000E+04
         0.27000E+04
         0.27000E+04
         0.27000E+04
         0.27000E+04
         0.27000E+04
         0.27000E+04
         0.27000E+04
         0.27000E+04
         0.27000E+04
         0.27000E+04
         0.27000E+04
         0.27000E+04
         0.27000E+04
         0.27000E+04
         0.27000E+04
         0.27000E+04
         0.27000E+04
         0.27000E+04
         0.27000E+04
         0.27000E+04
         0.27000E+04
         0.27000E+04
         0.27000E+04
         0.27000E+04
         0.27000E+04
         0.27000E+04
         0.27000E+04
         0.27000E+04
         0.27000E+04
         0.27000E+04
         0.27000E+04
         0.27000E+04
         0.27000E+04
         0.27000E+04
         0.27000E+04
         0.27000E+04
         0.27000E+04
         0.27000E+04
         0.27000E+04
         0.27000E+04
         0.27000E+04
         0.27000E+04
         0.27000E+04
         0.27000E+04
         0.27000E+04
         0.27000E+04
         0.27000E+04
         0.27000E+04
         0.27000E+04
         0.27000E+04
         0.27000E+04
         0.27000E+04
         0.27000E+04
         0.27000E+04
         0.27000E+04
         0.27000E+04
         0.27000E+04
         0.27000E+04
         0.27000E+04
         0.27000E+04
         0.27000E+04
         0.27000E+04
         0.27000E+04
         0.27000E+04
         0.27000E+04
         0.27000E+04
         0.27000E+04
         0.27000E+04
         0.27000E+04
         0.27000E+04
         0.27000E+04
         0.27000E+04
         0.27000E+04
         0.27000E+04
         0.27000E+04
         0.27000E+04
         0.27000E+04
         0.27000E+04
         0.27000E+04
         0.27000E+04
         0.27000E+04
         0.27000E+04
         0.27000E+04
         0.27000E+04
         0.27000E+04
         0.27000E+04
         0.27000E+04
         0.27000E+04
         0.27000E+04
         0.27000E+04
         0.27000E+04
         0.27000E+04
         0.27000E+04
         0.27000E+04
         0.27000E+04
         0.27000E+04
         0.27000E+04
         0.27000E+04
         0.27000E+04
         0.27000E+04
         0.27000E+04
         0.27000E+04
         0.27000E+04
         0.27000E+04
         0.27000E+04
         0.27000E+04
         0.27000E+04
         0.27000E+04
         0.27000E+04
         0.27000E+04
         0.27000E+04
         0.27000E+04
         0.27000E+04
         0.27000E+04
         0.27000E+04
         0.27000E+04
         0.27000E+04
         0.27000E+04
         0.27000E+04
         0.27000E+04
         0.27000E+04
         0.27000E+04
         0.27000E+04
         0.27000E+04
         0.27000E+04
         0.27000E+04
         0.27000E+04
         0.27000E+04
         0.27000E+04
         0.27000E+04
         0.27000E+04
         0.27000E+04
         0.27000E+04
         0.27000E+04
         0.27000E+04
         0.27000E+04
         0.27000E+04
         0.27000E+04
         0.27000E+04
         0.27000E+04
         0.27000E+04
         0.27000E+04
         0.27000E+04
         0.27000E+04
         0.27000E+04
         0.27000E+04
         0.27000E+04
         0.27000E+04
         0.27000E+04
         0.27000E+04
         0.27000E+04
         0.27000E+04
         0.27000E+04
         0.27000E+04
         0.27000E+04
         0.27000E+04
         0.27000E+04
         0.27000E+04
         0.27000E+04
         0.27000E+04
         0.27000E+04
         0.27000E+04
         0.27000E+04
         0.27000E+04
         0.27000E+04
         0.27000E+04
         0.27000E+04
         0.27000E+04
         0.27000E+04
         0.27000E+04
         0.27000E+04
         0.27000E+04
         0.27000E+04
         0.27000E+04
         0.27000E+04
         0.27000E+04
         0.27000E+04
         0.27000E+04
         0.27000E+04
         0.27000E+04
         0.27000E+04
         0.27000E+04
         0.27000E+04
         0.27000E+04
         0.27000E+04
         0.27000E+04
         0.27000E+04
         0.27000E+04
         0.27000E+04
         0.27000E+04
         0.27000E+04
         0.27000E+04
         0.27000E+04
         0.27000E+04
         0.27000E+04
         0.27000E+04
         0.27000E+04
         0.27000E+04
         0.27000E+04
         0.27000E+04
         0.27000E+04
         0.27000E+04
         0.27000E+04
         0.27000E+04
         0.27000E+04
         0.27000E+04
         0.27000E+04
         0.27000E+04
         0.27000E+04
         0.27000E+04
         0.27000E+04
         0.27000E+04
         0.27000E+04
         0.27000E+04
         0.27000E+04
         0.27000E+04
         0.27000E+04
         0.27000E+04
         0.27000E+04
         0.27000E+04
         0.27000E+04
         0.27000E+04
         0.27000E+04
         0.27000E+04
         0.27000E+04
         0.27000E+04
         0.27000E+04
         0.27000E+04
         0.27000E+04
         0.27000E+04
         0.27000E+04
         0.27000E+04
         0.27000E+04
         0.27000E+04
         0.27000E+04
         0.27000E+04
         0.27000E+04
         0.27000E+04
         0.27000E+04
         0.27000E+04
         0.27000E+04
         0.27000E+04
         0.27000E+04
         0.27000E+04
         0.27000E+04
         0.27000E+04
         0.27000E+04
         0.27000E+04
         0.27000E+04
         0.27000E+04
         0.27000E+04
         0.27000E+04
         0.27000E+04
         0.27000E+04
         0.27000E+04
         0.27000E+04
         0.27000E+04
         0.27000E+04
         0.27000E+04
         0.27000E+04
         0.27000E+04
         0.27000E+04
         0.27000E+04
         0.27000E+04
         0.27000E+04
         0.27000E+04
         0.27000E+04
         0.27000E+04
         0.27000E+04
         0.27000E+04
         0.27000E+04
         0.27000E+04
         0.27000E+04
         0.27000E+04
         0.27000E+04
         0.27000E+04
         0.27000E+04
         0.27000E+04
         0.27000E+04
         0.27000E+04
         0.27000E+04
         0.27000E+04
         0.27000E+04
         0.27000E+04
         0.27000E+04
         0.27000E+04
         0.27000E+04
         0.27000E+04
         0.27000E+04
         0.27000E+04
         0.27000E+04
