# vtk DataFile Version 2.0
               (MEGA VTK FILE)
ASCII
DATASET UNSTRUCTURED_GRID
POINTS       1950    double
  0.92505E-03  0.66946E-03 -0.11114E-01
  0.15837E-02  0.12806E-02 -0.11080E-01
  0.21622E-02  0.69070E-03 -0.11096E-01
  0.15647E-02 -0.31178E-03 -0.11134E-01
  0.10266E-02  0.50017E-03 -0.11750E-01
  0.69577E-03  0.11851E-02 -0.11750E-01
  0.16312E-02  0.43823E-03 -0.11750E-01
  0.11209E-02 -0.51405E-03 -0.11750E-01
  0.28762E-02  0.48189E-03 -0.11115E-01
  0.26444E-02 -0.36346E-03 -0.11177E-01
  0.30767E-02  0.19155E-03 -0.11750E-01
  0.20523E-02 -0.54730E-03 -0.11750E-01
  0.11137E-02  0.19149E-02 -0.11060E-01
  0.52301E-03  0.14830E-02 -0.11096E-01
  0.12374E-02  0.18633E-02 -0.11750E-01
  0.74279E-04  0.15710E-02 -0.11750E-01
  0.79674E-04  0.28566E-03 -0.11130E-01
 -0.20164E-03  0.11654E-02 -0.11122E-01
  0.13538E-03  0.35122E-03 -0.11750E-01
 -0.62583E-03  0.11560E-02 -0.11750E-01
  0.76223E-03  0.23676E-02 -0.11029E-01
  0.93298E-03  0.29919E-02 -0.10957E-01
  0.15885E-02  0.25926E-02 -0.10999E-01
  0.83740E-03  0.24782E-02 -0.11750E-01
  0.20728E-03  0.30406E-02 -0.11750E-01
  0.10248E-02  0.25979E-02 -0.11750E-01
  0.25768E-03  0.22139E-02 -0.11045E-01
  0.19990E-03  0.30199E-02 -0.10926E-01
  0.33406E-03  0.21980E-02 -0.11750E-01
 -0.57362E-03  0.29904E-02 -0.11750E-01
 -0.77105E-03 -0.10180E-02 -0.11123E-01
 -0.88288E-03  0.71927E-04 -0.11143E-01
  0.41812E-03 -0.71947E-03 -0.11128E-01
 -0.75941E-03 -0.10136E-02 -0.11750E-01
 -0.93605E-03  0.14712E-04 -0.11750E-01
  0.27630E-03 -0.66904E-03 -0.11750E-01
 -0.18238E-02 -0.73453E-03 -0.11138E-01
 -0.18805E-02  0.77416E-04 -0.11157E-01
 -0.18285E-02 -0.73008E-03 -0.11750E-01
 -0.18579E-02  0.28081E-04 -0.11750E-01
 -0.27644E-02 -0.91638E-03 -0.11172E-01
 -0.28948E-02 -0.11848E-03 -0.11166E-01
 -0.27764E-02 -0.67138E-03 -0.11750E-01
 -0.28023E-02  0.27661E-03 -0.11750E-01
 -0.25569E-02 -0.16915E-02 -0.11175E-01
 -0.19291E-02 -0.13832E-02 -0.11138E-01
 -0.25526E-02 -0.15159E-02 -0.11750E-01
 -0.19630E-02 -0.13408E-02 -0.11750E-01
 -0.10662E-02  0.98276E-03 -0.11138E-01
 -0.97738E-03  0.94936E-03 -0.11750E-01
 -0.14504E-02 -0.17766E-02 -0.11140E-01
 -0.14647E-02 -0.16870E-02 -0.11750E-01
 -0.42716E-03  0.20180E-02 -0.11057E-01
 -0.41172E-03  0.19884E-02 -0.11750E-01
 -0.12421E-02  0.18130E-02 -0.11050E-01
 -0.12553E-02  0.18250E-02 -0.11750E-01
 -0.20833E-02  0.15674E-02 -0.11016E-01
 -0.19964E-02  0.86987E-03 -0.11132E-01
 -0.18930E-02  0.17913E-02 -0.11750E-01
 -0.27101E-02  0.98472E-03 -0.11750E-01
 -0.18343E-03 -0.19811E-02 -0.11152E-01
 -0.97495E-03 -0.23755E-02 -0.11183E-01
 -0.18239E-03 -0.19578E-02 -0.11750E-01
 -0.12904E-02 -0.21397E-02 -0.11750E-01
  0.76390E-03 -0.16876E-02 -0.11162E-01
  0.75618E-03 -0.19057E-02 -0.11750E-01
  0.16675E-02 -0.13789E-02 -0.11190E-01
  0.17048E-02 -0.14711E-02 -0.11750E-01
  0.30607E-02  0.11414E-02 -0.11066E-01
  0.26663E-02  0.14813E-02 -0.11044E-01
  0.31851E-02  0.10837E-02 -0.11750E-01
  0.20767E-02  0.13918E-02 -0.11750E-01
  0.21731E-02  0.20311E-02 -0.11024E-01
  0.22723E-02  0.19636E-02 -0.11750E-01
 -0.57656E-03  0.28812E-02 -0.10890E-01
 -0.48065E-03  0.28479E-02 -0.11750E-01
 -0.14165E-02  0.25703E-02 -0.10841E-01
 -0.13379E-02  0.26090E-02 -0.11750E-01
 -0.22282E-02  0.21070E-02 -0.10781E-01
 -0.22043E-02  0.24961E-02 -0.11750E-01
 -0.28549E-02  0.15844E-02 -0.10734E-01
 -0.29218E-02  0.11717E-02 -0.10932E-01
 -0.28583E-02  0.21337E-02 -0.11750E-01
 -0.34340E-02  0.17155E-02 -0.11750E-01
 -0.29478E-02  0.58913E-03 -0.11094E-01
 -0.28521E-02  0.11211E-02 -0.11750E-01
 -0.21216E-02 -0.23200E-02 -0.11198E-01
 -0.20798E-02 -0.22363E-02 -0.11750E-01
 -0.16170E-02 -0.28474E-02 -0.11253E-01
 -0.15086E-02 -0.26992E-02 -0.11750E-01
 -0.11960E-02 -0.32429E-02 -0.11315E-01
 -0.61129E-03 -0.30522E-02 -0.11276E-01
 -0.11185E-02 -0.29169E-02 -0.11750E-01
 -0.13181E-02 -0.28615E-02 -0.11750E-01
  0.20562E-03 -0.28286E-02 -0.11250E-01
  0.25021E-03 -0.29560E-02 -0.11750E-01
  0.10680E-02 -0.25210E-02 -0.11254E-01
  0.11119E-02 -0.26934E-02 -0.11750E-01
  0.18390E-02 -0.21218E-02 -0.11277E-01
  0.19541E-02 -0.22813E-02 -0.11750E-01
  0.24378E-02 -0.17228E-02 -0.11303E-01
  0.25234E-02 -0.11450E-02 -0.11246E-01
  0.26031E-02 -0.17422E-02 -0.11750E-01
  0.18449E-02 -0.12915E-02 -0.11750E-01
  0.36785E-02  0.16391E-02 -0.11031E-01
  0.36820E-02  0.82876E-03 -0.11126E-01
  0.39300E-02  0.23433E-02 -0.11750E-01
  0.24978E-02  0.12830E-02 -0.11750E-01
  0.34031E-02  0.22956E-02 -0.10965E-01
  0.34750E-02  0.24063E-02 -0.11750E-01
  0.28964E-02  0.29347E-02 -0.10937E-01
  0.29346E-02  0.29632E-02 -0.11750E-01
  0.21631E-02  0.35496E-02 -0.10901E-01
  0.21966E-02  0.37029E-02 -0.11750E-01
  0.12528E-02  0.39632E-02 -0.10817E-01
  0.11718E-02  0.40891E-02 -0.11750E-01
  0.27412E-03  0.40655E-02 -0.10706E-01
  0.12618E-03  0.41697E-02 -0.11750E-01
 -0.70784E-03  0.38484E-02 -0.10587E-01
 -0.72673E-03  0.38792E-02 -0.11750E-01
 -0.17068E-02  0.33067E-02 -0.10423E-01
 -0.17038E-02  0.34602E-02 -0.11750E-01
 -0.26721E-02  0.23205E-02 -0.10282E-01
 -0.26760E-02  0.20279E-02 -0.11750E-01
 -0.34516E-02  0.11432E-02 -0.10354E-01
 -0.35479E-02  0.19371E-03 -0.11750E-01
 -0.38868E-02  0.33157E-03 -0.10669E-01
 -0.38064E-02 -0.34121E-03 -0.11750E-01
 -0.40993E-02 -0.15021E-03 -0.10995E-01
 -0.38845E-02 -0.42540E-03 -0.11750E-01
 -0.41458E-02 -0.71427E-03 -0.11183E-01
 -0.39362E-02 -0.83883E-03 -0.11750E-01
 -0.39510E-02 -0.14719E-02 -0.11250E-01
 -0.36647E-02 -0.16088E-02 -0.11750E-01
 -0.35254E-02 -0.23119E-02 -0.11273E-01
 -0.31870E-02 -0.24759E-02 -0.11750E-01
 -0.29031E-02 -0.31202E-02 -0.11315E-01
 -0.25826E-02 -0.34114E-02 -0.11750E-01
 -0.21443E-02 -0.36933E-02 -0.11399E-01
 -0.16724E-02 -0.43370E-02 -0.11750E-01
 -0.13137E-02 -0.39054E-02 -0.11453E-01
 -0.72573E-03 -0.41290E-02 -0.11750E-01
 -0.40163E-03 -0.39231E-02 -0.11441E-01
  0.11531E-03 -0.39737E-02 -0.11750E-01
  0.56342E-03 -0.37518E-02 -0.11420E-01
  0.10606E-02 -0.38639E-02 -0.11750E-01
  0.14850E-02 -0.33251E-02 -0.11419E-01
  0.21193E-02 -0.30619E-02 -0.11750E-01
  0.22960E-02 -0.26816E-02 -0.11426E-01
  0.29398E-02 -0.23402E-02 -0.11750E-01
  0.29761E-02 -0.18373E-02 -0.11416E-01
  0.36164E-02 -0.99500E-03 -0.11750E-01
  0.34396E-02 -0.93194E-03 -0.11351E-01
  0.38090E-02 -0.19081E-03 -0.11750E-01
  0.36775E-02 -0.40332E-04 -0.11239E-01
  0.39674E-02  0.51888E-03 -0.11750E-01
  0.11235E-02  0.68161E-03 -0.10283E-01
  0.18467E-02  0.12763E-02 -0.10249E-01
  0.24411E-02  0.66560E-03 -0.10266E-01
  0.17754E-02 -0.30332E-03 -0.10307E-01
  0.32250E-02  0.32578E-03 -0.10295E-01
  0.29627E-02 -0.52218E-03 -0.10355E-01
  0.13924E-02  0.18963E-02 -0.10231E-01
  0.75635E-03  0.14794E-02 -0.10271E-01
  0.22389E-03  0.29326E-03 -0.10303E-01
 -0.19093E-04  0.11741E-02 -0.10303E-01
  0.10554E-02  0.23414E-02 -0.10198E-01
  0.12330E-02  0.29446E-02 -0.10107E-01
  0.18618E-02  0.25409E-02 -0.10162E-01
  0.51394E-03  0.22059E-02 -0.10216E-01
  0.48174E-03  0.30002E-02 -0.10059E-01
 -0.64710E-03 -0.10193E-02 -0.10297E-01
 -0.75334E-03  0.77949E-04 -0.10320E-01
  0.55149E-03 -0.70401E-03 -0.10304E-01
 -0.17016E-02 -0.73484E-03 -0.10315E-01
 -0.17358E-02  0.77866E-04 -0.10339E-01
 -0.26139E-02 -0.89338E-03 -0.10363E-01
 -0.27236E-02 -0.10281E-03 -0.10355E-01
 -0.24035E-02 -0.16422E-02 -0.10364E-01
 -0.17928E-02 -0.13767E-02 -0.10317E-01
 -0.89086E-03  0.99468E-03 -0.10324E-01
 -0.13003E-02 -0.17758E-02 -0.10321E-01
 -0.21877E-03  0.20312E-02 -0.10230E-01
 -0.10267E-02  0.18309E-02 -0.10221E-01
 -0.18238E-02  0.15838E-02 -0.10176E-01
 -0.17862E-02  0.87367E-03 -0.10316E-01
 -0.34284E-04 -0.19759E-02 -0.10336E-01
 -0.79169E-03 -0.23750E-02 -0.10364E-01
  0.91399E-03 -0.16772E-02 -0.10341E-01
  0.18855E-02 -0.14230E-02 -0.10366E-01
  0.34256E-02  0.95757E-03 -0.10246E-01
  0.29815E-02  0.13830E-02 -0.10217E-01
  0.24414E-02  0.19747E-02 -0.10191E-01
 -0.34931E-03  0.28873E-02 -0.99999E-02
 -0.11760E-02  0.25917E-02 -0.99319E-02
 -0.19290E-02  0.21528E-02 -0.98571E-02
 -0.25053E-02  0.16882E-02 -0.97921E-02
 -0.26100E-02  0.12425E-02 -0.10058E-01
 -0.27153E-02  0.62413E-03 -0.10262E-01
 -0.19564E-02 -0.22499E-02 -0.10383E-01
 -0.14232E-02 -0.27774E-02 -0.10428E-01
 -0.98369E-03 -0.31783E-02 -0.10470E-01
 -0.40633E-03 -0.30348E-02 -0.10427E-01
  0.36981E-03 -0.28292E-02 -0.10396E-01
  0.12372E-02 -0.25700E-02 -0.10395E-01
  0.20726E-02 -0.22733E-02 -0.10421E-01
  0.27325E-02 -0.20085E-02 -0.10452E-01
  0.28321E-02 -0.13652E-02 -0.10416E-01
  0.41275E-02  0.12561E-02 -0.10223E-01
  0.42053E-02  0.37307E-03 -0.10324E-01
  0.37401E-02  0.20558E-02 -0.10147E-01
  0.31054E-02  0.27923E-02 -0.10106E-01
  0.23243E-02  0.34391E-02 -0.10050E-01
  0.14440E-02  0.38768E-02 -0.99241E-02
  0.49154E-03  0.40080E-02 -0.97451E-02
 -0.48663E-03  0.38204E-02 -0.95435E-02
 -0.14381E-02  0.33059E-02 -0.92984E-02
 -0.23088E-02  0.24494E-02 -0.91223E-02
 -0.30222E-02  0.14361E-02 -0.92508E-02
 -0.35215E-02  0.64375E-03 -0.96890E-02
 -0.38016E-02  0.62562E-04 -0.10131E-01
 -0.38711E-02 -0.57767E-03 -0.10394E-01
 -0.37127E-02 -0.13358E-02 -0.10483E-01
 -0.33244E-02 -0.21276E-02 -0.10495E-01
 -0.27227E-02 -0.28542E-02 -0.10512E-01
 -0.19559E-02 -0.34080E-02 -0.10556E-01
 -0.11127E-02 -0.37333E-02 -0.10567E-01
 -0.24344E-03 -0.38476E-02 -0.10511E-01
  0.67378E-03 -0.37765E-02 -0.10451E-01
  0.16363E-02 -0.35303E-02 -0.10438E-01
  0.25625E-02 -0.30901E-02 -0.10476E-01
  0.33100E-02 -0.24140E-02 -0.10527E-01
  0.37826E-02 -0.15350E-02 -0.10514E-01
  0.40628E-02 -0.57499E-03 -0.10431E-01
  0.11580E-02  0.68780E-03 -0.93253E-02
  0.18843E-02  0.12585E-02 -0.93110E-02
  0.24666E-02  0.61995E-03 -0.93188E-02
  0.17886E-02 -0.31282E-03 -0.93380E-02
  0.32291E-02  0.17615E-03 -0.93348E-02
  0.29441E-02 -0.66404E-03 -0.93518E-02
  0.14397E-02  0.18754E-02 -0.93071E-02
  0.79415E-03  0.14788E-02 -0.93278E-02
  0.24121E-03  0.30887E-03 -0.93366E-02
  0.44201E-06  0.11876E-02 -0.93466E-02
  0.11064E-02  0.23180E-02 -0.92927E-02
  0.12871E-02  0.29006E-02 -0.92375E-02
  0.19012E-02  0.24901E-02 -0.92727E-02
  0.55767E-03  0.22003E-02 -0.93042E-02
  0.54328E-03  0.29851E-02 -0.92009E-02
 -0.64145E-03 -0.10031E-02 -0.93385E-02
 -0.75009E-03  0.93866E-04 -0.93495E-02
  0.56729E-03 -0.68857E-03 -0.93401E-02
 -0.16975E-02 -0.71364E-03 -0.93498E-02
 -0.17234E-02  0.95248E-04 -0.93676E-02
 -0.25661E-02 -0.83821E-03 -0.93879E-02
 -0.26596E-02 -0.49630E-04 -0.93844E-02
 -0.23643E-02 -0.15665E-02 -0.93785E-02
 -0.17799E-02 -0.13410E-02 -0.93509E-02
 -0.86890E-03  0.10130E-02 -0.93627E-02
 -0.12904E-02 -0.17452E-02 -0.93503E-02
 -0.17769E-03  0.20448E-02 -0.93115E-02
 -0.96571E-03  0.18582E-02 -0.93048E-02
 -0.17351E-02  0.16368E-02 -0.92722E-02
 -0.17442E-02  0.90203E-03 -0.93600E-02
 -0.32867E-04 -0.19648E-02 -0.93556E-02
 -0.78868E-03 -0.23484E-02 -0.93589E-02
  0.91124E-03 -0.16810E-02 -0.93540E-02
  0.18677E-02 -0.14729E-02 -0.93541E-02
  0.34356E-02  0.79345E-03 -0.93202E-02
  0.29994E-02  0.12843E-02 -0.93052E-02
  0.24656E-02  0.19145E-02 -0.92908E-02
 -0.27051E-03  0.29060E-02 -0.91507E-02
 -0.10623E-02  0.26399E-02 -0.90949E-02
 -0.17771E-02  0.22422E-02 -0.90412E-02
 -0.23271E-02  0.18411E-02 -0.89942E-02
 -0.24794E-02  0.13675E-02 -0.91836E-02
 -0.26248E-02  0.70642E-03 -0.93220E-02
 -0.19323E-02 -0.21670E-02 -0.93683E-02
 -0.14165E-02 -0.27039E-02 -0.93622E-02
 -0.99110E-03 -0.31186E-02 -0.93456E-02
 -0.41685E-03 -0.30124E-02 -0.93371E-02
  0.35452E-03 -0.28378E-02 -0.93223E-02
  0.12140E-02 -0.26193E-02 -0.93132E-02
  0.20300E-02 -0.23876E-02 -0.93182E-02
  0.26664E-02 -0.22033E-02 -0.93277E-02
  0.27840E-02 -0.15325E-02 -0.93536E-02
  0.41122E-02  0.96333E-03 -0.93247E-02
  0.41749E-02  0.15036E-04 -0.93542E-02
  0.37330E-02  0.18593E-02 -0.92957E-02
  0.31124E-02  0.26703E-02 -0.92667E-02
  0.23577E-02  0.33431E-02 -0.92150E-02
  0.15103E-02  0.37955E-02 -0.91153E-02
  0.59664E-03  0.39664E-02 -0.89708E-02
 -0.33959E-03  0.38476E-02 -0.87977E-02
 -0.12333E-02  0.33960E-02 -0.85925E-02
 -0.20373E-02  0.26236E-02 -0.84689E-02
 -0.27357E-02  0.17356E-02 -0.85878E-02
 -0.32842E-02  0.97412E-03 -0.89094E-02
 -0.35994E-02  0.29891E-03 -0.92258E-02
 -0.36829E-02 -0.41174E-03 -0.94240E-02
 -0.35569E-02 -0.11747E-02 -0.94817E-02
 -0.32251E-02 -0.19400E-02 -0.94533E-02
 -0.26865E-02 -0.26442E-02 -0.94025E-02
 -0.19649E-02 -0.32275E-02 -0.93577E-02
 -0.11333E-02 -0.36309E-02 -0.93128E-02
 -0.26358E-03 -0.38176E-02 -0.92483E-02
  0.64555E-03 -0.38161E-02 -0.91794E-02
  0.15854E-02 -0.36619E-02 -0.91473E-02
  0.24743E-02 -0.33352E-02 -0.91851E-02
  0.31939E-02 -0.27602E-02 -0.92761E-02
  0.36905E-02 -0.19311E-02 -0.93498E-02
  0.40110E-02 -0.96730E-03 -0.93711E-02
  0.10812E-02  0.68856E-03 -0.83445E-02
  0.17883E-02  0.12462E-02 -0.83418E-02
  0.23515E-02  0.59779E-03 -0.83420E-02
  0.16979E-02 -0.32233E-03 -0.83464E-02
  0.30532E-02  0.12493E-03 -0.83454E-02
  0.27687E-02 -0.70547E-03 -0.83411E-02
  0.13378E-02  0.18615E-02 -0.83452E-02
  0.70134E-03  0.14790E-02 -0.83524E-02
  0.16840E-03  0.31799E-03 -0.83494E-02
 -0.82313E-04  0.11959E-02 -0.83612E-02
  0.10033E-02  0.23022E-02 -0.83428E-02
  0.11953E-02  0.28669E-02 -0.83189E-02
  0.17989E-02  0.24548E-02 -0.83344E-02
  0.46247E-03  0.21962E-02 -0.83484E-02
  0.46536E-03  0.29727E-02 -0.82988E-02
 -0.72094E-03 -0.99165E-03 -0.83507E-02
 -0.82471E-03  0.10317E-03 -0.83580E-02
  0.49655E-03 -0.68490E-03 -0.83494E-02
 -0.17802E-02 -0.69738E-03 -0.83599E-02
 -0.17939E-02  0.10581E-03 -0.83720E-02
 -0.26481E-02 -0.79348E-03 -0.83840E-02
 -0.27245E-02  0.14577E-05 -0.83859E-02
 -0.24655E-02 -0.15186E-02 -0.83710E-02
 -0.18731E-02 -0.13145E-02 -0.83582E-02
 -0.94286E-03  0.10222E-02 -0.83718E-02
 -0.13896E-02 -0.17228E-02 -0.83530E-02
 -0.25917E-03  0.20520E-02 -0.83516E-02
 -0.10381E-02  0.18770E-02 -0.83479E-02
 -0.17996E-02  0.16845E-02 -0.83304E-02
 -0.18087E-02  0.92201E-03 -0.83735E-02
 -0.12865E-03 -0.19628E-02 -0.83506E-02
 -0.90877E-03 -0.23340E-02 -0.83459E-02
  0.80746E-03 -0.16891E-02 -0.83473E-02
  0.17198E-02 -0.14900E-02 -0.83392E-02
  0.32299E-02  0.73717E-03 -0.83480E-02
  0.28358E-02  0.12446E-02 -0.83450E-02
  0.23441E-02  0.18817E-02 -0.83410E-02
 -0.33317E-03  0.29205E-02 -0.82669E-02
 -0.11189E-02  0.26873E-02 -0.82295E-02
 -0.18320E-02  0.23385E-02 -0.81963E-02
 -0.23780E-02  0.20033E-02 -0.81699E-02
 -0.25328E-02  0.14921E-02 -0.82805E-02
 -0.26801E-02  0.78702E-03 -0.83550E-02
 -0.20577E-02 -0.21235E-02 -0.83520E-02
 -0.15767E-02 -0.26718E-02 -0.83323E-02
 -0.11837E-02 -0.31009E-02 -0.83092E-02
 -0.57915E-03 -0.30116E-02 -0.83139E-02
  0.21003E-03 -0.28504E-02 -0.83083E-02
  0.10434E-02 -0.26367E-02 -0.82955E-02
  0.17961E-02 -0.24053E-02 -0.82871E-02
  0.23739E-02 -0.22263E-02 -0.82835E-02
  0.25524E-02 -0.15648E-02 -0.83213E-02
  0.38079E-02  0.87235E-03 -0.83580E-02
  0.38979E-02 -0.89994E-04 -0.83501E-02
  0.34784E-02  0.17916E-02 -0.83585E-02
  0.29550E-02  0.26113E-02 -0.83455E-02
  0.22675E-02  0.32735E-02 -0.83149E-02
  0.14557E-02  0.37262E-02 -0.82601E-02
  0.56201E-03  0.39345E-02 -0.81753E-02
 -0.36464E-03  0.38795E-02 -0.80621E-02
 -0.12526E-02  0.35080E-02 -0.79197E-02
 -0.20587E-02  0.28412E-02 -0.78366E-02
 -0.27683E-02  0.20639E-02 -0.79218E-02
 -0.33264E-02  0.13142E-02 -0.81207E-02
 -0.36586E-02  0.55244E-03 -0.83014E-02
 -0.37604E-02 -0.23558E-03 -0.84143E-02
 -0.36582E-02 -0.10439E-02 -0.84397E-02
 -0.33602E-02 -0.18356E-02 -0.84045E-02
 -0.28698E-02 -0.25590E-02 -0.83473E-02
 -0.22066E-02 -0.31695E-02 -0.82950E-02
 -0.14011E-02 -0.36114E-02 -0.82613E-02
 -0.50065E-03 -0.38346E-02 -0.82322E-02
  0.42622E-03 -0.38479E-02 -0.81880E-02
  0.13055E-02 -0.36829E-02 -0.81431E-02
  0.20839E-02 -0.33402E-02 -0.81460E-02
  0.27564E-02 -0.27758E-02 -0.82093E-02
  0.33185E-02 -0.19866E-02 -0.82839E-02
  0.37207E-02 -0.10599E-02 -0.83311E-02
  0.10374E-02  0.68410E-03 -0.73578E-02
  0.17434E-02  0.12411E-02 -0.73571E-02
  0.23086E-02  0.59730E-03 -0.73550E-02
  0.16618E-02 -0.32824E-03 -0.73549E-02
  0.30120E-02  0.14472E-03 -0.73546E-02
  0.27422E-02 -0.67998E-03 -0.73519E-02
  0.12902E-02  0.18544E-02 -0.73611E-02
  0.65503E-03  0.14761E-02 -0.73647E-02
  0.12914E-03  0.31577E-03 -0.73606E-02
 -0.12218E-03  0.11943E-02 -0.73704E-02
  0.95559E-03  0.22937E-02 -0.73620E-02
  0.11507E-02  0.28510E-02 -0.73522E-02
  0.17558E-02  0.24407E-02 -0.73573E-02
  0.41789E-03  0.21910E-02 -0.73656E-02
  0.42283E-03  0.29648E-02 -0.73422E-02
 -0.75683E-03 -0.99454E-03 -0.73577E-02
 -0.85881E-03  0.99220E-04 -0.73662E-02
  0.46112E-03 -0.69188E-03 -0.73562E-02
 -0.18175E-02 -0.69837E-03 -0.73656E-02
 -0.18254E-02  0.10164E-03 -0.73752E-02
 -0.26927E-02 -0.77854E-03 -0.73787E-02
 -0.27626E-02  0.27223E-04 -0.73835E-02
 -0.25129E-02 -0.15115E-02 -0.73695E-02
 -0.19146E-02 -0.13124E-02 -0.73626E-02
 -0.97645E-03  0.10186E-02 -0.73776E-02
 -0.14294E-02 -0.17229E-02 -0.73578E-02
 -0.29812E-03  0.20499E-02 -0.73686E-02
 -0.10744E-02  0.18810E-02 -0.73675E-02
 -0.18342E-02  0.17071E-02 -0.73578E-02
 -0.18387E-02  0.92431E-03 -0.73797E-02
 -0.16100E-03 -0.19716E-02 -0.73546E-02
 -0.94640E-03 -0.23392E-02 -0.73540E-02
  0.77718E-03 -0.16990E-02 -0.73533E-02
  0.16931E-02 -0.14861E-02 -0.73505E-02
  0.31800E-02  0.75846E-03 -0.73570E-02
  0.27888E-02  0.12509E-02 -0.73575E-02
  0.23014E-02  0.18755E-02 -0.73579E-02
 -0.37264E-03  0.29241E-02 -0.73227E-02
 -0.11593E-02  0.27130E-02 -0.72988E-02
 -0.18740E-02  0.23987E-02 -0.72781E-02
 -0.24193E-02  0.21031E-02 -0.72618E-02
 -0.25678E-02  0.15633E-02 -0.73285E-02
 -0.27135E-02  0.83201E-03 -0.73698E-02
 -0.21036E-02 -0.21240E-02 -0.73592E-02
 -0.16204E-02 -0.26779E-02 -0.73513E-02
 -0.12246E-02 -0.31127E-02 -0.73455E-02
 -0.61317E-03 -0.30251E-02 -0.73469E-02
  0.18275E-03 -0.28634E-02 -0.73447E-02
  0.10204E-02 -0.26359E-02 -0.73388E-02
  0.17785E-02 -0.23732E-02 -0.73342E-02
  0.23642E-02 -0.21598E-02 -0.73323E-02
  0.25368E-02 -0.15192E-02 -0.73446E-02
  0.37488E-02  0.91824E-03 -0.73609E-02
  0.38547E-02 -0.25495E-04 -0.73552E-02
  0.34261E-02  0.18138E-02 -0.73642E-02
  0.29143E-02  0.26060E-02 -0.73613E-02
  0.22317E-02  0.32460E-02 -0.73507E-02
  0.14188E-02  0.36945E-02 -0.73275E-02
  0.52077E-03  0.39218E-02 -0.72812E-02
 -0.41114E-03  0.38975E-02 -0.72046E-02
 -0.13061E-02  0.35807E-02 -0.71060E-02
 -0.21176E-02  0.29961E-02 -0.70511E-02
 -0.28195E-02  0.22741E-02 -0.71055E-02
 -0.33715E-02  0.15218E-02 -0.72318E-02
 -0.37122E-02  0.72660E-03 -0.73402E-02
 -0.38258E-02 -0.11555E-03 -0.73991E-02
 -0.37273E-02 -0.98022E-03 -0.74069E-02
 -0.34243E-02 -0.18166E-02 -0.73867E-02
 -0.29272E-02 -0.25680E-02 -0.73610E-02
 -0.22589E-02 -0.31878E-02 -0.73422E-02
 -0.14454E-02 -0.36317E-02 -0.73351E-02
 -0.53105E-03 -0.38609E-02 -0.73326E-02
  0.40835E-03 -0.38641E-02 -0.73206E-02
  0.12968E-02 -0.36513E-02 -0.72996E-02
  0.20859E-02 -0.32362E-02 -0.72922E-02
  0.27666E-02 -0.26288E-02 -0.73088E-02
  0.33253E-02 -0.18546E-02 -0.73324E-02
  0.37069E-02 -0.96694E-03 -0.73480E-02
  0.10338E-02  0.67911E-03 -0.63732E-02
  0.17416E-02  0.12375E-02 -0.63730E-02
  0.23128E-02  0.59722E-03 -0.63713E-02
  0.16652E-02 -0.33239E-03 -0.63704E-02
  0.30303E-02  0.15735E-03 -0.63714E-02
  0.27717E-02 -0.66614E-03 -0.63720E-02
  0.12846E-02  0.18484E-02 -0.63756E-02
  0.64931E-03  0.14704E-02 -0.63775E-02
  0.12431E-03  0.31047E-03 -0.63748E-02
 -0.12822E-03  0.11871E-02 -0.63810E-02
  0.94661E-03  0.22857E-02 -0.63769E-02
  0.11378E-02  0.28402E-02 -0.63734E-02
  0.17492E-02  0.24331E-02 -0.63743E-02
  0.40942E-03  0.21819E-02 -0.63791E-02
  0.40797E-03  0.29545E-02 -0.63691E-02
 -0.76237E-03 -0.10010E-02 -0.63714E-02
 -0.86464E-03  0.91185E-04 -0.63777E-02
  0.45803E-03 -0.69815E-03 -0.63704E-02
 -0.18258E-02 -0.70514E-03 -0.63762E-02
 -0.18344E-02  0.92453E-04 -0.63823E-02
 -0.27089E-02 -0.77531E-03 -0.63821E-02
 -0.27801E-02  0.38580E-04 -0.63867E-02
 -0.25262E-02 -0.15139E-02 -0.63768E-02
 -0.19238E-02 -0.13176E-02 -0.63738E-02
 -0.98482E-03  0.10086E-02 -0.63851E-02
 -0.14348E-02 -0.17288E-02 -0.63712E-02
 -0.30697E-03  0.20397E-02 -0.63813E-02
 -0.10869E-02  0.18735E-02 -0.63813E-02
 -0.18520E-02  0.17139E-02 -0.63769E-02
 -0.18516E-02  0.91839E-03 -0.63864E-02
 -0.15928E-03 -0.19796E-02 -0.63696E-02
 -0.94351E-03 -0.23467E-02 -0.63706E-02
  0.78378E-03 -0.17065E-02 -0.63698E-02
  0.17152E-02 -0.14865E-02 -0.63712E-02
  0.31993E-02  0.77269E-03 -0.63717E-02
  0.27991E-02  0.12556E-02 -0.63721E-02
  0.23029E-02  0.18727E-02 -0.63732E-02
 -0.38821E-03  0.29165E-02 -0.63581E-02
 -0.11783E-02  0.27193E-02 -0.63446E-02
 -0.18973E-02  0.24315E-02 -0.63346E-02
 -0.24445E-02  0.21679E-02 -0.63277E-02
 -0.25899E-02  0.16077E-02 -0.63629E-02
 -0.27328E-02  0.85762E-03 -0.63825E-02
 -0.21082E-02 -0.21309E-02 -0.63731E-02
 -0.16122E-02 -0.26870E-02 -0.63723E-02
 -0.12046E-02 -0.31231E-02 -0.63741E-02
 -0.59554E-03 -0.30351E-02 -0.63739E-02
  0.20115E-03 -0.28726E-02 -0.63741E-02
  0.10493E-02 -0.26388E-02 -0.63749E-02
  0.18290E-02 -0.23612E-02 -0.63760E-02
  0.24370E-02 -0.21308E-02 -0.63774E-02
  0.25890E-02 -0.14980E-02 -0.63742E-02
  0.37847E-02  0.94748E-03 -0.63724E-02
  0.38956E-02  0.14723E-04 -0.63732E-02
  0.34514E-02  0.18282E-02 -0.63734E-02
  0.29209E-02  0.26049E-02 -0.63739E-02
  0.22239E-02  0.32332E-02 -0.63723E-02
  0.13986E-02  0.36781E-02 -0.63647E-02
  0.49162E-03  0.39112E-02 -0.63421E-02
 -0.44144E-03  0.39010E-02 -0.62950E-02
 -0.13371E-02  0.36218E-02 -0.62346E-02
 -0.21500E-02  0.31011E-02 -0.62080E-02
 -0.28478E-02  0.24242E-02 -0.62448E-02
 -0.33968E-02  0.16699E-02 -0.63160E-02
 -0.37433E-02  0.84601E-03 -0.63717E-02
 -0.38642E-02 -0.39944E-04 -0.63952E-02
 -0.37627E-02 -0.94518E-03 -0.63938E-02
 -0.34458E-02 -0.18106E-02 -0.63835E-02
 -0.29282E-02 -0.25794E-02 -0.63760E-02
 -0.22370E-02 -0.32037E-02 -0.63750E-02
 -0.14084E-02 -0.36455E-02 -0.63784E-02
 -0.49102E-03 -0.38749E-02 -0.63833E-02
  0.45340E-03 -0.38740E-02 -0.63870E-02
  0.13649E-02 -0.36411E-02 -0.63885E-02
  0.21925E-02 -0.31926E-02 -0.63880E-02
  0.28941E-02 -0.25619E-02 -0.63849E-02
  0.34329E-02 -0.17894E-02 -0.63803E-02
  0.37749E-02 -0.91530E-03 -0.63761E-02
  0.10365E-02  0.67629E-03 -0.53919E-02
  0.17439E-02  0.12350E-02 -0.53919E-02
  0.23169E-02  0.59525E-03 -0.53912E-02
  0.16689E-02 -0.33429E-03 -0.53906E-02
  0.30378E-02  0.15602E-03 -0.53921E-02
  0.27822E-02 -0.66833E-03 -0.53932E-02
  0.12848E-02  0.18439E-02 -0.53931E-02
  0.65006E-03  0.14658E-02 -0.53938E-02
  0.12545E-03  0.30726E-03 -0.53925E-02
 -0.12863E-03  0.11813E-02 -0.53951E-02
  0.94423E-03  0.22791E-02 -0.53939E-02
  0.11321E-02  0.28317E-02 -0.53933E-02
  0.17467E-02  0.24278E-02 -0.53929E-02
  0.40731E-03  0.21736E-02 -0.53948E-02
  0.40102E-03  0.29441E-02 -0.53921E-02
 -0.76383E-03 -0.10048E-02 -0.53908E-02
 -0.86579E-03  0.85705E-04 -0.53935E-02
  0.45886E-03 -0.70017E-03 -0.53904E-02
 -0.18295E-02 -0.71006E-03 -0.53927E-02
 -0.18393E-02  0.85679E-04 -0.53953E-02
 -0.27184E-02 -0.77497E-03 -0.53946E-02
 -0.27916E-02  0.43283E-04 -0.53979E-02
 -0.25341E-02 -0.15158E-02 -0.53920E-02
 -0.19285E-02 -0.13214E-02 -0.53915E-02
 -0.98881E-03  0.10007E-02 -0.53967E-02
 -0.14377E-02 -0.17325E-02 -0.53906E-02
 -0.31060E-03  0.20299E-02 -0.53959E-02
 -0.10954E-02  0.18653E-02 -0.53964E-02
 -0.18671E-02  0.17162E-02 -0.53962E-02
 -0.18609E-02  0.91300E-03 -0.53979E-02
 -0.15859E-03 -0.19824E-02 -0.53902E-02
 -0.94307E-03 -0.23502E-02 -0.53906E-02
  0.78631E-03 -0.17094E-02 -0.53906E-02
  0.17229E-02 -0.14904E-02 -0.53922E-02
  0.32072E-02  0.77206E-03 -0.53917E-02
  0.28040E-02  0.12534E-02 -0.53916E-02
  0.23043E-02  0.18691E-02 -0.53922E-02
 -0.39739E-03  0.29065E-02 -0.53882E-02
 -0.11930E-02  0.27199E-02 -0.53839E-02
 -0.19184E-02  0.24523E-02 -0.53825E-02
 -0.24691E-02  0.22131E-02 -0.53829E-02
 -0.26103E-02  0.16372E-02 -0.53942E-02
 -0.27481E-02  0.87229E-03 -0.53988E-02
 -0.21119E-02 -0.21345E-02 -0.53908E-02
 -0.16099E-02 -0.26913E-02 -0.53912E-02
 -0.11973E-02 -0.31277E-02 -0.53928E-02
 -0.58927E-03 -0.30391E-02 -0.53932E-02
  0.20742E-03 -0.28764E-02 -0.53940E-02
  0.10586E-02 -0.26434E-02 -0.53956E-02
  0.18444E-02 -0.23670E-02 -0.53977E-02
  0.24585E-02 -0.21377E-02 -0.53999E-02
  0.26051E-02 -0.15024E-02 -0.53961E-02
  0.37966E-02  0.94718E-03 -0.53921E-02
  0.39088E-02  0.15352E-04 -0.53947E-02
  0.34592E-02  0.18257E-02 -0.53918E-02
  0.29217E-02  0.25999E-02 -0.53923E-02
  0.22184E-02  0.32249E-02 -0.53928E-02
  0.13871E-02  0.36665E-02 -0.53915E-02
  0.47542E-03  0.38986E-02 -0.53841E-02
 -0.45974E-03  0.38968E-02 -0.53654E-02
 -0.13604E-02  0.36487E-02 -0.53427E-02
 -0.21792E-02  0.31774E-02 -0.53378E-02
 -0.28776E-02  0.25358E-02 -0.53583E-02
 -0.34213E-02  0.17739E-02 -0.53853E-02
 -0.37676E-02  0.91743E-03 -0.54015E-02
 -0.38906E-02 -0.51784E-06 -0.54035E-02
 -0.37861E-02 -0.92795E-03 -0.53982E-02
 -0.34606E-02 -0.18066E-02 -0.53928E-02
 -0.29316E-02 -0.25824E-02 -0.53905E-02
 -0.22293E-02 -0.32095E-02 -0.53920E-02
 -0.13944E-02 -0.36514E-02 -0.53954E-02
 -0.47653E-03 -0.38804E-02 -0.53997E-02
  0.46896E-03 -0.38799E-02 -0.54041E-02
  0.13866E-02 -0.36487E-02 -0.54083E-02
  0.22235E-02 -0.32021E-02 -0.54109E-02
  0.29304E-02 -0.25711E-02 -0.54092E-02
  0.34644E-02 -0.17952E-02 -0.54041E-02
  0.37957E-02 -0.91682E-03 -0.53988E-02
  0.10373E-02  0.67562E-03 -0.44124E-02
  0.17442E-02  0.12345E-02 -0.44124E-02
  0.23172E-02  0.59471E-03 -0.44122E-02
  0.16691E-02 -0.33408E-03 -0.44121E-02
  0.30375E-02  0.15455E-03 -0.44132E-02
  0.27820E-02 -0.67001E-03 -0.44143E-02
  0.12846E-02  0.18420E-02 -0.44126E-02
  0.65019E-03  0.14642E-02 -0.44128E-02
  0.12583E-03  0.30665E-03 -0.44125E-02
 -0.12884E-03  0.11794E-02 -0.44130E-02
  0.94308E-03  0.22759E-02 -0.44129E-02
  0.11297E-02  0.28270E-02 -0.44130E-02
  0.17452E-02  0.24255E-02 -0.44125E-02
  0.40644E-03  0.21692E-02 -0.44132E-02
  0.39818E-03  0.29376E-02 -0.44135E-02
 -0.76469E-03 -0.10060E-02 -0.44121E-02
 -0.86622E-03  0.83752E-04 -0.44125E-02
  0.45861E-03 -0.69987E-03 -0.44119E-02
 -0.18312E-02 -0.71204E-03 -0.44122E-02
 -0.18415E-02  0.82550E-04 -0.44127E-02
 -0.27226E-02 -0.77550E-03 -0.44122E-02
 -0.27973E-02  0.44773E-04 -0.44140E-02
 -0.25378E-02 -0.15169E-02 -0.44114E-02
 -0.19309E-02 -0.13228E-02 -0.44119E-02
 -0.99067E-03  0.99758E-03 -0.44132E-02
 -0.14396E-02 -0.17334E-02 -0.44119E-02
 -0.31230E-03  0.20249E-02 -0.44136E-02
 -0.10999E-02  0.18611E-02 -0.44143E-02
 -0.18759E-02  0.17175E-02 -0.44159E-02
 -0.18659E-02  0.91040E-03 -0.44140E-02
 -0.15965E-03 -0.19826E-02 -0.44120E-02
 -0.94469E-03 -0.23508E-02 -0.44119E-02
  0.78503E-03 -0.17095E-02 -0.44123E-02
  0.17221E-02 -0.14918E-02 -0.44133E-02
  0.32070E-02  0.77104E-03 -0.44124E-02
  0.28039E-02  0.12522E-02 -0.44120E-02
  0.23039E-02  0.18675E-02 -0.44122E-02
 -0.40219E-03  0.29001E-02 -0.44140E-02
 -0.12019E-02  0.27203E-02 -0.44152E-02
 -0.19317E-02  0.24640E-02 -0.44178E-02
 -0.24854E-02  0.22373E-02 -0.44210E-02
 -0.26231E-02  0.16520E-02 -0.44195E-02
 -0.27569E-02  0.87900E-03 -0.44168E-02
 -0.21144E-02 -0.21357E-02 -0.44112E-02
 -0.16110E-02 -0.26925E-02 -0.44115E-02
 -0.11976E-02 -0.31289E-02 -0.44122E-02
 -0.59014E-03 -0.30397E-02 -0.44128E-02
  0.20609E-03 -0.28767E-02 -0.44136E-02
  0.10569E-02 -0.26449E-02 -0.44149E-02
  0.18426E-02 -0.23705E-02 -0.44166E-02
  0.24565E-02 -0.21436E-02 -0.44186E-02
  0.26039E-02 -0.15060E-02 -0.44164E-02
  0.37953E-02  0.94419E-03 -0.44127E-02
  0.39079E-02  0.11860E-04 -0.44157E-02
  0.34583E-02  0.18231E-02 -0.44115E-02
  0.29206E-02  0.25975E-02 -0.44115E-02
  0.22159E-02  0.32217E-02 -0.44120E-02
  0.13828E-02  0.36606E-02 -0.44130E-02
  0.46908E-03  0.38897E-02 -0.44138E-02
 -0.46944E-03  0.38925E-02 -0.44137E-02
 -0.13761E-02  0.36646E-02 -0.44148E-02
 -0.22006E-02  0.32217E-02 -0.44203E-02
 -0.29002E-02  0.25962E-02 -0.44271E-02
 -0.34403E-02  0.18260E-02 -0.44287E-02
 -0.37835E-02  0.95005E-03 -0.44250E-02
 -0.39044E-02  0.14264E-04 -0.44177E-02
 -0.37967E-02 -0.92393E-03 -0.44122E-02
 -0.34670E-02 -0.18067E-02 -0.44099E-02
 -0.29343E-02 -0.25839E-02 -0.44095E-02
 -0.22295E-02 -0.32117E-02 -0.44104E-02
 -0.13938E-02 -0.36534E-02 -0.44124E-02
 -0.47667E-03 -0.38815E-02 -0.44150E-02
  0.46767E-03 -0.38815E-02 -0.44178E-02
  0.13842E-02 -0.36530E-02 -0.44210E-02
  0.22204E-02 -0.32107E-02 -0.44240E-02
  0.29272E-02 -0.25816E-02 -0.44248E-02
  0.34622E-02 -0.18036E-02 -0.44229E-02
  0.37946E-02 -0.92199E-03 -0.44195E-02
  0.10373E-02  0.67580E-03 -0.34333E-02
  0.17441E-02  0.12348E-02 -0.34332E-02
  0.23170E-02  0.59500E-03 -0.34331E-02
  0.16687E-02 -0.33329E-03 -0.34332E-02
  0.30370E-02  0.15450E-03 -0.34341E-02
  0.27814E-02 -0.66966E-03 -0.34354E-02
  0.12846E-02  0.18414E-02 -0.34332E-02
  0.65007E-03  0.14642E-02 -0.34331E-02
  0.12575E-03  0.30721E-03 -0.34332E-02
 -0.12904E-03  0.11797E-02 -0.34327E-02
  0.94257E-03  0.22746E-02 -0.34332E-02
  0.11288E-02  0.28248E-02 -0.34335E-02
  0.17446E-02  0.24248E-02 -0.34330E-02
  0.40614E-03  0.21674E-02 -0.34332E-02
  0.39705E-03  0.29345E-02 -0.34348E-02
 -0.76517E-03 -0.10062E-02 -0.34333E-02
 -0.86641E-03  0.83545E-04 -0.34328E-02
  0.45812E-03 -0.69910E-03 -0.34332E-02
 -0.18318E-02 -0.71265E-03 -0.34327E-02
 -0.18423E-02  0.81324E-04 -0.34321E-02
 -0.27238E-02 -0.77603E-03 -0.34319E-02
 -0.27995E-02  0.45109E-04 -0.34327E-02
 -0.25387E-02 -0.15175E-02 -0.34320E-02
 -0.19318E-02 -0.13231E-02 -0.34328E-02
 -0.99137E-03  0.99702E-03 -0.34322E-02
 -0.14403E-02 -0.17334E-02 -0.34332E-02
 -0.31292E-03  0.20228E-02 -0.34332E-02
 -0.11018E-02  0.18590E-02 -0.34338E-02
 -0.18800E-02  0.17175E-02 -0.34358E-02
 -0.18681E-02  0.90927E-03 -0.34326E-02
 -0.16027E-03 -0.19822E-02 -0.34335E-02
 -0.94557E-03 -0.23505E-02 -0.34333E-02
  0.78385E-03 -0.17091E-02 -0.34336E-02
  0.17211E-02 -0.14918E-02 -0.34345E-02
  0.32068E-02  0.77148E-03 -0.34332E-02
  0.28036E-02  0.12523E-02 -0.34328E-02
  0.23038E-02  0.18671E-02 -0.34328E-02
 -0.40444E-03  0.28963E-02 -0.34370E-02
 -0.12062E-02  0.27196E-02 -0.34401E-02
 -0.19382E-02  0.24678E-02 -0.34438E-02
 -0.24937E-02  0.22460E-02 -0.34478E-02
 -0.26297E-02  0.16572E-02 -0.34413E-02
 -0.27611E-02  0.88141E-03 -0.34359E-02
 -0.21149E-02 -0.21360E-02 -0.34325E-02
 -0.16111E-02 -0.26927E-02 -0.34328E-02
 -0.11976E-02 -0.31289E-02 -0.34333E-02
 -0.59067E-03 -0.30394E-02 -0.34340E-02
  0.20506E-03 -0.28762E-02 -0.34348E-02
  0.10554E-02 -0.26446E-02 -0.34359E-02
  0.18408E-02 -0.23704E-02 -0.34375E-02
  0.24542E-02 -0.21441E-02 -0.34393E-02
  0.26022E-02 -0.15059E-02 -0.34373E-02
  0.37942E-02  0.94321E-03 -0.34332E-02
  0.39068E-02  0.10865E-04 -0.34365E-02
  0.34579E-02  0.18224E-02 -0.34319E-02
  0.29207E-02  0.25970E-02 -0.34318E-02
  0.22154E-02  0.32206E-02 -0.34322E-02
  0.13814E-02  0.36580E-02 -0.34339E-02
  0.46635E-03  0.38853E-02 -0.34383E-02
 -0.47459E-03  0.38896E-02 -0.34462E-02
 -0.13843E-02  0.36699E-02 -0.34567E-02
 -0.22114E-02  0.32384E-02 -0.34652E-02
 -0.29124E-02  0.26188E-02 -0.34659E-02
 -0.34514E-02  0.18459E-02 -0.34574E-02
 -0.37919E-02  0.96236E-03 -0.34457E-02
 -0.39100E-02  0.18711E-04 -0.34354E-02
 -0.37997E-02 -0.92399E-03 -0.34306E-02
 -0.34678E-02 -0.18079E-02 -0.34301E-02
 -0.29339E-02 -0.25850E-02 -0.34307E-02
 -0.22287E-02 -0.32126E-02 -0.34315E-02
 -0.13932E-02 -0.36538E-02 -0.34330E-02
 -0.47670E-03 -0.38814E-02 -0.34353E-02
  0.46662E-03 -0.38809E-02 -0.34381E-02
  0.13819E-02 -0.36525E-02 -0.34412E-02
  0.22169E-02 -0.32106E-02 -0.34440E-02
  0.29234E-02 -0.25821E-02 -0.34448E-02
  0.34591E-02 -0.18041E-02 -0.34432E-02
  0.37928E-02 -0.92265E-03 -0.34402E-02
  0.10372E-02  0.67617E-03 -0.24541E-02
  0.17440E-02  0.12353E-02 -0.24541E-02
  0.23169E-02  0.59545E-03 -0.24540E-02
  0.16685E-02 -0.33259E-03 -0.24541E-02
  0.30369E-02  0.15498E-03 -0.24549E-02
  0.27817E-02 -0.66870E-03 -0.24564E-02
  0.12845E-02  0.18412E-02 -0.24540E-02
  0.64991E-03  0.14647E-02 -0.24538E-02
  0.12554E-03  0.30809E-03 -0.24539E-02
 -0.12920E-03  0.11808E-02 -0.24531E-02
  0.94223E-03  0.22741E-02 -0.24540E-02
  0.11282E-02  0.28236E-02 -0.24544E-02
  0.17442E-02  0.24247E-02 -0.24539E-02
  0.40608E-03  0.21666E-02 -0.24538E-02
  0.39661E-03  0.29331E-02 -0.24560E-02
 -0.76556E-03 -0.10066E-02 -0.24541E-02
 -0.86655E-03  0.83878E-04 -0.24533E-02
  0.45766E-03 -0.69850E-03 -0.24540E-02
 -0.18322E-02 -0.71285E-03 -0.24533E-02
 -0.18425E-02  0.80896E-04 -0.24524E-02
 -0.27246E-02 -0.77534E-03 -0.24524E-02
 -0.28004E-02  0.45922E-04 -0.24529E-02
 -0.25396E-02 -0.15170E-02 -0.24528E-02
 -0.19325E-02 -0.13231E-02 -0.24536E-02
 -0.99153E-03  0.99752E-03 -0.24522E-02
 -0.14408E-02 -0.17335E-02 -0.24541E-02
 -0.31296E-03  0.20221E-02 -0.24535E-02
 -0.11022E-02  0.18579E-02 -0.24538E-02
 -0.18815E-02  0.17173E-02 -0.24558E-02
 -0.18688E-02  0.90886E-03 -0.24524E-02
 -0.16057E-03 -0.19823E-02 -0.24544E-02
 -0.94625E-03 -0.23506E-02 -0.24544E-02
  0.78319E-03 -0.17091E-02 -0.24546E-02
  0.17211E-02 -0.14918E-02 -0.24557E-02
  0.32071E-02  0.77246E-03 -0.24540E-02
  0.28036E-02  0.12526E-02 -0.24536E-02
  0.23036E-02  0.18670E-02 -0.24537E-02
 -0.40517E-03  0.28941E-02 -0.24589E-02
 -0.12078E-02  0.27189E-02 -0.24625E-02
 -0.19406E-02  0.24690E-02 -0.24663E-02
 -0.24968E-02  0.22491E-02 -0.24704E-02
 -0.26322E-02  0.16589E-02 -0.24620E-02
 -0.27626E-02  0.88255E-03 -0.24560E-02
 -0.21155E-02 -0.21358E-02 -0.24534E-02
 -0.16113E-02 -0.26925E-02 -0.24539E-02
 -0.11979E-02 -0.31287E-02 -0.24545E-02
 -0.59098E-03 -0.30392E-02 -0.24552E-02
  0.20475E-03 -0.28761E-02 -0.24562E-02
  0.10551E-02 -0.26445E-02 -0.24576E-02
  0.18409E-02 -0.23696E-02 -0.24595E-02
  0.24543E-02 -0.21431E-02 -0.24615E-02
  0.26022E-02 -0.15048E-02 -0.24588E-02
  0.37941E-02  0.94322E-03 -0.24539E-02
  0.39066E-02  0.11339E-04 -0.24573E-02
  0.34578E-02  0.18225E-02 -0.24527E-02
  0.29204E-02  0.25970E-02 -0.24527E-02
  0.22150E-02  0.32204E-02 -0.24532E-02
  0.13807E-02  0.36572E-02 -0.24552E-02
  0.46505E-03  0.38837E-02 -0.24612E-02
 -0.47660E-03  0.38885E-02 -0.24728E-02
 -0.13873E-02  0.36727E-02 -0.24872E-02
 -0.22154E-02  0.32458E-02 -0.24961E-02
 -0.29169E-02  0.26275E-02 -0.24933E-02
 -0.34556E-02  0.18530E-02 -0.24806E-02
 -0.37955E-02  0.96764E-03 -0.24667E-02
 -0.39131E-02  0.22839E-04 -0.24560E-02
 -0.38022E-02 -0.92041E-03 -0.24512E-02
 -0.34695E-02 -0.18055E-02 -0.24508E-02
 -0.29348E-02 -0.25837E-02 -0.24516E-02
 -0.22292E-02 -0.32118E-02 -0.24527E-02
 -0.13934E-02 -0.36534E-02 -0.24544E-02
 -0.47663E-03 -0.38810E-02 -0.24570E-02
  0.46686E-03 -0.38802E-02 -0.24606E-02
  0.13820E-02 -0.36509E-02 -0.24647E-02
  0.22170E-02 -0.32079E-02 -0.24680E-02
  0.29234E-02 -0.25790E-02 -0.24684E-02
  0.34590E-02 -0.18015E-02 -0.24658E-02
  0.37926E-02 -0.92110E-03 -0.24617E-02
  0.10371E-02  0.67652E-03 -0.14749E-02
  0.17438E-02  0.12358E-02 -0.14748E-02
  0.23168E-02  0.59603E-03 -0.14747E-02
  0.16684E-02 -0.33204E-03 -0.14748E-02
  0.30370E-02  0.15595E-03 -0.14757E-02
  0.27824E-02 -0.66757E-03 -0.14775E-02
  0.12843E-02  0.18411E-02 -0.14747E-02
  0.64974E-03  0.14654E-02 -0.14745E-02
  0.12528E-03  0.30897E-03 -0.14746E-02
 -0.12933E-03  0.11821E-02 -0.14736E-02
  0.94184E-03  0.22738E-02 -0.14746E-02
  0.11275E-02  0.28228E-02 -0.14751E-02
  0.17434E-02  0.24248E-02 -0.14745E-02
  0.40607E-03  0.21661E-02 -0.14743E-02
  0.39634E-03  0.29321E-02 -0.14768E-02
 -0.76596E-03 -0.10071E-02 -0.14748E-02
 -0.86669E-03  0.84281E-04 -0.14739E-02
  0.45722E-03 -0.69810E-03 -0.14747E-02
 -0.18327E-02 -0.71292E-03 -0.14739E-02
 -0.18426E-02  0.80659E-04 -0.14728E-02
 -0.27252E-02 -0.77410E-03 -0.14731E-02
 -0.28006E-02  0.47013E-04 -0.14735E-02
 -0.25405E-02 -0.15159E-02 -0.14735E-02
 -0.19333E-02 -0.13230E-02 -0.14743E-02
 -0.99147E-03  0.99834E-03 -0.14724E-02
 -0.14414E-02 -0.17337E-02 -0.14747E-02
 -0.31275E-03  0.20216E-02 -0.14738E-02
 -0.11021E-02  0.18572E-02 -0.14740E-02
 -0.18819E-02  0.17173E-02 -0.14761E-02
 -0.18690E-02  0.90873E-03 -0.14726E-02
 -0.16086E-03 -0.19827E-02 -0.14751E-02
 -0.94713E-03 -0.23508E-02 -0.14751E-02
  0.78268E-03 -0.17094E-02 -0.14754E-02
  0.17214E-02 -0.14921E-02 -0.14767E-02
  0.32074E-02  0.77412E-03 -0.14747E-02
  0.28034E-02  0.12534E-02 -0.14743E-02
  0.23032E-02  0.18673E-02 -0.14744E-02
 -0.40531E-03  0.28923E-02 -0.14802E-02
 -0.12083E-02  0.27185E-02 -0.14842E-02
 -0.19412E-02  0.24701E-02 -0.14882E-02
 -0.24974E-02  0.22518E-02 -0.14924E-02
 -0.26326E-02  0.16604E-02 -0.14827E-02
 -0.27627E-02  0.88361E-03 -0.14764E-02
 -0.21165E-02 -0.21351E-02 -0.14740E-02
 -0.16123E-02 -0.26920E-02 -0.14745E-02
 -0.11991E-02 -0.31283E-02 -0.14753E-02
 -0.59193E-03 -0.30392E-02 -0.14762E-02
  0.20419E-03 -0.28762E-02 -0.14774E-02
  0.10550E-02 -0.26446E-02 -0.14792E-02
  0.18415E-02 -0.23692E-02 -0.14816E-02
  0.24553E-02 -0.21423E-02 -0.14841E-02
  0.26030E-02 -0.15037E-02 -0.14806E-02
  0.37941E-02  0.94453E-03 -0.14746E-02
  0.39066E-02  0.13277E-04 -0.14783E-02
  0.34572E-02  0.18236E-02 -0.14734E-02
  0.29194E-02  0.25979E-02 -0.14732E-02
  0.22137E-02  0.32209E-02 -0.14736E-02
  0.13794E-02  0.36571E-02 -0.14759E-02
  0.46401E-03  0.38831E-02 -0.14832E-02
 -0.47758E-03  0.38885E-02 -0.14974E-02
 -0.13885E-02  0.36751E-02 -0.15148E-02
 -0.22167E-02  0.32516E-02 -0.15243E-02
 -0.29177E-02  0.26346E-02 -0.15188E-02
 -0.34557E-02  0.18584E-02 -0.15031E-02
 -0.37960E-02  0.97203E-03 -0.14883E-02
 -0.39144E-02  0.27375E-04 -0.14773E-02
 -0.38039E-02 -0.91557E-03 -0.14724E-02
 -0.34716E-02 -0.18013E-02 -0.14715E-02
 -0.29371E-02 -0.25806E-02 -0.14719E-02
 -0.22316E-02 -0.32098E-02 -0.14731E-02
 -0.13957E-02 -0.36523E-02 -0.14752E-02
 -0.47819E-03 -0.38804E-02 -0.14785E-02
  0.46615E-03 -0.38795E-02 -0.14833E-02
  0.13821E-02 -0.36493E-02 -0.14888E-02
  0.22178E-02 -0.32052E-02 -0.14929E-02
  0.29248E-02 -0.25757E-02 -0.14930E-02
  0.34602E-02 -0.17984E-02 -0.14892E-02
  0.37930E-02 -0.91848E-03 -0.14837E-02
  0.10370E-02  0.67691E-03 -0.49560E-03
  0.17436E-02  0.12364E-02 -0.49559E-03
  0.23167E-02  0.59658E-03 -0.49545E-03
  0.16682E-02 -0.33145E-03 -0.49548E-03
  0.30369E-02  0.15656E-03 -0.49644E-03
  0.27828E-02 -0.66709E-03 -0.49825E-03
  0.12842E-02  0.18411E-02 -0.49547E-03
  0.64951E-03  0.14661E-02 -0.49517E-03
  0.12498E-03  0.30995E-03 -0.49535E-03
 -0.12951E-03  0.11836E-02 -0.49423E-03
  0.94150E-03  0.22736E-02 -0.49532E-03
  0.11270E-02  0.28220E-02 -0.49581E-03
  0.17428E-02  0.24248E-02 -0.49524E-03
  0.40606E-03  0.21657E-02 -0.49499E-03
  0.39627E-03  0.29314E-02 -0.49767E-03
 -0.76635E-03 -0.10074E-02 -0.49551E-03
 -0.86684E-03  0.84897E-04 -0.49454E-03
  0.45675E-03 -0.69754E-03 -0.49540E-03
 -0.18330E-02 -0.71290E-03 -0.49464E-03
 -0.18425E-02  0.80611E-04 -0.49338E-03
 -0.27251E-02 -0.77380E-03 -0.49381E-03
 -0.28001E-02  0.47486E-04 -0.49403E-03
 -0.25407E-02 -0.15156E-02 -0.49422E-03
 -0.19337E-02 -0.13229E-02 -0.49500E-03
 -0.99133E-03  0.99943E-03 -0.49299E-03
 -0.14418E-02 -0.17337E-02 -0.49545E-03
 -0.31252E-03  0.20215E-02 -0.49444E-03
 -0.11018E-02  0.18568E-02 -0.49465E-03
 -0.18818E-02  0.17178E-02 -0.49718E-03
 -0.18687E-02  0.90899E-03 -0.49314E-03
 -0.16119E-03 -0.19829E-02 -0.49583E-03
 -0.94789E-03 -0.23509E-02 -0.49580E-03
  0.78203E-03 -0.17096E-02 -0.49609E-03
  0.17215E-02 -0.14925E-02 -0.49746E-03
  0.32077E-02  0.77560E-03 -0.49542E-03
  0.28033E-02  0.12542E-02 -0.49504E-03
  0.23029E-02  0.18675E-02 -0.49515E-03
 -0.40526E-03  0.28907E-02 -0.50120E-03
 -0.12085E-02  0.27179E-02 -0.50581E-03
 -0.19414E-02  0.24711E-02 -0.51078E-03
 -0.24973E-02  0.22547E-02 -0.51593E-03
 -0.26322E-02  0.16626E-02 -0.50469E-03
 -0.27620E-02  0.88486E-03 -0.49725E-03
 -0.21168E-02 -0.21349E-02 -0.49468E-03
 -0.16127E-02 -0.26919E-02 -0.49524E-03
 -0.11998E-02 -0.31280E-02 -0.49607E-03
 -0.59277E-03 -0.30391E-02 -0.49703E-03
  0.20346E-03 -0.28761E-02 -0.49839E-03
  0.10546E-02 -0.26448E-02 -0.50032E-03
  0.18417E-02 -0.23694E-02 -0.50272E-03
  0.24558E-02 -0.21429E-02 -0.50521E-03
  0.26033E-02 -0.15037E-02 -0.50146E-03
  0.37941E-02  0.94546E-03 -0.49539E-03
  0.39066E-02  0.14019E-04 -0.49920E-03
  0.34570E-02  0.18245E-02 -0.49403E-03
  0.29188E-02  0.25986E-02 -0.49390E-03
  0.22130E-02  0.32211E-02 -0.49425E-03
  0.13788E-02  0.36568E-02 -0.49673E-03
  0.46359E-03  0.38827E-02 -0.50457E-03
 -0.47806E-03  0.38881E-02 -0.51974E-03
 -0.13893E-02  0.36754E-02 -0.53885E-03
 -0.22174E-02  0.32548E-02 -0.55113E-03
 -0.29176E-02  0.26412E-02 -0.54644E-03
 -0.34546E-02  0.18651E-02 -0.52765E-03
 -0.37948E-02  0.97549E-03 -0.50960E-03
 -0.39138E-02  0.28565E-04 -0.49764E-03
 -0.38038E-02 -0.91477E-03 -0.49295E-03
 -0.34717E-02 -0.18006E-02 -0.49229E-03
 -0.29374E-02 -0.25801E-02 -0.49258E-03
 -0.22323E-02 -0.32093E-02 -0.49379E-03
 -0.13969E-02 -0.36516E-02 -0.49618E-03
 -0.47950E-03 -0.38796E-02 -0.49986E-03
  0.46504E-03 -0.38786E-02 -0.50503E-03
  0.13815E-02 -0.36484E-02 -0.51085E-03
  0.22178E-02 -0.32046E-02 -0.51487E-03
  0.29253E-02 -0.25755E-02 -0.51448E-03
  0.34607E-02 -0.17984E-02 -0.51024E-03
  0.37933E-02 -0.91813E-03 -0.50457E-03
  0.10369E-02  0.67731E-03  0.48364E-03
  0.17434E-02  0.12368E-02  0.48365E-03
  0.23165E-02  0.59692E-03  0.48380E-03
  0.16680E-02 -0.33085E-03  0.48377E-03
  0.30368E-02  0.15691E-03  0.48271E-03
  0.27831E-02 -0.66663E-03  0.48087E-03
  0.12842E-02  0.18410E-02  0.48376E-03
  0.64929E-03  0.14670E-02  0.48405E-03
  0.12470E-03  0.31104E-03  0.48387E-03
 -0.12971E-03  0.11853E-02  0.48497E-03
  0.94129E-03  0.22735E-02  0.48389E-03
  0.11270E-02  0.28212E-02  0.48334E-03
  0.17426E-02  0.24245E-02  0.48393E-03
  0.40606E-03  0.21656E-02  0.48417E-03
  0.39640E-03  0.29309E-02  0.48130E-03
 -0.76671E-03 -0.10076E-02  0.48375E-03
 -0.86697E-03  0.85652E-04  0.48470E-03
  0.45629E-03 -0.69691E-03  0.48386E-03
 -0.18333E-02 -0.71282E-03  0.48462E-03
 -0.18424E-02  0.80597E-04  0.48596E-03
 -0.27251E-02 -0.77380E-03  0.48559E-03
 -0.27999E-02  0.47724E-04  0.48549E-03
 -0.25408E-02 -0.15158E-02  0.48516E-03
 -0.19341E-02 -0.13230E-02  0.48429E-03
 -0.99121E-03  0.10006E-02  0.48626E-03
 -0.14421E-02 -0.17338E-02  0.48388E-03
 -0.31231E-03  0.20217E-02  0.48461E-03
 -0.11015E-02  0.18566E-02  0.48436E-03
 -0.18821E-02  0.17179E-02  0.48181E-03
 -0.18687E-02  0.90910E-03  0.48621E-03
 -0.16152E-03 -0.19829E-02  0.48348E-03
 -0.94853E-03 -0.23509E-02  0.48353E-03
  0.78131E-03 -0.17096E-02  0.48317E-03
  0.17214E-02 -0.14928E-02  0.48172E-03
  0.32080E-02  0.77662E-03  0.48376E-03
  0.28032E-02  0.12544E-02  0.48418E-03
  0.23029E-02  0.18671E-02  0.48405E-03
 -0.40507E-03  0.28896E-02  0.47748E-03
 -0.12087E-02  0.27175E-02  0.47262E-03
 -0.19419E-02  0.24713E-02  0.46743E-03
 -0.24985E-02  0.22559E-02  0.46214E-03
 -0.26329E-02  0.16635E-02  0.47418E-03
 -0.27620E-02  0.88550E-03  0.48219E-03
 -0.21168E-02 -0.21352E-02  0.48470E-03
 -0.16128E-02 -0.26920E-02  0.48405E-03
 -0.12001E-02 -0.31278E-02  0.48303E-03
 -0.59337E-03 -0.30388E-02  0.48210E-03
  0.20275E-03 -0.28759E-02  0.48081E-03
  0.10540E-02 -0.26449E-02  0.47892E-03
  0.18416E-02 -0.23696E-02  0.47648E-03
  0.24558E-02 -0.21435E-02  0.47393E-03
  0.26033E-02 -0.15037E-02  0.47764E-03
  0.37940E-02  0.94575E-03  0.48371E-03
  0.39065E-02  0.14325E-04  0.47968E-03
  0.34570E-02  0.18244E-02  0.48522E-03
  0.29189E-02  0.25980E-02  0.48524E-03
  0.22135E-02  0.32203E-02  0.48476E-03
  0.13794E-02  0.36560E-02  0.48227E-03
  0.46389E-03  0.38821E-02  0.47404E-03
 -0.47785E-03  0.38882E-02  0.45823E-03
 -0.13893E-02  0.36759E-02  0.43877E-03
 -0.22186E-02  0.32558E-02  0.42584E-03
 -0.29203E-02  0.26443E-02  0.43030E-03
 -0.34570E-02  0.18687E-02  0.45066E-03
 -0.37957E-02  0.97756E-03  0.46997E-03
 -0.39140E-02  0.29110E-04  0.48225E-03
 -0.38038E-02 -0.91500E-03  0.48679E-03
 -0.34716E-02 -0.18013E-02  0.48731E-03
 -0.29372E-02 -0.25808E-02  0.48691E-03
 -0.22323E-02 -0.32095E-02  0.48540E-03
 -0.13972E-02 -0.36511E-02  0.48259E-03
 -0.48022E-03 -0.38788E-02  0.47876E-03
  0.46409E-03 -0.38777E-02  0.47394E-03
  0.13807E-02 -0.36480E-02  0.46859E-03
  0.22175E-02 -0.32048E-02  0.46467E-03
  0.29252E-02 -0.25758E-02  0.46481E-03
  0.34606E-02 -0.17984E-02  0.46878E-03
  0.37932E-02 -0.91801E-03  0.47429E-03
  0.10368E-02  0.67786E-03  0.14628E-02
  0.17434E-02  0.12374E-02  0.14628E-02
  0.23165E-02  0.59737E-03  0.14629E-02
  0.16678E-02 -0.33010E-03  0.14629E-02
  0.30370E-02  0.15749E-03  0.14616E-02
  0.27836E-02 -0.66565E-03  0.14595E-02
  0.12842E-02  0.18412E-02  0.14630E-02
  0.64907E-03  0.14680E-02  0.14632E-02
  0.12445E-03  0.31220E-03  0.14630E-02
 -0.12993E-03  0.11871E-02  0.14641E-02
  0.94109E-03  0.22736E-02  0.14631E-02
  0.11269E-02  0.28206E-02  0.14625E-02
  0.17426E-02  0.24244E-02  0.14632E-02
  0.40601E-03  0.21656E-02  0.14633E-02
  0.39645E-03  0.29306E-02  0.14603E-02
 -0.76706E-03 -0.10077E-02  0.14630E-02
 -0.86711E-03  0.86515E-04  0.14638E-02
  0.45588E-03 -0.69621E-03  0.14631E-02
 -0.18337E-02 -0.71260E-03  0.14638E-02
 -0.18425E-02  0.80796E-04  0.14651E-02
 -0.27254E-02 -0.77367E-03  0.14648E-02
 -0.28004E-02  0.48056E-04  0.14648E-02
 -0.25411E-02 -0.15161E-02  0.14645E-02
 -0.19346E-02 -0.13229E-02  0.14635E-02
 -0.99119E-03  0.10020E-02  0.14654E-02
 -0.14425E-02 -0.17338E-02  0.14632E-02
 -0.31221E-03  0.20221E-02  0.14638E-02
 -0.11014E-02  0.18565E-02  0.14636E-02
 -0.18828E-02  0.17175E-02  0.14612E-02
 -0.18691E-02  0.90923E-03  0.14654E-02
 -0.16176E-03 -0.19830E-02  0.14628E-02
 -0.94905E-03 -0.23510E-02  0.14628E-02
  0.78068E-03 -0.17097E-02  0.14624E-02
  0.17214E-02 -0.14929E-02  0.14607E-02
  0.32085E-02  0.77754E-03  0.14628E-02
  0.28035E-02  0.12546E-02  0.14634E-02
  0.23031E-02  0.18668E-02  0.14633E-02
 -0.40508E-03  0.28888E-02  0.14566E-02
 -0.12091E-02  0.27170E-02  0.14522E-02
 -0.19431E-02  0.24703E-02  0.14475E-02
 -0.25008E-02  0.22545E-02  0.14426E-02
 -0.26350E-02  0.16625E-02  0.14539E-02
 -0.27633E-02  0.88548E-03  0.14616E-02
 -0.21169E-02 -0.21355E-02  0.14640E-02
 -0.16126E-02 -0.26922E-02  0.14633E-02
 -0.11999E-02 -0.31279E-02  0.14620E-02
 -0.59356E-03 -0.30387E-02  0.14611E-02
  0.20239E-03 -0.28758E-02  0.14600E-02
  0.10538E-02 -0.26452E-02  0.14582E-02
  0.18417E-02 -0.23696E-02  0.14555E-02
  0.24560E-02 -0.21435E-02  0.14525E-02
  0.26035E-02 -0.15029E-02  0.14562E-02
  0.37944E-02  0.94569E-03  0.14627E-02
  0.39067E-02  0.15230E-04  0.14581E-02
  0.34575E-02  0.18235E-02  0.14645E-02
  0.29196E-02  0.25970E-02  0.14645E-02
  0.22145E-02  0.32195E-02  0.14640E-02
  0.13802E-02  0.36555E-02  0.14612E-02
  0.46419E-03  0.38820E-02  0.14523E-02
 -0.47813E-03  0.38888E-02  0.14367E-02
 -0.13902E-02  0.36760E-02  0.14193E-02
 -0.22209E-02  0.32539E-02  0.14084E-02
 -0.29247E-02  0.26414E-02  0.14127E-02
 -0.34623E-02  0.18665E-02  0.14315E-02
 -0.38000E-02  0.97718E-03  0.14500E-02
 -0.39161E-02  0.29008E-04  0.14619E-02
 -0.38046E-02 -0.91559E-03  0.14662E-02
 -0.34718E-02 -0.18022E-02  0.14668E-02
 -0.29370E-02 -0.25818E-02  0.14663E-02
 -0.22317E-02 -0.32100E-02  0.14645E-02
 -0.13967E-02 -0.36511E-02  0.14612E-02
 -0.47994E-03 -0.38784E-02  0.14572E-02
  0.46411E-03 -0.38775E-02  0.14530E-02
  0.13807E-02 -0.36481E-02  0.14482E-02
  0.22176E-02 -0.32048E-02  0.14439E-02
  0.29252E-02 -0.25750E-02  0.14430E-02
  0.34607E-02 -0.17967E-02  0.14463E-02
  0.37932E-02 -0.91630E-03  0.14520E-02
  0.10367E-02  0.67859E-03  0.24419E-02
  0.17432E-02  0.12383E-02  0.24419E-02
  0.23165E-02  0.59797E-03  0.24419E-02
  0.16676E-02 -0.32923E-03  0.24420E-02
  0.30372E-02  0.15772E-03  0.24405E-02
  0.27841E-02 -0.66526E-03  0.24385E-02
  0.12841E-02  0.18416E-02  0.24421E-02
  0.64876E-03  0.14692E-02  0.24423E-02
  0.12418E-03  0.31344E-03  0.24421E-02
 -0.13019E-03  0.11890E-02  0.24432E-02
  0.94073E-03  0.22739E-02  0.24422E-02
  0.11267E-02  0.28203E-02  0.24415E-02
  0.17424E-02  0.24247E-02  0.24423E-02
  0.40583E-03  0.21658E-02  0.24424E-02
  0.39634E-03  0.29305E-02  0.24393E-02
 -0.76739E-03 -0.10078E-02  0.24421E-02
 -0.86725E-03  0.87439E-04  0.24429E-02
  0.45547E-03 -0.69543E-03  0.24422E-02
 -0.18340E-02 -0.71235E-03  0.24428E-02
 -0.18426E-02  0.81115E-04  0.24441E-02
 -0.27254E-02 -0.77384E-03  0.24439E-02
 -0.28006E-02  0.48133E-04  0.24439E-02
 -0.25411E-02 -0.15165E-02  0.24435E-02
 -0.19350E-02 -0.13229E-02  0.24426E-02
 -0.99118E-03  0.10035E-02  0.24444E-02
 -0.14427E-02 -0.17339E-02  0.24423E-02
 -0.31222E-03  0.20225E-02  0.24429E-02
 -0.11014E-02  0.18564E-02  0.24427E-02
 -0.18834E-02  0.17173E-02  0.24405E-02
 -0.18693E-02  0.90956E-03  0.24443E-02
 -0.16188E-03 -0.19830E-02  0.24419E-02
 -0.94936E-03 -0.23511E-02  0.24419E-02
  0.78014E-03 -0.17097E-02  0.24416E-02
  0.17215E-02 -0.14932E-02  0.24399E-02
  0.32093E-02  0.77827E-03  0.24418E-02
  0.28038E-02  0.12548E-02  0.24424E-02
  0.23033E-02  0.18669E-02  0.24424E-02
 -0.40536E-03  0.28878E-02  0.24360E-02
 -0.12099E-02  0.27164E-02  0.24321E-02
 -0.19442E-02  0.24692E-02  0.24280E-02
 -0.25022E-02  0.22526E-02  0.24235E-02
 -0.26361E-02  0.16614E-02  0.24338E-02
 -0.27639E-02  0.88531E-03  0.24409E-02
 -0.21166E-02 -0.21360E-02  0.24431E-02
 -0.16120E-02 -0.26926E-02  0.24423E-02
 -0.11993E-02 -0.31281E-02  0.24409E-02
 -0.59343E-03 -0.30388E-02  0.24401E-02
  0.20228E-03 -0.28759E-02  0.24391E-02
  0.10536E-02 -0.26456E-02  0.24375E-02
  0.18418E-02 -0.23701E-02  0.24349E-02
  0.24562E-02 -0.21444E-02  0.24319E-02
  0.26037E-02 -0.15030E-02  0.24353E-02
  0.37953E-02  0.94502E-03  0.24418E-02
  0.39074E-02  0.14759E-04  0.24370E-02
  0.34585E-02  0.18228E-02  0.24436E-02
  0.29206E-02  0.25966E-02  0.24438E-02
  0.22152E-02  0.32195E-02  0.24432E-02
  0.13807E-02  0.36557E-02  0.24401E-02
  0.46434E-03  0.38822E-02  0.24311E-02
 -0.47888E-03  0.38889E-02  0.24163E-02
 -0.13919E-02  0.36752E-02  0.24007E-02
 -0.22232E-02  0.32513E-02  0.23917E-02
 -0.29270E-02  0.26369E-02  0.23963E-02
 -0.34645E-02  0.18629E-02  0.24131E-02
 -0.38020E-02  0.97497E-03  0.24304E-02
 -0.39171E-02  0.26960E-04  0.24414E-02
 -0.38046E-02 -0.91773E-03  0.24453E-02
 -0.34712E-02 -0.18041E-02  0.24458E-02
 -0.29358E-02 -0.25833E-02  0.24452E-02
 -0.22302E-02 -0.32110E-02  0.24433E-02
 -0.13954E-02 -0.36515E-02  0.24399E-02
 -0.47913E-03 -0.38785E-02  0.24360E-02
  0.46461E-03 -0.38776E-02  0.24321E-02
  0.13809E-02 -0.36485E-02  0.24278E-02
  0.22175E-02 -0.32052E-02  0.24236E-02
  0.29250E-02 -0.25755E-02  0.24224E-02
  0.34608E-02 -0.17972E-02  0.24253E-02
  0.37937E-02 -0.91668E-03  0.24308E-02
  0.10366E-02  0.67927E-03  0.34210E-02
  0.17430E-02  0.12391E-02  0.34210E-02
  0.23164E-02  0.59869E-03  0.34210E-02
  0.16674E-02 -0.32830E-03  0.34210E-02
  0.30373E-02  0.15789E-03  0.34196E-02
  0.27845E-02 -0.66520E-03  0.34179E-02
  0.12839E-02  0.18419E-02  0.34212E-02
  0.64846E-03  0.14703E-02  0.34215E-02
  0.12396E-03  0.31462E-03  0.34213E-02
 -0.13036E-03  0.11908E-02  0.34223E-02
  0.94029E-03  0.22741E-02  0.34214E-02
  0.11262E-02  0.28200E-02  0.34207E-02
  0.17419E-02  0.24251E-02  0.34215E-02
  0.40568E-03  0.21660E-02  0.34216E-02
  0.39616E-03  0.29304E-02  0.34187E-02
 -0.76764E-03 -0.10081E-02  0.34212E-02
 -0.86728E-03  0.88207E-04  0.34220E-02
  0.45508E-03 -0.69465E-03  0.34213E-02
 -0.18341E-02 -0.71239E-03  0.34220E-02
 -0.18423E-02  0.81124E-04  0.34231E-02
 -0.27248E-02 -0.77408E-03  0.34230E-02
 -0.27997E-02  0.47971E-04  0.34228E-02
 -0.25407E-02 -0.15168E-02  0.34226E-02
 -0.19351E-02 -0.13230E-02  0.34218E-02
 -0.99094E-03  0.10050E-02  0.34234E-02
 -0.14428E-02 -0.17340E-02  0.34214E-02
 -0.31207E-03  0.20230E-02  0.34219E-02
 -0.11010E-02  0.18565E-02  0.34217E-02
 -0.18828E-02  0.17174E-02  0.34195E-02
 -0.18689E-02  0.90979E-03  0.34233E-02
 -0.16203E-03 -0.19831E-02  0.34210E-02
 -0.94978E-03 -0.23512E-02  0.34209E-02
  0.77956E-03 -0.17096E-02  0.34207E-02
  0.17215E-02 -0.14935E-02  0.34192E-02
  0.32098E-02  0.77923E-03  0.34208E-02
  0.28039E-02  0.12554E-02  0.34215E-02
  0.23032E-02  0.18672E-02  0.34216E-02
 -0.40540E-03  0.28869E-02  0.34154E-02
 -0.12098E-02  0.27162E-02  0.34114E-02
 -0.19433E-02  0.24691E-02  0.34072E-02
 -0.25003E-02  0.22526E-02  0.34026E-02
 -0.26345E-02  0.16613E-02  0.34128E-02
 -0.27626E-02  0.88528E-03  0.34198E-02
 -0.21164E-02 -0.21362E-02  0.34221E-02
 -0.16118E-02 -0.26927E-02  0.34213E-02
 -0.11992E-02 -0.31281E-02  0.34200E-02
 -0.59361E-03 -0.30388E-02  0.34193E-02
  0.20203E-03 -0.28758E-02  0.34183E-02
  0.10534E-02 -0.26458E-02  0.34168E-02
  0.18419E-02 -0.23705E-02  0.34146E-02
  0.24563E-02 -0.21456E-02  0.34120E-02
  0.26038E-02 -0.15036E-02  0.34151E-02
  0.37955E-02  0.94467E-03  0.34207E-02
  0.39076E-02  0.13590E-04  0.34162E-02
  0.34589E-02  0.18228E-02  0.34227E-02
  0.29209E-02  0.25967E-02  0.34230E-02
  0.22152E-02  0.32198E-02  0.34224E-02
  0.13805E-02  0.36559E-02  0.34194E-02
  0.46415E-03  0.38822E-02  0.34111E-02
 -0.47925E-03  0.38884E-02  0.33973E-02
 -0.13920E-02  0.36749E-02  0.33815E-02
 -0.22216E-02  0.32510E-02  0.33715E-02
 -0.29232E-02  0.26363E-02  0.33754E-02
 -0.34605E-02  0.18626E-02  0.33918E-02
 -0.37995E-02  0.97371E-03  0.34090E-02
 -0.39152E-02  0.25653E-04  0.34203E-02
 -0.38029E-02 -0.91877E-03  0.34244E-02
 -0.34699E-02 -0.18047E-02  0.34248E-02
 -0.29351E-02 -0.25834E-02  0.34242E-02
 -0.22300E-02 -0.32110E-02  0.34223E-02
 -0.13953E-02 -0.36515E-02  0.34192E-02
 -0.47892E-03 -0.38784E-02  0.34155E-02
  0.46486E-03 -0.38776E-02  0.34115E-02
  0.13811E-02 -0.36485E-02  0.34074E-02
  0.22175E-02 -0.32057E-02  0.34039E-02
  0.29249E-02 -0.25769E-02  0.34034E-02
  0.34608E-02 -0.17995E-02  0.34063E-02
  0.37939E-02 -0.91880E-03  0.34110E-02
  0.10365E-02  0.67989E-03  0.44001E-02
  0.17429E-02  0.12398E-02  0.44001E-02
  0.23163E-02  0.59938E-03  0.43999E-02
  0.16672E-02 -0.32726E-03  0.43999E-02
  0.30372E-02  0.15830E-03  0.43985E-02
  0.27848E-02 -0.66464E-03  0.43969E-02
  0.12839E-02  0.18420E-02  0.44003E-02
  0.64831E-03  0.14713E-02  0.44005E-02
  0.12375E-03  0.31577E-03  0.44004E-02
 -0.13046E-03  0.11925E-02  0.44013E-02
  0.94006E-03  0.22742E-02  0.44003E-02
  0.11260E-02  0.28195E-02  0.43997E-02
  0.17417E-02  0.24251E-02  0.44005E-02
  0.40574E-03  0.21660E-02  0.44005E-02
  0.39626E-03  0.29301E-02  0.43977E-02
 -0.76799E-03 -0.10082E-02  0.44003E-02
 -0.86732E-03  0.88962E-04  0.44011E-02
  0.45464E-03 -0.69375E-03  0.44003E-02
 -0.18343E-02 -0.71231E-03  0.44012E-02
 -0.18420E-02  0.81216E-04  0.44022E-02
 -0.27246E-02 -0.77357E-03  0.44022E-02
 -0.27989E-02  0.48441E-04  0.44018E-02
 -0.25409E-02 -0.15162E-02  0.44019E-02
 -0.19356E-02 -0.13228E-02  0.44009E-02
 -0.99069E-03  0.10064E-02  0.44024E-02
 -0.14433E-02 -0.17338E-02  0.44005E-02
 -0.31176E-03  0.20234E-02  0.44008E-02
 -0.11004E-02  0.18566E-02  0.44004E-02
 -0.18823E-02  0.17181E-02  0.43979E-02
 -0.18685E-02  0.91026E-03  0.44022E-02
 -0.16236E-03 -0.19829E-02  0.44000E-02
 -0.95049E-03 -0.23511E-02  0.44000E-02
  0.77888E-03 -0.17093E-02  0.43996E-02
  0.17214E-02 -0.14934E-02  0.43982E-02
  0.32100E-02  0.78029E-03  0.43997E-02
  0.28039E-02  0.12559E-02  0.44004E-02
  0.23031E-02  0.18671E-02  0.44006E-02
 -0.40512E-03  0.28859E-02  0.43941E-02
 -0.12096E-02  0.27162E-02  0.43894E-02
 -0.19425E-02  0.24704E-02  0.43844E-02
 -0.24988E-02  0.22552E-02  0.43792E-02
 -0.26331E-02  0.16629E-02  0.43905E-02
 -0.27614E-02  0.88609E-03  0.43982E-02
 -0.21168E-02 -0.21358E-02  0.44013E-02
 -0.16121E-02 -0.26924E-02  0.44006E-02
 -0.11996E-02 -0.31279E-02  0.43996E-02
 -0.59401E-03 -0.30386E-02  0.43987E-02
  0.20167E-03 -0.28757E-02  0.43977E-02
  0.10532E-02 -0.26458E-02  0.43962E-02
  0.18419E-02 -0.23705E-02  0.43940E-02
  0.24563E-02 -0.21461E-02  0.43915E-02
  0.26038E-02 -0.15034E-02  0.43944E-02
  0.37953E-02  0.94452E-03  0.43995E-02
  0.39074E-02  0.13044E-04  0.43953E-02
  0.34589E-02  0.18227E-02  0.44016E-02
  0.29210E-02  0.25965E-02  0.44019E-02
  0.22154E-02  0.32196E-02  0.44012E-02
  0.13807E-02  0.36557E-02  0.43983E-02
  0.46428E-03  0.38819E-02  0.43904E-02
 -0.47908E-03  0.38880E-02  0.43763E-02
 -0.13915E-02  0.36758E-02  0.43581E-02
 -0.22200E-02  0.32548E-02  0.43452E-02
 -0.29199E-02  0.26422E-02  0.43487E-02
 -0.34571E-02  0.18667E-02  0.43670E-02
 -0.37970E-02  0.97472E-03  0.43863E-02
 -0.39140E-02  0.26679E-04  0.43988E-02
 -0.38026E-02 -0.91706E-03  0.44035E-02
 -0.34702E-02 -0.18030E-02  0.44041E-02
 -0.29358E-02 -0.25822E-02  0.44035E-02
 -0.22307E-02 -0.32104E-02  0.44018E-02
 -0.13955E-02 -0.36514E-02  0.43992E-02
 -0.47873E-03 -0.38787E-02  0.43960E-02
  0.46531E-03 -0.38778E-02  0.43921E-02
  0.13814E-02 -0.36486E-02  0.43879E-02
  0.22176E-02 -0.32058E-02  0.43842E-02
  0.29249E-02 -0.25772E-02  0.43836E-02
  0.34607E-02 -0.18001E-02  0.43864E-02
  0.37937E-02 -0.91966E-03  0.43906E-02
  0.10365E-02  0.68055E-03  0.53791E-02
  0.17429E-02  0.12405E-02  0.53791E-02
  0.23163E-02  0.59974E-03  0.53789E-02
  0.16671E-02 -0.32638E-03  0.53789E-02
  0.30373E-02  0.15813E-03  0.53776E-02
  0.27852E-02 -0.66457E-03  0.53762E-02
  0.12840E-02  0.18423E-02  0.53792E-02
  0.64813E-03  0.14724E-02  0.53796E-02
  0.12344E-03  0.31707E-03  0.53795E-02
 -0.13069E-03  0.11944E-02  0.53804E-02
  0.93995E-03  0.22745E-02  0.53792E-02
  0.11261E-02  0.28190E-02  0.53785E-02
  0.17417E-02  0.24251E-02  0.53792E-02
  0.40581E-03  0.21662E-02  0.53795E-02
  0.39662E-03  0.29297E-02  0.53766E-02
 -0.76853E-03 -0.10080E-02  0.53793E-02
 -0.86755E-03  0.89991E-04  0.53803E-02
  0.45412E-03 -0.69273E-03  0.53792E-02
 -0.18350E-02 -0.71172E-03  0.53803E-02
 -0.18422E-02  0.81751E-04  0.53813E-02
 -0.27253E-02 -0.77266E-03  0.53812E-02
 -0.27993E-02  0.49437E-04  0.53808E-02
 -0.25419E-02 -0.15156E-02  0.53810E-02
 -0.19365E-02 -0.13222E-02  0.53800E-02
 -0.99073E-03  0.10079E-02  0.53815E-02
 -0.14440E-02 -0.17333E-02  0.53795E-02
 -0.31161E-03  0.20236E-02  0.53799E-02
 -0.11005E-02  0.18565E-02  0.53796E-02
 -0.18831E-02  0.17183E-02  0.53771E-02
 -0.18688E-02  0.91083E-03  0.53813E-02
 -0.16279E-03 -0.19825E-02  0.53790E-02
 -0.95132E-03 -0.23507E-02  0.53792E-02
  0.77813E-03 -0.17089E-02  0.53786E-02
  0.17214E-02 -0.14935E-02  0.53773E-02
  0.32106E-02  0.78063E-03  0.53787E-02
  0.28041E-02  0.12558E-02  0.53794E-02
  0.23034E-02  0.18668E-02  0.53794E-02
 -0.40491E-03  0.28844E-02  0.53734E-02
 -0.12102E-02  0.27154E-02  0.53688E-02
 -0.19441E-02  0.24702E-02  0.53636E-02
 -0.25011E-02  0.22558E-02  0.53581E-02
 -0.26346E-02  0.16634E-02  0.53696E-02
 -0.27620E-02  0.88687E-03  0.53774E-02
 -0.21175E-02 -0.21353E-02  0.53805E-02
 -0.16125E-02 -0.26921E-02  0.53799E-02
 -0.11997E-02 -0.31277E-02  0.53791E-02
 -0.59437E-03 -0.30384E-02  0.53783E-02
  0.20128E-03 -0.28755E-02  0.53773E-02
  0.10529E-02 -0.26461E-02  0.53758E-02
  0.18419E-02 -0.23709E-02  0.53737E-02
  0.24564E-02 -0.21472E-02  0.53714E-02
  0.26038E-02 -0.15037E-02  0.53739E-02
  0.37956E-02  0.94337E-03  0.53786E-02
  0.39075E-02  0.11696E-04  0.53747E-02
  0.34593E-02  0.18216E-02  0.53804E-02
  0.29218E-02  0.25955E-02  0.53805E-02
  0.22164E-02  0.32189E-02  0.53797E-02
  0.13818E-02  0.36553E-02  0.53771E-02
  0.46534E-03  0.38813E-02  0.53698E-02
 -0.47850E-03  0.38870E-02  0.53561E-02
 -0.13928E-02  0.36747E-02  0.53377E-02
 -0.22235E-02  0.32551E-02  0.53240E-02
 -0.29243E-02  0.26439E-02  0.53269E-02
 -0.34600E-02  0.18675E-02  0.53459E-02
 -0.37984E-02  0.97510E-03  0.53655E-02
 -0.39153E-02  0.27831E-04  0.53779E-02
 -0.38044E-02 -0.91583E-03  0.53826E-02
 -0.34719E-02 -0.18024E-02  0.53833E-02
 -0.29369E-02 -0.25820E-02  0.53827E-02
 -0.22309E-02 -0.32104E-02  0.53813E-02
 -0.13953E-02 -0.36515E-02  0.53791E-02
 -0.47833E-03 -0.38790E-02  0.53764E-02
  0.46573E-03 -0.38784E-02  0.53731E-02
  0.13818E-02 -0.36496E-02  0.53692E-02
  0.22176E-02 -0.32072E-02  0.53656E-02
  0.29248E-02 -0.25787E-02  0.53645E-02
  0.34606E-02 -0.18017E-02  0.53667E-02
  0.37936E-02 -0.92121E-03  0.53704E-02
  0.10363E-02  0.68141E-03  0.63582E-02
  0.17428E-02  0.12413E-02  0.63581E-02
  0.23164E-02  0.60019E-03  0.63580E-02
  0.16668E-02 -0.32544E-03  0.63579E-02
  0.30376E-02  0.15759E-03  0.63570E-02
  0.27857E-02 -0.66500E-03  0.63558E-02
  0.12840E-02  0.18428E-02  0.63582E-02
  0.64783E-03  0.14737E-02  0.63586E-02
  0.12310E-03  0.31851E-03  0.63585E-02
 -0.13100E-03  0.11964E-02  0.63595E-02
  0.93968E-03  0.22750E-02  0.63582E-02
  0.11261E-02  0.28189E-02  0.63575E-02
  0.17417E-02  0.24254E-02  0.63581E-02
  0.40572E-03  0.21666E-02  0.63585E-02
  0.39684E-03  0.29297E-02  0.63560E-02
 -0.76902E-03 -0.10076E-02  0.63583E-02
 -0.86780E-03  0.91184E-04  0.63593E-02
  0.45361E-03 -0.69162E-03  0.63582E-02
 -0.18355E-02 -0.71111E-03  0.63592E-02
 -0.18424E-02  0.82316E-04  0.63603E-02
 -0.27260E-02 -0.77258E-03  0.63602E-02
 -0.27998E-02  0.49463E-04  0.63600E-02
 -0.25426E-02 -0.15155E-02  0.63599E-02
 -0.19373E-02 -0.13217E-02  0.63590E-02
 -0.99081E-03  0.10095E-02  0.63606E-02
 -0.14446E-02 -0.17328E-02  0.63585E-02
 -0.31154E-03  0.20241E-02  0.63592E-02
 -0.11005E-02  0.18563E-02  0.63592E-02
 -0.18840E-02  0.17180E-02  0.63570E-02
 -0.18691E-02  0.91128E-03  0.63605E-02
 -0.16310E-03 -0.19821E-02  0.63580E-02
 -0.95198E-03 -0.23502E-02  0.63582E-02
  0.77748E-03 -0.17086E-02  0.63577E-02
  0.17214E-02 -0.14939E-02  0.63567E-02
  0.32114E-02  0.78060E-03  0.63579E-02
  0.28045E-02  0.12558E-02  0.63583E-02
  0.23038E-02  0.18667E-02  0.63583E-02
 -0.40467E-03  0.28832E-02  0.63535E-02
 -0.12108E-02  0.27140E-02  0.63498E-02
 -0.19456E-02  0.24686E-02  0.63452E-02
 -0.25036E-02  0.22537E-02  0.63399E-02
 -0.26364E-02  0.16621E-02  0.63500E-02
 -0.27628E-02  0.88649E-03  0.63569E-02
 -0.21179E-02 -0.21351E-02  0.63594E-02
 -0.16125E-02 -0.26918E-02  0.63589E-02
 -0.11996E-02 -0.31275E-02  0.63584E-02
 -0.59454E-03 -0.30381E-02  0.63576E-02
  0.20103E-03 -0.28754E-02  0.63568E-02
  0.10527E-02 -0.26467E-02  0.63557E-02
  0.18422E-02 -0.23721E-02  0.63541E-02
  0.24568E-02 -0.21495E-02  0.63523E-02
  0.26040E-02 -0.15049E-02  0.63541E-02
  0.37963E-02  0.94130E-03  0.63578E-02
  0.39082E-02  0.91112E-05  0.63547E-02
  0.34602E-02  0.18201E-02  0.63591E-02
  0.29230E-02  0.25947E-02  0.63591E-02
  0.22175E-02  0.32187E-02  0.63584E-02
  0.13826E-02  0.36555E-02  0.63561E-02
  0.46624E-03  0.38813E-02  0.63499E-02
 -0.47758E-03  0.38860E-02  0.63383E-02
 -0.13932E-02  0.36720E-02  0.63226E-02
 -0.22265E-02  0.32508E-02  0.63101E-02
 -0.29293E-02  0.26392E-02  0.63116E-02
 -0.34642E-02  0.18630E-02  0.63284E-02
 -0.38009E-02  0.97134E-03  0.63467E-02
 -0.39173E-02  0.24982E-04  0.63580E-02
 -0.38061E-02 -0.91795E-03  0.63619E-02
 -0.34728E-02 -0.18037E-02  0.63622E-02
 -0.29369E-02 -0.25825E-02  0.63616E-02
 -0.22305E-02 -0.32105E-02  0.63605E-02
 -0.13948E-02 -0.36515E-02  0.63588E-02
 -0.47785E-03 -0.38790E-02  0.63564E-02
  0.46615E-03 -0.38790E-02  0.63539E-02
  0.13823E-02 -0.36514E-02  0.63512E-02
  0.22183E-02 -0.32102E-02  0.63484E-02
  0.29252E-02 -0.25823E-02  0.63471E-02
  0.34607E-02 -0.18053E-02  0.63485E-02
  0.37939E-02 -0.92436E-03  0.63512E-02
  0.10364E-02  0.68228E-03  0.73371E-02
  0.17429E-02  0.12423E-02  0.73370E-02
  0.23167E-02  0.60076E-03  0.73369E-02
  0.16670E-02 -0.32442E-03  0.73367E-02
  0.30384E-02  0.15693E-03  0.73361E-02
  0.27868E-02 -0.66556E-03  0.73351E-02
  0.12840E-02  0.18432E-02  0.73373E-02
  0.64771E-03  0.14749E-02  0.73377E-02
  0.12292E-03  0.31997E-03  0.73374E-02
 -0.13114E-03  0.11984E-02  0.73385E-02
  0.93932E-03  0.22753E-02  0.73374E-02
  0.11254E-02  0.28188E-02  0.73367E-02
  0.17412E-02  0.24258E-02  0.73372E-02
  0.40566E-03  0.21668E-02  0.73377E-02
  0.39645E-03  0.29298E-02  0.73354E-02
 -0.76924E-03 -0.10074E-02  0.73371E-02
 -0.86787E-03  0.92356E-04  0.73381E-02
  0.45332E-03 -0.69050E-03  0.73369E-02
 -0.18356E-02 -0.71071E-03  0.73381E-02
 -0.18422E-02  0.82742E-04  0.73392E-02
 -0.27255E-02 -0.77293E-03  0.73394E-02
 -0.27992E-02  0.49181E-04  0.73392E-02
 -0.25421E-02 -0.15157E-02  0.73389E-02
 -0.19374E-02 -0.13214E-02  0.73379E-02
 -0.99071E-03  0.10112E-02  0.73395E-02
 -0.14446E-02 -0.17325E-02  0.73373E-02
 -0.31140E-03  0.20246E-02  0.73383E-02
 -0.11003E-02  0.18566E-02  0.73380E-02
 -0.18842E-02  0.17186E-02  0.73355E-02
 -0.18691E-02  0.91195E-03  0.73393E-02
 -0.16295E-03 -0.19818E-02  0.73367E-02
 -0.95203E-03 -0.23500E-02  0.73370E-02
  0.77734E-03 -0.17085E-02  0.73365E-02
  0.17221E-02 -0.14945E-02  0.73357E-02
  0.32127E-02  0.78046E-03  0.73369E-02
  0.28051E-02  0.12559E-02  0.73372E-02
  0.23038E-02  0.18670E-02  0.73372E-02
 -0.40488E-03  0.28825E-02  0.73329E-02
 -0.12113E-02  0.27141E-02  0.73289E-02
 -0.19463E-02  0.24692E-02  0.73237E-02
 -0.25044E-02  0.22550E-02  0.73179E-02
 -0.26366E-02  0.16630E-02  0.73282E-02
 -0.27624E-02  0.88682E-03  0.73357E-02
 -0.21175E-02 -0.21351E-02  0.73383E-02
 -0.16117E-02 -0.26918E-02  0.73379E-02
 -0.11985E-02 -0.31275E-02  0.73376E-02
 -0.59374E-03 -0.30381E-02  0.73369E-02
  0.20176E-03 -0.28756E-02  0.73362E-02
  0.10537E-02 -0.26476E-02  0.73354E-02
  0.18437E-02 -0.23739E-02  0.73341E-02
  0.24585E-02 -0.21525E-02  0.73327E-02
  0.26052E-02 -0.15065E-02  0.73338E-02
  0.37978E-02  0.93867E-03  0.73371E-02
  0.39096E-02  0.58306E-05  0.73344E-02
  0.34610E-02  0.18190E-02  0.73380E-02
  0.29229E-02  0.25948E-02  0.73378E-02
  0.22169E-02  0.32191E-02  0.73372E-02
  0.13815E-02  0.36561E-02  0.73353E-02
  0.46500E-03  0.38822E-02  0.73296E-02
 -0.47858E-03  0.38868E-02  0.73183E-02
 -0.13944E-02  0.36728E-02  0.73023E-02
 -0.22281E-02  0.32520E-02  0.72887E-02
 -0.29307E-02  0.26412E-02  0.72888E-02
 -0.34644E-02  0.18649E-02  0.73056E-02
 -0.38002E-02  0.97002E-03  0.73258E-02
 -0.39165E-02  0.21524E-04  0.73381E-02
 -0.38047E-02 -0.92081E-03  0.73417E-02
 -0.34712E-02 -0.18049E-02  0.73414E-02
 -0.29356E-02 -0.25828E-02  0.73405E-02
 -0.22291E-02 -0.32106E-02  0.73397E-02
 -0.13929E-02 -0.36517E-02  0.73386E-02
 -0.47563E-03 -0.38796E-02  0.73370E-02
  0.46849E-03 -0.38803E-02  0.73351E-02
  0.13848E-02 -0.36540E-02  0.73332E-02
  0.22209E-02 -0.32143E-02  0.73309E-02
  0.29276E-02 -0.25871E-02  0.73294E-02
  0.34623E-02 -0.18096E-02  0.73298E-02
  0.37952E-02 -0.92794E-03  0.73316E-02
  0.10369E-02  0.68245E-03  0.83161E-02
  0.17435E-02  0.12424E-02  0.83161E-02
  0.23179E-02  0.60031E-03  0.83158E-02
  0.16679E-02 -0.32421E-03  0.83154E-02
  0.30408E-02  0.15451E-03  0.83152E-02
  0.27897E-02 -0.66796E-03  0.83143E-02
  0.12844E-02  0.18429E-02  0.83165E-02
  0.64801E-03  0.14753E-02  0.83169E-02
  0.12307E-03  0.32075E-03  0.83165E-02
 -0.13095E-03  0.11996E-02  0.83177E-02
  0.93921E-03  0.22749E-02  0.83167E-02
  0.11245E-02  0.28182E-02  0.83162E-02
  0.17409E-02  0.24255E-02  0.83164E-02
  0.40576E-03  0.21662E-02  0.83171E-02
  0.39536E-03  0.29294E-02  0.83150E-02
 -0.76898E-03 -0.10080E-02  0.83159E-02
 -0.86761E-03  0.92702E-04  0.83173E-02
  0.45350E-03 -0.69001E-03  0.83155E-02
 -0.18351E-02 -0.71125E-03  0.83175E-02
 -0.18416E-02  0.82173E-04  0.83187E-02
 -0.27235E-02 -0.77346E-03  0.83193E-02
 -0.27976E-02  0.48908E-04  0.83189E-02
 -0.25400E-02 -0.15165E-02  0.83186E-02
 -0.19365E-02 -0.13221E-02  0.83172E-02
 -0.99034E-03  0.10121E-02  0.83186E-02
 -0.14437E-02 -0.17331E-02  0.83162E-02
 -0.31128E-03  0.20244E-02  0.83175E-02
 -0.11004E-02  0.18561E-02  0.83170E-02
 -0.18849E-02  0.17182E-02  0.83141E-02
 -0.18688E-02  0.91158E-03  0.83184E-02
 -0.16185E-03 -0.19824E-02  0.83153E-02
 -0.95083E-03 -0.23507E-02  0.83160E-02
  0.77827E-03 -0.17092E-02  0.83151E-02
  0.17244E-02 -0.14964E-02  0.83147E-02
  0.32158E-02  0.77841E-03  0.83160E-02
  0.28069E-02  0.12546E-02  0.83162E-02
  0.23045E-02  0.18663E-02  0.83162E-02
 -0.40634E-03  0.28813E-02  0.83124E-02
 -0.12134E-02  0.27135E-02  0.83080E-02
 -0.19489E-02  0.24688E-02  0.83021E-02
 -0.25075E-02  0.22550E-02  0.82954E-02
 -0.26379E-02  0.16631E-02  0.83060E-02
 -0.27618E-02  0.88685E-03  0.83146E-02
 -0.21153E-02 -0.21359E-02  0.83177E-02
 -0.16092E-02 -0.26925E-02  0.83174E-02
 -0.11954E-02 -0.31283E-02  0.83182E-02
 -0.59114E-03 -0.30391E-02  0.83173E-02
  0.20423E-03 -0.28770E-02  0.83164E-02
  0.10567E-02 -0.26502E-02  0.83157E-02
  0.18478E-02 -0.23778E-02  0.83148E-02
  0.24635E-02 -0.21585E-02  0.83138E-02
  0.26090E-02 -0.15104E-02  0.83138E-02
  0.38023E-02  0.93317E-03  0.83164E-02
  0.39136E-02 -0.64552E-06  0.83142E-02
  0.34641E-02  0.18158E-02  0.83168E-02
  0.29235E-02  0.25937E-02  0.83166E-02
  0.22159E-02  0.32190E-02  0.83164E-02
  0.13793E-02  0.36567E-02  0.83149E-02
  0.46125E-03  0.38833E-02  0.83097E-02
 -0.48370E-03  0.38878E-02  0.82988E-02
 -0.14005E-02  0.36730E-02  0.82828E-02
 -0.22351E-02  0.32516E-02  0.82681E-02
 -0.29373E-02  0.26417E-02  0.82654E-02
 -0.34679E-02  0.18677E-02  0.82806E-02
 -0.37996E-02  0.97238E-03  0.83031E-02
 -0.39131E-02  0.22477E-04  0.83181E-02
 -0.38001E-02 -0.92092E-03  0.83226E-02
 -0.34666E-02 -0.18057E-02  0.83220E-02
 -0.29316E-02 -0.25835E-02  0.83207E-02
 -0.22251E-02 -0.32111E-02  0.83204E-02
 -0.13882E-02 -0.36525E-02  0.83211E-02
 -0.47066E-03 -0.38812E-02  0.83214E-02
  0.47376E-03 -0.38836E-02  0.83202E-02
  0.13907E-02 -0.36595E-02  0.83182E-02
  0.22277E-02 -0.32224E-02  0.83157E-02
  0.29345E-02 -0.25966E-02  0.83131E-02
  0.34681E-02 -0.18183E-02  0.83117E-02
  0.37994E-02 -0.93520E-03  0.83121E-02
  0.10382E-02  0.68168E-03  0.92953E-02
  0.17451E-02  0.12416E-02  0.92951E-02
  0.23201E-02  0.59877E-03  0.92946E-02
  0.16693E-02 -0.32481E-03  0.92940E-02
  0.30447E-02  0.15014E-03  0.92944E-02
  0.27936E-02 -0.67234E-03  0.92941E-02
  0.12861E-02  0.18415E-02  0.92957E-02
  0.64934E-03  0.14747E-02  0.92962E-02
  0.12408E-03  0.32051E-03  0.92958E-02
 -0.12975E-03  0.11998E-02  0.92971E-02
  0.94035E-03  0.22736E-02  0.92960E-02
  0.11252E-02  0.28167E-02  0.92954E-02
  0.17421E-02  0.24243E-02  0.92955E-02
  0.40700E-03  0.21648E-02  0.92963E-02
  0.39580E-03  0.29283E-02  0.92942E-02
 -0.76773E-03 -0.10097E-02  0.92948E-02
 -0.86625E-03  0.91786E-04  0.92970E-02
  0.45432E-03 -0.69034E-03  0.92941E-02
 -0.18330E-02 -0.71303E-03  0.92974E-02
 -0.18393E-02  0.80284E-04  0.92986E-02
 -0.27195E-02 -0.77323E-03  0.93000E-02
 -0.27934E-02  0.49499E-04  0.92987E-02
 -0.25359E-02 -0.15166E-02  0.92993E-02
 -0.19340E-02 -0.13235E-02  0.92969E-02
 -0.98860E-03  0.10117E-02  0.92982E-02
 -0.14414E-02 -0.17345E-02  0.92953E-02
 -0.31000E-03  0.20232E-02  0.92965E-02
 -0.10988E-02  0.18543E-02  0.92958E-02
 -0.18830E-02  0.17163E-02  0.92921E-02
 -0.18663E-02  0.90987E-03  0.92977E-02
 -0.16037E-03 -0.19835E-02  0.92938E-02
 -0.94908E-03 -0.23515E-02  0.92954E-02
  0.77934E-03 -0.17104E-02  0.92937E-02
  0.17268E-02 -0.14991E-02  0.92940E-02
  0.32209E-02  0.77462E-03  0.92948E-02
  0.28105E-02  0.12521E-02  0.92948E-02
  0.23068E-02  0.18644E-02  0.92950E-02
 -0.40622E-03  0.28794E-02  0.92915E-02
 -0.12133E-02  0.27116E-02  0.92868E-02
 -0.19481E-02  0.24662E-02  0.92797E-02
 -0.25060E-02  0.22526E-02  0.92710E-02
 -0.26352E-02  0.16620E-02  0.92819E-02
 -0.27579E-02  0.88708E-03  0.92924E-02
 -0.21118E-02 -0.21360E-02  0.92981E-02
 -0.16062E-02 -0.26920E-02  0.92986E-02
 -0.11928E-02 -0.31273E-02  0.93015E-02
 -0.58913E-03 -0.30393E-02  0.92999E-02
  0.20583E-03 -0.28785E-02  0.92984E-02
  0.10585E-02 -0.26532E-02  0.92975E-02
  0.18508E-02 -0.23827E-02  0.92970E-02
  0.24674E-02 -0.21661E-02  0.92968E-02
  0.26128E-02 -0.15162E-02  0.92948E-02
  0.38097E-02  0.92532E-03  0.92950E-02
  0.39204E-02 -0.11202E-04  0.92946E-02
  0.34706E-02  0.18108E-02  0.92948E-02
  0.29274E-02  0.25908E-02  0.92949E-02
  0.22173E-02  0.32176E-02  0.92955E-02
  0.13794E-02  0.36564E-02  0.92946E-02
  0.46023E-03  0.38837E-02  0.92897E-02
 -0.48581E-03  0.38879E-02  0.92798E-02
 -0.14031E-02  0.36710E-02  0.92645E-02
 -0.22368E-02  0.32471E-02  0.92473E-02
 -0.29373E-02  0.26379E-02  0.92389E-02
 -0.34656E-02  0.18704E-02  0.92506E-02
 -0.37941E-02  0.98147E-03  0.92763E-02
 -0.39055E-02  0.32612E-04  0.92969E-02
 -0.37923E-02 -0.91342E-03  0.93049E-02
 -0.34599E-02 -0.18012E-02  0.93051E-02
 -0.29269E-02 -0.25802E-02  0.93039E-02
 -0.22218E-02 -0.32074E-02  0.93052E-02
 -0.13852E-02 -0.36494E-02  0.93092E-02
 -0.46801E-03 -0.38808E-02  0.93125E-02
  0.47580E-03 -0.38864E-02  0.93118E-02
  0.13925E-02 -0.36655E-02  0.93089E-02
  0.22305E-02 -0.32317E-02  0.93052E-02
  0.29391E-02 -0.26088E-02  0.93005E-02
  0.34740E-02 -0.18315E-02  0.92964E-02
  0.38060E-02 -0.94759E-03  0.92945E-02
  0.10362E-02  0.68432E-03  0.10274E-01
  0.17429E-02  0.12449E-02  0.10273E-01
  0.23167E-02  0.60285E-03  0.10272E-01
  0.16655E-02 -0.32073E-03  0.10272E-01
  0.30396E-02  0.15316E-03  0.10272E-01
  0.27873E-02 -0.67006E-03  0.10273E-01
  0.12839E-02  0.18436E-02  0.10274E-01
  0.64686E-03  0.14771E-02  0.10275E-01
  0.12194E-03  0.32262E-03  0.10275E-01
 -0.13213E-03  0.12017E-02  0.10277E-01
  0.93835E-03  0.22752E-02  0.10274E-01
  0.11251E-02  0.28176E-02  0.10272E-01
  0.17415E-02  0.24262E-02  0.10273E-01
  0.40531E-03  0.21658E-02  0.10275E-01
  0.39691E-03  0.29290E-02  0.10271E-01
 -0.77209E-03 -0.10092E-02  0.10273E-01
 -0.86917E-03  0.91650E-04  0.10277E-01
  0.45110E-03 -0.68763E-03  0.10272E-01
 -0.18397E-02 -0.71260E-03  0.10278E-01
 -0.18443E-02  0.79112E-04  0.10280E-01
 -0.27333E-02 -0.76338E-03  0.10282E-01
 -0.28053E-02  0.59752E-04  0.10278E-01
 -0.25516E-02 -0.15057E-02  0.10282E-01
 -0.19435E-02 -0.13201E-02  0.10277E-01
 -0.99122E-03  0.10115E-02  0.10278E-01
 -0.14503E-02 -0.17310E-02  0.10274E-01
 -0.31108E-03  0.20234E-02  0.10275E-01
 -0.10998E-02  0.18532E-02  0.10273E-01
 -0.18852E-02  0.17176E-02  0.10265E-01
 -0.18706E-02  0.90934E-03  0.10276E-01
 -0.16796E-03 -0.19806E-02  0.10272E-01
 -0.96045E-03 -0.23461E-02  0.10276E-01
  0.77144E-03 -0.17073E-02  0.10272E-01
  0.17176E-02 -0.14956E-02  0.10274E-01
  0.32157E-02  0.77961E-03  0.10271E-01
  0.28072E-02  0.12566E-02  0.10271E-01
  0.23059E-02  0.18673E-02  0.10272E-01
 -0.40373E-03  0.28785E-02  0.10267E-01
 -0.12102E-02  0.27115E-02  0.10258E-01
 -0.19455E-02  0.24698E-02  0.10244E-01
 -0.25051E-02  0.22642E-02  0.10227E-01
 -0.26394E-02  0.16739E-02  0.10245E-01
 -0.27667E-02  0.89877E-03  0.10265E-01
 -0.21277E-02 -0.21249E-02  0.10281E-01
 -0.16235E-02 -0.26800E-02  0.10284E-01
 -0.12131E-02 -0.31143E-02  0.10291E-01
 -0.60625E-03 -0.30313E-02  0.10287E-01
  0.19037E-03 -0.28741E-02  0.10284E-01
  0.10421E-02 -0.26499E-02  0.10282E-01
  0.18328E-02 -0.23794E-02  0.10282E-01
  0.24487E-02 -0.21644E-02  0.10282E-01
  0.26007E-02 -0.15142E-02  0.10277E-01
  0.38024E-02  0.92936E-03  0.10270E-01
  0.39154E-02 -0.12628E-04  0.10274E-01
  0.34682E-02  0.18160E-02  0.10269E-01
  0.29303E-02  0.25938E-02  0.10270E-01
  0.22214E-02  0.32189E-02  0.10271E-01
  0.13845E-02  0.36576E-02  0.10270E-01
  0.46726E-03  0.38851E-02  0.10263E-01
 -0.47608E-03  0.38894E-02  0.10251E-01
 -0.13902E-02  0.36735E-02  0.10228E-01
 -0.22240E-02  0.32563E-02  0.10196E-01
 -0.29312E-02  0.26631E-02  0.10174E-01
 -0.34725E-02  0.19142E-02  0.10188E-01
 -0.38150E-02  0.10335E-02  0.10232E-01
 -0.39353E-02  0.80332E-04  0.10272E-01
 -0.38249E-02 -0.87399E-03  0.10291E-01
 -0.34916E-02 -0.17688E-02  0.10294E-01
 -0.29569E-02 -0.25519E-02  0.10295E-01
 -0.22516E-02 -0.31816E-02  0.10300E-01
 -0.14149E-02 -0.36286E-02  0.10309E-01
 -0.49613E-03 -0.38686E-02  0.10316E-01
  0.44736E-03 -0.38813E-02  0.10315E-01
  0.13607E-02 -0.36629E-02  0.10309E-01
  0.21971E-02 -0.32299E-02  0.10302E-01
  0.29113E-02 -0.26094E-02  0.10292E-01
  0.34573E-02 -0.18357E-02  0.10283E-01
  0.37989E-02 -0.95286E-03  0.10277E-01
  0.10237E-02  0.69590E-03  0.11251E-01
  0.17288E-02  0.12585E-02  0.11248E-01
  0.22987E-02  0.61972E-03  0.11246E-01
  0.16487E-02 -0.30593E-03  0.11248E-01
  0.30139E-02  0.17237E-03  0.11246E-01
  0.27600E-02 -0.65330E-03  0.11251E-01
  0.12693E-02  0.18545E-02  0.11250E-01
  0.63199E-03  0.14874E-02  0.11253E-01
  0.10947E-03  0.33152E-03  0.11254E-01
 -0.14664E-03  0.12095E-02  0.11257E-01
  0.92413E-03  0.22846E-02  0.11250E-01
  0.11159E-02  0.28256E-02  0.11246E-01
  0.17312E-02  0.24367E-02  0.11247E-01
  0.39183E-03  0.21735E-02  0.11252E-01
  0.39068E-03  0.29353E-02  0.11244E-01
 -0.79343E-03 -0.10023E-02  0.11251E-01
 -0.88602E-03  0.95398E-04  0.11258E-01
  0.43650E-03 -0.67713E-03  0.11249E-01
 -0.18716E-02 -0.70528E-03  0.11259E-01
 -0.18720E-02  0.81683E-04  0.11263E-01
 -0.27907E-02 -0.73773E-03  0.11267E-01
 -0.28598E-02  0.85544E-04  0.11259E-01
 -0.26133E-02 -0.14766E-02  0.11267E-01
 -0.19852E-02 -0.13055E-02  0.11258E-01
 -0.10095E-02  0.10143E-02  0.11260E-01
 -0.14885E-02 -0.17165E-02  0.11254E-01
 -0.32336E-03  0.20282E-02  0.11253E-01
 -0.11160E-02  0.18559E-02  0.11247E-01
 -0.19113E-02  0.17274E-02  0.11228E-01
 -0.18992E-02  0.91313E-03  0.11254E-01
 -0.19709E-03 -0.19690E-02  0.11251E-01
 -0.10028E-02 -0.23282E-02  0.11258E-01
  0.74408E-03 -0.16948E-02  0.11251E-01
  0.16851E-02 -0.14799E-02  0.11253E-01
  0.31874E-02  0.80247E-03  0.11243E-01
  0.27862E-02  0.12760E-02  0.11243E-01
  0.22934E-02  0.18813E-02  0.11245E-01
 -0.40667E-03  0.28817E-02  0.11237E-01
 -0.12160E-02  0.27170E-02  0.11218E-01
 -0.19617E-02  0.24872E-02  0.11187E-01
 -0.25334E-02  0.23012E-02  0.11153E-01
 -0.26798E-02  0.17095E-02  0.11188E-01
 -0.28170E-02  0.92960E-03  0.11230E-01
 -0.21878E-02 -0.20951E-02  0.11266E-01
 -0.16841E-02 -0.26491E-02  0.11273E-01
 -0.12785E-02 -0.30827E-02  0.11288E-01
 -0.66139E-03 -0.30094E-02  0.11280E-01
  0.14265E-03 -0.28595E-02  0.11274E-01
  0.99319E-03 -0.26361E-02  0.11271E-01
  0.17790E-02 -0.23625E-02  0.11270E-01
  0.23920E-02 -0.21470E-02  0.11269E-01
  0.25593E-02 -0.14972E-02  0.11259E-01
  0.37645E-02  0.95545E-03  0.11241E-01
  0.38836E-02  0.64544E-05  0.11250E-01
  0.34432E-02  0.18397E-02  0.11239E-01
  0.29234E-02  0.26091E-02  0.11242E-01
  0.22213E-02  0.32280E-02  0.11243E-01
  0.13875E-02  0.36644E-02  0.11239E-01
  0.47516E-03  0.38909E-02  0.11229E-01
 -0.46213E-03  0.38948E-02  0.11208E-01
 -0.13747E-02  0.36850E-02  0.11164E-01
 -0.22213E-02  0.32896E-02  0.11102E-01
 -0.29561E-02  0.27325E-02  0.11059E-01
 -0.35310E-02  0.20147E-02  0.11085E-01
 -0.39081E-02  0.11409E-02  0.11168E-01
 -0.40489E-02  0.17381E-03  0.11246E-01
 -0.39395E-02 -0.79664E-03  0.11282E-01
 -0.35974E-02 -0.17021E-02  0.11289E-01
 -0.30522E-02 -0.24917E-02  0.11293E-01
 -0.23411E-02 -0.31269E-02  0.11305E-01
 -0.15013E-02 -0.35844E-02  0.11322E-01
 -0.57589E-03 -0.38405E-02  0.11333E-01
  0.37075E-03 -0.38658E-02  0.11330E-01
  0.12788E-02 -0.36494E-02  0.11319E-01
  0.21117E-02 -0.32130E-02  0.11304E-01
  0.28353E-02 -0.25918E-02  0.11286E-01
  0.34026E-02 -0.18222E-02  0.11270E-01
  0.37643E-02 -0.94034E-03  0.11258E-01
  
CELLS       3486               17724
       1       0
       1       1
       1       2
       1       3
       1       4
       1       5
       1       6
       1       7
       1       8
       1       9
       1      10
       1      11
       1      12
       1      13
       1      14
       1      15
       1      16
       1      17
       1      18
       1      19
       1      20
       1      21
       1      22
       1      23
       1      24
       1      25
       1      26
       1      27
       1      28
       1      29
       1      30
       1      31
       1      32
       1      33
       1      34
       1      35
       1      36
       1      37
       1      38
       1      39
       1      40
       1      41
       1      42
       1      43
       1      44
       1      45
       1      46
       1      47
       1      48
       1      49
       1      50
       1      51
       1      52
       1      53
       1      54
       1      55
       1      56
       1      57
       1      58
       1      59
       1      60
       1      61
       1      62
       1      63
       1      64
       1      65
       1      66
       1      67
       1      68
       1      69
       1      70
       1      71
       1      72
       1      73
       1      74
       1      75
       1      76
       1      77
       1      78
       1      79
       1      80
       1      81
       1      82
       1      83
       1      84
       1      85
       1      86
       1      87
       1      88
       1      89
       1      90
       1      91
       1      92
       1      93
       1      94
       1      95
       1      96
       1      97
       1      98
       1      99
       1     100
       1     101
       1     102
       1     103
       1     104
       1     105
       1     106
       1     107
       1     108
       1     109
       1     110
       1     111
       1     112
       1     113
       1     114
       1     115
       1     116
       1     117
       1     118
       1     119
       1     120
       1     121
       1     122
       1     123
       1     124
       1     125
       1     126
       1     127
       1     128
       1     129
       1     130
       1     131
       1     132
       1     133
       1     134
       1     135
       1     136
       1     137
       1     138
       1     139
       1     140
       1     141
       1     142
       1     143
       1     144
       1     145
       1     146
       1     147
       1     148
       1     149
       1     150
       1     151
       1     152
       1     153
       1     154
       1     155
       1     156
       1     157
       1     158
       1     159
       1     160
       1     161
       1     162
       1     163
       1     164
       1     165
       1     166
       1     167
       1     168
       1     169
       1     170
       1     171
       1     172
       1     173
       1     174
       1     175
       1     176
       1     177
       1     178
       1     179
       1     180
       1     181
       1     182
       1     183
       1     184
       1     185
       1     186
       1     187
       1     188
       1     189
       1     190
       1     191
       1     192
       1     193
       1     194
       1     195
       1     196
       1     197
       1     198
       1     199
       1     200
       1     201
       1     202
       1     203
       1     204
       1     205
       1     206
       1     207
       1     208
       1     209
       1     210
       1     211
       1     212
       1     213
       1     214
       1     215
       1     216
       1     217
       1     218
       1     219
       1     220
       1     221
       1     222
       1     223
       1     224
       1     225
       1     226
       1     227
       1     228
       1     229
       1     230
       1     231
       1     232
       1     233
       1     234
       1     235
       1     236
       1     237
       1     238
       1     239
       1     240
       1     241
       1     242
       1     243
       1     244
       1     245
       1     246
       1     247
       1     248
       1     249
       1     250
       1     251
       1     252
       1     253
       1     254
       1     255
       1     256
       1     257
       1     258
       1     259
       1     260
       1     261
       1     262
       1     263
       1     264
       1     265
       1     266
       1     267
       1     268
       1     269
       1     270
       1     271
       1     272
       1     273
       1     274
       1     275
       1     276
       1     277
       1     278
       1     279
       1     280
       1     281
       1     282
       1     283
       1     284
       1     285
       1     286
       1     287
       1     288
       1     289
       1     290
       1     291
       1     292
       1     293
       1     294
       1     295
       1     296
       1     297
       1     298
       1     299
       1     300
       1     301
       1     302
       1     303
       1     304
       1     305
       1     306
       1     307
       1     308
       1     309
       1     310
       1     311
       1     312
       1     313
       1     314
       1     315
       1     316
       1     317
       1     318
       1     319
       1     320
       1     321
       1     322
       1     323
       1     324
       1     325
       1     326
       1     327
       1     328
       1     329
       1     330
       1     331
       1     332
       1     333
       1     334
       1     335
       1     336
       1     337
       1     338
       1     339
       1     340
       1     341
       1     342
       1     343
       1     344
       1     345
       1     346
       1     347
       1     348
       1     349
       1     350
       1     351
       1     352
       1     353
       1     354
       1     355
       1     356
       1     357
       1     358
       1     359
       1     360
       1     361
       1     362
       1     363
       1     364
       1     365
       1     366
       1     367
       1     368
       1     369
       1     370
       1     371
       1     372
       1     373
       1     374
       1     375
       1     376
       1     377
       1     378
       1     379
       1     380
       1     381
       1     382
       1     383
       1     384
       1     385
       1     386
       1     387
       1     388
       1     389
       1     390
       1     391
       1     392
       1     393
       1     394
       1     395
       1     396
       1     397
       1     398
       1     399
       1     400
       1     401
       1     402
       1     403
       1     404
       1     405
       1     406
       1     407
       1     408
       1     409
       1     410
       1     411
       1     412
       1     413
       1     414
       1     415
       1     416
       1     417
       1     418
       1     419
       1     420
       1     421
       1     422
       1     423
       1     424
       1     425
       1     426
       1     427
       1     428
       1     429
       1     430
       1     431
       1     432
       1     433
       1     434
       1     435
       1     436
       1     437
       1     438
       1     439
       1     440
       1     441
       1     442
       1     443
       1     444
       1     445
       1     446
       1     447
       1     448
       1     449
       1     450
       1     451
       1     452
       1     453
       1     454
       1     455
       1     456
       1     457
       1     458
       1     459
       1     460
       1     461
       1     462
       1     463
       1     464
       1     465
       1     466
       1     467
       1     468
       1     469
       1     470
       1     471
       1     472
       1     473
       1     474
       1     475
       1     476
       1     477
       1     478
       1     479
       1     480
       1     481
       1     482
       1     483
       1     484
       1     485
       1     486
       1     487
       1     488
       1     489
       1     490
       1     491
       1     492
       1     493
       1     494
       1     495
       1     496
       1     497
       1     498
       1     499
       1     500
       1     501
       1     502
       1     503
       1     504
       1     505
       1     506
       1     507
       1     508
       1     509
       1     510
       1     511
       1     512
       1     513
       1     514
       1     515
       1     516
       1     517
       1     518
       1     519
       1     520
       1     521
       1     522
       1     523
       1     524
       1     525
       1     526
       1     527
       1     528
       1     529
       1     530
       1     531
       1     532
       1     533
       1     534
       1     535
       1     536
       1     537
       1     538
       1     539
       1     540
       1     541
       1     542
       1     543
       1     544
       1     545
       1     546
       1     547
       1     548
       1     549
       1     550
       1     551
       1     552
       1     553
       1     554
       1     555
       1     556
       1     557
       1     558
       1     559
       1     560
       1     561
       1     562
       1     563
       1     564
       1     565
       1     566
       1     567
       1     568
       1     569
       1     570
       1     571
       1     572
       1     573
       1     574
       1     575
       1     576
       1     577
       1     578
       1     579
       1     580
       1     581
       1     582
       1     583
       1     584
       1     585
       1     586
       1     587
       1     588
       1     589
       1     590
       1     591
       1     592
       1     593
       1     594
       1     595
       1     596
       1     597
       1     598
       1     599
       1     600
       1     601
       1     602
       1     603
       1     604
       1     605
       1     606
       1     607
       1     608
       1     609
       1     610
       1     611
       1     612
       1     613
       1     614
       1     615
       1     616
       1     617
       1     618
       1     619
       1     620
       1     621
       1     622
       1     623
       1     624
       1     625
       1     626
       1     627
       1     628
       1     629
       1     630
       1     631
       1     632
       1     633
       1     634
       1     635
       1     636
       1     637
       1     638
       1     639
       1     640
       1     641
       1     642
       1     643
       1     644
       1     645
       1     646
       1     647
       1     648
       1     649
       1     650
       1     651
       1     652
       1     653
       1     654
       1     655
       1     656
       1     657
       1     658
       1     659
       1     660
       1     661
       1     662
       1     663
       1     664
       1     665
       1     666
       1     667
       1     668
       1     669
       1     670
       1     671
       1     672
       1     673
       1     674
       1     675
       1     676
       1     677
       1     678
       1     679
       1     680
       1     681
       1     682
       1     683
       1     684
       1     685
       1     686
       1     687
       1     688
       1     689
       1     690
       1     691
       1     692
       1     693
       1     694
       1     695
       1     696
       1     697
       1     698
       1     699
       1     700
       1     701
       1     702
       1     703
       1     704
       1     705
       1     706
       1     707
       1     708
       1     709
       1     710
       1     711
       1     712
       1     713
       1     714
       1     715
       1     716
       1     717
       1     718
       1     719
       1     720
       1     721
       1     722
       1     723
       1     724
       1     725
       1     726
       1     727
       1     728
       1     729
       1     730
       1     731
       1     732
       1     733
       1     734
       1     735
       1     736
       1     737
       1     738
       1     739
       1     740
       1     741
       1     742
       1     743
       1     744
       1     745
       1     746
       1     747
       1     748
       1     749
       1     750
       1     751
       1     752
       1     753
       1     754
       1     755
       1     756
       1     757
       1     758
       1     759
       1     760
       1     761
       1     762
       1     763
       1     764
       1     765
       1     766
       1     767
       1     768
       1     769
       1     770
       1     771
       1     772
       1     773
       1     774
       1     775
       1     776
       1     777
       1     778
       1     779
       1     780
       1     781
       1     782
       1     783
       1     784
       1     785
       1     786
       1     787
       1     788
       1     789
       1     790
       1     791
       1     792
       1     793
       1     794
       1     795
       1     796
       1     797
       1     798
       1     799
       1     800
       1     801
       1     802
       1     803
       1     804
       1     805
       1     806
       1     807
       1     808
       1     809
       1     810
       1     811
       1     812
       1     813
       1     814
       1     815
       1     816
       1     817
       1     818
       1     819
       1     820
       1     821
       1     822
       1     823
       1     824
       1     825
       1     826
       1     827
       1     828
       1     829
       1     830
       1     831
       1     832
       1     833
       1     834
       1     835
       1     836
       1     837
       1     838
       1     839
       1     840
       1     841
       1     842
       1     843
       1     844
       1     845
       1     846
       1     847
       1     848
       1     849
       1     850
       1     851
       1     852
       1     853
       1     854
       1     855
       1     856
       1     857
       1     858
       1     859
       1     860
       1     861
       1     862
       1     863
       1     864
       1     865
       1     866
       1     867
       1     868
       1     869
       1     870
       1     871
       1     872
       1     873
       1     874
       1     875
       1     876
       1     877
       1     878
       1     879
       1     880
       1     881
       1     882
       1     883
       1     884
       1     885
       1     886
       1     887
       1     888
       1     889
       1     890
       1     891
       1     892
       1     893
       1     894
       1     895
       1     896
       1     897
       1     898
       1     899
       1     900
       1     901
       1     902
       1     903
       1     904
       1     905
       1     906
       1     907
       1     908
       1     909
       1     910
       1     911
       1     912
       1     913
       1     914
       1     915
       1     916
       1     917
       1     918
       1     919
       1     920
       1     921
       1     922
       1     923
       1     924
       1     925
       1     926
       1     927
       1     928
       1     929
       1     930
       1     931
       1     932
       1     933
       1     934
       1     935
       1     936
       1     937
       1     938
       1     939
       1     940
       1     941
       1     942
       1     943
       1     944
       1     945
       1     946
       1     947
       1     948
       1     949
       1     950
       1     951
       1     952
       1     953
       1     954
       1     955
       1     956
       1     957
       1     958
       1     959
       1     960
       1     961
       1     962
       1     963
       1     964
       1     965
       1     966
       1     967
       1     968
       1     969
       1     970
       1     971
       1     972
       1     973
       1     974
       1     975
       1     976
       1     977
       1     978
       1     979
       1     980
       1     981
       1     982
       1     983
       1     984
       1     985
       1     986
       1     987
       1     988
       1     989
       1     990
       1     991
       1     992
       1     993
       1     994
       1     995
       1     996
       1     997
       1     998
       1     999
       1    1000
       1    1001
       1    1002
       1    1003
       1    1004
       1    1005
       1    1006
       1    1007
       1    1008
       1    1009
       1    1010
       1    1011
       1    1012
       1    1013
       1    1014
       1    1015
       1    1016
       1    1017
       1    1018
       1    1019
       1    1020
       1    1021
       1    1022
       1    1023
       1    1024
       1    1025
       1    1026
       1    1027
       1    1028
       1    1029
       1    1030
       1    1031
       1    1032
       1    1033
       1    1034
       1    1035
       1    1036
       1    1037
       1    1038
       1    1039
       1    1040
       1    1041
       1    1042
       1    1043
       1    1044
       1    1045
       1    1046
       1    1047
       1    1048
       1    1049
       1    1050
       1    1051
       1    1052
       1    1053
       1    1054
       1    1055
       1    1056
       1    1057
       1    1058
       1    1059
       1    1060
       1    1061
       1    1062
       1    1063
       1    1064
       1    1065
       1    1066
       1    1067
       1    1068
       1    1069
       1    1070
       1    1071
       1    1072
       1    1073
       1    1074
       1    1075
       1    1076
       1    1077
       1    1078
       1    1079
       1    1080
       1    1081
       1    1082
       1    1083
       1    1084
       1    1085
       1    1086
       1    1087
       1    1088
       1    1089
       1    1090
       1    1091
       1    1092
       1    1093
       1    1094
       1    1095
       1    1096
       1    1097
       1    1098
       1    1099
       1    1100
       1    1101
       1    1102
       1    1103
       1    1104
       1    1105
       1    1106
       1    1107
       1    1108
       1    1109
       1    1110
       1    1111
       1    1112
       1    1113
       1    1114
       1    1115
       1    1116
       1    1117
       1    1118
       1    1119
       1    1120
       1    1121
       1    1122
       1    1123
       1    1124
       1    1125
       1    1126
       1    1127
       1    1128
       1    1129
       1    1130
       1    1131
       1    1132
       1    1133
       1    1134
       1    1135
       1    1136
       1    1137
       1    1138
       1    1139
       1    1140
       1    1141
       1    1142
       1    1143
       1    1144
       1    1145
       1    1146
       1    1147
       1    1148
       1    1149
       1    1150
       1    1151
       1    1152
       1    1153
       1    1154
       1    1155
       1    1156
       1    1157
       1    1158
       1    1159
       1    1160
       1    1161
       1    1162
       1    1163
       1    1164
       1    1165
       1    1166
       1    1167
       1    1168
       1    1169
       1    1170
       1    1171
       1    1172
       1    1173
       1    1174
       1    1175
       1    1176
       1    1177
       1    1178
       1    1179
       1    1180
       1    1181
       1    1182
       1    1183
       1    1184
       1    1185
       1    1186
       1    1187
       1    1188
       1    1189
       1    1190
       1    1191
       1    1192
       1    1193
       1    1194
       1    1195
       1    1196
       1    1197
       1    1198
       1    1199
       1    1200
       1    1201
       1    1202
       1    1203
       1    1204
       1    1205
       1    1206
       1    1207
       1    1208
       1    1209
       1    1210
       1    1211
       1    1212
       1    1213
       1    1214
       1    1215
       1    1216
       1    1217
       1    1218
       1    1219
       1    1220
       1    1221
       1    1222
       1    1223
       1    1224
       1    1225
       1    1226
       1    1227
       1    1228
       1    1229
       1    1230
       1    1231
       1    1232
       1    1233
       1    1234
       1    1235
       1    1236
       1    1237
       1    1238
       1    1239
       1    1240
       1    1241
       1    1242
       1    1243
       1    1244
       1    1245
       1    1246
       1    1247
       1    1248
       1    1249
       1    1250
       1    1251
       1    1252
       1    1253
       1    1254
       1    1255
       1    1256
       1    1257
       1    1258
       1    1259
       1    1260
       1    1261
       1    1262
       1    1263
       1    1264
       1    1265
       1    1266
       1    1267
       1    1268
       1    1269
       1    1270
       1    1271
       1    1272
       1    1273
       1    1274
       1    1275
       1    1276
       1    1277
       1    1278
       1    1279
       1    1280
       1    1281
       1    1282
       1    1283
       1    1284
       1    1285
       1    1286
       1    1287
       1    1288
       1    1289
       1    1290
       1    1291
       1    1292
       1    1293
       1    1294
       1    1295
       1    1296
       1    1297
       1    1298
       1    1299
       1    1300
       1    1301
       1    1302
       1    1303
       1    1304
       1    1305
       1    1306
       1    1307
       1    1308
       1    1309
       1    1310
       1    1311
       1    1312
       1    1313
       1    1314
       1    1315
       1    1316
       1    1317
       1    1318
       1    1319
       1    1320
       1    1321
       1    1322
       1    1323
       1    1324
       1    1325
       1    1326
       1    1327
       1    1328
       1    1329
       1    1330
       1    1331
       1    1332
       1    1333
       1    1334
       1    1335
       1    1336
       1    1337
       1    1338
       1    1339
       1    1340
       1    1341
       1    1342
       1    1343
       1    1344
       1    1345
       1    1346
       1    1347
       1    1348
       1    1349
       1    1350
       1    1351
       1    1352
       1    1353
       1    1354
       1    1355
       1    1356
       1    1357
       1    1358
       1    1359
       1    1360
       1    1361
       1    1362
       1    1363
       1    1364
       1    1365
       1    1366
       1    1367
       1    1368
       1    1369
       1    1370
       1    1371
       1    1372
       1    1373
       1    1374
       1    1375
       1    1376
       1    1377
       1    1378
       1    1379
       1    1380
       1    1381
       1    1382
       1    1383
       1    1384
       1    1385
       1    1386
       1    1387
       1    1388
       1    1389
       1    1390
       1    1391
       1    1392
       1    1393
       1    1394
       1    1395
       1    1396
       1    1397
       1    1398
       1    1399
       1    1400
       1    1401
       1    1402
       1    1403
       1    1404
       1    1405
       1    1406
       1    1407
       1    1408
       1    1409
       1    1410
       1    1411
       1    1412
       1    1413
       1    1414
       1    1415
       1    1416
       1    1417
       1    1418
       1    1419
       1    1420
       1    1421
       1    1422
       1    1423
       1    1424
       1    1425
       1    1426
       1    1427
       1    1428
       1    1429
       1    1430
       1    1431
       1    1432
       1    1433
       1    1434
       1    1435
       1    1436
       1    1437
       1    1438
       1    1439
       1    1440
       1    1441
       1    1442
       1    1443
       1    1444
       1    1445
       1    1446
       1    1447
       1    1448
       1    1449
       1    1450
       1    1451
       1    1452
       1    1453
       1    1454
       1    1455
       1    1456
       1    1457
       1    1458
       1    1459
       1    1460
       1    1461
       1    1462
       1    1463
       1    1464
       1    1465
       1    1466
       1    1467
       1    1468
       1    1469
       1    1470
       1    1471
       1    1472
       1    1473
       1    1474
       1    1475
       1    1476
       1    1477
       1    1478
       1    1479
       1    1480
       1    1481
       1    1482
       1    1483
       1    1484
       1    1485
       1    1486
       1    1487
       1    1488
       1    1489
       1    1490
       1    1491
       1    1492
       1    1493
       1    1494
       1    1495
       1    1496
       1    1497
       1    1498
       1    1499
       1    1500
       1    1501
       1    1502
       1    1503
       1    1504
       1    1505
       1    1506
       1    1507
       1    1508
       1    1509
       1    1510
       1    1511
       1    1512
       1    1513
       1    1514
       1    1515
       1    1516
       1    1517
       1    1518
       1    1519
       1    1520
       1    1521
       1    1522
       1    1523
       1    1524
       1    1525
       1    1526
       1    1527
       1    1528
       1    1529
       1    1530
       1    1531
       1    1532
       1    1533
       1    1534
       1    1535
       1    1536
       1    1537
       1    1538
       1    1539
       1    1540
       1    1541
       1    1542
       1    1543
       1    1544
       1    1545
       1    1546
       1    1547
       1    1548
       1    1549
       1    1550
       1    1551
       1    1552
       1    1553
       1    1554
       1    1555
       1    1556
       1    1557
       1    1558
       1    1559
       1    1560
       1    1561
       1    1562
       1    1563
       1    1564
       1    1565
       1    1566
       1    1567
       1    1568
       1    1569
       1    1570
       1    1571
       1    1572
       1    1573
       1    1574
       1    1575
       1    1576
       1    1577
       1    1578
       1    1579
       1    1580
       1    1581
       1    1582
       1    1583
       1    1584
       1    1585
       1    1586
       1    1587
       1    1588
       1    1589
       1    1590
       1    1591
       1    1592
       1    1593
       1    1594
       1    1595
       1    1596
       1    1597
       1    1598
       1    1599
       1    1600
       1    1601
       1    1602
       1    1603
       1    1604
       1    1605
       1    1606
       1    1607
       1    1608
       1    1609
       1    1610
       1    1611
       1    1612
       1    1613
       1    1614
       1    1615
       1    1616
       1    1617
       1    1618
       1    1619
       1    1620
       1    1621
       1    1622
       1    1623
       1    1624
       1    1625
       1    1626
       1    1627
       1    1628
       1    1629
       1    1630
       1    1631
       1    1632
       1    1633
       1    1634
       1    1635
       1    1636
       1    1637
       1    1638
       1    1639
       1    1640
       1    1641
       1    1642
       1    1643
       1    1644
       1    1645
       1    1646
       1    1647
       1    1648
       1    1649
       1    1650
       1    1651
       1    1652
       1    1653
       1    1654
       1    1655
       1    1656
       1    1657
       1    1658
       1    1659
       1    1660
       1    1661
       1    1662
       1    1663
       1    1664
       1    1665
       1    1666
       1    1667
       1    1668
       1    1669
       1    1670
       1    1671
       1    1672
       1    1673
       1    1674
       1    1675
       1    1676
       1    1677
       1    1678
       1    1679
       1    1680
       1    1681
       1    1682
       1    1683
       1    1684
       1    1685
       1    1686
       1    1687
       1    1688
       1    1689
       1    1690
       1    1691
       1    1692
       1    1693
       1    1694
       1    1695
       1    1696
       1    1697
       1    1698
       1    1699
       1    1700
       1    1701
       1    1702
       1    1703
       1    1704
       1    1705
       1    1706
       1    1707
       1    1708
       1    1709
       1    1710
       1    1711
       1    1712
       1    1713
       1    1714
       1    1715
       1    1716
       1    1717
       1    1718
       1    1719
       1    1720
       1    1721
       1    1722
       1    1723
       1    1724
       1    1725
       1    1726
       1    1727
       1    1728
       1    1729
       1    1730
       1    1731
       1    1732
       1    1733
       1    1734
       1    1735
       1    1736
       1    1737
       1    1738
       1    1739
       1    1740
       1    1741
       1    1742
       1    1743
       1    1744
       1    1745
       1    1746
       1    1747
       1    1748
       1    1749
       1    1750
       1    1751
       1    1752
       1    1753
       1    1754
       1    1755
       1    1756
       1    1757
       1    1758
       1    1759
       1    1760
       1    1761
       1    1762
       1    1763
       1    1764
       1    1765
       1    1766
       1    1767
       1    1768
       1    1769
       1    1770
       1    1771
       1    1772
       1    1773
       1    1774
       1    1775
       1    1776
       1    1777
       1    1778
       1    1779
       1    1780
       1    1781
       1    1782
       1    1783
       1    1784
       1    1785
       1    1786
       1    1787
       1    1788
       1    1789
       1    1790
       1    1791
       1    1792
       1    1793
       1    1794
       1    1795
       1    1796
       1    1797
       1    1798
       1    1799
       1    1800
       1    1801
       1    1802
       1    1803
       1    1804
       1    1805
       1    1806
       1    1807
       1    1808
       1    1809
       1    1810
       1    1811
       1    1812
       1    1813
       1    1814
       1    1815
       1    1816
       1    1817
       1    1818
       1    1819
       1    1820
       1    1821
       1    1822
       1    1823
       1    1824
       1    1825
       1    1826
       1    1827
       1    1828
       1    1829
       1    1830
       1    1831
       1    1832
       1    1833
       1    1834
       1    1835
       1    1836
       1    1837
       1    1838
       1    1839
       1    1840
       1    1841
       1    1842
       1    1843
       1    1844
       1    1845
       1    1846
       1    1847
       1    1848
       1    1849
       1    1850
       1    1851
       1    1852
       1    1853
       1    1854
       1    1855
       1    1856
       1    1857
       1    1858
       1    1859
       1    1860
       1    1861
       1    1862
       1    1863
       1    1864
       1    1865
       1    1866
       1    1867
       1    1868
       1    1869
       1    1870
       1    1871
       1    1872
       1    1873
       1    1874
       1    1875
       1    1876
       1    1877
       1    1878
       1    1879
       1    1880
       1    1881
       1    1882
       1    1883
       1    1884
       1    1885
       1    1886
       1    1887
       1    1888
       1    1889
       1    1890
       1    1891
       1    1892
       1    1893
       1    1894
       1    1895
       1    1896
       1    1897
       1    1898
       1    1899
       1    1900
       1    1901
       1    1902
       1    1903
       1    1904
       1    1905
       1    1906
       1    1907
       1    1908
       1    1909
       1    1910
       1    1911
       1    1912
       1    1913
       1    1914
       1    1915
       1    1916
       1    1917
       1    1918
       1    1919
       1    1920
       1    1921
       1    1922
       1    1923
       1    1924
       1    1925
       1    1926
       1    1927
       1    1928
       1    1929
       1    1930
       1    1931
       1    1932
       1    1933
       1    1934
       1    1935
       1    1936
       1    1937
       1    1938
       1    1939
       1    1940
       1    1941
       1    1942
       1    1943
       1    1944
       1    1945
       1    1946
       1    1947
       1    1948
       1    1949
       8       0       1       2       3       4       5       6       7
       8       2       8       9       3       6      10      11       7
       8      12       1       0      13      14       5       4      15
       8       0      16      17      13       4      18      19      15
       8      20      21      22      12      23      24      25      14
       8      26      27      21      20      28      29      24      23
       8      13      26      20      12      15      28      23      14
       8      30      31      16      32      33      34      18      35
       8      36      37      31      30      38      39      34      33
       8      40      41      37      36      42      43      39      38
       8      44      40      36      45      46      42      38      47
       8      48      17      16      31      49      19      18      34
       8      30      50      45      36      33      51      47      38
       8       0       3      32      16       4       7      35      18
       8      52      26      13      17      53      28      15      19
       8      54      52      17      48      55      53      19      49
       8      56      54      48      57      58      55      49      59
       8      37      57      48      31      39      59      49      34
       8      60      61      50      30      62      63      51      33
       8      64      60      30      32      65      62      33      35
       8      66      64      32       3      67      65      35       7
       8      68       8       2      69      70      10       6      71
       8      72      69       2       1      73      71       6       5
       8      22      72       1      12      25      73       5      14
       8      74      27      26      52      75      29      28      53
       8      76      74      52      54      77      75      53      55
       8      78      76      54      56      79      77      55      58
       8      80      78      56      81      82      79      58      83
       8      84      81      56      57      85      83      58      59
       8      41      84      57      37      43      85      59      39
       8      86      44      45      50      87      46      47      51
       8      88      86      50      61      89      87      51      63
       8      90      88      61      91      92      89      63      93
       8      94      91      61      60      95      93      63      62
       8      96      94      60      64      97      95      62      65
       8      98      96      64      66      99      97      65      67
       8     100      98      66     101     102      99      67     103
       8       9     101      66       3      11     103      67       7
       8     104     105       8      68     106     107      10      70
       8     108     104      68      69     109     106      70      71
       8     110     108      69      72     111     109      71      73
       8     112     110      72      22     113     111      73      25
       8     114     112      22      21     115     113      25      24
       8     116     114      21      27     117     115      24      29
       8     118     116      27      74     119     117      29      75
       8     120     118      74      76     121     119      75      77
       8     122     120      76      78     123     121      77      79
       8     124     122      78      80     125     123      79      82
       8     126     124      80      81     127     125      82      83
       8     128     126      81      84     129     127      83      85
       8     130     128      84      41     131     129      85      43
       8     132     130      41      40     133     131      43      42
       8     134     132      40      44     135     133      42      46
       8     136     134      44      86     137     135      46      87
       8     138     136      86      88     139     137      87      89
       8     140     138      88      90     141     139      89      92
       8     142     140      90      91     143     141      92      93
       8     144     142      91      94     145     143      93      95
       8     146     144      94      96     147     145      95      97
       8     148     146      96      98     149     147      97      99
       8     150     148      98     100     151     149      99     102
       8     152     150     100     101     153     151     102     103
       8     154     152     101       9     155     153     103      11
       8     105     154       9       8     107     155      11      10
       8     156     157     158     159       0       1       2       3
       8     158     160     161     159       2       8       9       3
       8     162     157     156     163      12       1       0      13
       8     156     164     165     163       0      16      17      13
       8     166     167     168     162      20      21      22      12
       8     169     170     167     166      26      27      21      20
       8     163     169     166     162      13      26      20      12
       8     171     172     164     173      30      31      16      32
       8     174     175     172     171      36      37      31      30
       8     176     177     175     174      40      41      37      36
       8     178     176     174     179      44      40      36      45
       8     180     165     164     172      48      17      16      31
       8     171     181     179     174      30      50      45      36
       8     156     159     173     164       0       3      32      16
       8     182     169     163     165      52      26      13      17
       8     183     182     165     180      54      52      17      48
       8     184     183     180     185      56      54      48      57
       8     175     185     180     172      37      57      48      31
       8     186     187     181     171      60      61      50      30
       8     188     186     171     173      64      60      30      32
       8     189     188     173     159      66      64      32       3
       8     190     160     158     191      68       8       2      69
       8     192     191     158     157      72      69       2       1
       8     168     192     157     162      22      72       1      12
       8     193     170     169     182      74      27      26      52
       8     194     193     182     183      76      74      52      54
       8     195     194     183     184      78      76      54      56
       8     196     195     184     197      80      78      56      81
       8     198     197     184     185      84      81      56      57
       8     177     198     185     175      41      84      57      37
       8     199     178     179     181      86      44      45      50
       8     200     199     181     187      88      86      50      61
       8     201     200     187     202      90      88      61      91
       8     203     202     187     186      94      91      61      60
       8     204     203     186     188      96      94      60      64
       8     205     204     188     189      98      96      64      66
       8     206     205     189     207     100      98      66     101
       8     161     207     189     159       9     101      66       3
       8     208     209     160     190     104     105       8      68
       8     210     208     190     191     108     104      68      69
       8     211     210     191     192     110     108      69      72
       8     212     211     192     168     112     110      72      22
       8     213     212     168     167     114     112      22      21
       8     214     213     167     170     116     114      21      27
       8     215     214     170     193     118     116      27      74
       8     216     215     193     194     120     118      74      76
       8     217     216     194     195     122     120      76      78
       8     218     217     195     196     124     122      78      80
       8     219     218     196     197     126     124      80      81
       8     220     219     197     198     128     126      81      84
       8     221     220     198     177     130     128      84      41
       8     222     221     177     176     132     130      41      40
       8     223     222     176     178     134     132      40      44
       8     224     223     178     199     136     134      44      86
       8     225     224     199     200     138     136      86      88
       8     226     225     200     201     140     138      88      90
       8     227     226     201     202     142     140      90      91
       8     228     227     202     203     144     142      91      94
       8     229     228     203     204     146     144      94      96
       8     230     229     204     205     148     146      96      98
       8     231     230     205     206     150     148      98     100
       8     232     231     206     207     152     150     100     101
       8     233     232     207     161     154     152     101       9
       8     209     233     161     160     105     154       9       8
       8     234     235     236     237     156     157     158     159
       8     236     238     239     237     158     160     161     159
       8     240     235     234     241     162     157     156     163
       8     234     242     243     241     156     164     165     163
       8     244     245     246     240     166     167     168     162
       8     247     248     245     244     169     170     167     166
       8     241     247     244     240     163     169     166     162
       8     249     250     242     251     171     172     164     173
       8     252     253     250     249     174     175     172     171
       8     254     255     253     252     176     177     175     174
       8     256     254     252     257     178     176     174     179
       8     258     243     242     250     180     165     164     172
       8     249     259     257     252     171     181     179     174
       8     234     237     251     242     156     159     173     164
       8     260     247     241     243     182     169     163     165
       8     261     260     243     258     183     182     165     180
       8     262     261     258     263     184     183     180     185
       8     253     263     258     250     175     185     180     172
       8     264     265     259     249     186     187     181     171
       8     266     264     249     251     188     186     171     173
       8     267     266     251     237     189     188     173     159
       8     268     238     236     269     190     160     158     191
       8     270     269     236     235     192     191     158     157
       8     246     270     235     240     168     192     157     162
       8     271     248     247     260     193     170     169     182
       8     272     271     260     261     194     193     182     183
       8     273     272     261     262     195     194     183     184
       8     274     273     262     275     196     195     184     197
       8     276     275     262     263     198     197     184     185
       8     255     276     263     253     177     198     185     175
       8     277     256     257     259     199     178     179     181
       8     278     277     259     265     200     199     181     187
       8     279     278     265     280     201     200     187     202
       8     281     280     265     264     203     202     187     186
       8     282     281     264     266     204     203     186     188
       8     283     282     266     267     205     204     188     189
       8     284     283     267     285     206     205     189     207
       8     239     285     267     237     161     207     189     159
       8     286     287     238     268     208     209     160     190
       8     288     286     268     269     210     208     190     191
       8     289     288     269     270     211     210     191     192
       8     290     289     270     246     212     211     192     168
       8     291     290     246     245     213     212     168     167
       8     292     291     245     248     214     213     167     170
       8     293     292     248     271     215     214     170     193
       8     294     293     271     272     216     215     193     194
       8     295     294     272     273     217     216     194     195
       8     296     295     273     274     218     217     195     196
       8     297     296     274     275     219     218     196     197
       8     298     297     275     276     220     219     197     198
       8     299     298     276     255     221     220     198     177
       8     300     299     255     254     222     221     177     176
       8     301     300     254     256     223     222     176     178
       8     302     301     256     277     224     223     178     199
       8     303     302     277     278     225     224     199     200
       8     304     303     278     279     226     225     200     201
       8     305     304     279     280     227     226     201     202
       8     306     305     280     281     228     227     202     203
       8     307     306     281     282     229     228     203     204
       8     308     307     282     283     230     229     204     205
       8     309     308     283     284     231     230     205     206
       8     310     309     284     285     232     231     206     207
       8     311     310     285     239     233     232     207     161
       8     287     311     239     238     209     233     161     160
       8     312     313     314     315     234     235     236     237
       8     314     316     317     315     236     238     239     237
       8     318     313     312     319     240     235     234     241
       8     312     320     321     319     234     242     243     241
       8     322     323     324     318     244     245     246     240
       8     325     326     323     322     247     248     245     244
       8     319     325     322     318     241     247     244     240
       8     327     328     320     329     249     250     242     251
       8     330     331     328     327     252     253     250     249
       8     332     333     331     330     254     255     253     252
       8     334     332     330     335     256     254     252     257
       8     336     321     320     328     258     243     242     250
       8     327     337     335     330     249     259     257     252
       8     312     315     329     320     234     237     251     242
       8     338     325     319     321     260     247     241     243
       8     339     338     321     336     261     260     243     258
       8     340     339     336     341     262     261     258     263
       8     331     341     336     328     253     263     258     250
       8     342     343     337     327     264     265     259     249
       8     344     342     327     329     266     264     249     251
       8     345     344     329     315     267     266     251     237
       8     346     316     314     347     268     238     236     269
       8     348     347     314     313     270     269     236     235
       8     324     348     313     318     246     270     235     240
       8     349     326     325     338     271     248     247     260
       8     350     349     338     339     272     271     260     261
       8     351     350     339     340     273     272     261     262
       8     352     351     340     353     274     273     262     275
       8     354     353     340     341     276     275     262     263
       8     333     354     341     331     255     276     263     253
       8     355     334     335     337     277     256     257     259
       8     356     355     337     343     278     277     259     265
       8     357     356     343     358     279     278     265     280
       8     359     358     343     342     281     280     265     264
       8     360     359     342     344     282     281     264     266
       8     361     360     344     345     283     282     266     267
       8     362     361     345     363     284     283     267     285
       8     317     363     345     315     239     285     267     237
       8     364     365     316     346     286     287     238     268
       8     366     364     346     347     288     286     268     269
       8     367     366     347     348     289     288     269     270
       8     368     367     348     324     290     289     270     246
       8     369     368     324     323     291     290     246     245
       8     370     369     323     326     292     291     245     248
       8     371     370     326     349     293     292     248     271
       8     372     371     349     350     294     293     271     272
       8     373     372     350     351     295     294     272     273
       8     374     373     351     352     296     295     273     274
       8     375     374     352     353     297     296     274     275
       8     376     375     353     354     298     297     275     276
       8     377     376     354     333     299     298     276     255
       8     378     377     333     332     300     299     255     254
       8     379     378     332     334     301     300     254     256
       8     380     379     334     355     302     301     256     277
       8     381     380     355     356     303     302     277     278
       8     382     381     356     357     304     303     278     279
       8     383     382     357     358     305     304     279     280
       8     384     383     358     359     306     305     280     281
       8     385     384     359     360     307     306     281     282
       8     386     385     360     361     308     307     282     283
       8     387     386     361     362     309     308     283     284
       8     388     387     362     363     310     309     284     285
       8     389     388     363     317     311     310     285     239
       8     365     389     317     316     287     311     239     238
       8     390     391     392     393     312     313     314     315
       8     392     394     395     393     314     316     317     315
       8     396     391     390     397     318     313     312     319
       8     390     398     399     397     312     320     321     319
       8     400     401     402     396     322     323     324     318
       8     403     404     401     400     325     326     323     322
       8     397     403     400     396     319     325     322     318
       8     405     406     398     407     327     328     320     329
       8     408     409     406     405     330     331     328     327
       8     410     411     409     408     332     333     331     330
       8     412     410     408     413     334     332     330     335
       8     414     399     398     406     336     321     320     328
       8     405     415     413     408     327     337     335     330
       8     390     393     407     398     312     315     329     320
       8     416     403     397     399     338     325     319     321
       8     417     416     399     414     339     338     321     336
       8     418     417     414     419     340     339     336     341
       8     409     419     414     406     331     341     336     328
       8     420     421     415     405     342     343     337     327
       8     422     420     405     407     344     342     327     329
       8     423     422     407     393     345     344     329     315
       8     424     394     392     425     346     316     314     347
       8     426     425     392     391     348     347     314     313
       8     402     426     391     396     324     348     313     318
       8     427     404     403     416     349     326     325     338
       8     428     427     416     417     350     349     338     339
       8     429     428     417     418     351     350     339     340
       8     430     429     418     431     352     351     340     353
       8     432     431     418     419     354     353     340     341
       8     411     432     419     409     333     354     341     331
       8     433     412     413     415     355     334     335     337
       8     434     433     415     421     356     355     337     343
       8     435     434     421     436     357     356     343     358
       8     437     436     421     420     359     358     343     342
       8     438     437     420     422     360     359     342     344
       8     439     438     422     423     361     360     344     345
       8     440     439     423     441     362     361     345     363
       8     395     441     423     393     317     363     345     315
       8     442     443     394     424     364     365     316     346
       8     444     442     424     425     366     364     346     347
       8     445     444     425     426     367     366     347     348
       8     446     445     426     402     368     367     348     324
       8     447     446     402     401     369     368     324     323
       8     448     447     401     404     370     369     323     326
       8     449     448     404     427     371     370     326     349
       8     450     449     427     428     372     371     349     350
       8     451     450     428     429     373     372     350     351
       8     452     451     429     430     374     373     351     352
       8     453     452     430     431     375     374     352     353
       8     454     453     431     432     376     375     353     354
       8     455     454     432     411     377     376     354     333
       8     456     455     411     410     378     377     333     332
       8     457     456     410     412     379     378     332     334
       8     458     457     412     433     380     379     334     355
       8     459     458     433     434     381     380     355     356
       8     460     459     434     435     382     381     356     357
       8     461     460     435     436     383     382     357     358
       8     462     461     436     437     384     383     358     359
       8     463     462     437     438     385     384     359     360
       8     464     463     438     439     386     385     360     361
       8     465     464     439     440     387     386     361     362
       8     466     465     440     441     388     387     362     363
       8     467     466     441     395     389     388     363     317
       8     443     467     395     394     365     389     317     316
       8     468     469     470     471     390     391     392     393
       8     470     472     473     471     392     394     395     393
       8     474     469     468     475     396     391     390     397
       8     468     476     477     475     390     398     399     397
       8     478     479     480     474     400     401     402     396
       8     481     482     479     478     403     404     401     400
       8     475     481     478     474     397     403     400     396
       8     483     484     476     485     405     406     398     407
       8     486     487     484     483     408     409     406     405
       8     488     489     487     486     410     411     409     408
       8     490     488     486     491     412     410     408     413
       8     492     477     476     484     414     399     398     406
       8     483     493     491     486     405     415     413     408
       8     468     471     485     476     390     393     407     398
       8     494     481     475     477     416     403     397     399
       8     495     494     477     492     417     416     399     414
       8     496     495     492     497     418     417     414     419
       8     487     497     492     484     409     419     414     406
       8     498     499     493     483     420     421     415     405
       8     500     498     483     485     422     420     405     407
       8     501     500     485     471     423     422     407     393
       8     502     472     470     503     424     394     392     425
       8     504     503     470     469     426     425     392     391
       8     480     504     469     474     402     426     391     396
       8     505     482     481     494     427     404     403     416
       8     506     505     494     495     428     427     416     417
       8     507     506     495     496     429     428     417     418
       8     508     507     496     509     430     429     418     431
       8     510     509     496     497     432     431     418     419
       8     489     510     497     487     411     432     419     409
       8     511     490     491     493     433     412     413     415
       8     512     511     493     499     434     433     415     421
       8     513     512     499     514     435     434     421     436
       8     515     514     499     498     437     436     421     420
       8     516     515     498     500     438     437     420     422
       8     517     516     500     501     439     438     422     423
       8     518     517     501     519     440     439     423     441
       8     473     519     501     471     395     441     423     393
       8     520     521     472     502     442     443     394     424
       8     522     520     502     503     444     442     424     425
       8     523     522     503     504     445     444     425     426
       8     524     523     504     480     446     445     426     402
       8     525     524     480     479     447     446     402     401
       8     526     525     479     482     448     447     401     404
       8     527     526     482     505     449     448     404     427
       8     528     527     505     506     450     449     427     428
       8     529     528     506     507     451     450     428     429
       8     530     529     507     508     452     451     429     430
       8     531     530     508     509     453     452     430     431
       8     532     531     509     510     454     453     431     432
       8     533     532     510     489     455     454     432     411
       8     534     533     489     488     456     455     411     410
       8     535     534     488     490     457     456     410     412
       8     536     535     490     511     458     457     412     433
       8     537     536     511     512     459     458     433     434
       8     538     537     512     513     460     459     434     435
       8     539     538     513     514     461     460     435     436
       8     540     539     514     515     462     461     436     437
       8     541     540     515     516     463     462     437     438
       8     542     541     516     517     464     463     438     439
       8     543     542     517     518     465     464     439     440
       8     544     543     518     519     466     465     440     441
       8     545     544     519     473     467     466     441     395
       8     521     545     473     472     443     467     395     394
       8     546     547     548     549     468     469     470     471
       8     548     550     551     549     470     472     473     471
       8     552     547     546     553     474     469     468     475
       8     546     554     555     553     468     476     477     475
       8     556     557     558     552     478     479     480     474
       8     559     560     557     556     481     482     479     478
       8     553     559     556     552     475     481     478     474
       8     561     562     554     563     483     484     476     485
       8     564     565     562     561     486     487     484     483
       8     566     567     565     564     488     489     487     486
       8     568     566     564     569     490     488     486     491
       8     570     555     554     562     492     477     476     484
       8     561     571     569     564     483     493     491     486
       8     546     549     563     554     468     471     485     476
       8     572     559     553     555     494     481     475     477
       8     573     572     555     570     495     494     477     492
       8     574     573     570     575     496     495     492     497
       8     565     575     570     562     487     497     492     484
       8     576     577     571     561     498     499     493     483
       8     578     576     561     563     500     498     483     485
       8     579     578     563     549     501     500     485     471
       8     580     550     548     581     502     472     470     503
       8     582     581     548     547     504     503     470     469
       8     558     582     547     552     480     504     469     474
       8     583     560     559     572     505     482     481     494
       8     584     583     572     573     506     505     494     495
       8     585     584     573     574     507     506     495     496
       8     586     585     574     587     508     507     496     509
       8     588     587     574     575     510     509     496     497
       8     567     588     575     565     489     510     497     487
       8     589     568     569     571     511     490     491     493
       8     590     589     571     577     512     511     493     499
       8     591     590     577     592     513     512     499     514
       8     593     592     577     576     515     514     499     498
       8     594     593     576     578     516     515     498     500
       8     595     594     578     579     517     516     500     501
       8     596     595     579     597     518     517     501     519
       8     551     597     579     549     473     519     501     471
       8     598     599     550     580     520     521     472     502
       8     600     598     580     581     522     520     502     503
       8     601     600     581     582     523     522     503     504
       8     602     601     582     558     524     523     504     480
       8     603     602     558     557     525     524     480     479
       8     604     603     557     560     526     525     479     482
       8     605     604     560     583     527     526     482     505
       8     606     605     583     584     528     527     505     506
       8     607     606     584     585     529     528     506     507
       8     608     607     585     586     530     529     507     508
       8     609     608     586     587     531     530     508     509
       8     610     609     587     588     532     531     509     510
       8     611     610     588     567     533     532     510     489
       8     612     611     567     566     534     533     489     488
       8     613     612     566     568     535     534     488     490
       8     614     613     568     589     536     535     490     511
       8     615     614     589     590     537     536     511     512
       8     616     615     590     591     538     537     512     513
       8     617     616     591     592     539     538     513     514
       8     618     617     592     593     540     539     514     515
       8     619     618     593     594     541     540     515     516
       8     620     619     594     595     542     541     516     517
       8     621     620     595     596     543     542     517     518
       8     622     621     596     597     544     543     518     519
       8     623     622     597     551     545     544     519     473
       8     599     623     551     550     521     545     473     472
       8     624     625     626     627     546     547     548     549
       8     626     628     629     627     548     550     551     549
       8     630     625     624     631     552     547     546     553
       8     624     632     633     631     546     554     555     553
       8     634     635     636     630     556     557     558     552
       8     637     638     635     634     559     560     557     556
       8     631     637     634     630     553     559     556     552
       8     639     640     632     641     561     562     554     563
       8     642     643     640     639     564     565     562     561
       8     644     645     643     642     566     567     565     564
       8     646     644     642     647     568     566     564     569
       8     648     633     632     640     570     555     554     562
       8     639     649     647     642     561     571     569     564
       8     624     627     641     632     546     549     563     554
       8     650     637     631     633     572     559     553     555
       8     651     650     633     648     573     572     555     570
       8     652     651     648     653     574     573     570     575
       8     643     653     648     640     565     575     570     562
       8     654     655     649     639     576     577     571     561
       8     656     654     639     641     578     576     561     563
       8     657     656     641     627     579     578     563     549
       8     658     628     626     659     580     550     548     581
       8     660     659     626     625     582     581     548     547
       8     636     660     625     630     558     582     547     552
       8     661     638     637     650     583     560     559     572
       8     662     661     650     651     584     583     572     573
       8     663     662     651     652     585     584     573     574
       8     664     663     652     665     586     585     574     587
       8     666     665     652     653     588     587     574     575
       8     645     666     653     643     567     588     575     565
       8     667     646     647     649     589     568     569     571
       8     668     667     649     655     590     589     571     577
       8     669     668     655     670     591     590     577     592
       8     671     670     655     654     593     592     577     576
       8     672     671     654     656     594     593     576     578
       8     673     672     656     657     595     594     578     579
       8     674     673     657     675     596     595     579     597
       8     629     675     657     627     551     597     579     549
       8     676     677     628     658     598     599     550     580
       8     678     676     658     659     600     598     580     581
       8     679     678     659     660     601     600     581     582
       8     680     679     660     636     602     601     582     558
       8     681     680     636     635     603     602     558     557
       8     682     681     635     638     604     603     557     560
       8     683     682     638     661     605     604     560     583
       8     684     683     661     662     606     605     583     584
       8     685     684     662     663     607     606     584     585
       8     686     685     663     664     608     607     585     586
       8     687     686     664     665     609     608     586     587
       8     688     687     665     666     610     609     587     588
       8     689     688     666     645     611     610     588     567
       8     690     689     645     644     612     611     567     566
       8     691     690     644     646     613     612     566     568
       8     692     691     646     667     614     613     568     589
       8     693     692     667     668     615     614     589     590
       8     694     693     668     669     616     615     590     591
       8     695     694     669     670     617     616     591     592
       8     696     695     670     671     618     617     592     593
       8     697     696     671     672     619     618     593     594
       8     698     697     672     673     620     619     594     595
       8     699     698     673     674     621     620     595     596
       8     700     699     674     675     622     621     596     597
       8     701     700     675     629     623     622     597     551
       8     677     701     629     628     599     623     551     550
       8     702     703     704     705     624     625     626     627
       8     704     706     707     705     626     628     629     627
       8     708     703     702     709     630     625     624     631
       8     702     710     711     709     624     632     633     631
       8     712     713     714     708     634     635     636     630
       8     715     716     713     712     637     638     635     634
       8     709     715     712     708     631     637     634     630
       8     717     718     710     719     639     640     632     641
       8     720     721     718     717     642     643     640     639
       8     722     723     721     720     644     645     643     642
       8     724     722     720     725     646     644     642     647
       8     726     711     710     718     648     633     632     640
       8     717     727     725     720     639     649     647     642
       8     702     705     719     710     624     627     641     632
       8     728     715     709     711     650     637     631     633
       8     729     728     711     726     651     650     633     648
       8     730     729     726     731     652     651     648     653
       8     721     731     726     718     643     653     648     640
       8     732     733     727     717     654     655     649     639
       8     734     732     717     719     656     654     639     641
       8     735     734     719     705     657     656     641     627
       8     736     706     704     737     658     628     626     659
       8     738     737     704     703     660     659     626     625
       8     714     738     703     708     636     660     625     630
       8     739     716     715     728     661     638     637     650
       8     740     739     728     729     662     661     650     651
       8     741     740     729     730     663     662     651     652
       8     742     741     730     743     664     663     652     665
       8     744     743     730     731     666     665     652     653
       8     723     744     731     721     645     666     653     643
       8     745     724     725     727     667     646     647     649
       8     746     745     727     733     668     667     649     655
       8     747     746     733     748     669     668     655     670
       8     749     748     733     732     671     670     655     654
       8     750     749     732     734     672     671     654     656
       8     751     750     734     735     673     672     656     657
       8     752     751     735     753     674     673     657     675
       8     707     753     735     705     629     675     657     627
       8     754     755     706     736     676     677     628     658
       8     756     754     736     737     678     676     658     659
       8     757     756     737     738     679     678     659     660
       8     758     757     738     714     680     679     660     636
       8     759     758     714     713     681     680     636     635
       8     760     759     713     716     682     681     635     638
       8     761     760     716     739     683     682     638     661
       8     762     761     739     740     684     683     661     662
       8     763     762     740     741     685     684     662     663
       8     764     763     741     742     686     685     663     664
       8     765     764     742     743     687     686     664     665
       8     766     765     743     744     688     687     665     666
       8     767     766     744     723     689     688     666     645
       8     768     767     723     722     690     689     645     644
       8     769     768     722     724     691     690     644     646
       8     770     769     724     745     692     691     646     667
       8     771     770     745     746     693     692     667     668
       8     772     771     746     747     694     693     668     669
       8     773     772     747     748     695     694     669     670
       8     774     773     748     749     696     695     670     671
       8     775     774     749     750     697     696     671     672
       8     776     775     750     751     698     697     672     673
       8     777     776     751     752     699     698     673     674
       8     778     777     752     753     700     699     674     675
       8     779     778     753     707     701     700     675     629
       8     755     779     707     706     677     701     629     628
       8     780     781     782     783     702     703     704     705
       8     782     784     785     783     704     706     707     705
       8     786     781     780     787     708     703     702     709
       8     780     788     789     787     702     710     711     709
       8     790     791     792     786     712     713     714     708
       8     793     794     791     790     715     716     713     712
       8     787     793     790     786     709     715     712     708
       8     795     796     788     797     717     718     710     719
       8     798     799     796     795     720     721     718     717
       8     800     801     799     798     722     723     721     720
       8     802     800     798     803     724     722     720     725
       8     804     789     788     796     726     711     710     718
       8     795     805     803     798     717     727     725     720
       8     780     783     797     788     702     705     719     710
       8     806     793     787     789     728     715     709     711
       8     807     806     789     804     729     728     711     726
       8     808     807     804     809     730     729     726     731
       8     799     809     804     796     721     731     726     718
       8     810     811     805     795     732     733     727     717
       8     812     810     795     797     734     732     717     719
       8     813     812     797     783     735     734     719     705
       8     814     784     782     815     736     706     704     737
       8     816     815     782     781     738     737     704     703
       8     792     816     781     786     714     738     703     708
       8     817     794     793     806     739     716     715     728
       8     818     817     806     807     740     739     728     729
       8     819     818     807     808     741     740     729     730
       8     820     819     808     821     742     741     730     743
       8     822     821     808     809     744     743     730     731
       8     801     822     809     799     723     744     731     721
       8     823     802     803     805     745     724     725     727
       8     824     823     805     811     746     745     727     733
       8     825     824     811     826     747     746     733     748
       8     827     826     811     810     749     748     733     732
       8     828     827     810     812     750     749     732     734
       8     829     828     812     813     751     750     734     735
       8     830     829     813     831     752     751     735     753
       8     785     831     813     783     707     753     735     705
       8     832     833     784     814     754     755     706     736
       8     834     832     814     815     756     754     736     737
       8     835     834     815     816     757     756     737     738
       8     836     835     816     792     758     757     738     714
       8     837     836     792     791     759     758     714     713
       8     838     837     791     794     760     759     713     716
       8     839     838     794     817     761     760     716     739
       8     840     839     817     818     762     761     739     740
       8     841     840     818     819     763     762     740     741
       8     842     841     819     820     764     763     741     742
       8     843     842     820     821     765     764     742     743
       8     844     843     821     822     766     765     743     744
       8     845     844     822     801     767     766     744     723
       8     846     845     801     800     768     767     723     722
       8     847     846     800     802     769     768     722     724
       8     848     847     802     823     770     769     724     745
       8     849     848     823     824     771     770     745     746
       8     850     849     824     825     772     771     746     747
       8     851     850     825     826     773     772     747     748
       8     852     851     826     827     774     773     748     749
       8     853     852     827     828     775     774     749     750
       8     854     853     828     829     776     775     750     751
       8     855     854     829     830     777     776     751     752
       8     856     855     830     831     778     777     752     753
       8     857     856     831     785     779     778     753     707
       8     833     857     785     784     755     779     707     706
       8     858     859     860     861     780     781     782     783
       8     860     862     863     861     782     784     785     783
       8     864     859     858     865     786     781     780     787
       8     858     866     867     865     780     788     789     787
       8     868     869     870     864     790     791     792     786
       8     871     872     869     868     793     794     791     790
       8     865     871     868     864     787     793     790     786
       8     873     874     866     875     795     796     788     797
       8     876     877     874     873     798     799     796     795
       8     878     879     877     876     800     801     799     798
       8     880     878     876     881     802     800     798     803
       8     882     867     866     874     804     789     788     796
       8     873     883     881     876     795     805     803     798
       8     858     861     875     866     780     783     797     788
       8     884     871     865     867     806     793     787     789
       8     885     884     867     882     807     806     789     804
       8     886     885     882     887     808     807     804     809
       8     877     887     882     874     799     809     804     796
       8     888     889     883     873     810     811     805     795
       8     890     888     873     875     812     810     795     797
       8     891     890     875     861     813     812     797     783
       8     892     862     860     893     814     784     782     815
       8     894     893     860     859     816     815     782     781
       8     870     894     859     864     792     816     781     786
       8     895     872     871     884     817     794     793     806
       8     896     895     884     885     818     817     806     807
       8     897     896     885     886     819     818     807     808
       8     898     897     886     899     820     819     808     821
       8     900     899     886     887     822     821     808     809
       8     879     900     887     877     801     822     809     799
       8     901     880     881     883     823     802     803     805
       8     902     901     883     889     824     823     805     811
       8     903     902     889     904     825     824     811     826
       8     905     904     889     888     827     826     811     810
       8     906     905     888     890     828     827     810     812
       8     907     906     890     891     829     828     812     813
       8     908     907     891     909     830     829     813     831
       8     863     909     891     861     785     831     813     783
       8     910     911     862     892     832     833     784     814
       8     912     910     892     893     834     832     814     815
       8     913     912     893     894     835     834     815     816
       8     914     913     894     870     836     835     816     792
       8     915     914     870     869     837     836     792     791
       8     916     915     869     872     838     837     791     794
       8     917     916     872     895     839     838     794     817
       8     918     917     895     896     840     839     817     818
       8     919     918     896     897     841     840     818     819
       8     920     919     897     898     842     841     819     820
       8     921     920     898     899     843     842     820     821
       8     922     921     899     900     844     843     821     822
       8     923     922     900     879     845     844     822     801
       8     924     923     879     878     846     845     801     800
       8     925     924     878     880     847     846     800     802
       8     926     925     880     901     848     847     802     823
       8     927     926     901     902     849     848     823     824
       8     928     927     902     903     850     849     824     825
       8     929     928     903     904     851     850     825     826
       8     930     929     904     905     852     851     826     827
       8     931     930     905     906     853     852     827     828
       8     932     931     906     907     854     853     828     829
       8     933     932     907     908     855     854     829     830
       8     934     933     908     909     856     855     830     831
       8     935     934     909     863     857     856     831     785
       8     911     935     863     862     833     857     785     784
       8     936     937     938     939     858     859     860     861
       8     938     940     941     939     860     862     863     861
       8     942     937     936     943     864     859     858     865
       8     936     944     945     943     858     866     867     865
       8     946     947     948     942     868     869     870     864
       8     949     950     947     946     871     872     869     868
       8     943     949     946     942     865     871     868     864
       8     951     952     944     953     873     874     866     875
       8     954     955     952     951     876     877     874     873
       8     956     957     955     954     878     879     877     876
       8     958     956     954     959     880     878     876     881
       8     960     945     944     952     882     867     866     874
       8     951     961     959     954     873     883     881     876
       8     936     939     953     944     858     861     875     866
       8     962     949     943     945     884     871     865     867
       8     963     962     945     960     885     884     867     882
       8     964     963     960     965     886     885     882     887
       8     955     965     960     952     877     887     882     874
       8     966     967     961     951     888     889     883     873
       8     968     966     951     953     890     888     873     875
       8     969     968     953     939     891     890     875     861
       8     970     940     938     971     892     862     860     893
       8     972     971     938     937     894     893     860     859
       8     948     972     937     942     870     894     859     864
       8     973     950     949     962     895     872     871     884
       8     974     973     962     963     896     895     884     885
       8     975     974     963     964     897     896     885     886
       8     976     975     964     977     898     897     886     899
       8     978     977     964     965     900     899     886     887
       8     957     978     965     955     879     900     887     877
       8     979     958     959     961     901     880     881     883
       8     980     979     961     967     902     901     883     889
       8     981     980     967     982     903     902     889     904
       8     983     982     967     966     905     904     889     888
       8     984     983     966     968     906     905     888     890
       8     985     984     968     969     907     906     890     891
       8     986     985     969     987     908     907     891     909
       8     941     987     969     939     863     909     891     861
       8     988     989     940     970     910     911     862     892
       8     990     988     970     971     912     910     892     893
       8     991     990     971     972     913     912     893     894
       8     992     991     972     948     914     913     894     870
       8     993     992     948     947     915     914     870     869
       8     994     993     947     950     916     915     869     872
       8     995     994     950     973     917     916     872     895
       8     996     995     973     974     918     917     895     896
       8     997     996     974     975     919     918     896     897
       8     998     997     975     976     920     919     897     898
       8     999     998     976     977     921     920     898     899
       8    1000     999     977     978     922     921     899     900
       8    1001    1000     978     957     923     922     900     879
       8    1002    1001     957     956     924     923     879     878
       8    1003    1002     956     958     925     924     878     880
       8    1004    1003     958     979     926     925     880     901
       8    1005    1004     979     980     927     926     901     902
       8    1006    1005     980     981     928     927     902     903
       8    1007    1006     981     982     929     928     903     904
       8    1008    1007     982     983     930     929     904     905
       8    1009    1008     983     984     931     930     905     906
       8    1010    1009     984     985     932     931     906     907
       8    1011    1010     985     986     933     932     907     908
       8    1012    1011     986     987     934     933     908     909
       8    1013    1012     987     941     935     934     909     863
       8     989    1013     941     940     911     935     863     862
       8    1014    1015    1016    1017     936     937     938     939
       8    1016    1018    1019    1017     938     940     941     939
       8    1020    1015    1014    1021     942     937     936     943
       8    1014    1022    1023    1021     936     944     945     943
       8    1024    1025    1026    1020     946     947     948     942
       8    1027    1028    1025    1024     949     950     947     946
       8    1021    1027    1024    1020     943     949     946     942
       8    1029    1030    1022    1031     951     952     944     953
       8    1032    1033    1030    1029     954     955     952     951
       8    1034    1035    1033    1032     956     957     955     954
       8    1036    1034    1032    1037     958     956     954     959
       8    1038    1023    1022    1030     960     945     944     952
       8    1029    1039    1037    1032     951     961     959     954
       8    1014    1017    1031    1022     936     939     953     944
       8    1040    1027    1021    1023     962     949     943     945
       8    1041    1040    1023    1038     963     962     945     960
       8    1042    1041    1038    1043     964     963     960     965
       8    1033    1043    1038    1030     955     965     960     952
       8    1044    1045    1039    1029     966     967     961     951
       8    1046    1044    1029    1031     968     966     951     953
       8    1047    1046    1031    1017     969     968     953     939
       8    1048    1018    1016    1049     970     940     938     971
       8    1050    1049    1016    1015     972     971     938     937
       8    1026    1050    1015    1020     948     972     937     942
       8    1051    1028    1027    1040     973     950     949     962
       8    1052    1051    1040    1041     974     973     962     963
       8    1053    1052    1041    1042     975     974     963     964
       8    1054    1053    1042    1055     976     975     964     977
       8    1056    1055    1042    1043     978     977     964     965
       8    1035    1056    1043    1033     957     978     965     955
       8    1057    1036    1037    1039     979     958     959     961
       8    1058    1057    1039    1045     980     979     961     967
       8    1059    1058    1045    1060     981     980     967     982
       8    1061    1060    1045    1044     983     982     967     966
       8    1062    1061    1044    1046     984     983     966     968
       8    1063    1062    1046    1047     985     984     968     969
       8    1064    1063    1047    1065     986     985     969     987
       8    1019    1065    1047    1017     941     987     969     939
       8    1066    1067    1018    1048     988     989     940     970
       8    1068    1066    1048    1049     990     988     970     971
       8    1069    1068    1049    1050     991     990     971     972
       8    1070    1069    1050    1026     992     991     972     948
       8    1071    1070    1026    1025     993     992     948     947
       8    1072    1071    1025    1028     994     993     947     950
       8    1073    1072    1028    1051     995     994     950     973
       8    1074    1073    1051    1052     996     995     973     974
       8    1075    1074    1052    1053     997     996     974     975
       8    1076    1075    1053    1054     998     997     975     976
       8    1077    1076    1054    1055     999     998     976     977
       8    1078    1077    1055    1056    1000     999     977     978
       8    1079    1078    1056    1035    1001    1000     978     957
       8    1080    1079    1035    1034    1002    1001     957     956
       8    1081    1080    1034    1036    1003    1002     956     958
       8    1082    1081    1036    1057    1004    1003     958     979
       8    1083    1082    1057    1058    1005    1004     979     980
       8    1084    1083    1058    1059    1006    1005     980     981
       8    1085    1084    1059    1060    1007    1006     981     982
       8    1086    1085    1060    1061    1008    1007     982     983
       8    1087    1086    1061    1062    1009    1008     983     984
       8    1088    1087    1062    1063    1010    1009     984     985
       8    1089    1088    1063    1064    1011    1010     985     986
       8    1090    1089    1064    1065    1012    1011     986     987
       8    1091    1090    1065    1019    1013    1012     987     941
       8    1067    1091    1019    1018     989    1013     941     940
       8    1092    1093    1094    1095    1014    1015    1016    1017
       8    1094    1096    1097    1095    1016    1018    1019    1017
       8    1098    1093    1092    1099    1020    1015    1014    1021
       8    1092    1100    1101    1099    1014    1022    1023    1021
       8    1102    1103    1104    1098    1024    1025    1026    1020
       8    1105    1106    1103    1102    1027    1028    1025    1024
       8    1099    1105    1102    1098    1021    1027    1024    1020
       8    1107    1108    1100    1109    1029    1030    1022    1031
       8    1110    1111    1108    1107    1032    1033    1030    1029
       8    1112    1113    1111    1110    1034    1035    1033    1032
       8    1114    1112    1110    1115    1036    1034    1032    1037
       8    1116    1101    1100    1108    1038    1023    1022    1030
       8    1107    1117    1115    1110    1029    1039    1037    1032
       8    1092    1095    1109    1100    1014    1017    1031    1022
       8    1118    1105    1099    1101    1040    1027    1021    1023
       8    1119    1118    1101    1116    1041    1040    1023    1038
       8    1120    1119    1116    1121    1042    1041    1038    1043
       8    1111    1121    1116    1108    1033    1043    1038    1030
       8    1122    1123    1117    1107    1044    1045    1039    1029
       8    1124    1122    1107    1109    1046    1044    1029    1031
       8    1125    1124    1109    1095    1047    1046    1031    1017
       8    1126    1096    1094    1127    1048    1018    1016    1049
       8    1128    1127    1094    1093    1050    1049    1016    1015
       8    1104    1128    1093    1098    1026    1050    1015    1020
       8    1129    1106    1105    1118    1051    1028    1027    1040
       8    1130    1129    1118    1119    1052    1051    1040    1041
       8    1131    1130    1119    1120    1053    1052    1041    1042
       8    1132    1131    1120    1133    1054    1053    1042    1055
       8    1134    1133    1120    1121    1056    1055    1042    1043
       8    1113    1134    1121    1111    1035    1056    1043    1033
       8    1135    1114    1115    1117    1057    1036    1037    1039
       8    1136    1135    1117    1123    1058    1057    1039    1045
       8    1137    1136    1123    1138    1059    1058    1045    1060
       8    1139    1138    1123    1122    1061    1060    1045    1044
       8    1140    1139    1122    1124    1062    1061    1044    1046
       8    1141    1140    1124    1125    1063    1062    1046    1047
       8    1142    1141    1125    1143    1064    1063    1047    1065
       8    1097    1143    1125    1095    1019    1065    1047    1017
       8    1144    1145    1096    1126    1066    1067    1018    1048
       8    1146    1144    1126    1127    1068    1066    1048    1049
       8    1147    1146    1127    1128    1069    1068    1049    1050
       8    1148    1147    1128    1104    1070    1069    1050    1026
       8    1149    1148    1104    1103    1071    1070    1026    1025
       8    1150    1149    1103    1106    1072    1071    1025    1028
       8    1151    1150    1106    1129    1073    1072    1028    1051
       8    1152    1151    1129    1130    1074    1073    1051    1052
       8    1153    1152    1130    1131    1075    1074    1052    1053
       8    1154    1153    1131    1132    1076    1075    1053    1054
       8    1155    1154    1132    1133    1077    1076    1054    1055
       8    1156    1155    1133    1134    1078    1077    1055    1056
       8    1157    1156    1134    1113    1079    1078    1056    1035
       8    1158    1157    1113    1112    1080    1079    1035    1034
       8    1159    1158    1112    1114    1081    1080    1034    1036
       8    1160    1159    1114    1135    1082    1081    1036    1057
       8    1161    1160    1135    1136    1083    1082    1057    1058
       8    1162    1161    1136    1137    1084    1083    1058    1059
       8    1163    1162    1137    1138    1085    1084    1059    1060
       8    1164    1163    1138    1139    1086    1085    1060    1061
       8    1165    1164    1139    1140    1087    1086    1061    1062
       8    1166    1165    1140    1141    1088    1087    1062    1063
       8    1167    1166    1141    1142    1089    1088    1063    1064
       8    1168    1167    1142    1143    1090    1089    1064    1065
       8    1169    1168    1143    1097    1091    1090    1065    1019
       8    1145    1169    1097    1096    1067    1091    1019    1018
       8    1170    1171    1172    1173    1092    1093    1094    1095
       8    1172    1174    1175    1173    1094    1096    1097    1095
       8    1176    1171    1170    1177    1098    1093    1092    1099
       8    1170    1178    1179    1177    1092    1100    1101    1099
       8    1180    1181    1182    1176    1102    1103    1104    1098
       8    1183    1184    1181    1180    1105    1106    1103    1102
       8    1177    1183    1180    1176    1099    1105    1102    1098
       8    1185    1186    1178    1187    1107    1108    1100    1109
       8    1188    1189    1186    1185    1110    1111    1108    1107
       8    1190    1191    1189    1188    1112    1113    1111    1110
       8    1192    1190    1188    1193    1114    1112    1110    1115
       8    1194    1179    1178    1186    1116    1101    1100    1108
       8    1185    1195    1193    1188    1107    1117    1115    1110
       8    1170    1173    1187    1178    1092    1095    1109    1100
       8    1196    1183    1177    1179    1118    1105    1099    1101
       8    1197    1196    1179    1194    1119    1118    1101    1116
       8    1198    1197    1194    1199    1120    1119    1116    1121
       8    1189    1199    1194    1186    1111    1121    1116    1108
       8    1200    1201    1195    1185    1122    1123    1117    1107
       8    1202    1200    1185    1187    1124    1122    1107    1109
       8    1203    1202    1187    1173    1125    1124    1109    1095
       8    1204    1174    1172    1205    1126    1096    1094    1127
       8    1206    1205    1172    1171    1128    1127    1094    1093
       8    1182    1206    1171    1176    1104    1128    1093    1098
       8    1207    1184    1183    1196    1129    1106    1105    1118
       8    1208    1207    1196    1197    1130    1129    1118    1119
       8    1209    1208    1197    1198    1131    1130    1119    1120
       8    1210    1209    1198    1211    1132    1131    1120    1133
       8    1212    1211    1198    1199    1134    1133    1120    1121
       8    1191    1212    1199    1189    1113    1134    1121    1111
       8    1213    1192    1193    1195    1135    1114    1115    1117
       8    1214    1213    1195    1201    1136    1135    1117    1123
       8    1215    1214    1201    1216    1137    1136    1123    1138
       8    1217    1216    1201    1200    1139    1138    1123    1122
       8    1218    1217    1200    1202    1140    1139    1122    1124
       8    1219    1218    1202    1203    1141    1140    1124    1125
       8    1220    1219    1203    1221    1142    1141    1125    1143
       8    1175    1221    1203    1173    1097    1143    1125    1095
       8    1222    1223    1174    1204    1144    1145    1096    1126
       8    1224    1222    1204    1205    1146    1144    1126    1127
       8    1225    1224    1205    1206    1147    1146    1127    1128
       8    1226    1225    1206    1182    1148    1147    1128    1104
       8    1227    1226    1182    1181    1149    1148    1104    1103
       8    1228    1227    1181    1184    1150    1149    1103    1106
       8    1229    1228    1184    1207    1151    1150    1106    1129
       8    1230    1229    1207    1208    1152    1151    1129    1130
       8    1231    1230    1208    1209    1153    1152    1130    1131
       8    1232    1231    1209    1210    1154    1153    1131    1132
       8    1233    1232    1210    1211    1155    1154    1132    1133
       8    1234    1233    1211    1212    1156    1155    1133    1134
       8    1235    1234    1212    1191    1157    1156    1134    1113
       8    1236    1235    1191    1190    1158    1157    1113    1112
       8    1237    1236    1190    1192    1159    1158    1112    1114
       8    1238    1237    1192    1213    1160    1159    1114    1135
       8    1239    1238    1213    1214    1161    1160    1135    1136
       8    1240    1239    1214    1215    1162    1161    1136    1137
       8    1241    1240    1215    1216    1163    1162    1137    1138
       8    1242    1241    1216    1217    1164    1163    1138    1139
       8    1243    1242    1217    1218    1165    1164    1139    1140
       8    1244    1243    1218    1219    1166    1165    1140    1141
       8    1245    1244    1219    1220    1167    1166    1141    1142
       8    1246    1245    1220    1221    1168    1167    1142    1143
       8    1247    1246    1221    1175    1169    1168    1143    1097
       8    1223    1247    1175    1174    1145    1169    1097    1096
       8    1248    1249    1250    1251    1170    1171    1172    1173
       8    1250    1252    1253    1251    1172    1174    1175    1173
       8    1254    1249    1248    1255    1176    1171    1170    1177
       8    1248    1256    1257    1255    1170    1178    1179    1177
       8    1258    1259    1260    1254    1180    1181    1182    1176
       8    1261    1262    1259    1258    1183    1184    1181    1180
       8    1255    1261    1258    1254    1177    1183    1180    1176
       8    1263    1264    1256    1265    1185    1186    1178    1187
       8    1266    1267    1264    1263    1188    1189    1186    1185
       8    1268    1269    1267    1266    1190    1191    1189    1188
       8    1270    1268    1266    1271    1192    1190    1188    1193
       8    1272    1257    1256    1264    1194    1179    1178    1186
       8    1263    1273    1271    1266    1185    1195    1193    1188
       8    1248    1251    1265    1256    1170    1173    1187    1178
       8    1274    1261    1255    1257    1196    1183    1177    1179
       8    1275    1274    1257    1272    1197    1196    1179    1194
       8    1276    1275    1272    1277    1198    1197    1194    1199
       8    1267    1277    1272    1264    1189    1199    1194    1186
       8    1278    1279    1273    1263    1200    1201    1195    1185
       8    1280    1278    1263    1265    1202    1200    1185    1187
       8    1281    1280    1265    1251    1203    1202    1187    1173
       8    1282    1252    1250    1283    1204    1174    1172    1205
       8    1284    1283    1250    1249    1206    1205    1172    1171
       8    1260    1284    1249    1254    1182    1206    1171    1176
       8    1285    1262    1261    1274    1207    1184    1183    1196
       8    1286    1285    1274    1275    1208    1207    1196    1197
       8    1287    1286    1275    1276    1209    1208    1197    1198
       8    1288    1287    1276    1289    1210    1209    1198    1211
       8    1290    1289    1276    1277    1212    1211    1198    1199
       8    1269    1290    1277    1267    1191    1212    1199    1189
       8    1291    1270    1271    1273    1213    1192    1193    1195
       8    1292    1291    1273    1279    1214    1213    1195    1201
       8    1293    1292    1279    1294    1215    1214    1201    1216
       8    1295    1294    1279    1278    1217    1216    1201    1200
       8    1296    1295    1278    1280    1218    1217    1200    1202
       8    1297    1296    1280    1281    1219    1218    1202    1203
       8    1298    1297    1281    1299    1220    1219    1203    1221
       8    1253    1299    1281    1251    1175    1221    1203    1173
       8    1300    1301    1252    1282    1222    1223    1174    1204
       8    1302    1300    1282    1283    1224    1222    1204    1205
       8    1303    1302    1283    1284    1225    1224    1205    1206
       8    1304    1303    1284    1260    1226    1225    1206    1182
       8    1305    1304    1260    1259    1227    1226    1182    1181
       8    1306    1305    1259    1262    1228    1227    1181    1184
       8    1307    1306    1262    1285    1229    1228    1184    1207
       8    1308    1307    1285    1286    1230    1229    1207    1208
       8    1309    1308    1286    1287    1231    1230    1208    1209
       8    1310    1309    1287    1288    1232    1231    1209    1210
       8    1311    1310    1288    1289    1233    1232    1210    1211
       8    1312    1311    1289    1290    1234    1233    1211    1212
       8    1313    1312    1290    1269    1235    1234    1212    1191
       8    1314    1313    1269    1268    1236    1235    1191    1190
       8    1315    1314    1268    1270    1237    1236    1190    1192
       8    1316    1315    1270    1291    1238    1237    1192    1213
       8    1317    1316    1291    1292    1239    1238    1213    1214
       8    1318    1317    1292    1293    1240    1239    1214    1215
       8    1319    1318    1293    1294    1241    1240    1215    1216
       8    1320    1319    1294    1295    1242    1241    1216    1217
       8    1321    1320    1295    1296    1243    1242    1217    1218
       8    1322    1321    1296    1297    1244    1243    1218    1219
       8    1323    1322    1297    1298    1245    1244    1219    1220
       8    1324    1323    1298    1299    1246    1245    1220    1221
       8    1325    1324    1299    1253    1247    1246    1221    1175
       8    1301    1325    1253    1252    1223    1247    1175    1174
       8    1326    1327    1328    1329    1248    1249    1250    1251
       8    1328    1330    1331    1329    1250    1252    1253    1251
       8    1332    1327    1326    1333    1254    1249    1248    1255
       8    1326    1334    1335    1333    1248    1256    1257    1255
       8    1336    1337    1338    1332    1258    1259    1260    1254
       8    1339    1340    1337    1336    1261    1262    1259    1258
       8    1333    1339    1336    1332    1255    1261    1258    1254
       8    1341    1342    1334    1343    1263    1264    1256    1265
       8    1344    1345    1342    1341    1266    1267    1264    1263
       8    1346    1347    1345    1344    1268    1269    1267    1266
       8    1348    1346    1344    1349    1270    1268    1266    1271
       8    1350    1335    1334    1342    1272    1257    1256    1264
       8    1341    1351    1349    1344    1263    1273    1271    1266
       8    1326    1329    1343    1334    1248    1251    1265    1256
       8    1352    1339    1333    1335    1274    1261    1255    1257
       8    1353    1352    1335    1350    1275    1274    1257    1272
       8    1354    1353    1350    1355    1276    1275    1272    1277
       8    1345    1355    1350    1342    1267    1277    1272    1264
       8    1356    1357    1351    1341    1278    1279    1273    1263
       8    1358    1356    1341    1343    1280    1278    1263    1265
       8    1359    1358    1343    1329    1281    1280    1265    1251
       8    1360    1330    1328    1361    1282    1252    1250    1283
       8    1362    1361    1328    1327    1284    1283    1250    1249
       8    1338    1362    1327    1332    1260    1284    1249    1254
       8    1363    1340    1339    1352    1285    1262    1261    1274
       8    1364    1363    1352    1353    1286    1285    1274    1275
       8    1365    1364    1353    1354    1287    1286    1275    1276
       8    1366    1365    1354    1367    1288    1287    1276    1289
       8    1368    1367    1354    1355    1290    1289    1276    1277
       8    1347    1368    1355    1345    1269    1290    1277    1267
       8    1369    1348    1349    1351    1291    1270    1271    1273
       8    1370    1369    1351    1357    1292    1291    1273    1279
       8    1371    1370    1357    1372    1293    1292    1279    1294
       8    1373    1372    1357    1356    1295    1294    1279    1278
       8    1374    1373    1356    1358    1296    1295    1278    1280
       8    1375    1374    1358    1359    1297    1296    1280    1281
       8    1376    1375    1359    1377    1298    1297    1281    1299
       8    1331    1377    1359    1329    1253    1299    1281    1251
       8    1378    1379    1330    1360    1300    1301    1252    1282
       8    1380    1378    1360    1361    1302    1300    1282    1283
       8    1381    1380    1361    1362    1303    1302    1283    1284
       8    1382    1381    1362    1338    1304    1303    1284    1260
       8    1383    1382    1338    1337    1305    1304    1260    1259
       8    1384    1383    1337    1340    1306    1305    1259    1262
       8    1385    1384    1340    1363    1307    1306    1262    1285
       8    1386    1385    1363    1364    1308    1307    1285    1286
       8    1387    1386    1364    1365    1309    1308    1286    1287
       8    1388    1387    1365    1366    1310    1309    1287    1288
       8    1389    1388    1366    1367    1311    1310    1288    1289
       8    1390    1389    1367    1368    1312    1311    1289    1290
       8    1391    1390    1368    1347    1313    1312    1290    1269
       8    1392    1391    1347    1346    1314    1313    1269    1268
       8    1393    1392    1346    1348    1315    1314    1268    1270
       8    1394    1393    1348    1369    1316    1315    1270    1291
       8    1395    1394    1369    1370    1317    1316    1291    1292
       8    1396    1395    1370    1371    1318    1317    1292    1293
       8    1397    1396    1371    1372    1319    1318    1293    1294
       8    1398    1397    1372    1373    1320    1319    1294    1295
       8    1399    1398    1373    1374    1321    1320    1295    1296
       8    1400    1399    1374    1375    1322    1321    1296    1297
       8    1401    1400    1375    1376    1323    1322    1297    1298
       8    1402    1401    1376    1377    1324    1323    1298    1299
       8    1403    1402    1377    1331    1325    1324    1299    1253
       8    1379    1403    1331    1330    1301    1325    1253    1252
       8    1404    1405    1406    1407    1326    1327    1328    1329
       8    1406    1408    1409    1407    1328    1330    1331    1329
       8    1410    1405    1404    1411    1332    1327    1326    1333
       8    1404    1412    1413    1411    1326    1334    1335    1333
       8    1414    1415    1416    1410    1336    1337    1338    1332
       8    1417    1418    1415    1414    1339    1340    1337    1336
       8    1411    1417    1414    1410    1333    1339    1336    1332
       8    1419    1420    1412    1421    1341    1342    1334    1343
       8    1422    1423    1420    1419    1344    1345    1342    1341
       8    1424    1425    1423    1422    1346    1347    1345    1344
       8    1426    1424    1422    1427    1348    1346    1344    1349
       8    1428    1413    1412    1420    1350    1335    1334    1342
       8    1419    1429    1427    1422    1341    1351    1349    1344
       8    1404    1407    1421    1412    1326    1329    1343    1334
       8    1430    1417    1411    1413    1352    1339    1333    1335
       8    1431    1430    1413    1428    1353    1352    1335    1350
       8    1432    1431    1428    1433    1354    1353    1350    1355
       8    1423    1433    1428    1420    1345    1355    1350    1342
       8    1434    1435    1429    1419    1356    1357    1351    1341
       8    1436    1434    1419    1421    1358    1356    1341    1343
       8    1437    1436    1421    1407    1359    1358    1343    1329
       8    1438    1408    1406    1439    1360    1330    1328    1361
       8    1440    1439    1406    1405    1362    1361    1328    1327
       8    1416    1440    1405    1410    1338    1362    1327    1332
       8    1441    1418    1417    1430    1363    1340    1339    1352
       8    1442    1441    1430    1431    1364    1363    1352    1353
       8    1443    1442    1431    1432    1365    1364    1353    1354
       8    1444    1443    1432    1445    1366    1365    1354    1367
       8    1446    1445    1432    1433    1368    1367    1354    1355
       8    1425    1446    1433    1423    1347    1368    1355    1345
       8    1447    1426    1427    1429    1369    1348    1349    1351
       8    1448    1447    1429    1435    1370    1369    1351    1357
       8    1449    1448    1435    1450    1371    1370    1357    1372
       8    1451    1450    1435    1434    1373    1372    1357    1356
       8    1452    1451    1434    1436    1374    1373    1356    1358
       8    1453    1452    1436    1437    1375    1374    1358    1359
       8    1454    1453    1437    1455    1376    1375    1359    1377
       8    1409    1455    1437    1407    1331    1377    1359    1329
       8    1456    1457    1408    1438    1378    1379    1330    1360
       8    1458    1456    1438    1439    1380    1378    1360    1361
       8    1459    1458    1439    1440    1381    1380    1361    1362
       8    1460    1459    1440    1416    1382    1381    1362    1338
       8    1461    1460    1416    1415    1383    1382    1338    1337
       8    1462    1461    1415    1418    1384    1383    1337    1340
       8    1463    1462    1418    1441    1385    1384    1340    1363
       8    1464    1463    1441    1442    1386    1385    1363    1364
       8    1465    1464    1442    1443    1387    1386    1364    1365
       8    1466    1465    1443    1444    1388    1387    1365    1366
       8    1467    1466    1444    1445    1389    1388    1366    1367
       8    1468    1467    1445    1446    1390    1389    1367    1368
       8    1469    1468    1446    1425    1391    1390    1368    1347
       8    1470    1469    1425    1424    1392    1391    1347    1346
       8    1471    1470    1424    1426    1393    1392    1346    1348
       8    1472    1471    1426    1447    1394    1393    1348    1369
       8    1473    1472    1447    1448    1395    1394    1369    1370
       8    1474    1473    1448    1449    1396    1395    1370    1371
       8    1475    1474    1449    1450    1397    1396    1371    1372
       8    1476    1475    1450    1451    1398    1397    1372    1373
       8    1477    1476    1451    1452    1399    1398    1373    1374
       8    1478    1477    1452    1453    1400    1399    1374    1375
       8    1479    1478    1453    1454    1401    1400    1375    1376
       8    1480    1479    1454    1455    1402    1401    1376    1377
       8    1481    1480    1455    1409    1403    1402    1377    1331
       8    1457    1481    1409    1408    1379    1403    1331    1330
       8    1482    1483    1484    1485    1404    1405    1406    1407
       8    1484    1486    1487    1485    1406    1408    1409    1407
       8    1488    1483    1482    1489    1410    1405    1404    1411
       8    1482    1490    1491    1489    1404    1412    1413    1411
       8    1492    1493    1494    1488    1414    1415    1416    1410
       8    1495    1496    1493    1492    1417    1418    1415    1414
       8    1489    1495    1492    1488    1411    1417    1414    1410
       8    1497    1498    1490    1499    1419    1420    1412    1421
       8    1500    1501    1498    1497    1422    1423    1420    1419
       8    1502    1503    1501    1500    1424    1425    1423    1422
       8    1504    1502    1500    1505    1426    1424    1422    1427
       8    1506    1491    1490    1498    1428    1413    1412    1420
       8    1497    1507    1505    1500    1419    1429    1427    1422
       8    1482    1485    1499    1490    1404    1407    1421    1412
       8    1508    1495    1489    1491    1430    1417    1411    1413
       8    1509    1508    1491    1506    1431    1430    1413    1428
       8    1510    1509    1506    1511    1432    1431    1428    1433
       8    1501    1511    1506    1498    1423    1433    1428    1420
       8    1512    1513    1507    1497    1434    1435    1429    1419
       8    1514    1512    1497    1499    1436    1434    1419    1421
       8    1515    1514    1499    1485    1437    1436    1421    1407
       8    1516    1486    1484    1517    1438    1408    1406    1439
       8    1518    1517    1484    1483    1440    1439    1406    1405
       8    1494    1518    1483    1488    1416    1440    1405    1410
       8    1519    1496    1495    1508    1441    1418    1417    1430
       8    1520    1519    1508    1509    1442    1441    1430    1431
       8    1521    1520    1509    1510    1443    1442    1431    1432
       8    1522    1521    1510    1523    1444    1443    1432    1445
       8    1524    1523    1510    1511    1446    1445    1432    1433
       8    1503    1524    1511    1501    1425    1446    1433    1423
       8    1525    1504    1505    1507    1447    1426    1427    1429
       8    1526    1525    1507    1513    1448    1447    1429    1435
       8    1527    1526    1513    1528    1449    1448    1435    1450
       8    1529    1528    1513    1512    1451    1450    1435    1434
       8    1530    1529    1512    1514    1452    1451    1434    1436
       8    1531    1530    1514    1515    1453    1452    1436    1437
       8    1532    1531    1515    1533    1454    1453    1437    1455
       8    1487    1533    1515    1485    1409    1455    1437    1407
       8    1534    1535    1486    1516    1456    1457    1408    1438
       8    1536    1534    1516    1517    1458    1456    1438    1439
       8    1537    1536    1517    1518    1459    1458    1439    1440
       8    1538    1537    1518    1494    1460    1459    1440    1416
       8    1539    1538    1494    1493    1461    1460    1416    1415
       8    1540    1539    1493    1496    1462    1461    1415    1418
       8    1541    1540    1496    1519    1463    1462    1418    1441
       8    1542    1541    1519    1520    1464    1463    1441    1442
       8    1543    1542    1520    1521    1465    1464    1442    1443
       8    1544    1543    1521    1522    1466    1465    1443    1444
       8    1545    1544    1522    1523    1467    1466    1444    1445
       8    1546    1545    1523    1524    1468    1467    1445    1446
       8    1547    1546    1524    1503    1469    1468    1446    1425
       8    1548    1547    1503    1502    1470    1469    1425    1424
       8    1549    1548    1502    1504    1471    1470    1424    1426
       8    1550    1549    1504    1525    1472    1471    1426    1447
       8    1551    1550    1525    1526    1473    1472    1447    1448
       8    1552    1551    1526    1527    1474    1473    1448    1449
       8    1553    1552    1527    1528    1475    1474    1449    1450
       8    1554    1553    1528    1529    1476    1475    1450    1451
       8    1555    1554    1529    1530    1477    1476    1451    1452
       8    1556    1555    1530    1531    1478    1477    1452    1453
       8    1557    1556    1531    1532    1479    1478    1453    1454
       8    1558    1557    1532    1533    1480    1479    1454    1455
       8    1559    1558    1533    1487    1481    1480    1455    1409
       8    1535    1559    1487    1486    1457    1481    1409    1408
       8    1560    1561    1562    1563    1482    1483    1484    1485
       8    1562    1564    1565    1563    1484    1486    1487    1485
       8    1566    1561    1560    1567    1488    1483    1482    1489
       8    1560    1568    1569    1567    1482    1490    1491    1489
       8    1570    1571    1572    1566    1492    1493    1494    1488
       8    1573    1574    1571    1570    1495    1496    1493    1492
       8    1567    1573    1570    1566    1489    1495    1492    1488
       8    1575    1576    1568    1577    1497    1498    1490    1499
       8    1578    1579    1576    1575    1500    1501    1498    1497
       8    1580    1581    1579    1578    1502    1503    1501    1500
       8    1582    1580    1578    1583    1504    1502    1500    1505
       8    1584    1569    1568    1576    1506    1491    1490    1498
       8    1575    1585    1583    1578    1497    1507    1505    1500
       8    1560    1563    1577    1568    1482    1485    1499    1490
       8    1586    1573    1567    1569    1508    1495    1489    1491
       8    1587    1586    1569    1584    1509    1508    1491    1506
       8    1588    1587    1584    1589    1510    1509    1506    1511
       8    1579    1589    1584    1576    1501    1511    1506    1498
       8    1590    1591    1585    1575    1512    1513    1507    1497
       8    1592    1590    1575    1577    1514    1512    1497    1499
       8    1593    1592    1577    1563    1515    1514    1499    1485
       8    1594    1564    1562    1595    1516    1486    1484    1517
       8    1596    1595    1562    1561    1518    1517    1484    1483
       8    1572    1596    1561    1566    1494    1518    1483    1488
       8    1597    1574    1573    1586    1519    1496    1495    1508
       8    1598    1597    1586    1587    1520    1519    1508    1509
       8    1599    1598    1587    1588    1521    1520    1509    1510
       8    1600    1599    1588    1601    1522    1521    1510    1523
       8    1602    1601    1588    1589    1524    1523    1510    1511
       8    1581    1602    1589    1579    1503    1524    1511    1501
       8    1603    1582    1583    1585    1525    1504    1505    1507
       8    1604    1603    1585    1591    1526    1525    1507    1513
       8    1605    1604    1591    1606    1527    1526    1513    1528
       8    1607    1606    1591    1590    1529    1528    1513    1512
       8    1608    1607    1590    1592    1530    1529    1512    1514
       8    1609    1608    1592    1593    1531    1530    1514    1515
       8    1610    1609    1593    1611    1532    1531    1515    1533
       8    1565    1611    1593    1563    1487    1533    1515    1485
       8    1612    1613    1564    1594    1534    1535    1486    1516
       8    1614    1612    1594    1595    1536    1534    1516    1517
       8    1615    1614    1595    1596    1537    1536    1517    1518
       8    1616    1615    1596    1572    1538    1537    1518    1494
       8    1617    1616    1572    1571    1539    1538    1494    1493
       8    1618    1617    1571    1574    1540    1539    1493    1496
       8    1619    1618    1574    1597    1541    1540    1496    1519
       8    1620    1619    1597    1598    1542    1541    1519    1520
       8    1621    1620    1598    1599    1543    1542    1520    1521
       8    1622    1621    1599    1600    1544    1543    1521    1522
       8    1623    1622    1600    1601    1545    1544    1522    1523
       8    1624    1623    1601    1602    1546    1545    1523    1524
       8    1625    1624    1602    1581    1547    1546    1524    1503
       8    1626    1625    1581    1580    1548    1547    1503    1502
       8    1627    1626    1580    1582    1549    1548    1502    1504
       8    1628    1627    1582    1603    1550    1549    1504    1525
       8    1629    1628    1603    1604    1551    1550    1525    1526
       8    1630    1629    1604    1605    1552    1551    1526    1527
       8    1631    1630    1605    1606    1553    1552    1527    1528
       8    1632    1631    1606    1607    1554    1553    1528    1529
       8    1633    1632    1607    1608    1555    1554    1529    1530
       8    1634    1633    1608    1609    1556    1555    1530    1531
       8    1635    1634    1609    1610    1557    1556    1531    1532
       8    1636    1635    1610    1611    1558    1557    1532    1533
       8    1637    1636    1611    1565    1559    1558    1533    1487
       8    1613    1637    1565    1564    1535    1559    1487    1486
       8    1638    1639    1640    1641    1560    1561    1562    1563
       8    1640    1642    1643    1641    1562    1564    1565    1563
       8    1644    1639    1638    1645    1566    1561    1560    1567
       8    1638    1646    1647    1645    1560    1568    1569    1567
       8    1648    1649    1650    1644    1570    1571    1572    1566
       8    1651    1652    1649    1648    1573    1574    1571    1570
       8    1645    1651    1648    1644    1567    1573    1570    1566
       8    1653    1654    1646    1655    1575    1576    1568    1577
       8    1656    1657    1654    1653    1578    1579    1576    1575
       8    1658    1659    1657    1656    1580    1581    1579    1578
       8    1660    1658    1656    1661    1582    1580    1578    1583
       8    1662    1647    1646    1654    1584    1569    1568    1576
       8    1653    1663    1661    1656    1575    1585    1583    1578
       8    1638    1641    1655    1646    1560    1563    1577    1568
       8    1664    1651    1645    1647    1586    1573    1567    1569
       8    1665    1664    1647    1662    1587    1586    1569    1584
       8    1666    1665    1662    1667    1588    1587    1584    1589
       8    1657    1667    1662    1654    1579    1589    1584    1576
       8    1668    1669    1663    1653    1590    1591    1585    1575
       8    1670    1668    1653    1655    1592    1590    1575    1577
       8    1671    1670    1655    1641    1593    1592    1577    1563
       8    1672    1642    1640    1673    1594    1564    1562    1595
       8    1674    1673    1640    1639    1596    1595    1562    1561
       8    1650    1674    1639    1644    1572    1596    1561    1566
       8    1675    1652    1651    1664    1597    1574    1573    1586
       8    1676    1675    1664    1665    1598    1597    1586    1587
       8    1677    1676    1665    1666    1599    1598    1587    1588
       8    1678    1677    1666    1679    1600    1599    1588    1601
       8    1680    1679    1666    1667    1602    1601    1588    1589
       8    1659    1680    1667    1657    1581    1602    1589    1579
       8    1681    1660    1661    1663    1603    1582    1583    1585
       8    1682    1681    1663    1669    1604    1603    1585    1591
       8    1683    1682    1669    1684    1605    1604    1591    1606
       8    1685    1684    1669    1668    1607    1606    1591    1590
       8    1686    1685    1668    1670    1608    1607    1590    1592
       8    1687    1686    1670    1671    1609    1608    1592    1593
       8    1688    1687    1671    1689    1610    1609    1593    1611
       8    1643    1689    1671    1641    1565    1611    1593    1563
       8    1690    1691    1642    1672    1612    1613    1564    1594
       8    1692    1690    1672    1673    1614    1612    1594    1595
       8    1693    1692    1673    1674    1615    1614    1595    1596
       8    1694    1693    1674    1650    1616    1615    1596    1572
       8    1695    1694    1650    1649    1617    1616    1572    1571
       8    1696    1695    1649    1652    1618    1617    1571    1574
       8    1697    1696    1652    1675    1619    1618    1574    1597
       8    1698    1697    1675    1676    1620    1619    1597    1598
       8    1699    1698    1676    1677    1621    1620    1598    1599
       8    1700    1699    1677    1678    1622    1621    1599    1600
       8    1701    1700    1678    1679    1623    1622    1600    1601
       8    1702    1701    1679    1680    1624    1623    1601    1602
       8    1703    1702    1680    1659    1625    1624    1602    1581
       8    1704    1703    1659    1658    1626    1625    1581    1580
       8    1705    1704    1658    1660    1627    1626    1580    1582
       8    1706    1705    1660    1681    1628    1627    1582    1603
       8    1707    1706    1681    1682    1629    1628    1603    1604
       8    1708    1707    1682    1683    1630    1629    1604    1605
       8    1709    1708    1683    1684    1631    1630    1605    1606
       8    1710    1709    1684    1685    1632    1631    1606    1607
       8    1711    1710    1685    1686    1633    1632    1607    1608
       8    1712    1711    1686    1687    1634    1633    1608    1609
       8    1713    1712    1687    1688    1635    1634    1609    1610
       8    1714    1713    1688    1689    1636    1635    1610    1611
       8    1715    1714    1689    1643    1637    1636    1611    1565
       8    1691    1715    1643    1642    1613    1637    1565    1564
       8    1716    1717    1718    1719    1638    1639    1640    1641
       8    1718    1720    1721    1719    1640    1642    1643    1641
       8    1722    1717    1716    1723    1644    1639    1638    1645
       8    1716    1724    1725    1723    1638    1646    1647    1645
       8    1726    1727    1728    1722    1648    1649    1650    1644
       8    1729    1730    1727    1726    1651    1652    1649    1648
       8    1723    1729    1726    1722    1645    1651    1648    1644
       8    1731    1732    1724    1733    1653    1654    1646    1655
       8    1734    1735    1732    1731    1656    1657    1654    1653
       8    1736    1737    1735    1734    1658    1659    1657    1656
       8    1738    1736    1734    1739    1660    1658    1656    1661
       8    1740    1725    1724    1732    1662    1647    1646    1654
       8    1731    1741    1739    1734    1653    1663    1661    1656
       8    1716    1719    1733    1724    1638    1641    1655    1646
       8    1742    1729    1723    1725    1664    1651    1645    1647
       8    1743    1742    1725    1740    1665    1664    1647    1662
       8    1744    1743    1740    1745    1666    1665    1662    1667
       8    1735    1745    1740    1732    1657    1667    1662    1654
       8    1746    1747    1741    1731    1668    1669    1663    1653
       8    1748    1746    1731    1733    1670    1668    1653    1655
       8    1749    1748    1733    1719    1671    1670    1655    1641
       8    1750    1720    1718    1751    1672    1642    1640    1673
       8    1752    1751    1718    1717    1674    1673    1640    1639
       8    1728    1752    1717    1722    1650    1674    1639    1644
       8    1753    1730    1729    1742    1675    1652    1651    1664
       8    1754    1753    1742    1743    1676    1675    1664    1665
       8    1755    1754    1743    1744    1677    1676    1665    1666
       8    1756    1755    1744    1757    1678    1677    1666    1679
       8    1758    1757    1744    1745    1680    1679    1666    1667
       8    1737    1758    1745    1735    1659    1680    1667    1657
       8    1759    1738    1739    1741    1681    1660    1661    1663
       8    1760    1759    1741    1747    1682    1681    1663    1669
       8    1761    1760    1747    1762    1683    1682    1669    1684
       8    1763    1762    1747    1746    1685    1684    1669    1668
       8    1764    1763    1746    1748    1686    1685    1668    1670
       8    1765    1764    1748    1749    1687    1686    1670    1671
       8    1766    1765    1749    1767    1688    1687    1671    1689
       8    1721    1767    1749    1719    1643    1689    1671    1641
       8    1768    1769    1720    1750    1690    1691    1642    1672
       8    1770    1768    1750    1751    1692    1690    1672    1673
       8    1771    1770    1751    1752    1693    1692    1673    1674
       8    1772    1771    1752    1728    1694    1693    1674    1650
       8    1773    1772    1728    1727    1695    1694    1650    1649
       8    1774    1773    1727    1730    1696    1695    1649    1652
       8    1775    1774    1730    1753    1697    1696    1652    1675
       8    1776    1775    1753    1754    1698    1697    1675    1676
       8    1777    1776    1754    1755    1699    1698    1676    1677
       8    1778    1777    1755    1756    1700    1699    1677    1678
       8    1779    1778    1756    1757    1701    1700    1678    1679
       8    1780    1779    1757    1758    1702    1701    1679    1680
       8    1781    1780    1758    1737    1703    1702    1680    1659
       8    1782    1781    1737    1736    1704    1703    1659    1658
       8    1783    1782    1736    1738    1705    1704    1658    1660
       8    1784    1783    1738    1759    1706    1705    1660    1681
       8    1785    1784    1759    1760    1707    1706    1681    1682
       8    1786    1785    1760    1761    1708    1707    1682    1683
       8    1787    1786    1761    1762    1709    1708    1683    1684
       8    1788    1787    1762    1763    1710    1709    1684    1685
       8    1789    1788    1763    1764    1711    1710    1685    1686
       8    1790    1789    1764    1765    1712    1711    1686    1687
       8    1791    1790    1765    1766    1713    1712    1687    1688
       8    1792    1791    1766    1767    1714    1713    1688    1689
       8    1793    1792    1767    1721    1715    1714    1689    1643
       8    1769    1793    1721    1720    1691    1715    1643    1642
       8    1794    1795    1796    1797    1716    1717    1718    1719
       8    1796    1798    1799    1797    1718    1720    1721    1719
       8    1800    1795    1794    1801    1722    1717    1716    1723
       8    1794    1802    1803    1801    1716    1724    1725    1723
       8    1804    1805    1806    1800    1726    1727    1728    1722
       8    1807    1808    1805    1804    1729    1730    1727    1726
       8    1801    1807    1804    1800    1723    1729    1726    1722
       8    1809    1810    1802    1811    1731    1732    1724    1733
       8    1812    1813    1810    1809    1734    1735    1732    1731
       8    1814    1815    1813    1812    1736    1737    1735    1734
       8    1816    1814    1812    1817    1738    1736    1734    1739
       8    1818    1803    1802    1810    1740    1725    1724    1732
       8    1809    1819    1817    1812    1731    1741    1739    1734
       8    1794    1797    1811    1802    1716    1719    1733    1724
       8    1820    1807    1801    1803    1742    1729    1723    1725
       8    1821    1820    1803    1818    1743    1742    1725    1740
       8    1822    1821    1818    1823    1744    1743    1740    1745
       8    1813    1823    1818    1810    1735    1745    1740    1732
       8    1824    1825    1819    1809    1746    1747    1741    1731
       8    1826    1824    1809    1811    1748    1746    1731    1733
       8    1827    1826    1811    1797    1749    1748    1733    1719
       8    1828    1798    1796    1829    1750    1720    1718    1751
       8    1830    1829    1796    1795    1752    1751    1718    1717
       8    1806    1830    1795    1800    1728    1752    1717    1722
       8    1831    1808    1807    1820    1753    1730    1729    1742
       8    1832    1831    1820    1821    1754    1753    1742    1743
       8    1833    1832    1821    1822    1755    1754    1743    1744
       8    1834    1833    1822    1835    1756    1755    1744    1757
       8    1836    1835    1822    1823    1758    1757    1744    1745
       8    1815    1836    1823    1813    1737    1758    1745    1735
       8    1837    1816    1817    1819    1759    1738    1739    1741
       8    1838    1837    1819    1825    1760    1759    1741    1747
       8    1839    1838    1825    1840    1761    1760    1747    1762
       8    1841    1840    1825    1824    1763    1762    1747    1746
       8    1842    1841    1824    1826    1764    1763    1746    1748
       8    1843    1842    1826    1827    1765    1764    1748    1749
       8    1844    1843    1827    1845    1766    1765    1749    1767
       8    1799    1845    1827    1797    1721    1767    1749    1719
       8    1846    1847    1798    1828    1768    1769    1720    1750
       8    1848    1846    1828    1829    1770    1768    1750    1751
       8    1849    1848    1829    1830    1771    1770    1751    1752
       8    1850    1849    1830    1806    1772    1771    1752    1728
       8    1851    1850    1806    1805    1773    1772    1728    1727
       8    1852    1851    1805    1808    1774    1773    1727    1730
       8    1853    1852    1808    1831    1775    1774    1730    1753
       8    1854    1853    1831    1832    1776    1775    1753    1754
       8    1855    1854    1832    1833    1777    1776    1754    1755
       8    1856    1855    1833    1834    1778    1777    1755    1756
       8    1857    1856    1834    1835    1779    1778    1756    1757
       8    1858    1857    1835    1836    1780    1779    1757    1758
       8    1859    1858    1836    1815    1781    1780    1758    1737
       8    1860    1859    1815    1814    1782    1781    1737    1736
       8    1861    1860    1814    1816    1783    1782    1736    1738
       8    1862    1861    1816    1837    1784    1783    1738    1759
       8    1863    1862    1837    1838    1785    1784    1759    1760
       8    1864    1863    1838    1839    1786    1785    1760    1761
       8    1865    1864    1839    1840    1787    1786    1761    1762
       8    1866    1865    1840    1841    1788    1787    1762    1763
       8    1867    1866    1841    1842    1789    1788    1763    1764
       8    1868    1867    1842    1843    1790    1789    1764    1765
       8    1869    1868    1843    1844    1791    1790    1765    1766
       8    1870    1869    1844    1845    1792    1791    1766    1767
       8    1871    1870    1845    1799    1793    1792    1767    1721
       8    1847    1871    1799    1798    1769    1793    1721    1720
       8    1872    1873    1874    1875    1794    1795    1796    1797
       8    1874    1876    1877    1875    1796    1798    1799    1797
       8    1878    1873    1872    1879    1800    1795    1794    1801
       8    1872    1880    1881    1879    1794    1802    1803    1801
       8    1882    1883    1884    1878    1804    1805    1806    1800
       8    1885    1886    1883    1882    1807    1808    1805    1804
       8    1879    1885    1882    1878    1801    1807    1804    1800
       8    1887    1888    1880    1889    1809    1810    1802    1811
       8    1890    1891    1888    1887    1812    1813    1810    1809
       8    1892    1893    1891    1890    1814    1815    1813    1812
       8    1894    1892    1890    1895    1816    1814    1812    1817
       8    1896    1881    1880    1888    1818    1803    1802    1810
       8    1887    1897    1895    1890    1809    1819    1817    1812
       8    1872    1875    1889    1880    1794    1797    1811    1802
       8    1898    1885    1879    1881    1820    1807    1801    1803
       8    1899    1898    1881    1896    1821    1820    1803    1818
       8    1900    1899    1896    1901    1822    1821    1818    1823
       8    1891    1901    1896    1888    1813    1823    1818    1810
       8    1902    1903    1897    1887    1824    1825    1819    1809
       8    1904    1902    1887    1889    1826    1824    1809    1811
       8    1905    1904    1889    1875    1827    1826    1811    1797
       8    1906    1876    1874    1907    1828    1798    1796    1829
       8    1908    1907    1874    1873    1830    1829    1796    1795
       8    1884    1908    1873    1878    1806    1830    1795    1800
       8    1909    1886    1885    1898    1831    1808    1807    1820
       8    1910    1909    1898    1899    1832    1831    1820    1821
       8    1911    1910    1899    1900    1833    1832    1821    1822
       8    1912    1911    1900    1913    1834    1833    1822    1835
       8    1914    1913    1900    1901    1836    1835    1822    1823
       8    1893    1914    1901    1891    1815    1836    1823    1813
       8    1915    1894    1895    1897    1837    1816    1817    1819
       8    1916    1915    1897    1903    1838    1837    1819    1825
       8    1917    1916    1903    1918    1839    1838    1825    1840
       8    1919    1918    1903    1902    1841    1840    1825    1824
       8    1920    1919    1902    1904    1842    1841    1824    1826
       8    1921    1920    1904    1905    1843    1842    1826    1827
       8    1922    1921    1905    1923    1844    1843    1827    1845
       8    1877    1923    1905    1875    1799    1845    1827    1797
       8    1924    1925    1876    1906    1846    1847    1798    1828
       8    1926    1924    1906    1907    1848    1846    1828    1829
       8    1927    1926    1907    1908    1849    1848    1829    1830
       8    1928    1927    1908    1884    1850    1849    1830    1806
       8    1929    1928    1884    1883    1851    1850    1806    1805
       8    1930    1929    1883    1886    1852    1851    1805    1808
       8    1931    1930    1886    1909    1853    1852    1808    1831
       8    1932    1931    1909    1910    1854    1853    1831    1832
       8    1933    1932    1910    1911    1855    1854    1832    1833
       8    1934    1933    1911    1912    1856    1855    1833    1834
       8    1935    1934    1912    1913    1857    1856    1834    1835
       8    1936    1935    1913    1914    1858    1857    1835    1836
       8    1937    1936    1914    1893    1859    1858    1836    1815
       8    1938    1937    1893    1892    1860    1859    1815    1814
       8    1939    1938    1892    1894    1861    1860    1814    1816
       8    1940    1939    1894    1915    1862    1861    1816    1837
       8    1941    1940    1915    1916    1863    1862    1837    1838
       8    1942    1941    1916    1917    1864    1863    1838    1839
       8    1943    1942    1917    1918    1865    1864    1839    1840
       8    1944    1943    1918    1919    1866    1865    1840    1841
       8    1945    1944    1919    1920    1867    1866    1841    1842
       8    1946    1945    1920    1921    1868    1867    1842    1843
       8    1947    1946    1921    1922    1869    1868    1843    1844
       8    1948    1947    1922    1923    1870    1869    1844    1845
       8    1949    1948    1923    1877    1871    1870    1845    1799
       8    1925    1949    1877    1876    1847    1871    1799    1798
  
CELL_TYPES    3486
       1
       1
       1
       1
       1
       1
       1
       1
       1
       1
       1
       1
       1
       1
       1
       1
       1
       1
       1
       1
       1
       1
       1
       1
       1
       1
       1
       1
       1
       1
       1
       1
       1
       1
       1
       1
       1
       1
       1
       1
       1
       1
       1
       1
       1
       1
       1
       1
       1
       1
       1
       1
       1
       1
       1
       1
       1
       1
       1
       1
       1
       1
       1
       1
       1
       1
       1
       1
       1
       1
       1
       1
       1
       1
       1
       1
       1
       1
       1
       1
       1
       1
       1
       1
       1
       1
       1
       1
       1
       1
       1
       1
       1
       1
       1
       1
       1
       1
       1
       1
       1
       1
       1
       1
       1
       1
       1
       1
       1
       1
       1
       1
       1
       1
       1
       1
       1
       1
       1
       1
       1
       1
       1
       1
       1
       1
       1
       1
       1
       1
       1
       1
       1
       1
       1
       1
       1
       1
       1
       1
       1
       1
       1
       1
       1
       1
       1
       1
       1
       1
       1
       1
       1
       1
       1
       1
       1
       1
       1
       1
       1
       1
       1
       1
       1
       1
       1
       1
       1
       1
       1
       1
       1
       1
       1
       1
       1
       1
       1
       1
       1
       1
       1
       1
       1
       1
       1
       1
       1
       1
       1
       1
       1
       1
       1
       1
       1
       1
       1
       1
       1
       1
       1
       1
       1
       1
       1
       1
       1
       1
       1
       1
       1
       1
       1
       1
       1
       1
       1
       1
       1
       1
       1
       1
       1
       1
       1
       1
       1
       1
       1
       1
       1
       1
       1
       1
       1
       1
       1
       1
       1
       1
       1
       1
       1
       1
       1
       1
       1
       1
       1
       1
       1
       1
       1
       1
       1
       1
       1
       1
       1
       1
       1
       1
       1
       1
       1
       1
       1
       1
       1
       1
       1
       1
       1
       1
       1
       1
       1
       1
       1
       1
       1
       1
       1
       1
       1
       1
       1
       1
       1
       1
       1
       1
       1
       1
       1
       1
       1
       1
       1
       1
       1
       1
       1
       1
       1
       1
       1
       1
       1
       1
       1
       1
       1
       1
       1
       1
       1
       1
       1
       1
       1
       1
       1
       1
       1
       1
       1
       1
       1
       1
       1
       1
       1
       1
       1
       1
       1
       1
       1
       1
       1
       1
       1
       1
       1
       1
       1
       1
       1
       1
       1
       1
       1
       1
       1
       1
       1
       1
       1
       1
       1
       1
       1
       1
       1
       1
       1
       1
       1
       1
       1
       1
       1
       1
       1
       1
       1
       1
       1
       1
       1
       1
       1
       1
       1
       1
       1
       1
       1
       1
       1
       1
       1
       1
       1
       1
       1
       1
       1
       1
       1
       1
       1
       1
       1
       1
       1
       1
       1
       1
       1
       1
       1
       1
       1
       1
       1
       1
       1
       1
       1
       1
       1
       1
       1
       1
       1
       1
       1
       1
       1
       1
       1
       1
       1
       1
       1
       1
       1
       1
       1
       1
       1
       1
       1
       1
       1
       1
       1
       1
       1
       1
       1
       1
       1
       1
       1
       1
       1
       1
       1
       1
       1
       1
       1
       1
       1
       1
       1
       1
       1
       1
       1
       1
       1
       1
       1
       1
       1
       1
       1
       1
       1
       1
       1
       1
       1
       1
       1
       1
       1
       1
       1
       1
       1
       1
       1
       1
       1
       1
       1
       1
       1
       1
       1
       1
       1
       1
       1
       1
       1
       1
       1
       1
       1
       1
       1
       1
       1
       1
       1
       1
       1
       1
       1
       1
       1
       1
       1
       1
       1
       1
       1
       1
       1
       1
       1
       1
       1
       1
       1
       1
       1
       1
       1
       1
       1
       1
       1
       1
       1
       1
       1
       1
       1
       1
       1
       1
       1
       1
       1
       1
       1
       1
       1
       1
       1
       1
       1
       1
       1
       1
       1
       1
       1
       1
       1
       1
       1
       1
       1
       1
       1
       1
       1
       1
       1
       1
       1
       1
       1
       1
       1
       1
       1
       1
       1
       1
       1
       1
       1
       1
       1
       1
       1
       1
       1
       1
       1
       1
       1
       1
       1
       1
       1
       1
       1
       1
       1
       1
       1
       1
       1
       1
       1
       1
       1
       1
       1
       1
       1
       1
       1
       1
       1
       1
       1
       1
       1
       1
       1
       1
       1
       1
       1
       1
       1
       1
       1
       1
       1
       1
       1
       1
       1
       1
       1
       1
       1
       1
       1
       1
       1
       1
       1
       1
       1
       1
       1
       1
       1
       1
       1
       1
       1
       1
       1
       1
       1
       1
       1
       1
       1
       1
       1
       1
       1
       1
       1
       1
       1
       1
       1
       1
       1
       1
       1
       1
       1
       1
       1
       1
       1
       1
       1
       1
       1
       1
       1
       1
       1
       1
       1
       1
       1
       1
       1
       1
       1
       1
       1
       1
       1
       1
       1
       1
       1
       1
       1
       1
       1
       1
       1
       1
       1
       1
       1
       1
       1
       1
       1
       1
       1
       1
       1
       1
       1
       1
       1
       1
       1
       1
       1
       1
       1
       1
       1
       1
       1
       1
       1
       1
       1
       1
       1
       1
       1
       1
       1
       1
       1
       1
       1
       1
       1
       1
       1
       1
       1
       1
       1
       1
       1
       1
       1
       1
       1
       1
       1
       1
       1
       1
       1
       1
       1
       1
       1
       1
       1
       1
       1
       1
       1
       1
       1
       1
       1
       1
       1
       1
       1
       1
       1
       1
       1
       1
       1
       1
       1
       1
       1
       1
       1
       1
       1
       1
       1
       1
       1
       1
       1
       1
       1
       1
       1
       1
       1
       1
       1
       1
       1
       1
       1
       1
       1
       1
       1
       1
       1
       1
       1
       1
       1
       1
       1
       1
       1
       1
       1
       1
       1
       1
       1
       1
       1
       1
       1
       1
       1
       1
       1
       1
       1
       1
       1
       1
       1
       1
       1
       1
       1
       1
       1
       1
       1
       1
       1
       1
       1
       1
       1
       1
       1
       1
       1
       1
       1
       1
       1
       1
       1
       1
       1
       1
       1
       1
       1
       1
       1
       1
       1
       1
       1
       1
       1
       1
       1
       1
       1
       1
       1
       1
       1
       1
       1
       1
       1
       1
       1
       1
       1
       1
       1
       1
       1
       1
       1
       1
       1
       1
       1
       1
       1
       1
       1
       1
       1
       1
       1
       1
       1
       1
       1
       1
       1
       1
       1
       1
       1
       1
       1
       1
       1
       1
       1
       1
       1
       1
       1
       1
       1
       1
       1
       1
       1
       1
       1
       1
       1
       1
       1
       1
       1
       1
       1
       1
       1
       1
       1
       1
       1
       1
       1
       1
       1
       1
       1
       1
       1
       1
       1
       1
       1
       1
       1
       1
       1
       1
       1
       1
       1
       1
       1
       1
       1
       1
       1
       1
       1
       1
       1
       1
       1
       1
       1
       1
       1
       1
       1
       1
       1
       1
       1
       1
       1
       1
       1
       1
       1
       1
       1
       1
       1
       1
       1
       1
       1
       1
       1
       1
       1
       1
       1
       1
       1
       1
       1
       1
       1
       1
       1
       1
       1
       1
       1
       1
       1
       1
       1
       1
       1
       1
       1
       1
       1
       1
       1
       1
       1
       1
       1
       1
       1
       1
       1
       1
       1
       1
       1
       1
       1
       1
       1
       1
       1
       1
       1
       1
       1
       1
       1
       1
       1
       1
       1
       1
       1
       1
       1
       1
       1
       1
       1
       1
       1
       1
       1
       1
       1
       1
       1
       1
       1
       1
       1
       1
       1
       1
       1
       1
       1
       1
       1
       1
       1
       1
       1
       1
       1
       1
       1
       1
       1
       1
       1
       1
       1
       1
       1
       1
       1
       1
       1
       1
       1
       1
       1
       1
       1
       1
       1
       1
       1
       1
       1
       1
       1
       1
       1
       1
       1
       1
       1
       1
       1
       1
       1
       1
       1
       1
       1
       1
       1
       1
       1
       1
       1
       1
       1
       1
       1
       1
       1
       1
       1
       1
       1
       1
       1
       1
       1
       1
       1
       1
       1
       1
       1
       1
       1
       1
       1
       1
       1
       1
       1
       1
       1
       1
       1
       1
       1
       1
       1
       1
       1
       1
       1
       1
       1
       1
       1
       1
       1
       1
       1
       1
       1
       1
       1
       1
       1
       1
       1
       1
       1
       1
       1
       1
       1
       1
       1
       1
       1
       1
       1
       1
       1
       1
       1
       1
       1
       1
       1
       1
       1
       1
       1
       1
       1
       1
       1
       1
       1
       1
       1
       1
       1
       1
       1
       1
       1
       1
       1
       1
       1
       1
       1
       1
       1
       1
       1
       1
       1
       1
       1
       1
       1
       1
       1
       1
       1
       1
       1
       1
       1
       1
       1
       1
       1
       1
       1
       1
       1
       1
       1
       1
       1
       1
       1
       1
       1
       1
       1
       1
       1
       1
       1
       1
       1
       1
       1
       1
       1
       1
       1
       1
       1
       1
       1
       1
       1
       1
       1
       1
       1
       1
       1
       1
       1
       1
       1
       1
       1
       1
       1
       1
       1
       1
       1
       1
       1
       1
       1
       1
       1
       1
       1
       1
       1
       1
       1
       1
       1
       1
       1
       1
       1
       1
       1
       1
       1
       1
       1
       1
       1
       1
       1
       1
       1
       1
       1
       1
       1
       1
       1
       1
       1
       1
       1
       1
       1
       1
       1
       1
       1
       1
       1
       1
       1
       1
       1
       1
       1
       1
       1
       1
       1
       1
       1
       1
       1
       1
       1
       1
       1
       1
       1
       1
       1
       1
       1
       1
       1
       1
       1
       1
       1
       1
       1
       1
       1
       1
       1
       1
       1
       1
       1
       1
       1
       1
       1
       1
       1
       1
       1
       1
       1
       1
       1
       1
       1
       1
       1
       1
       1
       1
       1
       1
       1
       1
       1
       1
       1
       1
       1
       1
       1
       1
       1
       1
       1
       1
       1
       1
       1
       1
       1
       1
       1
       1
       1
       1
       1
       1
       1
       1
       1
       1
       1
       1
       1
       1
       1
       1
       1
       1
       1
       1
       1
       1
       1
       1
       1
       1
       1
       1
       1
       1
       1
       1
       1
       1
       1
       1
       1
       1
       1
       1
       1
       1
       1
       1
       1
       1
       1
       1
       1
       1
       1
       1
       1
       1
       1
       1
       1
       1
       1
       1
       1
       1
       1
       1
       1
       1
       1
       1
       1
       1
       1
       1
       1
       1
       1
       1
       1
       1
       1
       1
       1
       1
       1
       1
       1
       1
       1
       1
       1
       1
       1
       1
       1
       1
       1
       1
       1
       1
       1
       1
       1
       1
       1
       1
       1
       1
       1
       1
       1
       1
       1
       1
       1
       1
       1
       1
       1
       1
       1
       1
       1
       1
       1
       1
       1
       1
       1
       1
       1
       1
       1
       1
       1
       1
       1
       1
       1
       1
       1
       1
       1
       1
       1
       1
       1
       1
       1
       1
       1
       1
       1
       1
       1
       1
       1
       1
       1
       1
       1
       1
       1
       1
       1
       1
       1
       1
       1
       1
       1
       1
       1
       1
       1
       1
       1
       1
       1
       1
       1
       1
       1
       1
       1
       1
       1
       1
       1
       1
       1
       1
       1
       1
       1
       1
       1
       1
       1
       1
       1
       1
       1
       1
       1
       1
       1
       1
       1
       1
       1
       1
       1
       1
       1
       1
       1
       1
       1
       1
       1
       1
       1
       1
       1
       1
       1
       1
       1
       1
       1
       1
       1
       1
       1
       1
       1
       1
       1
       1
       1
       1
       1
       1
       1
       1
       1
       1
       1
       1
       1
       1
       1
       1
       1
       1
       1
       1
       1
       1
       1
       1
       1
       1
       1
       1
       1
       1
       1
       1
       1
       1
       1
       1
       1
       1
       1
       1
       1
       1
       1
       1
       1
       1
       1
       1
       1
       1
       1
       1
       1
       1
       1
       1
       1
       1
       1
       1
       1
       1
       1
       1
       1
       1
       1
       1
       1
       1
       1
       1
       1
       1
       1
       1
       1
       1
       1
       1
       1
       1
       1
       1
       1
       1
       1
       1
       1
       1
       1
       1
       1
       1
       1
       1
       1
       1
       1
       1
       1
       1
       1
       1
       1
       1
       1
       1
       1
       1
       1
       1
       1
       1
       1
       1
       1
       1
       1
       1
       1
       1
       1
       1
       1
       1
       1
       1
       1
       1
       1
       1
       1
       1
       1
       1
       1
       1
       1
       1
       1
       1
       1
       1
       1
       1
       1
       1
       1
       1
       1
       1
       1
       1
       1
       1
       1
       1
       1
       1
       1
       1
       1
       1
       1
       1
       1
       1
       1
       1
       1
       1
       1
       1
       1
       1
       1
       1
       1
       1
       1
       1
       1
       1
       1
       1
       1
       1
       1
       1
       1
       1
       1
       1
       1
       1
       1
       1
       1
       1
       1
       1
       1
       1
       1
       1
       1
       1
       1
       1
       1
       1
       1
       1
       1
       1
       1
       1
       1
       1
       1
       1
       1
       1
      12
      12
      12
      12
      12
      12
      12
      12
      12
      12
      12
      12
      12
      12
      12
      12
      12
      12
      12
      12
      12
      12
      12
      12
      12
      12
      12
      12
      12
      12
      12
      12
      12
      12
      12
      12
      12
      12
      12
      12
      12
      12
      12
      12
      12
      12
      12
      12
      12
      12
      12
      12
      12
      12
      12
      12
      12
      12
      12
      12
      12
      12
      12
      12
      12
      12
      12
      12
      12
      12
      12
      12
      12
      12
      12
      12
      12
      12
      12
      12
      12
      12
      12
      12
      12
      12
      12
      12
      12
      12
      12
      12
      12
      12
      12
      12
      12
      12
      12
      12
      12
      12
      12
      12
      12
      12
      12
      12
      12
      12
      12
      12
      12
      12
      12
      12
      12
      12
      12
      12
      12
      12
      12
      12
      12
      12
      12
      12
      12
      12
      12
      12
      12
      12
      12
      12
      12
      12
      12
      12
      12
      12
      12
      12
      12
      12
      12
      12
      12
      12
      12
      12
      12
      12
      12
      12
      12
      12
      12
      12
      12
      12
      12
      12
      12
      12
      12
      12
      12
      12
      12
      12
      12
      12
      12
      12
      12
      12
      12
      12
      12
      12
      12
      12
      12
      12
      12
      12
      12
      12
      12
      12
      12
      12
      12
      12
      12
      12
      12
      12
      12
      12
      12
      12
      12
      12
      12
      12
      12
      12
      12
      12
      12
      12
      12
      12
      12
      12
      12
      12
      12
      12
      12
      12
      12
      12
      12
      12
      12
      12
      12
      12
      12
      12
      12
      12
      12
      12
      12
      12
      12
      12
      12
      12
      12
      12
      12
      12
      12
      12
      12
      12
      12
      12
      12
      12
      12
      12
      12
      12
      12
      12
      12
      12
      12
      12
      12
      12
      12
      12
      12
      12
      12
      12
      12
      12
      12
      12
      12
      12
      12
      12
      12
      12
      12
      12
      12
      12
      12
      12
      12
      12
      12
      12
      12
      12
      12
      12
      12
      12
      12
      12
      12
      12
      12
      12
      12
      12
      12
      12
      12
      12
      12
      12
      12
      12
      12
      12
      12
      12
      12
      12
      12
      12
      12
      12
      12
      12
      12
      12
      12
      12
      12
      12
      12
      12
      12
      12
      12
      12
      12
      12
      12
      12
      12
      12
      12
      12
      12
      12
      12
      12
      12
      12
      12
      12
      12
      12
      12
      12
      12
      12
      12
      12
      12
      12
      12
      12
      12
      12
      12
      12
      12
      12
      12
      12
      12
      12
      12
      12
      12
      12
      12
      12
      12
      12
      12
      12
      12
      12
      12
      12
      12
      12
      12
      12
      12
      12
      12
      12
      12
      12
      12
      12
      12
      12
      12
      12
      12
      12
      12
      12
      12
      12
      12
      12
      12
      12
      12
      12
      12
      12
      12
      12
      12
      12
      12
      12
      12
      12
      12
      12
      12
      12
      12
      12
      12
      12
      12
      12
      12
      12
      12
      12
      12
      12
      12
      12
      12
      12
      12
      12
      12
      12
      12
      12
      12
      12
      12
      12
      12
      12
      12
      12
      12
      12
      12
      12
      12
      12
      12
      12
      12
      12
      12
      12
      12
      12
      12
      12
      12
      12
      12
      12
      12
      12
      12
      12
      12
      12
      12
      12
      12
      12
      12
      12
      12
      12
      12
      12
      12
      12
      12
      12
      12
      12
      12
      12
      12
      12
      12
      12
      12
      12
      12
      12
      12
      12
      12
      12
      12
      12
      12
      12
      12
      12
      12
      12
      12
      12
      12
      12
      12
      12
      12
      12
      12
      12
      12
      12
      12
      12
      12
      12
      12
      12
      12
      12
      12
      12
      12
      12
      12
      12
      12
      12
      12
      12
      12
      12
      12
      12
      12
      12
      12
      12
      12
      12
      12
      12
      12
      12
      12
      12
      12
      12
      12
      12
      12
      12
      12
      12
      12
      12
      12
      12
      12
      12
      12
      12
      12
      12
      12
      12
      12
      12
      12
      12
      12
      12
      12
      12
      12
      12
      12
      12
      12
      12
      12
      12
      12
      12
      12
      12
      12
      12
      12
      12
      12
      12
      12
      12
      12
      12
      12
      12
      12
      12
      12
      12
      12
      12
      12
      12
      12
      12
      12
      12
      12
      12
      12
      12
      12
      12
      12
      12
      12
      12
      12
      12
      12
      12
      12
      12
      12
      12
      12
      12
      12
      12
      12
      12
      12
      12
      12
      12
      12
      12
      12
      12
      12
      12
      12
      12
      12
      12
      12
      12
      12
      12
      12
      12
      12
      12
      12
      12
      12
      12
      12
      12
      12
      12
      12
      12
      12
      12
      12
      12
      12
      12
      12
      12
      12
      12
      12
      12
      12
      12
      12
      12
      12
      12
      12
      12
      12
      12
      12
      12
      12
      12
      12
      12
      12
      12
      12
      12
      12
      12
      12
      12
      12
      12
      12
      12
      12
      12
      12
      12
      12
      12
      12
      12
      12
      12
      12
      12
      12
      12
      12
      12
      12
      12
      12
      12
      12
      12
      12
      12
      12
      12
      12
      12
      12
      12
      12
      12
      12
      12
      12
      12
      12
      12
      12
      12
      12
      12
      12
      12
      12
      12
      12
      12
      12
      12
      12
      12
      12
      12
      12
      12
      12
      12
      12
      12
      12
      12
      12
      12
      12
      12
      12
      12
      12
      12
      12
      12
      12
      12
      12
      12
      12
      12
      12
      12
      12
      12
      12
      12
      12
      12
      12
      12
      12
      12
      12
      12
      12
      12
      12
      12
      12
      12
      12
      12
      12
      12
      12
      12
      12
      12
      12
      12
      12
      12
      12
      12
      12
      12
      12
      12
      12
      12
      12
      12
      12
      12
      12
      12
      12
      12
      12
      12
      12
      12
      12
      12
      12
      12
      12
      12
      12
      12
      12
      12
      12
      12
      12
      12
      12
      12
      12
      12
      12
      12
      12
      12
      12
      12
      12
      12
      12
      12
      12
      12
      12
      12
      12
      12
      12
      12
      12
      12
      12
      12
      12
      12
      12
      12
      12
      12
      12
      12
      12
      12
      12
      12
      12
      12
      12
      12
      12
      12
      12
      12
      12
      12
      12
      12
      12
      12
      12
      12
      12
      12
      12
      12
      12
      12
      12
      12
      12
      12
      12
      12
      12
      12
      12
      12
      12
      12
      12
      12
      12
      12
      12
      12
      12
      12
      12
      12
      12
      12
      12
      12
      12
      12
      12
      12
      12
      12
      12
      12
      12
      12
      12
      12
      12
      12
      12
      12
      12
      12
      12
      12
      12
      12
      12
      12
      12
      12
      12
      12
      12
      12
      12
      12
      12
      12
      12
      12
      12
      12
      12
      12
      12
      12
      12
      12
      12
      12
      12
      12
      12
      12
      12
      12
      12
      12
      12
      12
      12
      12
      12
      12
      12
      12
      12
      12
      12
      12
      12
      12
      12
      12
      12
      12
      12
      12
      12
      12
      12
      12
      12
      12
      12
      12
      12
      12
      12
      12
      12
      12
      12
      12
      12
      12
      12
      12
      12
      12
      12
      12
      12
      12
      12
      12
      12
      12
      12
      12
      12
      12
      12
      12
      12
      12
      12
      12
      12
      12
      12
      12
      12
      12
      12
      12
      12
      12
      12
      12
      12
      12
      12
      12
      12
      12
      12
      12
      12
      12
      12
      12
      12
      12
      12
      12
      12
      12
      12
      12
      12
      12
      12
      12
      12
      12
      12
      12
      12
      12
      12
      12
      12
      12
      12
      12
      12
      12
      12
      12
      12
      12
      12
      12
      12
      12
      12
      12
      12
      12
      12
      12
      12
      12
      12
      12
      12
      12
      12
      12
      12
      12
      12
      12
      12
      12
      12
      12
      12
      12
      12
      12
      12
      12
      12
      12
      12
      12
      12
      12
      12
      12
      12
      12
      12
      12
      12
      12
      12
      12
      12
      12
      12
      12
      12
      12
      12
      12
      12
      12
      12
      12
      12
      12
      12
      12
      12
      12
      12
      12
      12
      12
      12
      12
      12
      12
      12
      12
      12
      12
      12
      12
      12
      12
      12
      12
      12
      12
      12
      12
      12
      12
      12
      12
      12
      12
      12
      12
      12
      12
      12
      12
      12
      12
      12
      12
      12
      12
      12
      12
      12
      12
      12
      12
      12
      12
      12
      12
      12
      12
      12
      12
      12
      12
      12
      12
      12
      12
      12
      12
      12
      12
      12
      12
      12
      12
      12
      12
      12
      12
      12
      12
      12
      12
      12
      12
      12
      12
      12
      12
      12
      12
      12
      12
      12
      12
      12
      12
      12
      12
      12
      12
      12
      12
      12
      12
      12
      12
      12
      12
      12
      12
      12
      12
      12
      12
      12
      12
      12
      12
      12
      12
      12
      12
      12
      12
      12
      12
      12
      12
      12
      12
      12
      12
      12
      12
      12
      12
      12
      12
      12
      12
      12
      12
      12
      12
      12
      12
      12
      12
      12
      12
      12
      12
      12
      12
      12
      12
      12
      12
      12
      12
      12
      12
      12
      12
      12
      12
      12
      12
      12
      12
      12
      12
      12
      12
      12
      12
      12
      12
      12
      12
      12
      12
      12
      12
      12
      12
      12
      12
      12
      12
      12
      12
      12
      12
      12
      12
      12
      12
      12
      12
      12
      12
      12
      12
      12
      12
      12
      12
      12
      12
      12
      12
      12
      12
      12
      12
      12
      12
      12
      12
      12
      12
      12
      12
      12
      12
      12
      12
      12
      12
      12
      12
      12
      12
      12
      12
      12
      12
      12
      12
      12
      12
      12
      12
      12
      12
      12
      12
      12
      12
      12
      12
      12
      12
      12
      12
      12
      12
      12
      12
      12
      12
      12
      12
      12
      12
      12
      12
      12
      12
      12
      12
      12
      12
      12
      12
      12
      12
      12
      12
      12
      12
      12
      12
      12
      12
      12
      12
      12
      12
      12
      12
      12
      12
      12
      12
      12
      12
      12
      12
      12
      12
      12
      12
      12
      12
      12
      12
      12
      12
      12
      12
      12
      12
      12
      12
      12
      12
      12
      12
      12
      12
      12
      12
      12
      12
      12
      12
      12
      12
      12
      12
      12
      12
      12
      12
      12
      12
      12
      12
      12
      12
      12
      12
  
  
POINT_DATA       1950
  
SCALARS                  material_type  double 1
LOOKUP_TABLE default
                   2
                   2
                   2
                   2
                   2
                   2
                   2
                   2
                   2
                   2
                   2
                   2
                   2
                   2
                   2
                   2
                   2
                   2
                   2
                   2
                   2
                   2
                   2
                   2
                   2
                   2
                   2
                   2
                   2
                   2
                   2
                   2
                   2
                   2
                   2
                   2
                   2
                   2
                   2
                   2
                   2
                   2
                   2
                   2
                   2
                   2
                   2
                   2
                   2
                   2
                   2
                   2
                   2
                   2
                   2
                   2
                   2
                   2
                   2
                   2
                   2
                   2
                   2
                   2
                   2
                   2
                   2
                   2
                   2
                   2
                   2
                   2
                   2
                   2
                   2
                   2
                   2
                   2
                   2
                   2
                   2
                   2
                   2
                   2
                   2
                   2
                   2
                   2
                   2
                   2
                   2
                   2
                   2
                   2
                   2
                   2
                   2
                   2
                   2
                   2
                   2
                   2
                   2
                   2
                   2
                   2
                   2
                   2
                   2
                   2
                   2
                   2
                   2
                   2
                   2
                   2
                   2
                   2
                   2
                   2
                   2
                   2
                   2
                   2
                   2
                   2
                   2
                   2
                   2
                   2
                   2
                   2
                   2
                   2
                   2
                   2
                   2
                   2
                   2
                   2
                   2
                   2
                   2
                   2
                   2
                   2
                   2
                   2
                   2
                   2
                   2
                   2
                   2
                   2
                   2
                   2
                   2
                   2
                   2
                   2
                   2
                   2
                   2
                   2
                   2
                   2
                   2
                   2
                   2
                   2
                   2
                   2
                   2
                   2
                   2
                   2
                   2
                   2
                   2
                   2
                   2
                   2
                   2
                   2
                   2
                   2
                   2
                   2
                   2
                   2
                   2
                   2
                   2
                   2
                   2
                   2
                   2
                   2
                   2
                   2
                   2
                   2
                   2
                   2
                   2
                   2
                   2
                   2
                   2
                   2
                   2
                   2
                   2
                   2
                   2
                   2
                   2
                   2
                   2
                   2
                   2
                   2
                   2
                   2
                   2
                   2
                   2
                   2
                   2
                   2
                   2
                   2
                   2
                   2
                   2
                   2
                   2
                   2
                   2
                   2
                   2
                   2
                   2
                   2
                   2
                   2
                   2
                   2
                   2
                   2
                   2
                   2
                   2
                   2
                   2
                   2
                   2
                   2
                   2
                   2
                   2
                   2
                   2
                   2
                   2
                   2
                   2
                   2
                   2
                   2
                   2
                   2
                   2
                   2
                   2
                   2
                   2
                   2
                   2
                   2
                   2
                   2
                   2
                   2
                   2
                   2
                   2
                   2
                   2
                   2
                   2
                   2
                   2
                   2
                   2
                   2
                   2
                   2
                   2
                   2
                   2
                   2
                   2
                   2
                   2
                   2
                   2
                   2
                   2
                   2
                   2
                   2
                   2
                   2
                   2
                   2
                   2
                   2
                   2
                   2
                   2
                   2
                   2
                   2
                   2
                   2
                   2
                   2
                   2
                   2
                   2
                   2
                   2
                   2
                   2
                   2
                   2
                   2
                   2
                   2
                   2
                   2
                   2
                   2
                   2
                   2
                   2
                   2
                   2
                   2
                   2
                   2
                   2
                   2
                   2
                   2
                   2
                   2
                   2
                   2
                   2
                   2
                   2
                   2
                   2
                   2
                   2
                   2
                   2
                   2
                   2
                   2
                   2
                   2
                   2
                   2
                   2
                   2
                   2
                   2
                   2
                   2
                   2
                   2
                   2
                   2
                   2
                   2
                   2
                   2
                   2
                   2
                   2
                   2
                   2
                   2
                   2
                   2
                   2
                   2
                   2
                   2
                   2
                   2
                   2
                   2
                   2
                   2
                   2
                   2
                   2
                   2
                   2
                   2
                   2
                   2
                   2
                   2
                   2
                   2
                   2
                   2
                   2
                   2
                   2
                   2
                   2
                   2
                   2
                   2
                   2
                   2
                   2
                   2
                   2
                   2
                   2
                   2
                   2
                   2
                   2
                   2
                   2
                   2
                   2
                   2
                   2
                   2
                   2
                   2
                   2
                   2
                   2
                   2
                   2
                   2
                   2
                   2
                   2
                   2
                   2
                   2
                   2
                   2
                   2
                   2
                   2
                   2
                   2
                   2
                   2
                   2
                   2
                   2
                   2
                   2
                   2
                   2
                   2
                   2
                   2
                   2
                   2
                   2
                   2
                   2
                   2
                   2
                   2
                   2
                   2
                   2
                   2
                   2
                   2
                   2
                   2
                   2
                   2
                   2
                   2
                   2
                   2
                   2
                   2
                   2
                   2
                   2
                   2
                   2
                   2
                   2
                   2
                   2
                   2
                   2
                   2
                   2
                   2
                   2
                   2
                   2
                   2
                   2
                   2
                   2
                   2
                   2
                   2
                   2
                   2
                   2
                   2
                   2
                   2
                   2
                   2
                   2
                   2
                   2
                   2
                   2
                   2
                   2
                   2
                   2
                   2
                   2
                   2
                   2
                   2
                   2
                   2
                   2
                   2
                   2
                   2
                   2
                   2
                   2
                   2
                   2
                   2
                   2
                   2
                   2
                   2
                   2
                   2
                   2
                   2
                   2
                   2
                   2
                   2
                   2
                   2
                   2
                   2
                   2
                   2
                   2
                   2
                   2
                   2
                   2
                   2
                   2
                   2
                   2
                   2
                   2
                   2
                   2
                   2
                   2
                   2
                   2
                   2
                   2
                   2
                   2
                   2
                   2
                   2
                   2
                   2
                   2
                   2
                   2
                   2
                   2
                   2
                   2
                   2
                   2
                   2
                   2
                   2
                   2
                   2
                   2
                   2
                   2
                   2
                   2
                   2
                   2
                   2
                   2
                   2
                   2
                   2
                   2
                   2
                   2
                   2
                   2
                   2
                   2
                   2
                   2
                   2
                   2
                   2
                   2
                   2
                   2
                   2
                   2
                   2
                   2
                   2
                   2
                   2
                   2
                   2
                   2
                   2
                   2
                   2
                   2
                   2
                   2
                   2
                   2
                   2
                   2
                   2
                   2
                   2
                   2
                   2
                   2
                   2
                   2
                   2
                   2
                   2
                   2
                   2
                   2
                   2
                   2
                   2
                   2
                   2
                   2
                   2
                   2
                   2
                   2
                   2
                   2
                   2
                   2
                   2
                   2
                   2
                   2
                   2
                   2
                   2
                   2
                   2
                   2
                   2
                   2
                   2
                   2
                   2
                   2
                   2
                   2
                   2
                   2
                   2
                   2
                   2
                   2
                   2
                   2
                   2
                   2
                   2
                   2
                   2
                   2
                   2
                   2
                   2
                   2
                   2
                   2
                   2
                   2
                   2
                   2
                   2
                   2
                   2
                   2
                   2
                   2
                   2
                   2
                   2
                   2
                   2
                   2
                   2
                   2
                   2
                   2
                   2
                   2
                   2
                   2
                   2
                   2
                   2
                   2
                   2
                   2
                   2
                   2
                   2
                   2
                   2
                   2
                   2
                   2
                   2
                   2
                   2
                   2
                   2
                   2
                   2
                   2
                   2
                   2
                   2
                   2
                   2
                   2
                   2
                   2
                   2
                   2
                   2
                   2
                   2
                   2
                   2
                   2
                   2
                   2
                   2
                   2
                   2
                   2
                   2
                   2
                   2
                   2
                   2
                   2
                   2
                   2
                   2
                   2
                   2
                   2
                   2
                   2
                   2
                   2
                   2
                   2
                   2
                   2
                   2
                   2
                   2
                   2
                   2
                   2
                   2
                   2
                   2
                   2
                   2
                   2
                   2
                   2
                   2
                   2
                   2
                   2
                   2
                   2
                   2
                   2
                   2
                   2
                   2
                   2
                   2
                   2
                   2
                   2
                   2
                   2
                   2
                   2
                   2
                   2
                   2
                   2
                   2
                   2
                   2
                   2
                   2
                   2
                   2
                   2
                   2
                   2
                   2
                   2
                   2
                   2
                   2
                   2
                   2
                   2
                   2
                   2
                   2
                   2
                   2
                   2
                   2
                   2
                   2
                   2
                   2
                   2
                   2
                   2
                   2
                   2
                   2
                   2
                   2
                   2
                   2
                   2
                   2
                   2
                   2
                   2
                   2
                   2
                   2
                   2
                   2
                   2
                   2
                   2
                   2
                   2
                   2
                   2
                   2
                   2
                   2
                   2
                   2
                   2
                   2
                   2
                   2
                   2
                   2
                   2
                   2
                   2
                   2
                   2
                   2
                   2
                   2
                   2
                   2
                   2
                   2
                   2
                   2
                   2
                   2
                   2
                   2
                   2
                   2
                   2
                   2
                   2
                   2
                   2
                   2
                   2
                   2
                   2
                   2
                   2
                   2
                   2
                   2
                   2
                   2
                   2
                   2
                   2
                   2
                   2
                   2
                   2
                   2
                   2
                   2
                   2
                   2
                   2
                   2
                   2
                   2
                   2
                   2
                   2
                   2
                   2
                   2
                   2
                   2
                   2
                   2
                   2
                   2
                   2
                   2
                   2
                   2
                   2
                   2
                   2
                   2
                   2
                   2
                   2
                   2
                   2
                   2
                   2
                   2
                   2
                   2
                   2
                   2
                   2
                   2
                   2
                   2
                   2
                   2
                   2
                   2
                   2
                   2
                   2
                   2
                   2
                   2
                   2
                   2
                   2
                   2
                   2
                   2
                   2
                   2
                   2
                   2
                   2
                   2
                   2
                   2
                   2
                   2
                   2
                   2
                   2
                   2
                   2
                   2
                   2
                   2
                   2
                   2
                   2
                   2
                   2
                   2
                   2
                   2
                   2
                   2
                   2
                   2
                   2
                   2
                   2
                   2
                   2
                   2
                   2
                   2
                   2
                   2
                   2
                   2
                   2
                   2
                   2
                   2
                   2
                   2
                   2
                   2
                   2
                   2
                   2
                   2
                   2
                   2
                   2
                   2
                   2
                   2
                   2
                   2
                   2
                   2
                   2
                   2
                   2
                   2
                   2
                   2
                   2
                   2
                   2
                   2
                   2
                   2
                   2
                   2
                   2
                   2
                   2
                   2
                   2
                   2
                   2
                   2
                   2
                   2
                   2
                   2
                   2
                   2
                   2
                   2
                   2
                   2
                   2
                   2
                   2
                   2
                   2
                   2
                   2
                   2
                   2
                   2
                   2
                   2
                   2
                   2
                   2
                   2
                   2
                   2
                   2
                   2
                   2
                   2
                   2
                   2
                   2
                   2
                   2
                   2
                   2
                   2
                   2
                   2
                   2
                   2
                   2
                   2
                   2
                   2
                   2
                   2
                   2
                   2
                   2
                   2
                   2
                   2
                   2
                   2
                   2
                   2
                   2
                   2
                   2
                   2
                   2
                   2
                   2
                   2
                   2
                   2
                   2
                   2
                   2
                   2
                   2
                   2
                   2
                   2
                   2
                   2
                   2
                   2
                   2
                   2
                   2
                   2
                   2
                   2
                   2
                   2
                   2
                   2
                   2
                   2
                   2
                   2
                   2
                   2
                   2
                   2
                   2
                   2
                   2
                   2
                   2
                   2
                   2
                   2
                   2
                   2
                   2
                   2
                   2
                   2
                   2
                   2
                   2
                   2
                   2
                   2
                   2
                   2
                   2
                   2
                   2
                   2
                   2
                   2
                   2
                   2
                   2
                   2
                   2
                   2
                   2
                   2
                   2
                   2
                   2
                   2
                   2
                   2
                   2
                   2
                   2
                   2
                   2
                   2
                   2
                   2
                   2
                   2
                   2
                   2
                   2
                   2
                   2
                   2
                   2
                   2
                   2
                   2
                   2
                   2
                   2
                   2
                   2
                   2
                   2
                   2
                   2
                   2
                   2
                   2
                   2
                   2
                   2
                   2
                   2
                   2
                   2
                   2
                   2
                   2
                   2
                   2
                   2
                   2
                   2
                   2
                   2
                   2
                   2
                   2
                   2
                   2
                   2
                   2
                   2
                   2
                   2
                   2
                   2
                   2
                   2
                   2
                   2
                   2
                   2
                   2
                   2
                   2
                   2
                   2
                   2
                   2
                   2
                   2
                   2
                   2
                   2
                   2
                   2
                   2
                   2
                   2
                   2
                   2
                   2
                   2
                   2
                   2
                   2
                   2
                   2
                   2
                   2
                   2
                   2
                   2
                   2
                   2
                   2
                   2
                   2
                   2
                   2
                   2
                   2
                   2
                   2
                   2
                   2
                   2
                   2
                   2
                   2
                   2
                   2
                   2
                   2
                   2
                   2
                   2
                   2
                   2
                   2
                   2
                   2
                   2
                   2
                   2
                   2
                   2
                   2
                   2
                   2
                   2
                   2
                   2
                   2
                   2
                   2
                   2
                   2
                   2
                   2
                   2
                   2
                   2
                   2
                   2
                   2
                   2
                   2
                   2
                   2
                   2
                   2
                   2
                   2
                   2
                   2
                   2
                   2
                   2
                   2
                   2
                   2
                   2
                   2
                   2
                   2
                   2
                   2
                   2
                   2
                   2
                   2
                   2
                   2
                   2
                   2
                   2
                   2
                   2
                   2
                   2
                   2
                   2
                   2
                   2
                   2
                   2
                   2
                   2
                   2
                   2
                   2
                   2
                   2
                   2
                   2
                   2
                   2
                   2
                   2
                   2
                   2
                   2
                   2
                   2
                   2
                   2
                   2
                   2
                   2
                   2
                   2
                   2
                   2
                   2
                   2
                   2
                   2
                   2
                   2
                   2
                   2
                   2
                   2
                   2
                   2
                   2
                   2
                   2
                   2
                   2
                   2
                   2
                   2
                   2
                   2
                   2
                   2
                   2
                   2
                   2
                   2
                   2
                   2
                   2
                   2
                   2
                   2
                   2
                   2
                   2
                   2
                   2
                   2
                   2
                   2
                   2
                   2
                   2
                   2
                   2
                   2
                   2
                   2
                   2
                   2
                   2
                   2
                   2
                   2
                   2
                   2
                   2
                   2
                   2
                   2
                   2
                   2
                   2
                   2
                   2
                   2
                   2
                   2
                   2
                   2
                   2
                   2
                   2
                   2
                   2
                   2
                   2
                   2
                   2
                   2
                   2
                   2
                   2
                   2
                   2
                   2
                   2
                   2
                   2
                   2
                   2
                   2
                   2
                   2
                   2
                   2
                   2
                   2
                   2
                   2
                   2
                   2
                   2
                   2
                   2
                   2
                   2
                   2
                   2
                   2
                   2
                   2
                   2
                   2
                   2
                   2
                   2
                   2
                   2
                   2
                   2
                   2
                   2
                   2
                   2
                   2
                   2
                   2
                   2
                   2
                   2
                   2
                   2
                   2
                   2
                   2
                   2
                   2
                   2
                   2
                   2
                   2
                   2
                   2
                   2
                   2
                   2
                   2
                   2
                   2
                   2
                   2
                   2
                   2
                   2
                   2
                   2
                   2
                   2
                   2
                   2
                   2
                   2
                   2
                   2
                   2
                   2
                   2
                   2
                   2
                   2
                   2
                   2
                   2
                   2
                   2
                   2
                   2
                   2
                   2
                   2
                   2
                   2
                   2
                   2
                   2
                   2
                   2
                   2
                   2
                   2
                   2
                   2
                   2
                   2
                   2
                   2
                   2
                   2
                   2
                   2
                   2
                   2
                   2
                   2
                   2
                   2
                   2
                   2
                   2
                   2
                   2
                   2
                   2
                   2
                   2
                   2
                   2
                   2
                   2
                   2
                   2
                   2
                   2
                   2
                   2
                   2
                   2
                   2
                   2
                   2
                   2
                   2
                   2
                   2
                   2
                   2
                   2
                   2
                   2
                   2
                   2
                   2
                   2
                   2
                   2
                   2
                   2
                   2
                   2
                   2
                   2
                   2
                   2
                   2
                   2
                   2
                   2
                   2
                   2
                   2
                   2
                   2
                   2
                   2
                   2
                   2
                   2
                   2
                   2
                   2
                   2
                   2
                   2
                   2
                   2
                   2
                   2
                   2
                   2
                   2
                   2
                   2
                   2
                   2
                   2
                   2
                   2
                   2
                   2
                   2
                   2
                   2
                   2
                   2
                   2
                   2
                   2
                   2
                   2
                   2
                   2
                   2
                   2
                   2
                   2
                   2
                   2
                   2
                   2
                   2
                   2
                   2
                   2
                   2
                   2
                   2
                   2
                   2
                   2
                   2
                   2
                   2
                   2
                   2
                   2
                   2
                   2
                   2
                   2
                   2
                   2
                   2
                   2
                   2
                   2
                   2
                   2
                   2
                   2
                   2
                   2
                   2
                   2
                   2
                   2
                   2
                   2
                   2
                   2
                   2
                   2
                   2
                   2
                   2
                   2
                   2
                   2
                   2
                   2
                   2
                   2
                   2
                   2
                   2
                   2
                   2
                   2
                   2
                   2
                   2
                   2
                   2
                   2
                   2
                   2
                   2
                   2
                   2
                   2
                   2
                   2
                   2
                   2
                   2
                   2
                   2
                   2
                   2
                   2
                   2
                   2
                   2
                   2
                   2
                   2
                   2
                   2
                   2
                   2
                   2
                   2
                   2
                   2
                   2
                   2
                   2
                   2
                   2
                   2
                   2
                   2
                   2
                   2
                   2
                   2
                   2
                   2
                   2
                   2
                   2
                   2
                   2
                   2
                   2
                   2
                   2
                   2
                   2
                   2
                   2
                   2
                   2
                   2
                   2
                   2
                   2
                   2
                   2
                   2
                   2
                   2
                   2
                   2
                   2
                   2
                   2
                   2
                   2
                   2
                   2
                   2
                   2
                   2
                   2
                   2
                   2
                   2
                   2
                   2
                   2
                   2
                   2
                   2
                   2
                   2
                   2
                   2
                   2
                   2
  
SCALARS                        node_id  double 1
LOOKUP_TABLE default
                   1
                   2
                   3
                   4
                   5
                   6
                   7
                   8
                   9
                  10
                  11
                  12
                  13
                  14
                  15
                  16
                  17
                  18
                  19
                  20
                  21
                  22
                  23
                  24
                  25
                  26
                  27
                  28
                  29
                  30
                  31
                  32
                  33
                  34
                  35
                  36
                  37
                  38
                  39
                  40
                  41
                  42
                  43
                  44
                  45
                  46
                  47
                  48
                  49
                  50
                  51
                  52
                  53
                  54
                  55
                  56
                  57
                  58
                  59
                  60
                  61
                  62
                  63
                  64
                  65
                  66
                  67
                  68
                  69
                  70
                  71
                  72
                  73
                  74
                  75
                  76
                  77
                  78
                  79
                  80
                  81
                  82
                  83
                  84
                  85
                  86
                  87
                  88
                  89
                  90
                  91
                  92
                  93
                  94
                  95
                  96
                  97
                  98
                  99
                 100
                 101
                 102
                 103
                 104
                 105
                 106
                 107
                 108
                 109
                 110
                 111
                 112
                 113
                 114
                 115
                 116
                 117
                 118
                 119
                 120
                 121
                 122
                 123
                 124
                 125
                 126
                 127
                 128
                 129
                 130
                 131
                 132
                 133
                 134
                 135
                 136
                 137
                 138
                 139
                 140
                 141
                 142
                 143
                 144
                 145
                 146
                 147
                 148
                 149
                 150
                 151
                 152
                 153
                 154
                 155
                 156
                 157
                 158
                 159
                 160
                 161
                 162
                 163
                 164
                 165
                 166
                 167
                 168
                 169
                 170
                 171
                 172
                 173
                 174
                 175
                 176
                 177
                 178
                 179
                 180
                 181
                 182
                 183
                 184
                 185
                 186
                 187
                 188
                 189
                 190
                 191
                 192
                 193
                 194
                 195
                 196
                 197
                 198
                 199
                 200
                 201
                 202
                 203
                 204
                 205
                 206
                 207
                 208
                 209
                 210
                 211
                 212
                 213
                 214
                 215
                 216
                 217
                 218
                 219
                 220
                 221
                 222
                 223
                 224
                 225
                 226
                 227
                 228
                 229
                 230
                 231
                 232
                 233
                 234
                 235
                 236
                 237
                 238
                 239
                 240
                 241
                 242
                 243
                 244
                 245
                 246
                 247
                 248
                 249
                 250
                 251
                 252
                 253
                 254
                 255
                 256
                 257
                 258
                 259
                 260
                 261
                 262
                 263
                 264
                 265
                 266
                 267
                 268
                 269
                 270
                 271
                 272
                 273
                 274
                 275
                 276
                 277
                 278
                 279
                 280
                 281
                 282
                 283
                 284
                 285
                 286
                 287
                 288
                 289
                 290
                 291
                 292
                 293
                 294
                 295
                 296
                 297
                 298
                 299
                 300
                 301
                 302
                 303
                 304
                 305
                 306
                 307
                 308
                 309
                 310
                 311
                 312
                 313
                 314
                 315
                 316
                 317
                 318
                 319
                 320
                 321
                 322
                 323
                 324
                 325
                 326
                 327
                 328
                 329
                 330
                 331
                 332
                 333
                 334
                 335
                 336
                 337
                 338
                 339
                 340
                 341
                 342
                 343
                 344
                 345
                 346
                 347
                 348
                 349
                 350
                 351
                 352
                 353
                 354
                 355
                 356
                 357
                 358
                 359
                 360
                 361
                 362
                 363
                 364
                 365
                 366
                 367
                 368
                 369
                 370
                 371
                 372
                 373
                 374
                 375
                 376
                 377
                 378
                 379
                 380
                 381
                 382
                 383
                 384
                 385
                 386
                 387
                 388
                 389
                 390
                 391
                 392
                 393
                 394
                 395
                 396
                 397
                 398
                 399
                 400
                 401
                 402
                 403
                 404
                 405
                 406
                 407
                 408
                 409
                 410
                 411
                 412
                 413
                 414
                 415
                 416
                 417
                 418
                 419
                 420
                 421
                 422
                 423
                 424
                 425
                 426
                 427
                 428
                 429
                 430
                 431
                 432
                 433
                 434
                 435
                 436
                 437
                 438
                 439
                 440
                 441
                 442
                 443
                 444
                 445
                 446
                 447
                 448
                 449
                 450
                 451
                 452
                 453
                 454
                 455
                 456
                 457
                 458
                 459
                 460
                 461
                 462
                 463
                 464
                 465
                 466
                 467
                 468
                 469
                 470
                 471
                 472
                 473
                 474
                 475
                 476
                 477
                 478
                 479
                 480
                 481
                 482
                 483
                 484
                 485
                 486
                 487
                 488
                 489
                 490
                 491
                 492
                 493
                 494
                 495
                 496
                 497
                 498
                 499
                 500
                 501
                 502
                 503
                 504
                 505
                 506
                 507
                 508
                 509
                 510
                 511
                 512
                 513
                 514
                 515
                 516
                 517
                 518
                 519
                 520
                 521
                 522
                 523
                 524
                 525
                 526
                 527
                 528
                 529
                 530
                 531
                 532
                 533
                 534
                 535
                 536
                 537
                 538
                 539
                 540
                 541
                 542
                 543
                 544
                 545
                 546
                 547
                 548
                 549
                 550
                 551
                 552
                 553
                 554
                 555
                 556
                 557
                 558
                 559
                 560
                 561
                 562
                 563
                 564
                 565
                 566
                 567
                 568
                 569
                 570
                 571
                 572
                 573
                 574
                 575
                 576
                 577
                 578
                 579
                 580
                 581
                 582
                 583
                 584
                 585
                 586
                 587
                 588
                 589
                 590
                 591
                 592
                 593
                 594
                 595
                 596
                 597
                 598
                 599
                 600
                 601
                 602
                 603
                 604
                 605
                 606
                 607
                 608
                 609
                 610
                 611
                 612
                 613
                 614
                 615
                 616
                 617
                 618
                 619
                 620
                 621
                 622
                 623
                 624
                 625
                 626
                 627
                 628
                 629
                 630
                 631
                 632
                 633
                 634
                 635
                 636
                 637
                 638
                 639
                 640
                 641
                 642
                 643
                 644
                 645
                 646
                 647
                 648
                 649
                 650
                 651
                 652
                 653
                 654
                 655
                 656
                 657
                 658
                 659
                 660
                 661
                 662
                 663
                 664
                 665
                 666
                 667
                 668
                 669
                 670
                 671
                 672
                 673
                 674
                 675
                 676
                 677
                 678
                 679
                 680
                 681
                 682
                 683
                 684
                 685
                 686
                 687
                 688
                 689
                 690
                 691
                 692
                 693
                 694
                 695
                 696
                 697
                 698
                 699
                 700
                 701
                 702
                 703
                 704
                 705
                 706
                 707
                 708
                 709
                 710
                 711
                 712
                 713
                 714
                 715
                 716
                 717
                 718
                 719
                 720
                 721
                 722
                 723
                 724
                 725
                 726
                 727
                 728
                 729
                 730
                 731
                 732
                 733
                 734
                 735
                 736
                 737
                 738
                 739
                 740
                 741
                 742
                 743
                 744
                 745
                 746
                 747
                 748
                 749
                 750
                 751
                 752
                 753
                 754
                 755
                 756
                 757
                 758
                 759
                 760
                 761
                 762
                 763
                 764
                 765
                 766
                 767
                 768
                 769
                 770
                 771
                 772
                 773
                 774
                 775
                 776
                 777
                 778
                 779
                 780
                 781
                 782
                 783
                 784
                 785
                 786
                 787
                 788
                 789
                 790
                 791
                 792
                 793
                 794
                 795
                 796
                 797
                 798
                 799
                 800
                 801
                 802
                 803
                 804
                 805
                 806
                 807
                 808
                 809
                 810
                 811
                 812
                 813
                 814
                 815
                 816
                 817
                 818
                 819
                 820
                 821
                 822
                 823
                 824
                 825
                 826
                 827
                 828
                 829
                 830
                 831
                 832
                 833
                 834
                 835
                 836
                 837
                 838
                 839
                 840
                 841
                 842
                 843
                 844
                 845
                 846
                 847
                 848
                 849
                 850
                 851
                 852
                 853
                 854
                 855
                 856
                 857
                 858
                 859
                 860
                 861
                 862
                 863
                 864
                 865
                 866
                 867
                 868
                 869
                 870
                 871
                 872
                 873
                 874
                 875
                 876
                 877
                 878
                 879
                 880
                 881
                 882
                 883
                 884
                 885
                 886
                 887
                 888
                 889
                 890
                 891
                 892
                 893
                 894
                 895
                 896
                 897
                 898
                 899
                 900
                 901
                 902
                 903
                 904
                 905
                 906
                 907
                 908
                 909
                 910
                 911
                 912
                 913
                 914
                 915
                 916
                 917
                 918
                 919
                 920
                 921
                 922
                 923
                 924
                 925
                 926
                 927
                 928
                 929
                 930
                 931
                 932
                 933
                 934
                 935
                 936
                 937
                 938
                 939
                 940
                 941
                 942
                 943
                 944
                 945
                 946
                 947
                 948
                 949
                 950
                 951
                 952
                 953
                 954
                 955
                 956
                 957
                 958
                 959
                 960
                 961
                 962
                 963
                 964
                 965
                 966
                 967
                 968
                 969
                 970
                 971
                 972
                 973
                 974
                 975
                 976
                 977
                 978
                 979
                 980
                 981
                 982
                 983
                 984
                 985
                 986
                 987
                 988
                 989
                 990
                 991
                 992
                 993
                 994
                 995
                 996
                 997
                 998
                 999
                1000
                1001
                1002
                1003
                1004
                1005
                1006
                1007
                1008
                1009
                1010
                1011
                1012
                1013
                1014
                1015
                1016
                1017
                1018
                1019
                1020
                1021
                1022
                1023
                1024
                1025
                1026
                1027
                1028
                1029
                1030
                1031
                1032
                1033
                1034
                1035
                1036
                1037
                1038
                1039
                1040
                1041
                1042
                1043
                1044
                1045
                1046
                1047
                1048
                1049
                1050
                1051
                1052
                1053
                1054
                1055
                1056
                1057
                1058
                1059
                1060
                1061
                1062
                1063
                1064
                1065
                1066
                1067
                1068
                1069
                1070
                1071
                1072
                1073
                1074
                1075
                1076
                1077
                1078
                1079
                1080
                1081
                1082
                1083
                1084
                1085
                1086
                1087
                1088
                1089
                1090
                1091
                1092
                1093
                1094
                1095
                1096
                1097
                1098
                1099
                1100
                1101
                1102
                1103
                1104
                1105
                1106
                1107
                1108
                1109
                1110
                1111
                1112
                1113
                1114
                1115
                1116
                1117
                1118
                1119
                1120
                1121
                1122
                1123
                1124
                1125
                1126
                1127
                1128
                1129
                1130
                1131
                1132
                1133
                1134
                1135
                1136
                1137
                1138
                1139
                1140
                1141
                1142
                1143
                1144
                1145
                1146
                1147
                1148
                1149
                1150
                1151
                1152
                1153
                1154
                1155
                1156
                1157
                1158
                1159
                1160
                1161
                1162
                1163
                1164
                1165
                1166
                1167
                1168
                1169
                1170
                1171
                1172
                1173
                1174
                1175
                1176
                1177
                1178
                1179
                1180
                1181
                1182
                1183
                1184
                1185
                1186
                1187
                1188
                1189
                1190
                1191
                1192
                1193
                1194
                1195
                1196
                1197
                1198
                1199
                1200
                1201
                1202
                1203
                1204
                1205
                1206
                1207
                1208
                1209
                1210
                1211
                1212
                1213
                1214
                1215
                1216
                1217
                1218
                1219
                1220
                1221
                1222
                1223
                1224
                1225
                1226
                1227
                1228
                1229
                1230
                1231
                1232
                1233
                1234
                1235
                1236
                1237
                1238
                1239
                1240
                1241
                1242
                1243
                1244
                1245
                1246
                1247
                1248
                1249
                1250
                1251
                1252
                1253
                1254
                1255
                1256
                1257
                1258
                1259
                1260
                1261
                1262
                1263
                1264
                1265
                1266
                1267
                1268
                1269
                1270
                1271
                1272
                1273
                1274
                1275
                1276
                1277
                1278
                1279
                1280
                1281
                1282
                1283
                1284
                1285
                1286
                1287
                1288
                1289
                1290
                1291
                1292
                1293
                1294
                1295
                1296
                1297
                1298
                1299
                1300
                1301
                1302
                1303
                1304
                1305
                1306
                1307
                1308
                1309
                1310
                1311
                1312
                1313
                1314
                1315
                1316
                1317
                1318
                1319
                1320
                1321
                1322
                1323
                1324
                1325
                1326
                1327
                1328
                1329
                1330
                1331
                1332
                1333
                1334
                1335
                1336
                1337
                1338
                1339
                1340
                1341
                1342
                1343
                1344
                1345
                1346
                1347
                1348
                1349
                1350
                1351
                1352
                1353
                1354
                1355
                1356
                1357
                1358
                1359
                1360
                1361
                1362
                1363
                1364
                1365
                1366
                1367
                1368
                1369
                1370
                1371
                1372
                1373
                1374
                1375
                1376
                1377
                1378
                1379
                1380
                1381
                1382
                1383
                1384
                1385
                1386
                1387
                1388
                1389
                1390
                1391
                1392
                1393
                1394
                1395
                1396
                1397
                1398
                1399
                1400
                1401
                1402
                1403
                1404
                1405
                1406
                1407
                1408
                1409
                1410
                1411
                1412
                1413
                1414
                1415
                1416
                1417
                1418
                1419
                1420
                1421
                1422
                1423
                1424
                1425
                1426
                1427
                1428
                1429
                1430
                1431
                1432
                1433
                1434
                1435
                1436
                1437
                1438
                1439
                1440
                1441
                1442
                1443
                1444
                1445
                1446
                1447
                1448
                1449
                1450
                1451
                1452
                1453
                1454
                1455
                1456
                1457
                1458
                1459
                1460
                1461
                1462
                1463
                1464
                1465
                1466
                1467
                1468
                1469
                1470
                1471
                1472
                1473
                1474
                1475
                1476
                1477
                1478
                1479
                1480
                1481
                1482
                1483
                1484
                1485
                1486
                1487
                1488
                1489
                1490
                1491
                1492
                1493
                1494
                1495
                1496
                1497
                1498
                1499
                1500
                1501
                1502
                1503
                1504
                1505
                1506
                1507
                1508
                1509
                1510
                1511
                1512
                1513
                1514
                1515
                1516
                1517
                1518
                1519
                1520
                1521
                1522
                1523
                1524
                1525
                1526
                1527
                1528
                1529
                1530
                1531
                1532
                1533
                1534
                1535
                1536
                1537
                1538
                1539
                1540
                1541
                1542
                1543
                1544
                1545
                1546
                1547
                1548
                1549
                1550
                1551
                1552
                1553
                1554
                1555
                1556
                1557
                1558
                1559
                1560
                1561
                1562
                1563
                1564
                1565
                1566
                1567
                1568
                1569
                1570
                1571
                1572
                1573
                1574
                1575
                1576
                1577
                1578
                1579
                1580
                1581
                1582
                1583
                1584
                1585
                1586
                1587
                1588
                1589
                1590
                1591
                1592
                1593
                1594
                1595
                1596
                1597
                1598
                1599
                1600
                1601
                1602
                1603
                1604
                1605
                1606
                1607
                1608
                1609
                1610
                1611
                1612
                1613
                1614
                1615
                1616
                1617
                1618
                1619
                1620
                1621
                1622
                1623
                1624
                1625
                1626
                1627
                1628
                1629
                1630
                1631
                1632
                1633
                1634
                1635
                1636
                1637
                1638
                1639
                1640
                1641
                1642
                1643
                1644
                1645
                1646
                1647
                1648
                1649
                1650
                1651
                1652
                1653
                1654
                1655
                1656
                1657
                1658
                1659
                1660
                1661
                1662
                1663
                1664
                1665
                1666
                1667
                1668
                1669
                1670
                1671
                1672
                1673
                1674
                1675
                1676
                1677
                1678
                1679
                1680
                1681
                1682
                1683
                1684
                1685
                1686
                1687
                1688
                1689
                1690
                1691
                1692
                1693
                1694
                1695
                1696
                1697
                1698
                1699
                1700
                1701
                1702
                1703
                1704
                1705
                1706
                1707
                1708
                1709
                1710
                1711
                1712
                1713
                1714
                1715
                1716
                1717
                1718
                1719
                1720
                1721
                1722
                1723
                1724
                1725
                1726
                1727
                1728
                1729
                1730
                1731
                1732
                1733
                1734
                1735
                1736
                1737
                1738
                1739
                1740
                1741
                1742
                1743
                1744
                1745
                1746
                1747
                1748
                1749
                1750
                1751
                1752
                1753
                1754
                1755
                1756
                1757
                1758
                1759
                1760
                1761
                1762
                1763
                1764
                1765
                1766
                1767
                1768
                1769
                1770
                1771
                1772
                1773
                1774
                1775
                1776
                1777
                1778
                1779
                1780
                1781
                1782
                1783
                1784
                1785
                1786
                1787
                1788
                1789
                1790
                1791
                1792
                1793
                1794
                1795
                1796
                1797
                1798
                1799
                1800
                1801
                1802
                1803
                1804
                1805
                1806
                1807
                1808
                1809
                1810
                1811
                1812
                1813
                1814
                1815
                1816
                1817
                1818
                1819
                1820
                1821
                1822
                1823
                1824
                1825
                1826
                1827
                1828
                1829
                1830
                1831
                1832
                1833
                1834
                1835
                1836
                1837
                1838
                1839
                1840
                1841
                1842
                1843
                1844
                1845
                1846
                1847
                1848
                1849
                1850
                1851
                1852
                1853
                1854
                1855
                1856
                1857
                1858
                1859
                1860
                1861
                1862
                1863
                1864
                1865
                1866
                1867
                1868
                1869
                1870
                1871
                1872
                1873
                1874
                1875
                1876
                1877
                1878
                1879
                1880
                1881
                1882
                1883
                1884
                1885
                1886
                1887
                1888
                1889
                1890
                1891
                1892
                1893
                1894
                1895
                1896
                1897
                1898
                1899
                1900
                1901
                1902
                1903
                1904
                1905
                1906
                1907
                1908
                1909
                1910
                1911
                1912
                1913
                1914
                1915
                1916
                1917
                1918
                1919
                1920
                1921
                1922
                1923
                1924
                1925
                1926
                1927
                1928
                1929
                1930
                1931
                1932
                1933
                1934
                1935
                1936
                1937
                1938
                1939
                1940
                1941
                1942
                1943
                1944
                1945
                1946
                1947
                1948
                1949
                1950
  
SCALARS                         bodyid  double 1
LOOKUP_TABLE default
                   1
                   1
                   1
                   1
                   1
                   1
                   1
                   1
                   1
                   1
                   1
                   1
                   1
                   1
                   1
                   1
                   1
                   1
                   1
                   1
                   1
                   1
                   1
                   1
                   1
                   1
                   1
                   1
                   1
                   1
                   1
                   1
                   1
                   1
                   1
                   1
                   1
                   1
                   1
                   1
                   1
                   1
                   1
                   1
                   1
                   1
                   1
                   1
                   1
                   1
                   1
                   1
                   1
                   1
                   1
                   1
                   1
                   1
                   1
                   1
                   1
                   1
                   1
                   1
                   1
                   1
                   1
                   1
                   1
                   1
                   1
                   1
                   1
                   1
                   1
                   1
                   1
                   1
                   1
                   1
                   1
                   1
                   1
                   1
                   1
                   1
                   1
                   1
                   1
                   1
                   1
                   1
                   1
                   1
                   1
                   1
                   1
                   1
                   1
                   1
                   1
                   1
                   1
                   1
                   1
                   1
                   1
                   1
                   1
                   1
                   1
                   1
                   1
                   1
                   1
                   1
                   1
                   1
                   1
                   1
                   1
                   1
                   1
                   1
                   1
                   1
                   1
                   1
                   1
                   1
                   1
                   1
                   1
                   1
                   1
                   1
                   1
                   1
                   1
                   1
                   1
                   1
                   1
                   1
                   1
                   1
                   1
                   1
                   1
                   1
                   1
                   1
                   1
                   1
                   1
                   1
                   1
                   1
                   1
                   1
                   1
                   1
                   1
                   1
                   1
                   1
                   1
                   1
                   1
                   1
                   1
                   1
                   1
                   1
                   1
                   1
                   1
                   1
                   1
                   1
                   1
                   1
                   1
                   1
                   1
                   1
                   1
                   1
                   1
                   1
                   1
                   1
                   1
                   1
                   1
                   1
                   1
                   1
                   1
                   1
                   1
                   1
                   1
                   1
                   1
                   1
                   1
                   1
                   1
                   1
                   1
                   1
                   1
                   1
                   1
                   1
                   1
                   1
                   1
                   1
                   1
                   1
                   1
                   1
                   1
                   1
                   1
                   1
                   1
                   1
                   1
                   1
                   1
                   1
                   1
                   1
                   1
                   1
                   1
                   1
                   1
                   1
                   1
                   1
                   1
                   1
                   1
                   1
                   1
                   1
                   1
                   1
                   1
                   1
                   1
                   1
                   1
                   1
                   1
                   1
                   1
                   1
                   1
                   1
                   1
                   1
                   1
                   1
                   1
                   1
                   1
                   1
                   1
                   1
                   1
                   1
                   1
                   1
                   1
                   1
                   1
                   1
                   1
                   1
                   1
                   1
                   1
                   1
                   1
                   1
                   1
                   1
                   1
                   1
                   1
                   1
                   1
                   1
                   1
                   1
                   1
                   1
                   1
                   1
                   1
                   1
                   1
                   1
                   1
                   1
                   1
                   1
                   1
                   1
                   1
                   1
                   1
                   1
                   1
                   1
                   1
                   1
                   1
                   1
                   1
                   1
                   1
                   1
                   1
                   1
                   1
                   1
                   1
                   1
                   1
                   1
                   1
                   1
                   1
                   1
                   1
                   1
                   1
                   1
                   1
                   1
                   1
                   1
                   1
                   1
                   1
                   1
                   1
                   1
                   1
                   1
                   1
                   1
                   1
                   1
                   1
                   1
                   1
                   1
                   1
                   1
                   1
                   1
                   1
                   1
                   1
                   1
                   1
                   1
                   1
                   1
                   1
                   1
                   1
                   1
                   1
                   1
                   1
                   1
                   1
                   1
                   1
                   1
                   1
                   1
                   1
                   1
                   1
                   1
                   1
                   1
                   1
                   1
                   1
                   1
                   1
                   1
                   1
                   1
                   1
                   1
                   1
                   1
                   1
                   1
                   1
                   1
                   1
                   1
                   1
                   1
                   1
                   1
                   1
                   1
                   1
                   1
                   1
                   1
                   1
                   1
                   1
                   1
                   1
                   1
                   1
                   1
                   1
                   1
                   1
                   1
                   1
                   1
                   1
                   1
                   1
                   1
                   1
                   1
                   1
                   1
                   1
                   1
                   1
                   1
                   1
                   1
                   1
                   1
                   1
                   1
                   1
                   1
                   1
                   1
                   1
                   1
                   1
                   1
                   1
                   1
                   1
                   1
                   1
                   1
                   1
                   1
                   1
                   1
                   1
                   1
                   1
                   1
                   1
                   1
                   1
                   1
                   1
                   1
                   1
                   1
                   1
                   1
                   1
                   1
                   1
                   1
                   1
                   1
                   1
                   1
                   1
                   1
                   1
                   1
                   1
                   1
                   1
                   1
                   1
                   1
                   1
                   1
                   1
                   1
                   1
                   1
                   1
                   1
                   1
                   1
                   1
                   1
                   1
                   1
                   1
                   1
                   1
                   1
                   1
                   1
                   1
                   1
                   1
                   1
                   1
                   1
                   1
                   1
                   1
                   1
                   1
                   1
                   1
                   1
                   1
                   1
                   1
                   1
                   1
                   1
                   1
                   1
                   1
                   1
                   1
                   1
                   1
                   1
                   1
                   1
                   1
                   1
                   1
                   1
                   1
                   1
                   1
                   1
                   1
                   1
                   1
                   1
                   1
                   1
                   1
                   1
                   1
                   1
                   1
                   1
                   1
                   1
                   1
                   1
                   1
                   1
                   1
                   1
                   1
                   1
                   1
                   1
                   1
                   1
                   1
                   1
                   1
                   1
                   1
                   1
                   1
                   1
                   1
                   1
                   1
                   1
                   1
                   1
                   1
                   1
                   1
                   1
                   1
                   1
                   1
                   1
                   1
                   1
                   1
                   1
                   1
                   1
                   1
                   1
                   1
                   1
                   1
                   1
                   1
                   1
                   1
                   1
                   1
                   1
                   1
                   1
                   1
                   1
                   1
                   1
                   1
                   1
                   1
                   1
                   1
                   1
                   1
                   1
                   1
                   1
                   1
                   1
                   1
                   1
                   1
                   1
                   1
                   1
                   1
                   1
                   1
                   1
                   1
                   1
                   1
                   1
                   1
                   1
                   1
                   1
                   1
                   1
                   1
                   1
                   1
                   1
                   1
                   1
                   1
                   1
                   1
                   1
                   1
                   1
                   1
                   1
                   1
                   1
                   1
                   1
                   1
                   1
                   1
                   1
                   1
                   1
                   1
                   1
                   1
                   1
                   1
                   1
                   1
                   1
                   1
                   1
                   1
                   1
                   1
                   1
                   1
                   1
                   1
                   1
                   1
                   1
                   1
                   1
                   1
                   1
                   1
                   1
                   1
                   1
                   1
                   1
                   1
                   1
                   1
                   1
                   1
                   1
                   1
                   1
                   1
                   1
                   1
                   1
                   1
                   1
                   1
                   1
                   1
                   1
                   1
                   1
                   1
                   1
                   1
                   1
                   1
                   1
                   1
                   1
                   1
                   1
                   1
                   1
                   1
                   1
                   1
                   1
                   1
                   1
                   1
                   1
                   1
                   1
                   1
                   1
                   1
                   1
                   1
                   1
                   1
                   1
                   1
                   1
                   1
                   1
                   1
                   1
                   1
                   1
                   1
                   1
                   1
                   1
                   1
                   1
                   1
                   1
                   1
                   1
                   1
                   1
                   1
                   1
                   1
                   1
                   1
                   1
                   1
                   1
                   1
                   1
                   1
                   1
                   1
                   1
                   1
                   1
                   1
                   1
                   1
                   1
                   1
                   1
                   1
                   1
                   1
                   1
                   1
                   1
                   1
                   1
                   1
                   1
                   1
                   1
                   1
                   1
                   1
                   1
                   1
                   1
                   1
                   1
                   1
                   1
                   1
                   1
                   1
                   1
                   1
                   1
                   1
                   1
                   1
                   1
                   1
                   1
                   1
                   1
                   1
                   1
                   1
                   1
                   1
                   1
                   1
                   1
                   1
                   1
                   1
                   1
                   1
                   1
                   1
                   1
                   1
                   1
                   1
                   1
                   1
                   1
                   1
                   1
                   1
                   1
                   1
                   1
                   1
                   1
                   1
                   1
                   1
                   1
                   1
                   1
                   1
                   1
                   1
                   1
                   1
                   1
                   1
                   1
                   1
                   1
                   1
                   1
                   1
                   1
                   1
                   1
                   1
                   1
                   1
                   1
                   1
                   1
                   1
                   1
                   1
                   1
                   1
                   1
                   1
                   1
                   1
                   1
                   1
                   1
                   1
                   1
                   1
                   1
                   1
                   1
                   1
                   1
                   1
                   1
                   1
                   1
                   1
                   1
                   1
                   1
                   1
                   1
                   1
                   1
                   1
                   1
                   1
                   1
                   1
                   1
                   1
                   1
                   1
                   1
                   1
                   1
                   1
                   1
                   1
                   1
                   1
                   1
                   1
                   1
                   1
                   1
                   1
                   1
                   1
                   1
                   1
                   1
                   1
                   1
                   1
                   1
                   1
                   1
                   1
                   1
                   1
                   1
                   1
                   1
                   1
                   1
                   1
                   1
                   1
                   1
                   1
                   1
                   1
                   1
                   1
                   1
                   1
                   1
                   1
                   1
                   1
                   1
                   1
                   1
                   1
                   1
                   1
                   1
                   1
                   1
                   1
                   1
                   1
                   1
                   1
                   1
                   1
                   1
                   1
                   1
                   1
                   1
                   1
                   1
                   1
                   1
                   1
                   1
                   1
                   1
                   1
                   1
                   1
                   1
                   1
                   1
                   1
                   1
                   1
                   1
                   1
                   1
                   1
                   1
                   1
                   1
                   1
                   1
                   1
                   1
                   1
                   1
                   1
                   1
                   1
                   1
                   1
                   1
                   1
                   1
                   1
                   1
                   1
                   1
                   1
                   1
                   1
                   1
                   1
                   1
                   1
                   1
                   1
                   1
                   1
                   1
                   1
                   1
                   1
                   1
                   1
                   1
                   1
                   1
                   1
                   1
                   1
                   1
                   1
                   1
                   1
                   1
                   1
                   1
                   1
                   1
                   1
                   1
                   1
                   1
                   1
                   1
                   1
                   1
                   1
                   1
                   1
                   1
                   1
                   1
                   1
                   1
                   1
                   1
                   1
                   1
                   1
                   1
                   1
                   1
                   1
                   1
                   1
                   1
                   1
                   1
                   1
                   1
                   1
                   1
                   1
                   1
                   1
                   1
                   1
                   1
                   1
                   1
                   1
                   1
                   1
                   1
                   1
                   1
                   1
                   1
                   1
                   1
                   1
                   1
                   1
                   1
                   1
                   1
                   1
                   1
                   1
                   1
                   1
                   1
                   1
                   1
                   1
                   1
                   1
                   1
                   1
                   1
                   1
                   1
                   1
                   1
                   1
                   1
                   1
                   1
                   1
                   1
                   1
                   1
                   1
                   1
                   1
                   1
                   1
                   1
                   1
                   1
                   1
                   1
                   1
                   1
                   1
                   1
                   1
                   1
                   1
                   1
                   1
                   1
                   1
                   1
                   1
                   1
                   1
                   1
                   1
                   1
                   1
                   1
                   1
                   1
                   1
                   1
                   1
                   1
                   1
                   1
                   1
                   1
                   1
                   1
                   1
                   1
                   1
                   1
                   1
                   1
                   1
                   1
                   1
                   1
                   1
                   1
                   1
                   1
                   1
                   1
                   1
                   1
                   1
                   1
                   1
                   1
                   1
                   1
                   1
                   1
                   1
                   1
                   1
                   1
                   1
                   1
                   1
                   1
                   1
                   1
                   1
                   1
                   1
                   1
                   1
                   1
                   1
                   1
                   1
                   1
                   1
                   1
                   1
                   1
                   1
                   1
                   1
                   1
                   1
                   1
                   1
                   1
                   1
                   1
                   1
                   1
                   1
                   1
                   1
                   1
                   1
                   1
                   1
                   1
                   1
                   1
                   1
                   1
                   1
                   1
                   1
                   1
                   1
                   1
                   1
                   1
                   1
                   1
                   1
                   1
                   1
                   1
                   1
                   1
                   1
                   1
                   1
                   1
                   1
                   1
                   1
                   1
                   1
                   1
                   1
                   1
                   1
                   1
                   1
                   1
                   1
                   1
                   1
                   1
                   1
                   1
                   1
                   1
                   1
                   1
                   1
                   1
                   1
                   1
                   1
                   1
                   1
                   1
                   1
                   1
                   1
                   1
                   1
                   1
                   1
                   1
                   1
                   1
                   1
                   1
                   1
                   1
                   1
                   1
                   1
                   1
                   1
                   1
                   1
                   1
                   1
                   1
                   1
                   1
                   1
                   1
                   1
                   1
                   1
                   1
                   1
                   1
                   1
                   1
                   1
                   1
                   1
                   1
                   1
                   1
                   1
                   1
                   1
                   1
                   1
                   1
                   1
                   1
                   1
                   1
                   1
                   1
                   1
                   1
                   1
                   1
                   1
                   1
                   1
                   1
                   1
                   1
                   1
                   1
                   1
                   1
                   1
                   1
                   1
                   1
                   1
                   1
                   1
                   1
                   1
                   1
                   1
                   1
                   1
                   1
                   1
                   1
                   1
                   1
                   1
                   1
                   1
                   1
                   1
                   1
                   1
                   1
                   1
                   1
                   1
                   1
                   1
                   1
                   1
                   1
                   1
                   1
                   1
                   1
                   1
                   1
                   1
                   1
                   1
                   1
                   1
                   1
                   1
                   1
                   1
                   1
                   1
                   1
                   1
                   1
                   1
                   1
                   1
                   1
                   1
                   1
                   1
                   1
                   1
                   1
                   1
                   1
                   1
                   1
                   1
                   1
                   1
                   1
                   1
                   1
                   1
                   1
                   1
                   1
                   1
                   1
                   1
                   1
                   1
                   1
                   1
                   1
                   1
                   1
                   1
                   1
                   1
                   1
                   1
                   1
                   1
                   1
                   1
                   1
                   1
                   1
                   1
                   1
                   1
                   1
                   1
                   1
                   1
                   1
                   1
                   1
                   1
                   1
                   1
                   1
                   1
                   1
                   1
                   1
                   1
                   1
                   1
                   1
                   1
                   1
                   1
                   1
                   1
                   1
                   1
                   1
                   1
                   1
                   1
                   1
                   1
                   1
                   1
                   1
                   1
                   1
                   1
                   1
                   1
                   1
                   1
                   1
                   1
                   1
                   1
                   1
                   1
                   1
                   1
                   1
                   1
                   1
                   1
                   1
                   1
                   1
                   1
                   1
                   1
                   1
                   1
                   1
                   1
                   1
                   1
                   1
                   1
                   1
                   1
                   1
                   1
                   1
                   1
                   1
                   1
                   1
                   1
                   1
                   1
                   1
                   1
                   1
                   1
                   1
                   1
                   1
                   1
                   1
                   1
                   1
                   1
                   1
                   1
                   1
                   1
                   1
                   1
                   1
                   1
                   1
                   1
                   1
                   1
                   1
                   1
                   1
                   1
                   1
                   1
                   1
                   1
                   1
                   1
                   1
                   1
                   1
                   1
                   1
                   1
                   1
                   1
                   1
                   1
                   1
                   1
                   1
                   1
                   1
                   1
                   1
                   1
                   1
                   1
                   1
                   1
                   1
                   1
                   1
                   1
                   1
                   1
                   1
                   1
                   1
                   1
                   1
                   1
                   1
                   1
                   1
                   1
                   1
                   1
                   1
                   1
                   1
                   1
                   1
                   1
                   1
                   1
                   1
                   1
                   1
                   1
                   1
                   1
                   1
                   1
                   1
                   1
                   1
                   1
                   1
                   1
                   1
                   1
                   1
                   1
                   1
                   1
                   1
                   1
                   1
                   1
                   1
                   1
                   1
                   1
                   1
                   1
                   1
                   1
                   1
                   1
                   1
                   1
                   1
                   1
                   1
                   1
                   1
                   1
                   1
                   1
                   1
                   1
                   1
                   1
                   1
                   1
                   1
                   1
                   1
                   1
                   1
                   1
                   1
                   1
                   1
                   1
                   1
                   1
                   1
                   1
                   1
                   1
                   1
                   1
                   1
                   1
                   1
                   1
                   1
                   1
                   1
                   1
                   1
                   1
                   1
                   1
                   1
                   1
                   1
                   1
                   1
                   1
                   1
                   1
                   1
                   1
                   1
                   1
                   1
                   1
                   1
                   1
                   1
                   1
                   1
                   1
                   1
                   1
                   1
                   1
                   1
                   1
                   1
                   1
                   1
                   1
                   1
                   1
                   1
                   1
                   1
                   1
                   1
                   1
                   1
                   1
                   1
                   1
                   1
                   1
                   1
                   1
                   1
                   1
                   1
                   1
                   1
                   1
                   1
                   1
                   1
                   1
                   1
                   1
                   1
                   1
                   1
                   1
                   1
                   1
                   1
                   1
                   1
                   1
                   1
                   1
                   1
                   1
                   1
                   1
                   1
                   1
                   1
                   1
                   1
                   1
                   1
                   1
                   1
                   1
                   1
                   1
                   1
                   1
                   1
                   1
                   1
                   1
                   1
                   1
                   1
                   1
                   1
                   1
                   1
                   1
                   1
                   1
                   1
                   1
                   1
                   1
                   1
                   1
                   1
                   1
                   1
                   1
                   1
                   1
                   1
                   1
                   1
                   1
                   1
                   1
                   1
                   1
                   1
                   1
                   1
                   1
                   1
                   1
                   1
                   1
                   1
                   1
                   1
                   1
                   1
                   1
                   1
                   1
                   1
                   1
                   1
                   1
                   1
                   1
                   1
                   1
                   1
                   1
                   1
                   1
                   1
                   1
                   1
                   1
                   1
                   1
                   1
                   1
                   1
                   1
                   1
                   1
                   1
                   1
                   1
                   1
                   1
                   1
                   1
                   1
                   1
                   1
                   1
                   1
                   1
                   1
                   1
                   1
                   1
                   1
                   1
                   1
                   1
                   1
                   1
                   1
                   1
                   1
                   1
                   1
                   1
                   1
                   1
                   1
                   1
  
SCALARS                  material_type  double 1
LOOKUP_TABLE default
                   2
                   2
                   2
                   2
                   2
                   2
                   2
                   2
                   2
                   2
                   2
                   2
                   2
                   2
                   2
                   2
                   2
                   2
                   2
                   2
                   2
                   2
                   2
                   2
                   2
                   2
                   2
                   2
                   2
                   2
                   2
                   2
                   2
                   2
                   2
                   2
                   2
                   2
                   2
                   2
                   2
                   2
                   2
                   2
                   2
                   2
                   2
                   2
                   2
                   2
                   2
                   2
                   2
                   2
                   2
                   2
                   2
                   2
                   2
                   2
                   2
                   2
                   2
                   2
                   2
                   2
                   2
                   2
                   2
                   2
                   2
                   2
                   2
                   2
                   2
                   2
                   2
                   2
                   2
                   2
                   2
                   2
                   2
                   2
                   2
                   2
                   2
                   2
                   2
                   2
                   2
                   2
                   2
                   2
                   2
                   2
                   2
                   2
                   2
                   2
                   2
                   2
                   2
                   2
                   2
                   2
                   2
                   2
                   2
                   2
                   2
                   2
                   2
                   2
                   2
                   2
                   2
                   2
                   2
                   2
                   2
                   2
                   2
                   2
                   2
                   2
                   2
                   2
                   2
                   2
                   2
                   2
                   2
                   2
                   2
                   2
                   2
                   2
                   2
                   2
                   2
                   2
                   2
                   2
                   2
                   2
                   2
                   2
                   2
                   2
                   2
                   2
                   2
                   2
                   2
                   2
                   2
                   2
                   2
                   2
                   2
                   2
                   2
                   2
                   2
                   2
                   2
                   2
                   2
                   2
                   2
                   2
                   2
                   2
                   2
                   2
                   2
                   2
                   2
                   2
                   2
                   2
                   2
                   2
                   2
                   2
                   2
                   2
                   2
                   2
                   2
                   2
                   2
                   2
                   2
                   2
                   2
                   2
                   2
                   2
                   2
                   2
                   2
                   2
                   2
                   2
                   2
                   2
                   2
                   2
                   2
                   2
                   2
                   2
                   2
                   2
                   2
                   2
                   2
                   2
                   2
                   2
                   2
                   2
                   2
                   2
                   2
                   2
                   2
                   2
                   2
                   2
                   2
                   2
                   2
                   2
                   2
                   2
                   2
                   2
                   2
                   2
                   2
                   2
                   2
                   2
                   2
                   2
                   2
                   2
                   2
                   2
                   2
                   2
                   2
                   2
                   2
                   2
                   2
                   2
                   2
                   2
                   2
                   2
                   2
                   2
                   2
                   2
                   2
                   2
                   2
                   2
                   2
                   2
                   2
                   2
                   2
                   2
                   2
                   2
                   2
                   2
                   2
                   2
                   2
                   2
                   2
                   2
                   2
                   2
                   2
                   2
                   2
                   2
                   2
                   2
                   2
                   2
                   2
                   2
                   2
                   2
                   2
                   2
                   2
                   2
                   2
                   2
                   2
                   2
                   2
                   2
                   2
                   2
                   2
                   2
                   2
                   2
                   2
                   2
                   2
                   2
                   2
                   2
                   2
                   2
                   2
                   2
                   2
                   2
                   2
                   2
                   2
                   2
                   2
                   2
                   2
                   2
                   2
                   2
                   2
                   2
                   2
                   2
                   2
                   2
                   2
                   2
                   2
                   2
                   2
                   2
                   2
                   2
                   2
                   2
                   2
                   2
                   2
                   2
                   2
                   2
                   2
                   2
                   2
                   2
                   2
                   2
                   2
                   2
                   2
                   2
                   2
                   2
                   2
                   2
                   2
                   2
                   2
                   2
                   2
                   2
                   2
                   2
                   2
                   2
                   2
                   2
                   2
                   2
                   2
                   2
                   2
                   2
                   2
                   2
                   2
                   2
                   2
                   2
                   2
                   2
                   2
                   2
                   2
                   2
                   2
                   2
                   2
                   2
                   2
                   2
                   2
                   2
                   2
                   2
                   2
                   2
                   2
                   2
                   2
                   2
                   2
                   2
                   2
                   2
                   2
                   2
                   2
                   2
                   2
                   2
                   2
                   2
                   2
                   2
                   2
                   2
                   2
                   2
                   2
                   2
                   2
                   2
                   2
                   2
                   2
                   2
                   2
                   2
                   2
                   2
                   2
                   2
                   2
                   2
                   2
                   2
                   2
                   2
                   2
                   2
                   2
                   2
                   2
                   2
                   2
                   2
                   2
                   2
                   2
                   2
                   2
                   2
                   2
                   2
                   2
                   2
                   2
                   2
                   2
                   2
                   2
                   2
                   2
                   2
                   2
                   2
                   2
                   2
                   2
                   2
                   2
                   2
                   2
                   2
                   2
                   2
                   2
                   2
                   2
                   2
                   2
                   2
                   2
                   2
                   2
                   2
                   2
                   2
                   2
                   2
                   2
                   2
                   2
                   2
                   2
                   2
                   2
                   2
                   2
                   2
                   2
                   2
                   2
                   2
                   2
                   2
                   2
                   2
                   2
                   2
                   2
                   2
                   2
                   2
                   2
                   2
                   2
                   2
                   2
                   2
                   2
                   2
                   2
                   2
                   2
                   2
                   2
                   2
                   2
                   2
                   2
                   2
                   2
                   2
                   2
                   2
                   2
                   2
                   2
                   2
                   2
                   2
                   2
                   2
                   2
                   2
                   2
                   2
                   2
                   2
                   2
                   2
                   2
                   2
                   2
                   2
                   2
                   2
                   2
                   2
                   2
                   2
                   2
                   2
                   2
                   2
                   2
                   2
                   2
                   2
                   2
                   2
                   2
                   2
                   2
                   2
                   2
                   2
                   2
                   2
                   2
                   2
                   2
                   2
                   2
                   2
                   2
                   2
                   2
                   2
                   2
                   2
                   2
                   2
                   2
                   2
                   2
                   2
                   2
                   2
                   2
                   2
                   2
                   2
                   2
                   2
                   2
                   2
                   2
                   2
                   2
                   2
                   2
                   2
                   2
                   2
                   2
                   2
                   2
                   2
                   2
                   2
                   2
                   2
                   2
                   2
                   2
                   2
                   2
                   2
                   2
                   2
                   2
                   2
                   2
                   2
                   2
                   2
                   2
                   2
                   2
                   2
                   2
                   2
                   2
                   2
                   2
                   2
                   2
                   2
                   2
                   2
                   2
                   2
                   2
                   2
                   2
                   2
                   2
                   2
                   2
                   2
                   2
                   2
                   2
                   2
                   2
                   2
                   2
                   2
                   2
                   2
                   2
                   2
                   2
                   2
                   2
                   2
                   2
                   2
                   2
                   2
                   2
                   2
                   2
                   2
                   2
                   2
                   2
                   2
                   2
                   2
                   2
                   2
                   2
                   2
                   2
                   2
                   2
                   2
                   2
                   2
                   2
                   2
                   2
                   2
                   2
                   2
                   2
                   2
                   2
                   2
                   2
                   2
                   2
                   2
                   2
                   2
                   2
                   2
                   2
                   2
                   2
                   2
                   2
                   2
                   2
                   2
                   2
                   2
                   2
                   2
                   2
                   2
                   2
                   2
                   2
                   2
                   2
                   2
                   2
                   2
                   2
                   2
                   2
                   2
                   2
                   2
                   2
                   2
                   2
                   2
                   2
                   2
                   2
                   2
                   2
                   2
                   2
                   2
                   2
                   2
                   2
                   2
                   2
                   2
                   2
                   2
                   2
                   2
                   2
                   2
                   2
                   2
                   2
                   2
                   2
                   2
                   2
                   2
                   2
                   2
                   2
                   2
                   2
                   2
                   2
                   2
                   2
                   2
                   2
                   2
                   2
                   2
                   2
                   2
                   2
                   2
                   2
                   2
                   2
                   2
                   2
                   2
                   2
                   2
                   2
                   2
                   2
                   2
                   2
                   2
                   2
                   2
                   2
                   2
                   2
                   2
                   2
                   2
                   2
                   2
                   2
                   2
                   2
                   2
                   2
                   2
                   2
                   2
                   2
                   2
                   2
                   2
                   2
                   2
                   2
                   2
                   2
                   2
                   2
                   2
                   2
                   2
                   2
                   2
                   2
                   2
                   2
                   2
                   2
                   2
                   2
                   2
                   2
                   2
                   2
                   2
                   2
                   2
                   2
                   2
                   2
                   2
                   2
                   2
                   2
                   2
                   2
                   2
                   2
                   2
                   2
                   2
                   2
                   2
                   2
                   2
                   2
                   2
                   2
                   2
                   2
                   2
                   2
                   2
                   2
                   2
                   2
                   2
                   2
                   2
                   2
                   2
                   2
                   2
                   2
                   2
                   2
                   2
                   2
                   2
                   2
                   2
                   2
                   2
                   2
                   2
                   2
                   2
                   2
                   2
                   2
                   2
                   2
                   2
                   2
                   2
                   2
                   2
                   2
                   2
                   2
                   2
                   2
                   2
                   2
                   2
                   2
                   2
                   2
                   2
                   2
                   2
                   2
                   2
                   2
                   2
                   2
                   2
                   2
                   2
                   2
                   2
                   2
                   2
                   2
                   2
                   2
                   2
                   2
                   2
                   2
                   2
                   2
                   2
                   2
                   2
                   2
                   2
                   2
                   2
                   2
                   2
                   2
                   2
                   2
                   2
                   2
                   2
                   2
                   2
                   2
                   2
                   2
                   2
                   2
                   2
                   2
                   2
                   2
                   2
                   2
                   2
                   2
                   2
                   2
                   2
                   2
                   2
                   2
                   2
                   2
                   2
                   2
                   2
                   2
                   2
                   2
                   2
                   2
                   2
                   2
                   2
                   2
                   2
                   2
                   2
                   2
                   2
                   2
                   2
                   2
                   2
                   2
                   2
                   2
                   2
                   2
                   2
                   2
                   2
                   2
                   2
                   2
                   2
                   2
                   2
                   2
                   2
                   2
                   2
                   2
                   2
                   2
                   2
                   2
                   2
                   2
                   2
                   2
                   2
                   2
                   2
                   2
                   2
                   2
                   2
                   2
                   2
                   2
                   2
                   2
                   2
                   2
                   2
                   2
                   2
                   2
                   2
                   2
                   2
                   2
                   2
                   2
                   2
                   2
                   2
                   2
                   2
                   2
                   2
                   2
                   2
                   2
                   2
                   2
                   2
                   2
                   2
                   2
                   2
                   2
                   2
                   2
                   2
                   2
                   2
                   2
                   2
                   2
                   2
                   2
                   2
                   2
                   2
                   2
                   2
                   2
                   2
                   2
                   2
                   2
                   2
                   2
                   2
                   2
                   2
                   2
                   2
                   2
                   2
                   2
                   2
                   2
                   2
                   2
                   2
                   2
                   2
                   2
                   2
                   2
                   2
                   2
                   2
                   2
                   2
                   2
                   2
                   2
                   2
                   2
                   2
                   2
                   2
                   2
                   2
                   2
                   2
                   2
                   2
                   2
                   2
                   2
                   2
                   2
                   2
                   2
                   2
                   2
                   2
                   2
                   2
                   2
                   2
                   2
                   2
                   2
                   2
                   2
                   2
                   2
                   2
                   2
                   2
                   2
                   2
                   2
                   2
                   2
                   2
                   2
                   2
                   2
                   2
                   2
                   2
                   2
                   2
                   2
                   2
                   2
                   2
                   2
                   2
                   2
                   2
                   2
                   2
                   2
                   2
                   2
                   2
                   2
                   2
                   2
                   2
                   2
                   2
                   2
                   2
                   2
                   2
                   2
                   2
                   2
                   2
                   2
                   2
                   2
                   2
                   2
                   2
                   2
                   2
                   2
                   2
                   2
                   2
                   2
                   2
                   2
                   2
                   2
                   2
                   2
                   2
                   2
                   2
                   2
                   2
                   2
                   2
                   2
                   2
                   2
                   2
                   2
                   2
                   2
                   2
                   2
                   2
                   2
                   2
                   2
                   2
                   2
                   2
                   2
                   2
                   2
                   2
                   2
                   2
                   2
                   2
                   2
                   2
                   2
                   2
                   2
                   2
                   2
                   2
                   2
                   2
                   2
                   2
                   2
                   2
                   2
                   2
                   2
                   2
                   2
                   2
                   2
                   2
                   2
                   2
                   2
                   2
                   2
                   2
                   2
                   2
                   2
                   2
                   2
                   2
                   2
                   2
                   2
                   2
                   2
                   2
                   2
                   2
                   2
                   2
                   2
                   2
                   2
                   2
                   2
                   2
                   2
                   2
                   2
                   2
                   2
                   2
                   2
                   2
                   2
                   2
                   2
                   2
                   2
                   2
                   2
                   2
                   2
                   2
                   2
                   2
                   2
                   2
                   2
                   2
                   2
                   2
                   2
                   2
                   2
                   2
                   2
                   2
                   2
                   2
                   2
                   2
                   2
                   2
                   2
                   2
                   2
                   2
                   2
                   2
                   2
                   2
                   2
                   2
                   2
                   2
                   2
                   2
                   2
                   2
                   2
                   2
                   2
                   2
                   2
                   2
                   2
                   2
                   2
                   2
                   2
                   2
                   2
                   2
                   2
                   2
                   2
                   2
                   2
                   2
                   2
                   2
                   2
                   2
                   2
                   2
                   2
                   2
                   2
                   2
                   2
                   2
                   2
                   2
                   2
                   2
                   2
                   2
                   2
                   2
                   2
                   2
                   2
                   2
                   2
                   2
                   2
                   2
                   2
                   2
                   2
                   2
                   2
                   2
                   2
                   2
                   2
                   2
                   2
                   2
                   2
                   2
                   2
                   2
                   2
                   2
                   2
                   2
                   2
                   2
                   2
                   2
                   2
                   2
                   2
                   2
                   2
                   2
                   2
                   2
                   2
                   2
                   2
                   2
                   2
                   2
                   2
                   2
                   2
                   2
                   2
                   2
                   2
                   2
                   2
                   2
                   2
                   2
                   2
                   2
                   2
                   2
                   2
                   2
                   2
                   2
                   2
                   2
                   2
                   2
                   2
                   2
                   2
                   2
                   2
                   2
                   2
                   2
                   2
                   2
                   2
                   2
                   2
                   2
                   2
                   2
                   2
                   2
                   2
                   2
                   2
                   2
                   2
                   2
                   2
                   2
                   2
                   2
                   2
                   2
                   2
                   2
                   2
                   2
                   2
                   2
                   2
                   2
                   2
                   2
                   2
                   2
                   2
                   2
                   2
                   2
                   2
                   2
                   2
                   2
                   2
                   2
                   2
                   2
                   2
                   2
                   2
                   2
                   2
                   2
                   2
                   2
                   2
                   2
                   2
                   2
                   2
                   2
                   2
                   2
                   2
                   2
                   2
                   2
                   2
                   2
                   2
                   2
                   2
                   2
                   2
                   2
                   2
                   2
                   2
                   2
                   2
                   2
                   2
                   2
                   2
                   2
                   2
                   2
                   2
                   2
                   2
                   2
                   2
                   2
                   2
                   2
                   2
                   2
                   2
                   2
                   2
                   2
                   2
                   2
                   2
                   2
                   2
                   2
                   2
                   2
                   2
                   2
                   2
                   2
                   2
                   2
                   2
                   2
                   2
                   2
                   2
                   2
                   2
                   2
                   2
                   2
                   2
                   2
                   2
                   2
                   2
                   2
                   2
                   2
                   2
                   2
                   2
                   2
                   2
                   2
                   2
                   2
                   2
                   2
                   2
                   2
                   2
                   2
                   2
                   2
                   2
                   2
                   2
                   2
                   2
                   2
                   2
                   2
                   2
                   2
                   2
                   2
                   2
                   2
                   2
                   2
                   2
                   2
                   2
                   2
                   2
                   2
                   2
                   2
                   2
                   2
                   2
                   2
                   2
                   2
                   2
                   2
                   2
                   2
                   2
                   2
                   2
                   2
                   2
                   2
                   2
                   2
                   2
                   2
                   2
                   2
                   2
                   2
                   2
                   2
                   2
                   2
                   2
                   2
                   2
                   2
                   2
                   2
                   2
                   2
                   2
                   2
                   2
                   2
                   2
                   2
                   2
                   2
                   2
                   2
                   2
                   2
                   2
                   2
                   2
                   2
                   2
                   2
                   2
                   2
                   2
                   2
                   2
                   2
                   2
                   2
                   2
                   2
                   2
                   2
                   2
                   2
                   2
                   2
                   2
                   2
                   2
                   2
                   2
                   2
                   2
                   2
                   2
                   2
                   2
                   2
                   2
                   2
                   2
                   2
                   2
                   2
                   2
                   2
                   2
                   2
                   2
                   2
                   2
                   2
                   2
                   2
                   2
                   2
                   2
                   2
                   2
                   2
                   2
                   2
                   2
                   2
                   2
                   2
                   2
                   2
                   2
                   2
                   2
                   2
                   2
                   2
                   2
                   2
                   2
                   2
                   2
                   2
                   2
                   2
                   2
                   2
                   2
                   2
                   2
                   2
                   2
                   2
                   2
                   2
                   2
                   2
                   2
                   2
                   2
                   2
                   2
                   2
                   2
                   2
                   2
                   2
                   2
                   2
                   2
                   2
                   2
                   2
                   2
                   2
                   2
                   2
                   2
                   2
                   2
                   2
                   2
                   2
                   2
                   2
                   2
                   2
                   2
                   2
                   2
                   2
                   2
                   2
                   2
                   2
                   2
                   2
                   2
                   2
                   2
                   2
                   2
                   2
                   2
                   2
                   2
                   2
                   2
                   2
                   2
                   2
                   2
                   2
                   2
                   2
                   2
                   2
                   2
                   2
                   2
                   2
                   2
                   2
                   2
                   2
                   2
                   2
                   2
                   2
                   2
                   2
                   2
                   2
                   2
                   2
                   2
                   2
                   2
                   2
                   2
                   2
                   2
                   2
                   2
                   2
                   2
                   2
                   2
                   2
                   2
                   2
                   2
                   2
                   2
                   2
                   2
                   2
                   2
                   2
                   2
                   2
                   2
                   2
                   2
                   2
                   2
                   2
                   2
                   2
                   2
                   2
                   2
                   2
                   2
                   2
                   2
                   2
                   2
                   2
                   2
                   2
                   2
                   2
                   2
                   2
                   2
                   2
                   2
                   2
                   2
                   2
                   2
                   2
                   2
                   2
  
SCALARS                       fixity_x  double 1
LOOKUP_TABLE default
                   0
                   0
                   0
                   0
                   0
                   0
                   0
                   0
                   0
                   0
                   0
                   0
                   0
                   0
                   0
                   0
                   0
                   0
                   0
                   0
                   0
                   0
                   0
                   0
                   0
                   0
                   0
                   0
                   0
                   0
                   0
                   0
                   0
                   0
                   0
                   0
                   0
                   0
                   0
                   0
                   0
                   0
                   0
                   0
                   0
                   0
                   0
                   0
                   0
                   0
                   0
                   0
                   0
                   0
                   0
                   0
                   0
                   0
                   0
                   0
                   0
                   0
                   0
                   0
                   0
                   0
                   0
                   0
                   0
                   0
                   0
                   0
                   0
                   0
                   0
                   0
                   0
                   0
                   0
                   0
                   0
                   0
                   0
                   0
                   0
                   0
                   0
                   0
                   0
                   0
                   0
                   0
                   0
                   0
                   0
                   0
                   0
                   0
                   0
                   0
                   0
                   0
                   0
                   0
                   0
                   0
                   0
                   0
                   0
                   0
                   0
                   0
                   0
                   0
                   0
                   0
                   0
                   0
                   0
                   0
                   0
                   0
                   0
                   0
                   0
                   0
                   0
                   0
                   0
                   0
                   0
                   0
                   0
                   0
                   0
                   0
                   0
                   0
                   0
                   0
                   0
                   0
                   0
                   0
                   0
                   0
                   0
                   0
                   0
                   0
                   0
                   0
                   0
                   0
                   0
                   0
                   0
                   0
                   0
                   0
                   0
                   0
                   0
                   0
                   0
                   0
                   0
                   0
                   0
                   0
                   0
                   0
                   0
                   0
                   0
                   0
                   0
                   0
                   0
                   0
                   0
                   0
                   0
                   0
                   0
                   0
                   0
                   0
                   0
                   0
                   0
                   0
                   0
                   0
                   0
                   0
                   0
                   0
                   0
                   0
                   0
                   0
                   0
                   0
                   0
                   0
                   0
                   0
                   0
                   0
                   0
                   0
                   0
                   0
                   0
                   0
                   0
                   0
                   0
                   0
                   0
                   0
                   0
                   0
                   0
                   0
                   0
                   0
                   0
                   0
                   0
                   0
                   0
                   0
                   0
                   0
                   0
                   0
                   0
                   0
                   0
                   0
                   0
                   0
                   0
                   0
                   0
                   0
                   0
                   0
                   0
                   0
                   0
                   0
                   0
                   0
                   0
                   0
                   0
                   0
                   0
                   0
                   0
                   0
                   0
                   0
                   0
                   0
                   0
                   0
                   0
                   0
                   0
                   0
                   0
                   0
                   0
                   0
                   0
                   0
                   0
                   0
                   0
                   0
                   0
                   0
                   0
                   0
                   0
                   0
                   0
                   0
                   0
                   0
                   0
                   0
                   0
                   0
                   0
                   0
                   0
                   0
                   0
                   0
                   0
                   0
                   0
                   0
                   0
                   0
                   0
                   0
                   0
                   0
                   0
                   0
                   0
                   0
                   0
                   0
                   0
                   0
                   0
                   0
                   0
                   0
                   0
                   0
                   0
                   0
                   0
                   0
                   0
                   0
                   0
                   0
                   0
                   0
                   0
                   0
                   0
                   0
                   0
                   0
                   0
                   0
                   0
                   0
                   0
                   0
                   0
                   0
                   0
                   0
                   0
                   0
                   0
                   0
                   0
                   0
                   0
                   0
                   0
                   0
                   0
                   0
                   0
                   0
                   0
                   0
                   0
                   0
                   0
                   0
                   0
                   0
                   0
                   0
                   0
                   0
                   0
                   0
                   0
                   0
                   0
                   0
                   0
                   0
                   0
                   0
                   0
                   0
                   0
                   0
                   0
                   0
                   0
                   0
                   0
                   0
                   0
                   0
                   0
                   0
                   0
                   0
                   0
                   0
                   0
                   0
                   0
                   0
                   0
                   0
                   0
                   0
                   0
                   0
                   0
                   0
                   0
                   0
                   0
                   0
                   0
                   0
                   0
                   0
                   0
                   0
                   0
                   0
                   0
                   0
                   0
                   0
                   0
                   0
                   0
                   0
                   0
                   0
                   0
                   0
                   0
                   0
                   0
                   0
                   0
                   0
                   0
                   0
                   0
                   0
                   0
                   0
                   0
                   0
                   0
                   0
                   0
                   0
                   0
                   0
                   0
                   0
                   0
                   0
                   0
                   0
                   0
                   0
                   0
                   0
                   0
                   0
                   0
                   0
                   0
                   0
                   0
                   0
                   0
                   0
                   0
                   0
                   0
                   0
                   0
                   0
                   0
                   0
                   0
                   0
                   0
                   0
                   0
                   0
                   0
                   0
                   0
                   0
                   0
                   0
                   0
                   0
                   0
                   0
                   0
                   0
                   0
                   0
                   0
                   0
                   0
                   0
                   0
                   0
                   0
                   0
                   0
                   0
                   0
                   0
                   0
                   0
                   0
                   0
                   0
                   0
                   0
                   0
                   0
                   0
                   0
                   0
                   0
                   0
                   0
                   0
                   0
                   0
                   0
                   0
                   0
                   0
                   0
                   0
                   0
                   0
                   0
                   0
                   0
                   0
                   0
                   0
                   0
                   0
                   0
                   0
                   0
                   0
                   0
                   0
                   0
                   0
                   0
                   0
                   0
                   0
                   0
                   0
                   0
                   0
                   0
                   0
                   0
                   0
                   0
                   0
                   0
                   0
                   0
                   0
                   0
                   0
                   0
                   0
                   0
                   0
                   0
                   0
                   0
                   0
                   0
                   0
                   0
                   0
                   0
                   0
                   0
                   0
                   0
                   0
                   0
                   0
                   0
                   0
                   0
                   0
                   0
                   0
                   0
                   0
                   0
                   0
                   0
                   0
                   0
                   0
                   0
                   0
                   0
                   0
                   0
                   0
                   0
                   0
                   0
                   0
                   0
                   0
                   0
                   0
                   0
                   0
                   0
                   0
                   0
                   0
                   0
                   0
                   0
                   0
                   0
                   0
                   0
                   0
                   0
                   0
                   0
                   0
                   0
                   0
                   0
                   0
                   0
                   0
                   0
                   0
                   0
                   0
                   0
                   0
                   0
                   0
                   0
                   0
                   0
                   0
                   0
                   0
                   0
                   0
                   0
                   0
                   0
                   0
                   0
                   0
                   0
                   0
                   0
                   0
                   0
                   0
                   0
                   0
                   0
                   0
                   0
                   0
                   0
                   0
                   0
                   0
                   0
                   0
                   0
                   0
                   0
                   0
                   0
                   0
                   0
                   0
                   0
                   0
                   0
                   0
                   0
                   0
                   0
                   0
                   0
                   0
                   0
                   0
                   0
                   0
                   0
                   0
                   0
                   0
                   0
                   0
                   0
                   0
                   0
                   0
                   0
                   0
                   0
                   0
                   0
                   0
                   0
                   0
                   0
                   0
                   0
                   0
                   0
                   0
                   0
                   0
                   0
                   0
                   0
                   0
                   0
                   0
                   0
                   0
                   0
                   0
                   0
                   0
                   0
                   0
                   0
                   0
                   0
                   0
                   0
                   0
                   0
                   0
                   0
                   0
                   0
                   0
                   0
                   0
                   0
                   0
                   0
                   0
                   0
                   0
                   0
                   0
                   0
                   0
                   0
                   0
                   0
                   0
                   0
                   0
                   0
                   0
                   0
                   0
                   0
                   0
                   0
                   0
                   0
                   0
                   0
                   0
                   0
                   0
                   0
                   0
                   0
                   0
                   0
                   0
                   0
                   0
                   0
                   0
                   0
                   0
                   0
                   0
                   0
                   0
                   0
                   0
                   0
                   0
                   0
                   0
                   0
                   0
                   0
                   0
                   0
                   0
                   0
                   0
                   0
                   0
                   0
                   0
                   0
                   0
                   0
                   0
                   0
                   0
                   0
                   0
                   0
                   0
                   0
                   0
                   0
                   0
                   0
                   0
                   0
                   0
                   0
                   0
                   0
                   0
                   0
                   0
                   0
                   0
                   0
                   0
                   0
                   0
                   0
                   0
                   0
                   0
                   0
                   0
                   0
                   0
                   0
                   0
                   0
                   0
                   0
                   0
                   0
                   0
                   0
                   0
                   0
                   0
                   0
                   0
                   0
                   0
                   0
                   0
                   0
                   0
                   0
                   0
                   0
                   0
                   0
                   0
                   0
                   0
                   0
                   0
                   0
                   0
                   0
                   0
                   0
                   0
                   0
                   0
                   0
                   0
                   0
                   0
                   0
                   0
                   0
                   0
                   0
                   0
                   0
                   0
                   0
                   0
                   0
                   0
                   0
                   0
                   0
                   0
                   0
                   0
                   0
                   0
                   0
                   0
                   0
                   0
                   0
                   0
                   0
                   0
                   0
                   0
                   0
                   0
                   0
                   0
                   0
                   0
                   0
                   0
                   0
                   0
                   0
                   0
                   0
                   0
                   0
                   0
                   0
                   0
                   0
                   0
                   0
                   0
                   0
                   0
                   0
                   0
                   0
                   0
                   0
                   0
                   0
                   0
                   0
                   0
                   0
                   0
                   0
                   0
                   0
                   0
                   0
                   0
                   0
                   0
                   0
                   0
                   0
                   0
                   0
                   0
                   0
                   0
                   0
                   0
                   0
                   0
                   0
                   0
                   0
                   0
                   0
                   0
                   0
                   0
                   0
                   0
                   0
                   0
                   0
                   0
                   0
                   0
                   0
                   0
                   0
                   0
                   0
                   0
                   0
                   0
                   0
                   0
                   0
                   0
                   0
                   0
                   0
                   0
                   0
                   0
                   0
                   0
                   0
                   0
                   0
                   0
                   0
                   0
                   0
                   0
                   0
                   0
                   0
                   0
                   0
                   0
                   0
                   0
                   0
                   0
                   0
                   0
                   0
                   0
                   0
                   0
                   0
                   0
                   0
                   0
                   0
                   0
                   0
                   0
                   0
                   0
                   0
                   0
                   0
                   0
                   0
                   0
                   0
                   0
                   0
                   0
                   0
                   0
                   0
                   0
                   0
                   0
                   0
                   0
                   0
                   0
                   0
                   0
                   0
                   0
                   0
                   0
                   0
                   0
                   0
                   0
                   0
                   0
                   0
                   0
                   0
                   0
                   0
                   0
                   0
                   0
                   0
                   0
                   0
                   0
                   0
                   0
                   0
                   0
                   0
                   0
                   0
                   0
                   0
                   0
                   0
                   0
                   0
                   0
                   0
                   0
                   0
                   0
                   0
                   0
                   0
                   0
                   0
                   0
                   0
                   0
                   0
                   0
                   0
                   0
                   0
                   0
                   0
                   0
                   0
                   0
                   0
                   0
                   0
                   0
                   0
                   0
                   0
                   0
                   0
                   0
                   0
                   0
                   0
                   0
                   0
                   0
                   0
                   0
                   0
                   0
                   0
                   0
                   0
                   0
                   0
                   0
                   0
                   0
                   0
                   0
                   0
                   0
                   0
                   0
                   0
                   0
                   0
                   0
                   0
                   0
                   0
                   0
                   0
                   0
                   0
                   0
                   0
                   0
                   0
                   0
                   0
                   0
                   0
                   0
                   0
                   0
                   0
                   0
                   0
                   0
                   0
                   0
                   0
                   0
                   0
                   0
                   0
                   0
                   0
                   0
                   0
                   0
                   0
                   0
                   0
                   0
                   0
                   0
                   0
                   0
                   0
                   0
                   0
                   0
                   0
                   0
                   0
                   0
                   0
                   0
                   0
                   0
                   0
                   0
                   0
                   0
                   0
                   0
                   0
                   0
                   0
                   0
                   0
                   0
                   0
                   0
                   0
                   0
                   0
                   0
                   0
                   0
                   0
                   0
                   0
                   0
                   0
                   0
                   0
                   0
                   0
                   0
                   0
                   0
                   0
                   0
                   0
                   0
                   0
                   0
                   0
                   0
                   0
                   0
                   0
                   0
                   0
                   0
                   0
                   0
                   0
                   0
                   0
                   0
                   0
                   0
                   0
                   0
                   0
                   0
                   0
                   0
                   0
                   0
                   0
                   0
                   0
                   0
                   0
                   0
                   0
                   0
                   0
                   0
                   0
                   0
                   0
                   0
                   0
                   0
                   0
                   0
                   0
                   0
                   0
                   0
                   0
                   0
                   0
                   0
                   0
                   0
                   0
                   0
                   0
                   0
                   0
                   0
                   0
                   0
                   0
                   0
                   0
                   0
                   0
                   0
                   0
                   0
                   0
                   0
                   0
                   0
                   0
                   0
                   0
                   0
                   0
                   0
                   0
                   0
                   0
                   0
                   0
                   0
                   0
                   0
                   0
                   0
                   0
                   0
                   0
                   0
                   0
                   0
                   0
                   0
                   0
                   0
                   0
                   0
                   0
                   0
                   0
                   0
                   0
                   0
                   0
                   0
                   0
                   0
                   0
                   0
                   0
                   0
                   0
                   0
                   0
                   0
                   0
                   0
                   0
                   0
                   0
                   0
                   0
                   0
                   0
                   0
                   0
                   0
                   0
                   0
                   0
                   0
                   0
                   0
                   0
                   0
                   0
                   0
                   0
                   0
                   0
                   0
                   0
                   0
                   0
                   0
                   0
                   0
                   0
                   0
                   0
                   0
                   0
                   0
                   0
                   0
                   0
                   0
                   0
                   0
                   0
                   0
                   0
                   0
                   0
                   0
                   0
                   0
                   0
                   0
                   0
                   0
                   0
                   0
                   0
                   0
                   0
                   0
                   0
                   0
                   0
                   0
                   0
                   0
                   0
                   0
                   0
                   0
                   0
                   0
                   0
                   0
                   0
                   0
                   0
                   0
                   0
                   0
                   0
                   0
                   0
                   0
                   0
                   0
                   0
                   0
                   0
                   0
                   0
                   0
                   0
                   0
                   0
                   0
                   0
                   0
                   0
                   0
                   0
                   0
                   0
                   0
                   0
                   0
                   0
                   0
                   0
                   0
                   0
                   0
                   0
                   0
                   0
                   0
                   0
                   0
                   0
                   0
                   0
                   0
                   0
                   0
                   0
                   0
                   0
                   0
                   0
                   0
                   0
                   0
                   0
                   0
                   0
                   0
                   0
                   0
                   0
                   0
                   0
                   0
                   0
                   0
                   0
                   0
                   0
                   0
                   0
                   0
                   0
                   0
                   0
                   0
                   0
                   0
                   0
                   0
                   0
                   0
                   0
                   0
                   0
                   0
                   0
                   0
                   0
                   0
                   0
                   0
                   0
                   0
                   0
                   0
                   0
                   0
                   0
                   0
                   0
                   0
                   0
                   0
                   0
                   0
                   0
                   0
                   0
                   0
                   0
                   0
                   0
                   0
                   0
                   0
                   0
                   0
                   0
                   0
                   0
                   0
                   0
                   0
                   0
                   0
                   0
                   0
                   0
                   0
                   0
                   0
                   0
                   0
                   0
                   0
                   0
                   0
                   0
                   0
                   0
                   0
                   0
                   0
                   0
                   0
                   0
                   0
                   0
                   0
                   0
                   0
                   0
                   0
                   0
                   0
                   0
                   0
                   0
                   0
                   0
                   0
                   0
                   0
                   0
                   0
                   0
                   0
                   0
                   0
                   0
                   0
                   0
                   0
                   0
                   0
                   0
                   0
                   0
                   0
                   0
                   0
                   0
                   0
                   0
                   0
                   0
                   0
                   0
                   0
                   0
                   0
                   0
                   0
                   0
                   0
                   0
                   0
                   0
                   0
                   0
                   0
                   0
                   0
                   0
                   0
                   0
                   0
                   0
                   0
                   0
                   0
                   0
                   0
                   0
                   0
                   0
                   0
                   0
                   0
                   0
                   0
                   0
                   0
                   0
                   0
                   0
                   0
                   0
                   0
                   0
                   0
                   0
                   0
                   0
                   0
                   0
                   0
                   0
                   0
                   0
                   0
                   0
                   0
                   0
                   0
                   0
                   0
                   0
                   0
                   0
                   0
                   0
                   0
                   0
                   0
                   0
                   0
                   0
                   0
                   0
                   0
                   0
                   0
                   0
                   0
                   0
                   0
                   0
                   0
                   0
                   0
                   0
                   0
                   0
                   0
                   0
                   0
                   0
                   0
                   0
                   0
                   0
                   0
                   0
                   0
                   0
                   0
                   0
                   0
                   0
                   0
                   0
                   0
                   0
                   0
                   0
                   0
                   0
                   0
                   0
                   0
                   0
                   0
                   0
                   0
                   0
                   0
                   0
                   0
                   0
                   0
                   0
                   0
                   0
                   0
                   0
                   0
                   0
                   0
                   0
                   0
                   0
                   0
                   0
                   0
                   0
                   0
                   0
                   0
                   0
                   0
                   0
                   0
                   0
                   0
                   0
                   0
                   0
                   0
                   0
                   0
                   0
                   0
                   0
                   0
                   0
                   0
                   0
                   0
                   0
                   0
                   0
                   0
                   0
                   0
                   0
                   0
                   0
                   0
                   0
                   0
                   0
                   0
                   0
                   0
                   0
                   0
                   0
                   0
                   0
                   0
                   0
                   0
                   0
                   0
                   0
                   0
                   0
                   0
                   0
                   0
                   0
                   0
                   0
                   0
                   0
                   0
                   0
                   0
                   0
                   0
                   0
                   0
                   0
                   0
                   0
                   0
                   0
                   0
                   0
                   0
                   0
                   0
                   0
                   0
                   0
                   0
                   0
                   0
                   0
                   0
                   0
                   0
                   0
                   0
                   0
                   0
                   0
                   0
                   0
                   0
                   0
                   0
                   0
                   0
                   0
                   0
                   0
                   0
                   0
                   0
                   0
                   0
                   0
                   0
                   0
                   0
                   0
                   0
                   0
                   0
                   0
                   0
                   0
                   0
                   0
                   0
                   0
                   0
                   0
                   0
                   0
                   0
                   0
                   0
                   0
                   0
                   0
                   0
                   0
                   0
                   0
                   0
                   0
                   0
                   0
                   0
  
SCALARS                       fixity_y  double 1
LOOKUP_TABLE default
                   0
                   0
                   0
                   0
                   0
                   0
                   0
                   0
                   0
                   0
                   0
                   0
                   0
                   0
                   0
                   0
                   0
                   0
                   0
                   0
                   0
                   0
                   0
                   0
                   0
                   0
                   0
                   0
                   0
                   0
                   0
                   0
                   0
                   0
                   0
                   0
                   0
                   0
                   0
                   0
                   0
                   0
                   0
                   0
                   0
                   0
                   0
                   0
                   0
                   0
                   0
                   0
                   0
                   0
                   0
                   0
                   0
                   0
                   0
                   0
                   0
                   0
                   0
                   0
                   0
                   0
                   0
                   0
                   0
                   0
                   0
                   0
                   0
                   0
                   0
                   0
                   0
                   0
                   0
                   0
                   0
                   0
                   0
                   0
                   0
                   0
                   0
                   0
                   0
                   0
                   0
                   0
                   0
                   0
                   0
                   0
                   0
                   0
                   0
                   0
                   0
                   0
                   0
                   0
                   0
                   0
                   0
                   0
                   0
                   0
                   0
                   0
                   0
                   0
                   0
                   0
                   0
                   0
                   0
                   0
                   0
                   0
                   0
                   0
                   0
                   0
                   0
                   0
                   0
                   0
                   0
                   0
                   0
                   0
                   0
                   0
                   0
                   0
                   0
                   0
                   0
                   0
                   0
                   0
                   0
                   0
                   0
                   0
                   0
                   0
                   0
                   0
                   0
                   0
                   0
                   0
                   0
                   0
                   0
                   0
                   0
                   0
                   0
                   0
                   0
                   0
                   0
                   0
                   0
                   0
                   0
                   0
                   0
                   0
                   0
                   0
                   0
                   0
                   0
                   0
                   0
                   0
                   0
                   0
                   0
                   0
                   0
                   0
                   0
                   0
                   0
                   0
                   0
                   0
                   0
                   0
                   0
                   0
                   0
                   0
                   0
                   0
                   0
                   0
                   0
                   0
                   0
                   0
                   0
                   0
                   0
                   0
                   0
                   0
                   0
                   0
                   0
                   0
                   0
                   0
                   0
                   0
                   0
                   0
                   0
                   0
                   0
                   0
                   0
                   0
                   0
                   0
                   0
                   0
                   0
                   0
                   0
                   0
                   0
                   0
                   0
                   0
                   0
                   0
                   0
                   0
                   0
                   0
                   0
                   0
                   0
                   0
                   0
                   0
                   0
                   0
                   0
                   0
                   0
                   0
                   0
                   0
                   0
                   0
                   0
                   0
                   0
                   0
                   0
                   0
                   0
                   0
                   0
                   0
                   0
                   0
                   0
                   0
                   0
                   0
                   0
                   0
                   0
                   0
                   0
                   0
                   0
                   0
                   0
                   0
                   0
                   0
                   0
                   0
                   0
                   0
                   0
                   0
                   0
                   0
                   0
                   0
                   0
                   0
                   0
                   0
                   0
                   0
                   0
                   0
                   0
                   0
                   0
                   0
                   0
                   0
                   0
                   0
                   0
                   0
                   0
                   0
                   0
                   0
                   0
                   0
                   0
                   0
                   0
                   0
                   0
                   0
                   0
                   0
                   0
                   0
                   0
                   0
                   0
                   0
                   0
                   0
                   0
                   0
                   0
                   0
                   0
                   0
                   0
                   0
                   0
                   0
                   0
                   0
                   0
                   0
                   0
                   0
                   0
                   0
                   0
                   0
                   0
                   0
                   0
                   0
                   0
                   0
                   0
                   0
                   0
                   0
                   0
                   0
                   0
                   0
                   0
                   0
                   0
                   0
                   0
                   0
                   0
                   0
                   0
                   0
                   0
                   0
                   0
                   0
                   0
                   0
                   0
                   0
                   0
                   0
                   0
                   0
                   0
                   0
                   0
                   0
                   0
                   0
                   0
                   0
                   0
                   0
                   0
                   0
                   0
                   0
                   0
                   0
                   0
                   0
                   0
                   0
                   0
                   0
                   0
                   0
                   0
                   0
                   0
                   0
                   0
                   0
                   0
                   0
                   0
                   0
                   0
                   0
                   0
                   0
                   0
                   0
                   0
                   0
                   0
                   0
                   0
                   0
                   0
                   0
                   0
                   0
                   0
                   0
                   0
                   0
                   0
                   0
                   0
                   0
                   0
                   0
                   0
                   0
                   0
                   0
                   0
                   0
                   0
                   0
                   0
                   0
                   0
                   0
                   0
                   0
                   0
                   0
                   0
                   0
                   0
                   0
                   0
                   0
                   0
                   0
                   0
                   0
                   0
                   0
                   0
                   0
                   0
                   0
                   0
                   0
                   0
                   0
                   0
                   0
                   0
                   0
                   0
                   0
                   0
                   0
                   0
                   0
                   0
                   0
                   0
                   0
                   0
                   0
                   0
                   0
                   0
                   0
                   0
                   0
                   0
                   0
                   0
                   0
                   0
                   0
                   0
                   0
                   0
                   0
                   0
                   0
                   0
                   0
                   0
                   0
                   0
                   0
                   0
                   0
                   0
                   0
                   0
                   0
                   0
                   0
                   0
                   0
                   0
                   0
                   0
                   0
                   0
                   0
                   0
                   0
                   0
                   0
                   0
                   0
                   0
                   0
                   0
                   0
                   0
                   0
                   0
                   0
                   0
                   0
                   0
                   0
                   0
                   0
                   0
                   0
                   0
                   0
                   0
                   0
                   0
                   0
                   0
                   0
                   0
                   0
                   0
                   0
                   0
                   0
                   0
                   0
                   0
                   0
                   0
                   0
                   0
                   0
                   0
                   0
                   0
                   0
                   0
                   0
                   0
                   0
                   0
                   0
                   0
                   0
                   0
                   0
                   0
                   0
                   0
                   0
                   0
                   0
                   0
                   0
                   0
                   0
                   0
                   0
                   0
                   0
                   0
                   0
                   0
                   0
                   0
                   0
                   0
                   0
                   0
                   0
                   0
                   0
                   0
                   0
                   0
                   0
                   0
                   0
                   0
                   0
                   0
                   0
                   0
                   0
                   0
                   0
                   0
                   0
                   0
                   0
                   0
                   0
                   0
                   0
                   0
                   0
                   0
                   0
                   0
                   0
                   0
                   0
                   0
                   0
                   0
                   0
                   0
                   0
                   0
                   0
                   0
                   0
                   0
                   0
                   0
                   0
                   0
                   0
                   0
                   0
                   0
                   0
                   0
                   0
                   0
                   0
                   0
                   0
                   0
                   0
                   0
                   0
                   0
                   0
                   0
                   0
                   0
                   0
                   0
                   0
                   0
                   0
                   0
                   0
                   0
                   0
                   0
                   0
                   0
                   0
                   0
                   0
                   0
                   0
                   0
                   0
                   0
                   0
                   0
                   0
                   0
                   0
                   0
                   0
                   0
                   0
                   0
                   0
                   0
                   0
                   0
                   0
                   0
                   0
                   0
                   0
                   0
                   0
                   0
                   0
                   0
                   0
                   0
                   0
                   0
                   0
                   0
                   0
                   0
                   0
                   0
                   0
                   0
                   0
                   0
                   0
                   0
                   0
                   0
                   0
                   0
                   0
                   0
                   0
                   0
                   0
                   0
                   0
                   0
                   0
                   0
                   0
                   0
                   0
                   0
                   0
                   0
                   0
                   0
                   0
                   0
                   0
                   0
                   0
                   0
                   0
                   0
                   0
                   0
                   0
                   0
                   0
                   0
                   0
                   0
                   0
                   0
                   0
                   0
                   0
                   0
                   0
                   0
                   0
                   0
                   0
                   0
                   0
                   0
                   0
                   0
                   0
                   0
                   0
                   0
                   0
                   0
                   0
                   0
                   0
                   0
                   0
                   0
                   0
                   0
                   0
                   0
                   0
                   0
                   0
                   0
                   0
                   0
                   0
                   0
                   0
                   0
                   0
                   0
                   0
                   0
                   0
                   0
                   0
                   0
                   0
                   0
                   0
                   0
                   0
                   0
                   0
                   0
                   0
                   0
                   0
                   0
                   0
                   0
                   0
                   0
                   0
                   0
                   0
                   0
                   0
                   0
                   0
                   0
                   0
                   0
                   0
                   0
                   0
                   0
                   0
                   0
                   0
                   0
                   0
                   0
                   0
                   0
                   0
                   0
                   0
                   0
                   0
                   0
                   0
                   0
                   0
                   0
                   0
                   0
                   0
                   0
                   0
                   0
                   0
                   0
                   0
                   0
                   0
                   0
                   0
                   0
                   0
                   0
                   0
                   0
                   0
                   0
                   0
                   0
                   0
                   0
                   0
                   0
                   0
                   0
                   0
                   0
                   0
                   0
                   0
                   0
                   0
                   0
                   0
                   0
                   0
                   0
                   0
                   0
                   0
                   0
                   0
                   0
                   0
                   0
                   0
                   0
                   0
                   0
                   0
                   0
                   0
                   0
                   0
                   0
                   0
                   0
                   0
                   0
                   0
                   0
                   0
                   0
                   0
                   0
                   0
                   0
                   0
                   0
                   0
                   0
                   0
                   0
                   0
                   0
                   0
                   0
                   0
                   0
                   0
                   0
                   0
                   0
                   0
                   0
                   0
                   0
                   0
                   0
                   0
                   0
                   0
                   0
                   0
                   0
                   0
                   0
                   0
                   0
                   0
                   0
                   0
                   0
                   0
                   0
                   0
                   0
                   0
                   0
                   0
                   0
                   0
                   0
                   0
                   0
                   0
                   0
                   0
                   0
                   0
                   0
                   0
                   0
                   0
                   0
                   0
                   0
                   0
                   0
                   0
                   0
                   0
                   0
                   0
                   0
                   0
                   0
                   0
                   0
                   0
                   0
                   0
                   0
                   0
                   0
                   0
                   0
                   0
                   0
                   0
                   0
                   0
                   0
                   0
                   0
                   0
                   0
                   0
                   0
                   0
                   0
                   0
                   0
                   0
                   0
                   0
                   0
                   0
                   0
                   0
                   0
                   0
                   0
                   0
                   0
                   0
                   0
                   0
                   0
                   0
                   0
                   0
                   0
                   0
                   0
                   0
                   0
                   0
                   0
                   0
                   0
                   0
                   0
                   0
                   0
                   0
                   0
                   0
                   0
                   0
                   0
                   0
                   0
                   0
                   0
                   0
                   0
                   0
                   0
                   0
                   0
                   0
                   0
                   0
                   0
                   0
                   0
                   0
                   0
                   0
                   0
                   0
                   0
                   0
                   0
                   0
                   0
                   0
                   0
                   0
                   0
                   0
                   0
                   0
                   0
                   0
                   0
                   0
                   0
                   0
                   0
                   0
                   0
                   0
                   0
                   0
                   0
                   0
                   0
                   0
                   0
                   0
                   0
                   0
                   0
                   0
                   0
                   0
                   0
                   0
                   0
                   0
                   0
                   0
                   0
                   0
                   0
                   0
                   0
                   0
                   0
                   0
                   0
                   0
                   0
                   0
                   0
                   0
                   0
                   0
                   0
                   0
                   0
                   0
                   0
                   0
                   0
                   0
                   0
                   0
                   0
                   0
                   0
                   0
                   0
                   0
                   0
                   0
                   0
                   0
                   0
                   0
                   0
                   0
                   0
                   0
                   0
                   0
                   0
                   0
                   0
                   0
                   0
                   0
                   0
                   0
                   0
                   0
                   0
                   0
                   0
                   0
                   0
                   0
                   0
                   0
                   0
                   0
                   0
                   0
                   0
                   0
                   0
                   0
                   0
                   0
                   0
                   0
                   0
                   0
                   0
                   0
                   0
                   0
                   0
                   0
                   0
                   0
                   0
                   0
                   0
                   0
                   0
                   0
                   0
                   0
                   0
                   0
                   0
                   0
                   0
                   0
                   0
                   0
                   0
                   0
                   0
                   0
                   0
                   0
                   0
                   0
                   0
                   0
                   0
                   0
                   0
                   0
                   0
                   0
                   0
                   0
                   0
                   0
                   0
                   0
                   0
                   0
                   0
                   0
                   0
                   0
                   0
                   0
                   0
                   0
                   0
                   0
                   0
                   0
                   0
                   0
                   0
                   0
                   0
                   0
                   0
                   0
                   0
                   0
                   0
                   0
                   0
                   0
                   0
                   0
                   0
                   0
                   0
                   0
                   0
                   0
                   0
                   0
                   0
                   0
                   0
                   0
                   0
                   0
                   0
                   0
                   0
                   0
                   0
                   0
                   0
                   0
                   0
                   0
                   0
                   0
                   0
                   0
                   0
                   0
                   0
                   0
                   0
                   0
                   0
                   0
                   0
                   0
                   0
                   0
                   0
                   0
                   0
                   0
                   0
                   0
                   0
                   0
                   0
                   0
                   0
                   0
                   0
                   0
                   0
                   0
                   0
                   0
                   0
                   0
                   0
                   0
                   0
                   0
                   0
                   0
                   0
                   0
                   0
                   0
                   0
                   0
                   0
                   0
                   0
                   0
                   0
                   0
                   0
                   0
                   0
                   0
                   0
                   0
                   0
                   0
                   0
                   0
                   0
                   0
                   0
                   0
                   0
                   0
                   0
                   0
                   0
                   0
                   0
                   0
                   0
                   0
                   0
                   0
                   0
                   0
                   0
                   0
                   0
                   0
                   0
                   0
                   0
                   0
                   0
                   0
                   0
                   0
                   0
                   0
                   0
                   0
                   0
                   0
                   0
                   0
                   0
                   0
                   0
                   0
                   0
                   0
                   0
                   0
                   0
                   0
                   0
                   0
                   0
                   0
                   0
                   0
                   0
                   0
                   0
                   0
                   0
                   0
                   0
                   0
                   0
                   0
                   0
                   0
                   0
                   0
                   0
                   0
                   0
                   0
                   0
                   0
                   0
                   0
                   0
                   0
                   0
                   0
                   0
                   0
                   0
                   0
                   0
                   0
                   0
                   0
                   0
                   0
                   0
                   0
                   0
                   0
                   0
                   0
                   0
                   0
                   0
                   0
                   0
                   0
                   0
                   0
                   0
                   0
                   0
                   0
                   0
                   0
                   0
                   0
                   0
                   0
                   0
                   0
                   0
                   0
                   0
                   0
                   0
                   0
                   0
                   0
                   0
                   0
                   0
                   0
                   0
                   0
                   0
                   0
                   0
                   0
                   0
                   0
                   0
                   0
                   0
                   0
                   0
                   0
                   0
                   0
                   0
                   0
                   0
                   0
                   0
                   0
                   0
                   0
                   0
                   0
                   0
                   0
                   0
                   0
                   0
                   0
                   0
                   0
                   0
                   0
                   0
                   0
                   0
                   0
                   0
                   0
                   0
                   0
                   0
                   0
                   0
                   0
                   0
                   0
                   0
                   0
                   0
                   0
                   0
                   0
                   0
                   0
                   0
                   0
                   0
                   0
                   0
                   0
                   0
                   0
                   0
                   0
                   0
                   0
                   0
                   0
                   0
                   0
                   0
                   0
                   0
                   0
                   0
                   0
                   0
                   0
                   0
                   0
                   0
                   0
                   0
                   0
                   0
                   0
                   0
                   0
                   0
                   0
                   0
                   0
                   0
                   0
                   0
                   0
                   0
                   0
                   0
                   0
                   0
                   0
                   0
                   0
                   0
                   0
                   0
                   0
                   0
                   0
                   0
                   0
                   0
                   0
                   0
                   0
                   0
                   0
                   0
                   0
                   0
                   0
                   0
                   0
                   0
                   0
                   0
                   0
                   0
                   0
                   0
                   0
                   0
                   0
                   0
                   0
                   0
                   0
                   0
                   0
                   0
                   0
                   0
                   0
                   0
                   0
                   0
                   0
                   0
                   0
                   0
                   0
                   0
                   0
                   0
                   0
                   0
                   0
                   0
                   0
                   0
                   0
                   0
                   0
                   0
                   0
                   0
                   0
                   0
                   0
                   0
                   0
                   0
                   0
                   0
                   0
                   0
                   0
                   0
                   0
                   0
                   0
                   0
                   0
                   0
                   0
                   0
                   0
                   0
                   0
                   0
                   0
                   0
                   0
                   0
                   0
                   0
                   0
                   0
                   0
                   0
                   0
                   0
                   0
                   0
                   0
                   0
                   0
                   0
                   0
                   0
                   0
                   0
                   0
                   0
                   0
                   0
                   0
                   0
                   0
                   0
                   0
                   0
                   0
                   0
                   0
                   0
                   0
                   0
                   0
                   0
                   0
                   0
                   0
                   0
                   0
                   0
                   0
                   0
                   0
                   0
                   0
                   0
                   0
                   0
                   0
                   0
                   0
                   0
                   0
                   0
                   0
                   0
                   0
                   0
                   0
                   0
                   0
                   0
                   0
                   0
                   0
                   0
                   0
                   0
                   0
                   0
                   0
                   0
                   0
                   0
                   0
                   0
                   0
                   0
                   0
                   0
                   0
                   0
                   0
                   0
                   0
                   0
                   0
                   0
                   0
                   0
                   0
                   0
                   0
                   0
                   0
                   0
                   0
                   0
                   0
                   0
                   0
                   0
                   0
                   0
                   0
                   0
                   0
                   0
                   0
                   0
                   0
                   0
                   0
                   0
                   0
                   0
                   0
                   0
                   0
                   0
                   0
                   0
                   0
                   0
                   0
                   0
                   0
                   0
                   0
                   0
                   0
                   0
                   0
                   0
                   0
                   0
                   0
                   0
                   0
                   0
                   0
                   0
                   0
                   0
                   0
                   0
                   0
                   0
                   0
                   0
                   0
                   0
                   0
                   0
                   0
                   0
                   0
                   0
                   0
                   0
                   0
                   0
                   0
                   0
                   0
                   0
                   0
                   0
                   0
                   0
                   0
                   0
                   0
                   0
                   0
                   0
                   0
                   0
                   0
                   0
                   0
                   0
                   0
                   0
                   0
                   0
                   0
                   0
                   0
                   0
                   0
                   0
                   0
                   0
                   0
                   0
                   0
                   0
                   0
                   0
                   0
                   0
                   0
                   0
                   0
                   0
                   0
                   0
                   0
                   0
                   0
                   0
                   0
                   0
                   0
                   0
                   0
                   0
                   0
  
SCALARS                       fixity_z  double 1
LOOKUP_TABLE default
                   0
                   0
                   0
                   0
                   1
                   1
                   1
                   1
                   0
                   0
                   1
                   1
                   0
                   0
                   1
                   1
                   0
                   0
                   1
                   1
                   0
                   0
                   0
                   1
                   1
                   1
                   0
                   0
                   1
                   1
                   0
                   0
                   0
                   1
                   1
                   1
                   0
                   0
                   1
                   1
                   0
                   0
                   1
                   1
                   0
                   0
                   1
                   1
                   0
                   1
                   0
                   1
                   0
                   1
                   0
                   1
                   0
                   0
                   1
                   1
                   0
                   0
                   1
                   1
                   0
                   1
                   0
                   1
                   0
                   0
                   1
                   1
                   0
                   1
                   0
                   1
                   0
                   1
                   0
                   1
                   0
                   0
                   1
                   1
                   0
                   1
                   0
                   1
                   0
                   1
                   0
                   0
                   1
                   1
                   0
                   1
                   0
                   1
                   0
                   1
                   0
                   0
                   1
                   1
                   0
                   0
                   1
                   1
                   0
                   1
                   0
                   1
                   0
                   1
                   0
                   1
                   0
                   1
                   0
                   1
                   0
                   1
                   0
                   1
                   0
                   1
                   0
                   1
                   0
                   1
                   0
                   1
                   0
                   1
                   0
                   1
                   0
                   1
                   0
                   1
                   0
                   1
                   0
                   1
                   0
                   1
                   0
                   1
                   0
                   1
                   0
                   1
                   0
                   1
                   0
                   1
                   0
                   0
                   0
                   0
                   0
                   0
                   0
                   0
                   0
                   0
                   0
                   0
                   0
                   0
                   0
                   0
                   0
                   0
                   0
                   0
                   0
                   0
                   0
                   0
                   0
                   0
                   0
                   0
                   0
                   0
                   0
                   0
                   0
                   0
                   0
                   0
                   0
                   0
                   0
                   0
                   0
                   0
                   0
                   0
                   0
                   0
                   0
                   0
                   0
                   0
                   0
                   0
                   0
                   0
                   0
                   0
                   0
                   0
                   0
                   0
                   0
                   0
                   0
                   0
                   0
                   0
                   0
                   0
                   0
                   0
                   0
                   0
                   0
                   0
                   0
                   0
                   0
                   0
                   0
                   0
                   0
                   0
                   0
                   0
                   0
                   0
                   0
                   0
                   0
                   0
                   0
                   0
                   0
                   0
                   0
                   0
                   0
                   0
                   0
                   0
                   0
                   0
                   0
                   0
                   0
                   0
                   0
                   0
                   0
                   0
                   0
                   0
                   0
                   0
                   0
                   0
                   0
                   0
                   0
                   0
                   0
                   0
                   0
                   0
                   0
                   0
                   0
                   0
                   0
                   0
                   0
                   0
                   0
                   0
                   0
                   0
                   0
                   0
                   0
                   0
                   0
                   0
                   0
                   0
                   0
                   0
                   0
                   0
                   0
                   0
                   0
                   0
                   0
                   0
                   0
                   0
                   0
                   0
                   0
                   0
                   0
                   0
                   0
                   0
                   0
                   0
                   0
                   0
                   0
                   0
                   0
                   0
                   0
                   0
                   0
                   0
                   0
                   0
                   0
                   0
                   0
                   0
                   0
                   0
                   0
                   0
                   0
                   0
                   0
                   0
                   0
                   0
                   0
                   0
                   0
                   0
                   0
                   0
                   0
                   0
                   0
                   0
                   0
                   0
                   0
                   0
                   0
                   0
                   0
                   0
                   0
                   0
                   0
                   0
                   0
                   0
                   0
                   0
                   0
                   0
                   0
                   0
                   0
                   0
                   0
                   0
                   0
                   0
                   0
                   0
                   0
                   0
                   0
                   0
                   0
                   0
                   0
                   0
                   0
                   0
                   0
                   0
                   0
                   0
                   0
                   0
                   0
                   0
                   0
                   0
                   0
                   0
                   0
                   0
                   0
                   0
                   0
                   0
                   0
                   0
                   0
                   0
                   0
                   0
                   0
                   0
                   0
                   0
                   0
                   0
                   0
                   0
                   0
                   0
                   0
                   0
                   0
                   0
                   0
                   0
                   0
                   0
                   0
                   0
                   0
                   0
                   0
                   0
                   0
                   0
                   0
                   0
                   0
                   0
                   0
                   0
                   0
                   0
                   0
                   0
                   0
                   0
                   0
                   0
                   0
                   0
                   0
                   0
                   0
                   0
                   0
                   0
                   0
                   0
                   0
                   0
                   0
                   0
                   0
                   0
                   0
                   0
                   0
                   0
                   0
                   0
                   0
                   0
                   0
                   0
                   0
                   0
                   0
                   0
                   0
                   0
                   0
                   0
                   0
                   0
                   0
                   0
                   0
                   0
                   0
                   0
                   0
                   0
                   0
                   0
                   0
                   0
                   0
                   0
                   0
                   0
                   0
                   0
                   0
                   0
                   0
                   0
                   0
                   0
                   0
                   0
                   0
                   0
                   0
                   0
                   0
                   0
                   0
                   0
                   0
                   0
                   0
                   0
                   0
                   0
                   0
                   0
                   0
                   0
                   0
                   0
                   0
                   0
                   0
                   0
                   0
                   0
                   0
                   0
                   0
                   0
                   0
                   0
                   0
                   0
                   0
                   0
                   0
                   0
                   0
                   0
                   0
                   0
                   0
                   0
                   0
                   0
                   0
                   0
                   0
                   0
                   0
                   0
                   0
                   0
                   0
                   0
                   0
                   0
                   0
                   0
                   0
                   0
                   0
                   0
                   0
                   0
                   0
                   0
                   0
                   0
                   0
                   0
                   0
                   0
                   0
                   0
                   0
                   0
                   0
                   0
                   0
                   0
                   0
                   0
                   0
                   0
                   0
                   0
                   0
                   0
                   0
                   0
                   0
                   0
                   0
                   0
                   0
                   0
                   0
                   0
                   0
                   0
                   0
                   0
                   0
                   0
                   0
                   0
                   0
                   0
                   0
                   0
                   0
                   0
                   0
                   0
                   0
                   0
                   0
                   0
                   0
                   0
                   0
                   0
                   0
                   0
                   0
                   0
                   0
                   0
                   0
                   0
                   0
                   0
                   0
                   0
                   0
                   0
                   0
                   0
                   0
                   0
                   0
                   0
                   0
                   0
                   0
                   0
                   0
                   0
                   0
                   0
                   0
                   0
                   0
                   0
                   0
                   0
                   0
                   0
                   0
                   0
                   0
                   0
                   0
                   0
                   0
                   0
                   0
                   0
                   0
                   0
                   0
                   0
                   0
                   0
                   0
                   0
                   0
                   0
                   0
                   0
                   0
                   0
                   0
                   0
                   0
                   0
                   0
                   0
                   0
                   0
                   0
                   0
                   0
                   0
                   0
                   0
                   0
                   0
                   0
                   0
                   0
                   0
                   0
                   0
                   0
                   0
                   0
                   0
                   0
                   0
                   0
                   0
                   0
                   0
                   0
                   0
                   0
                   0
                   0
                   0
                   0
                   0
                   0
                   0
                   0
                   0
                   0
                   0
                   0
                   0
                   0
                   0
                   0
                   0
                   0
                   0
                   0
                   0
                   0
                   0
                   0
                   0
                   0
                   0
                   0
                   0
                   0
                   0
                   0
                   0
                   0
                   0
                   0
                   0
                   0
                   0
                   0
                   0
                   0
                   0
                   0
                   0
                   0
                   0
                   0
                   0
                   0
                   0
                   0
                   0
                   0
                   0
                   0
                   0
                   0
                   0
                   0
                   0
                   0
                   0
                   0
                   0
                   0
                   0
                   0
                   0
                   0
                   0
                   0
                   0
                   0
                   0
                   0
                   0
                   0
                   0
                   0
                   0
                   0
                   0
                   0
                   0
                   0
                   0
                   0
                   0
                   0
                   0
                   0
                   0
                   0
                   0
                   0
                   0
                   0
                   0
                   0
                   0
                   0
                   0
                   0
                   0
                   0
                   0
                   0
                   0
                   0
                   0
                   0
                   0
                   0
                   0
                   0
                   0
                   0
                   0
                   0
                   0
                   0
                   0
                   0
                   0
                   0
                   0
                   0
                   0
                   0
                   0
                   0
                   0
                   0
                   0
                   0
                   0
                   0
                   0
                   0
                   0
                   0
                   0
                   0
                   0
                   0
                   0
                   0
                   0
                   0
                   0
                   0
                   0
                   0
                   0
                   0
                   0
                   0
                   0
                   0
                   0
                   0
                   0
                   0
                   0
                   0
                   0
                   0
                   0
                   0
                   0
                   0
                   0
                   0
                   0
                   0
                   0
                   0
                   0
                   0
                   0
                   0
                   0
                   0
                   0
                   0
                   0
                   0
                   0
                   0
                   0
                   0
                   0
                   0
                   0
                   0
                   0
                   0
                   0
                   0
                   0
                   0
                   0
                   0
                   0
                   0
                   0
                   0
                   0
                   0
                   0
                   0
                   0
                   0
                   0
                   0
                   0
                   0
                   0
                   0
                   0
                   0
                   0
                   0
                   0
                   0
                   0
                   0
                   0
                   0
                   0
                   0
                   0
                   0
                   0
                   0
                   0
                   0
                   0
                   0
                   0
                   0
                   0
                   0
                   0
                   0
                   0
                   0
                   0
                   0
                   0
                   0
                   0
                   0
                   0
                   0
                   0
                   0
                   0
                   0
                   0
                   0
                   0
                   0
                   0
                   0
                   0
                   0
                   0
                   0
                   0
                   0
                   0
                   0
                   0
                   0
                   0
                   0
                   0
                   0
                   0
                   0
                   0
                   0
                   0
                   0
                   0
                   0
                   0
                   0
                   0
                   0
                   0
                   0
                   0
                   0
                   0
                   0
                   0
                   0
                   0
                   0
                   0
                   0
                   0
                   0
                   0
                   0
                   0
                   0
                   0
                   0
                   0
                   0
                   0
                   0
                   0
                   0
                   0
                   0
                   0
                   0
                   0
                   0
                   0
                   0
                   0
                   0
                   0
                   0
                   0
                   0
                   0
                   0
                   0
                   0
                   0
                   0
                   0
                   0
                   0
                   0
                   0
                   0
                   0
                   0
                   0
                   0
                   0
                   0
                   0
                   0
                   0
                   0
                   0
                   0
                   0
                   0
                   0
                   0
                   0
                   0
                   0
                   0
                   0
                   0
                   0
                   0
                   0
                   0
                   0
                   0
                   0
                   0
                   0
                   0
                   0
                   0
                   0
                   0
                   0
                   0
                   0
                   0
                   0
                   0
                   0
                   0
                   0
                   0
                   0
                   0
                   0
                   0
                   0
                   0
                   0
                   0
                   0
                   0
                   0
                   0
                   0
                   0
                   0
                   0
                   0
                   0
                   0
                   0
                   0
                   0
                   0
                   0
                   0
                   0
                   0
                   0
                   0
                   0
                   0
                   0
                   0
                   0
                   0
                   0
                   0
                   0
                   0
                   0
                   0
                   0
                   0
                   0
                   0
                   0
                   0
                   0
                   0
                   0
                   0
                   0
                   0
                   0
                   0
                   0
                   0
                   0
                   0
                   0
                   0
                   0
                   0
                   0
                   0
                   0
                   0
                   0
                   0
                   0
                   0
                   0
                   0
                   0
                   0
                   0
                   0
                   0
                   0
                   0
                   0
                   0
                   0
                   0
                   0
                   0
                   0
                   0
                   0
                   0
                   0
                   0
                   0
                   0
                   0
                   0
                   0
                   0
                   0
                   0
                   0
                   0
                   0
                   0
                   0
                   0
                   0
                   0
                   0
                   0
                   0
                   0
                   0
                   0
                   0
                   0
                   0
                   0
                   0
                   0
                   0
                   0
                   0
                   0
                   0
                   0
                   0
                   0
                   0
                   0
                   0
                   0
                   0
                   0
                   0
                   0
                   0
                   0
                   0
                   0
                   0
                   0
                   0
                   0
                   0
                   0
                   0
                   0
                   0
                   0
                   0
                   0
                   0
                   0
                   0
                   0
                   0
                   0
                   0
                   0
                   0
                   0
                   0
                   0
                   0
                   0
                   0
                   0
                   0
                   0
                   0
                   0
                   0
                   0
                   0
                   0
                   0
                   0
                   0
                   0
                   0
                   0
                   0
                   0
                   0
                   0
                   0
                   0
                   0
                   0
                   0
                   0
                   0
                   0
                   0
                   0
                   0
                   0
                   0
                   0
                   0
                   0
                   0
                   0
                   0
                   0
                   0
                   0
                   0
                   0
                   0
                   0
                   0
                   0
                   0
                   0
                   0
                   0
                   0
                   0
                   0
                   0
                   0
                   0
                   0
                   0
                   0
                   0
                   0
                   0
                   0
                   0
                   0
                   0
                   0
                   0
                   0
                   0
                   0
                   0
                   0
                   0
                   0
                   0
                   0
                   0
                   0
                   0
                   0
                   0
                   0
                   0
                   0
                   0
                   0
                   0
                   0
                   0
                   0
                   0
                   0
                   0
                   0
                   0
                   0
                   0
                   0
                   0
                   0
                   0
                   0
                   0
                   0
                   0
                   0
                   0
                   0
                   0
                   0
                   0
                   0
                   0
                   0
                   0
                   0
                   0
                   0
                   0
                   0
                   0
                   0
                   0
                   0
                   0
                   0
                   0
                   0
                   0
                   0
                   0
                   0
                   0
                   0
                   0
                   0
                   0
                   0
                   0
                   0
                   0
                   0
                   0
                   0
                   0
                   0
                   0
                   0
                   0
                   0
                   0
                   0
                   0
                   0
                   0
                   0
                   0
                   0
                   0
                   0
                   0
                   0
                   0
                   0
                   0
                   0
                   0
                   0
                   0
                   0
                   0
                   0
                   0
                   0
                   0
                   0
                   0
                   0
                   0
                   0
                   0
                   0
                   0
                   0
                   0
                   0
                   0
                   0
                   0
                   0
                   0
                   0
                   0
                   0
                   0
                   0
                   0
                   0
                   0
                   0
                   0
                   0
                   0
                   0
                   0
                   0
                   0
                   0
                   0
                   0
                   0
                   0
                   0
                   0
                   0
                   0
                   0
                   0
                   0
                   0
                   0
                   0
                   0
                   0
                   0
                   0
                   0
                   0
                   0
                   0
                   0
                   0
                   0
                   0
                   0
                   0
                   0
                   0
                   0
                   0
                   0
                   0
                   0
                   0
                   0
                   0
                   0
                   0
                   0
                   0
                   0
                   0
                   0
                   0
                   0
                   0
                   0
                   0
                   0
                   0
                   0
                   0
                   0
                   0
                   0
                   0
                   0
                   0
                   0
                   0
                   0
                   0
                   0
                   0
                   0
                   0
                   0
                   0
                   0
                   0
                   0
                   0
                   0
                   0
                   0
                   0
                   0
                   0
                   0
                   0
                   0
                   0
                   0
                   0
                   0
                   0
                   0
                   0
                   0
                   0
                   0
                   0
                   0
                   0
                   0
                   0
                   0
                   0
                   0
                   0
                   0
                   0
                   0
                   0
                   0
                   0
                   0
                   0
                   0
                   0
                   0
                   0
                   0
                   0
                   0
                   0
                   0
                   0
                   0
                   0
                   0
                   0
                   0
                   0
                   0
                   0
                   0
                   0
                   0
                   0
                   0
                   0
                   0
                   0
                   0
                   0
                   0
                   0
                   0
                   0
                   0
                   0
                   0
                   0
                   0
                   0
                   0
                   0
                   0
                   0
                   0
                   0
                   0
                   0
                   0
                   0
                   0
                   0
                   0
                   0
                   0
                   0
                   0
                   0
                   0
                   0
                   0
                   0
                   0
                   0
                   0
                   0
                   0
                   0
                   0
                   0
                   0
                   0
                   0
                   0
                   0
                   0
                   0
                   0
                   0
                   0
                   0
                   0
                   0
                   0
                   0
                   0
                   0
                   0
                   0
                   0
                   0
                   0
                   0
                   0
                   0
                   0
                   0
                   0
                   0
                   0
                   0
                   0
                   0
                   0
                   0
                   0
                   0
                   0
                   0
                   0
                   0
                   0
                   0
                   0
                   0
                   0
                   0
                   0
                   0
                   0
                   0
                   0
                   0
                   0
                   0
                   0
                   0
                   0
                   0
                   0
                   0
                   0
                   0
                   0
                   0
                   0
                   0
                   0
                   0
                   0
                   0
                   0
                   0
                   0
                   0
                   0
                   0
                   0
                   0
                   0
                   0
                   0
                   0
                   0
                   0
                   0
                   0
                   0
                   0
                   0
                   0
                   0
                   0
                   0
                   0
                   0
                   0
                   0
                   0
                   0
                   0
                   0
                   0
                   0
                   0
                   0
                   0
                   0
                   0
                   0
                   0
                   0
                   0
                   0
                   0
                   0
                   0
                   0
                   0
                   0
                   0
                   0
                   0
                   0
                   0
                   0
                   0
                   0
                   0
                   0
                   0
                   0
                   0
                   0
                   0
                   0
                   0
                   0
                   0
                   0
                   0
                   0
                   0
                   0
                   0
                   0
                   0
                   0
                   0
                   0
                   0
                   0
                   0
                   0
                   0
                   0
                   0
                   0
                   0
                   0
                   0
                   0
                   0
                   0
                   0
                   0
                   0
                   0
                   0
                   0
                   0
                   0
                   0
                   0
                   0
                   0
                   0
                   0
                   0
                   0
                   0
                   0
                   0
                   0
                   0
                   0
                   0
                   0
                   0
                   0
                   0
                   0
                   0
                   0
                   0
                   0
                   0
                   0
                   0
                   0
                   0
                   0
                   0
                   0
                   0
                   0
                   0
                   0
                   0
                   0
                   0
                   0
                   0
                   0
                   0
                   0
                   0
                   0
                   0
                   0
                   0
                   0
                   0
                   0
                   0
                   0
                   0
                   0
                   0
                   0
                   0
                   0
                   0
                   0
                   0
                   0
                   0
                   0
                   0
                   0
                   0
                   0
                   0
                   0
                   0
                   0
                   0
                   0
                   0
                   0
                   0
                   0
                   0
                   0
                   0
                   0
                   0
                   0
                   0
                   0
                   0
                   0
                   0
                   0
  
SCALARS                         Ispace  double 1
LOOKUP_TABLE default
                  12
                  12
                  12
                  12
                  12
                  12
                  12
                  12
                  12
                  12
                  12
                  12
                  12
                  11
                  12
                  11
                  11
                  11
                  11
                  11
                  11
                  12
                  12
                  11
                  12
                  12
                  11
                  11
                  11
                  11
                  11
                  11
                  11
                  11
                  11
                  11
                  11
                  11
                  11
                  11
                  11
                  11
                  11
                  11
                  11
                  11
                  11
                  11
                  11
                  11
                  11
                  11
                  11
                  11
                  11
                  11
                  11
                  11
                  11
                  11
                  11
                  11
                  11
                  11
                  11
                  11
                  12
                  12
                  12
                  12
                  12
                  12
                  12
                  12
                  11
                  11
                  11
                  11
                  11
                  11
                  11
                  11
                  11
                  11
                  11
                  11
                  11
                  11
                  11
                  11
                  11
                  11
                  11
                  11
                  11
                  11
                  12
                  12
                  12
                  12
                  12
                  12
                  12
                  12
                  12
                  12
                  12
                  12
                  12
                  12
                  12
                  12
                  12
                  12
                  12
                  12
                  11
                  11
                  11
                  11
                  11
                  11
                  11
                  11
                  11
                  11
                  11
                  11
                  11
                  11
                  11
                  11
                  11
                  11
                  11
                  11
                  11
                  11
                  11
                  11
                  11
                  11
                  11
                  11
                  11
                  11
                  12
                  12
                  12
                  12
                  12
                  12
                  12
                  12
                  12
                  12
                  12
                  12
                  12
                  12
                  12
                  12
                  12
                  11
                  11
                  11
                  11
                  12
                  12
                  11
                  11
                  11
                  11
                  11
                  11
                  11
                  11
                  11
                  11
                  11
                  11
                  11
                  11
                  11
                  11
                  11
                  11
                  11
                  11
                  12
                  12
                  12
                  12
                  11
                  11
                  11
                  11
                  11
                  11
                  11
                  11
                  11
                  11
                  11
                  12
                  12
                  12
                  12
                  12
                  12
                  12
                  12
                  12
                  12
                  11
                  11
                  11
                  11
                  11
                  11
                  11
                  11
                  11
                  11
                  11
                  11
                  11
                  11
                  11
                  12
                  12
                  12
                  12
                  12
                  12
                  12
                  12
                  12
                  12
                  12
                  12
                  11
                  11
                  11
                  11
                  12
                  12
                  11
                  11
                  11
                  11
                  11
                  11
                  11
                  11
                  11
                  11
                  11
                  11
                  11
                  11
                  11
                  11
                  11
                  11
                  11
                  11
                  12
                  12
                  12
                  12
                  11
                  11
                  11
                  11
                  11
                  11
                  11
                  11
                  11
                  11
                  11
                  12
                  12
                  12
                  12
                  12
                  12
                  12
                  12
                  12
                  12
                  11
                  11
                  11
                  11
                  11
                  11
                  11
                  11
                  11
                  11
                  11
                  11
                  11
                  11
                  11
                  12
                  12
                  12
                  12
                  12
                  12
                  12
                  12
                  12
                  12
                  12
                  12
                  11
                  11
                  11
                  11
                  12
                  12
                  11
                  11
                  11
                  11
                  11
                  11
                  11
                  11
                  11
                  11
                  11
                  11
                  11
                  11
                  11
                  11
                  11
                  11
                  11
                  11
                  12
                  12
                  12
                  12
                  11
                  11
                  11
                  11
                  11
                  11
                  11
                  11
                  11
                  11
                  11
                  12
                  12
                  12
                  12
                  12
                  12
                  12
                  12
                  12
                  12
                  11
                  11
                  11
                  11
                  11
                  11
                  11
                  11
                  11
                  11
                  11
                  11
                  11
                  11
                  11
                  12
                  12
                  12
                  12
                  12
                  12
                  12
                  12
                  12
                  12
                  12
                  12
                  11
                  11
                  11
                  11
                  12
                  12
                  11
                  11
                  11
                  11
                  11
                  11
                  11
                  11
                  11
                  11
                  11
                  11
                  11
                  11
                  11
                  11
                  11
                  11
                  11
                  11
                  12
                  12
                  12
                  12
                  11
                  11
                  11
                  11
                  11
                  11
                  11
                  11
                  11
                  11
                  11
                  12
                  12
                  12
                  12
                  12
                  12
                  12
                  12
                  12
                  12
                  11
                  11
                  11
                  11
                  11
                  11
                  11
                  11
                  11
                  11
                  11
                  11
                  11
                  11
                  11
                  12
                  12
                  12
                  12
                  12
                  12
                  12
                  12
                  12
                  12
                  12
                  12
                  11
                  11
                  11
                  11
                  12
                  12
                  11
                  11
                  11
                  11
                  11
                  11
                  11
                  11
                  11
                  11
                  11
                  11
                  11
                  11
                  11
                  11
                  11
                  11
                  11
                  11
                  12
                  12
                  12
                  12
                  11
                  11
                  11
                  11
                  11
                  11
                  11
                  11
                  11
                  11
                  11
                  12
                  12
                  12
                  12
                  12
                  12
                  12
                  12
                  12
                  12
                  11
                  11
                  11
                  11
                  11
                  11
                  11
                  11
                  11
                  11
                  11
                  11
                  11
                  11
                  11
                  12
                  12
                  12
                  12
                  12
                  12
                  12
                  12
                  12
                  12
                  12
                  12
                  11
                  11
                  11
                  11
                  12
                  12
                  11
                  11
                  11
                  11
                  11
                  11
                  11
                  11
                  11
                  11
                  11
                  11
                  11
                  11
                  11
                  11
                  11
                  11
                  11
                  11
                  12
                  12
                  12
                  12
                  11
                  11
                  11
                  11
                  11
                  11
                  11
                  11
                  11
                  11
                  11
                  12
                  12
                  12
                  12
                  12
                  12
                  12
                  12
                  12
                  12
                  11
                  11
                  11
                  11
                  11
                  11
                  11
                  11
                  11
                  11
                  11
                  11
                  11
                  11
                  11
                  12
                  12
                  12
                  12
                  12
                  12
                  12
                  12
                  12
                  12
                  12
                  12
                  11
                  11
                  11
                  11
                  12
                  12
                  11
                  11
                  11
                  11
                  11
                  11
                  11
                  11
                  11
                  11
                  11
                  11
                  11
                  11
                  11
                  11
                  11
                  11
                  11
                  11
                  12
                  12
                  12
                  12
                  11
                  11
                  11
                  11
                  11
                  11
                  11
                  11
                  11
                  11
                  11
                  12
                  12
                  12
                  12
                  12
                  12
                  12
                  12
                  12
                  12
                  11
                  11
                  11
                  11
                  11
                  11
                  11
                  11
                  11
                  11
                  11
                  11
                  11
                  11
                  11
                  12
                  12
                  12
                  12
                  12
                  12
                  12
                  12
                  12
                  12
                  12
                  12
                  11
                  11
                  11
                  11
                  12
                  12
                  11
                  11
                  11
                  11
                  11
                  11
                  11
                  11
                  11
                  11
                  11
                  11
                  11
                  11
                  11
                  11
                  11
                  11
                  11
                  11
                  12
                  12
                  12
                  12
                  11
                  11
                  11
                  11
                  11
                  11
                  11
                  11
                  11
                  11
                  11
                  12
                  12
                  12
                  12
                  12
                  12
                  12
                  12
                  12
                  12
                  11
                  11
                  11
                  11
                  11
                  11
                  11
                  11
                  11
                  11
                  11
                  11
                  11
                  11
                  11
                  12
                  12
                  12
                  12
                  12
                  12
                  12
                  12
                  12
                  12
                  12
                  12
                  11
                  11
                  11
                  11
                  12
                  12
                  11
                  11
                  11
                  11
                  11
                  11
                  11
                  11
                  11
                  11
                  11
                  11
                  11
                  11
                  11
                  11
                  11
                  11
                  11
                  11
                  12
                  12
                  12
                  12
                  11
                  11
                  11
                  11
                  11
                  11
                  11
                  11
                  11
                  11
                  11
                  12
                  12
                  12
                  12
                  12
                  12
                  12
                  12
                  12
                  12
                  11
                  11
                  11
                  11
                  11
                  11
                  11
                  11
                  11
                  11
                  11
                  11
                  11
                  11
                  11
                  12
                  12
                  12
                  12
                  12
                  12
                  12
                  12
                  12
                  12
                  12
                  12
                  11
                  11
                  11
                  11
                  12
                  12
                  11
                  11
                  11
                  11
                  11
                  11
                  11
                  11
                  11
                  11
                  11
                  11
                  11
                  11
                  11
                  11
                  11
                  11
                  11
                  11
                  12
                  12
                  12
                  12
                  11
                  11
                  11
                  11
                  11
                  11
                  11
                  11
                  11
                  11
                  11
                  12
                  12
                  12
                  12
                  12
                  12
                  12
                  12
                  12
                  12
                  11
                  11
                  11
                  11
                  11
                  11
                  11
                  11
                  11
                  11
                  11
                  11
                  11
                  11
                  11
                  12
                  12
                  12
                  12
                  12
                  12
                  12
                  12
                  12
                  12
                  12
                  12
                  11
                  11
                  11
                  11
                  12
                  12
                  11
                  11
                  11
                  11
                  11
                  11
                  11
                  11
                  11
                  11
                  11
                  11
                  11
                  11
                  11
                  11
                  11
                  11
                  11
                  11
                  12
                  12
                  12
                  12
                  11
                  11
                  11
                  11
                  11
                  11
                  11
                  11
                  11
                  11
                  11
                  12
                  12
                  12
                  12
                  12
                  12
                  12
                  12
                  12
                  12
                  11
                  11
                  11
                  11
                  11
                  11
                  11
                  11
                  11
                  11
                  11
                  11
                  11
                  11
                  11
                  12
                  12
                  12
                  12
                  12
                  12
                  12
                  12
                  12
                  12
                  12
                  12
                  11
                  11
                  11
                  11
                  12
                  12
                  11
                  11
                  11
                  11
                  11
                  11
                  11
                  11
                  11
                  11
                  11
                  11
                  11
                  11
                  11
                  11
                  11
                  11
                  11
                  11
                  12
                  12
                  12
                  12
                  11
                  11
                  11
                  11
                  11
                  11
                  11
                  11
                  11
                  11
                  11
                  12
                  12
                  12
                  12
                  12
                  12
                  12
                  12
                  12
                  12
                  11
                  11
                  11
                  11
                  11
                  11
                  11
                  11
                  11
                  11
                  11
                  11
                  11
                  11
                  11
                  12
                  12
                  12
                  12
                  12
                  12
                  12
                  12
                  12
                  12
                  12
                  12
                  11
                  11
                  11
                  11
                  12
                  12
                  11
                  11
                  11
                  11
                  11
                  11
                  11
                  11
                  11
                  11
                  11
                  11
                  11
                  11
                  11
                  11
                  11
                  11
                  11
                  11
                  12
                  12
                  12
                  12
                  11
                  11
                  11
                  11
                  11
                  11
                  11
                  11
                  11
                  11
                  11
                  12
                  12
                  12
                  12
                  12
                  12
                  12
                  12
                  12
                  12
                  11
                  11
                  11
                  11
                  11
                  11
                  11
                  11
                  11
                  11
                  11
                  11
                  11
                  11
                  11
                  12
                  12
                  12
                  12
                  12
                  12
                  12
                  12
                  12
                  12
                  12
                  12
                  11
                  11
                  11
                  11
                  12
                  12
                  11
                  11
                  11
                  11
                  11
                  11
                  11
                  11
                  11
                  11
                  11
                  11
                  11
                  11
                  11
                  11
                  11
                  11
                  11
                  11
                  12
                  12
                  12
                  12
                  11
                  11
                  11
                  11
                  11
                  11
                  11
                  11
                  11
                  11
                  11
                  12
                  12
                  12
                  12
                  12
                  12
                  12
                  12
                  12
                  12
                  11
                  11
                  11
                  11
                  11
                  11
                  11
                  11
                  11
                  11
                  11
                  11
                  11
                  11
                  11
                  12
                  12
                  12
                  12
                  12
                  12
                  12
                  12
                  12
                  12
                  12
                  12
                  11
                  11
                  11
                  11
                  12
                  12
                  11
                  11
                  11
                  11
                  11
                  11
                  11
                  11
                  11
                  11
                  11
                  11
                  11
                  11
                  11
                  11
                  11
                  11
                  11
                  11
                  12
                  12
                  12
                  12
                  11
                  11
                  11
                  11
                  11
                  11
                  11
                  11
                  11
                  11
                  11
                  12
                  12
                  12
                  12
                  12
                  12
                  12
                  12
                  12
                  12
                  11
                  11
                  11
                  11
                  11
                  11
                  11
                  11
                  11
                  11
                  11
                  11
                  11
                  11
                  11
                  12
                  12
                  12
                  12
                  12
                  12
                  12
                  12
                  12
                  12
                  12
                  12
                  11
                  11
                  11
                  11
                  12
                  12
                  11
                  11
                  11
                  11
                  11
                  11
                  11
                  11
                  11
                  11
                  11
                  11
                  11
                  11
                  11
                  11
                  11
                  11
                  11
                  11
                  12
                  12
                  12
                  12
                  11
                  11
                  11
                  11
                  11
                  11
                  11
                  11
                  11
                  11
                  11
                  12
                  12
                  12
                  12
                  12
                  12
                  12
                  12
                  12
                  12
                  11
                  11
                  11
                  11
                  11
                  11
                  11
                  11
                  11
                  11
                  11
                  11
                  11
                  11
                  11
                  12
                  12
                  12
                  12
                  12
                  12
                  12
                  12
                  12
                  12
                  12
                  12
                  11
                  11
                  11
                  11
                  12
                  12
                  11
                  11
                  11
                  11
                  11
                  11
                  11
                  11
                  11
                  11
                  11
                  11
                  11
                  11
                  11
                  11
                  11
                  11
                  11
                  11
                  12
                  12
                  12
                  12
                  11
                  11
                  11
                  11
                  11
                  11
                  11
                  11
                  11
                  11
                  11
                  12
                  12
                  12
                  12
                  12
                  12
                  12
                  12
                  12
                  12
                  11
                  11
                  11
                  11
                  11
                  11
                  11
                  11
                  11
                  11
                  11
                  11
                  11
                  11
                  11
                  12
                  12
                  12
                  12
                  12
                  12
                  12
                  12
                  12
                  12
                  12
                  12
                  11
                  11
                  11
                  11
                  12
                  12
                  11
                  11
                  11
                  11
                  11
                  11
                  11
                  11
                  11
                  11
                  11
                  11
                  11
                  11
                  11
                  11
                  11
                  11
                  11
                  11
                  12
                  12
                  12
                  12
                  11
                  11
                  11
                  11
                  11
                  11
                  11
                  11
                  11
                  11
                  11
                  12
                  12
                  12
                  12
                  12
                  12
                  12
                  12
                  12
                  12
                  11
                  11
                  11
                  11
                  11
                  11
                  11
                  11
                  11
                  11
                  11
                  11
                  11
                  11
                  11
                  12
                  12
                  12
                  12
                  12
                  12
                  12
                  12
                  12
                  12
                  12
                  12
                  11
                  11
                  11
                  11
                  12
                  12
                  11
                  11
                  11
                  11
                  11
                  11
                  11
                  11
                  11
                  11
                  11
                  11
                  11
                  11
                  11
                  11
                  11
                  11
                  11
                  11
                  12
                  12
                  12
                  12
                  11
                  11
                  11
                  11
                  11
                  11
                  11
                  11
                  11
                  11
                  11
                  12
                  12
                  12
                  12
                  12
                  12
                  12
                  12
                  12
                  12
                  11
                  11
                  11
                  11
                  11
                  11
                  11
                  11
                  11
                  11
                  11
                  11
                  11
                  11
                  11
                  12
                  12
                  12
                  12
                  12
                  12
                  12
                  12
                  12
                  12
                  12
                  12
                  11
                  11
                  11
                  11
                  12
                  12
                  11
                  11
                  11
                  11
                  11
                  11
                  11
                  11
                  11
                  11
                  11
                  11
                  11
                  11
                  11
                  11
                  11
                  11
                  11
                  11
                  12
                  12
                  12
                  12
                  11
                  11
                  11
                  11
                  11
                  11
                  11
                  11
                  11
                  11
                  11
                  12
                  12
                  12
                  12
                  12
                  12
                  12
                  12
                  12
                  12
                  11
                  11
                  11
                  11
                  11
                  11
                  11
                  11
                  11
                  11
                  11
                  11
                  11
                  11
                  11
                  12
                  12
                  12
                  12
                  12
                  12
                  12
                  12
                  12
                  12
                  12
                  12
                  11
                  11
                  11
                  11
                  12
                  12
                  11
                  11
                  11
                  11
                  11
                  11
                  11
                  11
                  11
                  11
                  11
                  11
                  11
                  11
                  11
                  11
                  11
                  11
                  11
                  11
                  12
                  12
                  12
                  12
                  11
                  11
                  11
                  11
                  11
                  11
                  11
                  11
                  11
                  11
                  11
                  12
                  12
                  12
                  12
                  12
                  12
                  12
                  12
                  12
                  12
                  11
                  11
                  11
                  11
                  11
                  11
                  11
                  11
                  11
                  11
                  11
                  11
                  11
                  11
                  11
                  12
                  12
                  12
                  12
                  12
                  12
                  12
                  12
                  12
                  12
                  12
                  12
                  11
                  11
                  11
                  11
                  12
                  12
                  11
                  11
                  11
                  11
                  11
                  11
                  11
                  11
                  11
                  11
                  11
                  11
                  11
                  11
                  11
                  11
                  11
                  11
                  11
                  11
                  12
                  12
                  12
                  12
                  11
                  11
                  11
                  11
                  11
                  11
                  11
                  11
                  11
                  11
                  11
                  12
                  12
                  12
                  12
                  12
                  12
                  12
                  12
                  12
                  12
                  11
                  11
                  11
                  11
                  11
                  11
                  11
                  11
                  11
                  11
                  11
                  11
                  11
                  11
                  11
                  12
                  12
                  12
                  12
                  12
                  12
                  12
                  12
                  12
                  12
                  12
                  12
                  11
                  11
                  11
                  11
                  12
                  12
                  11
                  11
                  11
                  11
                  11
                  11
                  11
                  11
                  11
                  11
                  11
                  11
                  11
                  11
                  11
                  11
                  11
                  11
                  11
                  11
                  12
                  12
                  12
                  12
                  11
                  11
                  11
                  11
                  11
                  11
                  11
                  11
                  11
                  11
                  11
                  12
                  12
                  12
                  12
                  12
                  12
                  12
                  12
                  12
                  12
                  11
                  11
                  11
                  11
                  11
                  11
                  11
                  11
                  11
                  11
                  11
                  11
                  11
                  11
                  11
                  12
                  12
                  12
                  12
                  12
  
SCALARS                         Jspace  double 1
LOOKUP_TABLE default
                  11
                  12
                  11
                  11
                  11
                  12
                  11
                  11
                  11
                  11
                  11
                  11
                  12
                  12
                  12
                  12
                  11
                  12
                  11
                  12
                  12
                  12
                  12
                  12
                  12
                  12
                  12
                  12
                  12
                  12
                  11
                  11
                  11
                  11
                  11
                  11
                  11
                  11
                  11
                  11
                  11
                  11
                  11
                  11
                  11
                  11
                  11
                  11
                  11
                  11
                  11
                  11
                  12
                  12
                  12
                  12
                  12
                  11
                  12
                  11
                  11
                  11
                  11
                  11
                  11
                  11
                  11
                  11
                  11
                  12
                  11
                  12
                  12
                  12
                  12
                  12
                  12
                  12
                  12
                  12
                  12
                  12
                  12
                  12
                  11
                  11
                  11
                  11
                  11
                  11
                  11
                  11
                  11
                  11
                  11
                  11
                  11
                  11
                  11
                  11
                  11
                  11
                  11
                  11
                  11
                  11
                  11
                  11
                  12
                  12
                  12
                  12
                  12
                  12
                  12
                  12
                  12
                  12
                  12
                  12
                  12
                  12
                  12
                  12
                  12
                  12
                  12
                  12
                  11
                  11
                  11
                  11
                  11
                  11
                  11
                  11
                  11
                  11
                  11
                  11
                  11
                  11
                  11
                  11
                  11
                  11
                  11
                  11
                  11
                  11
                  11
                  11
                  11
                  11
                  11
                  11
                  11
                  12
                  11
                  11
                  11
                  11
                  12
                  12
                  11
                  12
                  12
                  12
                  12
                  12
                  12
                  11
                  11
                  11
                  11
                  11
                  11
                  11
                  11
                  11
                  11
                  11
                  12
                  12
                  12
                  11
                  11
                  11
                  11
                  11
                  11
                  12
                  12
                  12
                  12
                  12
                  12
                  12
                  11
                  11
                  11
                  11
                  11
                  11
                  11
                  11
                  11
                  11
                  11
                  11
                  12
                  12
                  12
                  12
                  12
                  12
                  12
                  12
                  12
                  12
                  11
                  11
                  11
                  11
                  11
                  11
                  11
                  11
                  11
                  11
                  11
                  11
                  11
                  11
                  11
                  12
                  11
                  11
                  11
                  11
                  12
                  12
                  11
                  12
                  12
                  12
                  12
                  12
                  12
                  11
                  11
                  11
                  11
                  11
                  11
                  11
                  11
                  11
                  11
                  11
                  12
                  12
                  12
                  11
                  11
                  11
                  11
                  11
                  11
                  12
                  12
                  12
                  12
                  12
                  12
                  12
                  11
                  11
                  11
                  11
                  11
                  11
                  11
                  11
                  11
                  11
                  11
                  11
                  12
                  12
                  12
                  12
                  12
                  12
                  12
                  12
                  12
                  12
                  11
                  11
                  11
                  11
                  11
                  11
                  11
                  11
                  11
                  11
                  11
                  11
                  11
                  11
                  11
                  12
                  11
                  11
                  11
                  11
                  12
                  12
                  11
                  12
                  12
                  12
                  12
                  12
                  12
                  11
                  11
                  11
                  11
                  11
                  11
                  11
                  11
                  11
                  11
                  11
                  12
                  12
                  12
                  11
                  11
                  11
                  11
                  11
                  11
                  12
                  12
                  12
                  12
                  12
                  12
                  12
                  11
                  11
                  11
                  11
                  11
                  11
                  11
                  11
                  11
                  11
                  11
                  11
                  12
                  12
                  12
                  12
                  12
                  12
                  12
                  12
                  12
                  12
                  11
                  11
                  11
                  11
                  11
                  11
                  11
                  11
                  11
                  11
                  11
                  11
                  11
                  11
                  11
                  12
                  11
                  11
                  11
                  11
                  12
                  12
                  11
                  12
                  12
                  12
                  12
                  12
                  12
                  11
                  11
                  11
                  11
                  11
                  11
                  11
                  11
                  11
                  11
                  11
                  12
                  12
                  12
                  11
                  11
                  11
                  11
                  11
                  11
                  12
                  12
                  12
                  12
                  12
                  12
                  12
                  11
                  11
                  11
                  11
                  11
                  11
                  11
                  11
                  11
                  11
                  11
                  11
                  12
                  12
                  12
                  12
                  12
                  12
                  12
                  12
                  12
                  12
                  11
                  11
                  11
                  11
                  11
                  11
                  11
                  11
                  11
                  11
                  11
                  11
                  11
                  11
                  11
                  12
                  11
                  11
                  11
                  11
                  12
                  12
                  11
                  12
                  12
                  12
                  12
                  12
                  12
                  11
                  11
                  11
                  11
                  11
                  11
                  11
                  11
                  11
                  11
                  11
                  12
                  12
                  12
                  11
                  11
                  11
                  11
                  11
                  11
                  12
                  12
                  12
                  12
                  12
                  12
                  12
                  11
                  11
                  11
                  11
                  11
                  11
                  11
                  11
                  11
                  11
                  11
                  11
                  12
                  12
                  12
                  12
                  12
                  12
                  12
                  12
                  12
                  12
                  11
                  11
                  11
                  11
                  11
                  11
                  11
                  11
                  11
                  11
                  11
                  11
                  11
                  11
                  11
                  12
                  11
                  11
                  11
                  11
                  12
                  12
                  11
                  12
                  12
                  12
                  12
                  12
                  12
                  11
                  11
                  11
                  11
                  11
                  11
                  11
                  11
                  11
                  11
                  11
                  12
                  12
                  12
                  11
                  11
                  11
                  11
                  11
                  11
                  12
                  12
                  12
                  12
                  12
                  12
                  12
                  11
                  11
                  11
                  11
                  11
                  11
                  11
                  11
                  11
                  11
                  11
                  11
                  12
                  12
                  12
                  12
                  12
                  12
                  12
                  12
                  12
                  12
                  11
                  11
                  11
                  11
                  11
                  11
                  11
                  11
                  11
                  11
                  11
                  11
                  11
                  11
                  11
                  12
                  11
                  11
                  11
                  11
                  12
                  12
                  11
                  12
                  12
                  12
                  12
                  12
                  12
                  11
                  11
                  11
                  11
                  11
                  11
                  11
                  11
                  11
                  11
                  11
                  12
                  12
                  12
                  11
                  11
                  11
                  11
                  11
                  11
                  12
                  12
                  12
                  12
                  12
                  12
                  12
                  11
                  11
                  11
                  11
                  11
                  11
                  11
                  11
                  11
                  11
                  11
                  11
                  12
                  12
                  12
                  12
                  12
                  12
                  12
                  12
                  12
                  12
                  11
                  11
                  11
                  11
                  11
                  11
                  11
                  11
                  11
                  11
                  11
                  11
                  11
                  11
                  11
                  12
                  11
                  11
                  11
                  11
                  12
                  12
                  11
                  12
                  12
                  12
                  12
                  12
                  12
                  11
                  11
                  11
                  11
                  11
                  11
                  11
                  11
                  11
                  11
                  11
                  12
                  12
                  12
                  11
                  11
                  11
                  11
                  11
                  11
                  12
                  12
                  12
                  12
                  12
                  12
                  12
                  11
                  11
                  11
                  11
                  11
                  11
                  11
                  11
                  11
                  11
                  11
                  11
                  12
                  12
                  12
                  12
                  12
                  12
                  12
                  12
                  12
                  12
                  11
                  11
                  11
                  11
                  11
                  11
                  11
                  11
                  11
                  11
                  11
                  11
                  11
                  11
                  11
                  12
                  11
                  11
                  11
                  11
                  12
                  12
                  11
                  12
                  12
                  12
                  12
                  12
                  12
                  11
                  11
                  11
                  11
                  11
                  11
                  11
                  11
                  11
                  11
                  11
                  12
                  12
                  12
                  11
                  11
                  11
                  11
                  11
                  11
                  12
                  12
                  12
                  12
                  12
                  12
                  12
                  11
                  11
                  11
                  11
                  11
                  11
                  11
                  11
                  11
                  11
                  11
                  11
                  12
                  12
                  12
                  12
                  12
                  12
                  12
                  12
                  12
                  12
                  11
                  11
                  11
                  11
                  11
                  11
                  11
                  11
                  11
                  11
                  11
                  11
                  11
                  11
                  11
                  12
                  11
                  11
                  11
                  11
                  12
                  12
                  11
                  12
                  12
                  12
                  12
                  12
                  12
                  11
                  11
                  11
                  11
                  11
                  11
                  11
                  11
                  11
                  11
                  11
                  12
                  12
                  12
                  11
                  11
                  11
                  11
                  11
                  11
                  12
                  12
                  12
                  12
                  12
                  12
                  12
                  11
                  11
                  11
                  11
                  11
                  11
                  11
                  11
                  11
                  11
                  11
                  11
                  12
                  12
                  12
                  12
                  12
                  12
                  12
                  12
                  12
                  12
                  11
                  11
                  11
                  11
                  11
                  11
                  11
                  11
                  11
                  11
                  11
                  11
                  11
                  11
                  11
                  12
                  11
                  11
                  11
                  11
                  12
                  12
                  11
                  12
                  12
                  12
                  12
                  12
                  12
                  11
                  11
                  11
                  11
                  11
                  11
                  11
                  11
                  11
                  11
                  11
                  12
                  12
                  12
                  11
                  11
                  11
                  11
                  11
                  11
                  12
                  12
                  12
                  12
                  12
                  12
                  12
                  11
                  11
                  11
                  11
                  11
                  11
                  11
                  11
                  11
                  11
                  11
                  11
                  12
                  12
                  12
                  12
                  12
                  12
                  12
                  12
                  12
                  12
                  11
                  11
                  11
                  11
                  11
                  11
                  11
                  11
                  11
                  11
                  11
                  11
                  11
                  11
                  11
                  12
                  11
                  11
                  11
                  11
                  12
                  12
                  11
                  12
                  12
                  12
                  12
                  12
                  12
                  11
                  11
                  11
                  11
                  11
                  11
                  11
                  11
                  11
                  11
                  11
                  12
                  12
                  12
                  11
                  11
                  11
                  11
                  11
                  11
                  12
                  12
                  12
                  12
                  12
                  12
                  12
                  11
                  11
                  11
                  11
                  11
                  11
                  11
                  11
                  11
                  11
                  11
                  11
                  12
                  12
                  12
                  12
                  12
                  12
                  12
                  12
                  12
                  12
                  11
                  11
                  11
                  11
                  11
                  11
                  11
                  11
                  11
                  11
                  11
                  11
                  11
                  11
                  11
                  12
                  11
                  11
                  11
                  11
                  12
                  12
                  11
                  12
                  12
                  12
                  12
                  12
                  12
                  11
                  11
                  11
                  11
                  11
                  11
                  11
                  11
                  11
                  11
                  11
                  12
                  12
                  12
                  11
                  11
                  11
                  11
                  11
                  11
                  12
                  12
                  12
                  12
                  12
                  12
                  12
                  11
                  11
                  11
                  11
                  11
                  11
                  11
                  11
                  11
                  11
                  11
                  11
                  12
                  12
                  12
                  12
                  12
                  12
                  12
                  12
                  12
                  12
                  11
                  11
                  11
                  11
                  11
                  11
                  11
                  11
                  11
                  11
                  11
                  11
                  11
                  11
                  11
                  12
                  11
                  11
                  11
                  11
                  12
                  12
                  11
                  12
                  12
                  12
                  12
                  12
                  12
                  11
                  11
                  11
                  11
                  11
                  11
                  11
                  11
                  11
                  11
                  11
                  12
                  12
                  12
                  11
                  11
                  11
                  11
                  11
                  11
                  12
                  12
                  12
                  12
                  12
                  12
                  12
                  11
                  11
                  11
                  11
                  11
                  11
                  11
                  11
                  11
                  11
                  11
                  11
                  12
                  12
                  12
                  12
                  12
                  12
                  12
                  12
                  12
                  12
                  11
                  11
                  11
                  11
                  11
                  11
                  11
                  11
                  11
                  11
                  11
                  11
                  11
                  11
                  11
                  12
                  11
                  11
                  11
                  11
                  12
                  12
                  11
                  12
                  12
                  12
                  12
                  12
                  12
                  11
                  11
                  11
                  11
                  11
                  11
                  11
                  11
                  11
                  11
                  11
                  12
                  12
                  12
                  11
                  11
                  11
                  11
                  11
                  11
                  12
                  12
                  12
                  12
                  12
                  12
                  12
                  11
                  11
                  11
                  11
                  11
                  11
                  11
                  11
                  11
                  11
                  11
                  11
                  12
                  12
                  12
                  12
                  12
                  12
                  12
                  12
                  12
                  12
                  11
                  11
                  11
                  11
                  11
                  11
                  11
                  11
                  11
                  11
                  11
                  11
                  11
                  11
                  11
                  12
                  11
                  11
                  11
                  11
                  12
                  12
                  11
                  12
                  12
                  12
                  12
                  12
                  12
                  11
                  11
                  11
                  11
                  11
                  11
                  11
                  11
                  11
                  11
                  11
                  12
                  12
                  12
                  11
                  11
                  11
                  11
                  11
                  11
                  12
                  12
                  12
                  12
                  12
                  12
                  12
                  11
                  11
                  11
                  11
                  11
                  11
                  11
                  11
                  11
                  11
                  11
                  11
                  12
                  12
                  12
                  12
                  12
                  12
                  12
                  12
                  12
                  12
                  11
                  11
                  11
                  11
                  11
                  11
                  11
                  11
                  11
                  11
                  11
                  11
                  11
                  11
                  11
                  12
                  11
                  11
                  11
                  11
                  12
                  12
                  11
                  12
                  12
                  12
                  12
                  12
                  12
                  11
                  11
                  11
                  11
                  11
                  11
                  11
                  11
                  11
                  11
                  11
                  12
                  12
                  12
                  11
                  11
                  11
                  11
                  11
                  11
                  12
                  12
                  12
                  12
                  12
                  12
                  12
                  11
                  11
                  11
                  11
                  11
                  11
                  11
                  11
                  11
                  11
                  11
                  11
                  12
                  12
                  12
                  12
                  12
                  12
                  12
                  12
                  12
                  12
                  11
                  11
                  11
                  11
                  11
                  11
                  11
                  11
                  11
                  11
                  11
                  11
                  11
                  11
                  11
                  12
                  11
                  11
                  11
                  11
                  12
                  12
                  11
                  12
                  12
                  12
                  12
                  12
                  12
                  11
                  11
                  11
                  11
                  11
                  11
                  11
                  11
                  11
                  11
                  11
                  12
                  12
                  12
                  11
                  11
                  11
                  11
                  11
                  11
                  12
                  12
                  12
                  12
                  12
                  12
                  12
                  11
                  11
                  11
                  11
                  11
                  11
                  11
                  11
                  11
                  11
                  11
                  11
                  12
                  12
                  12
                  12
                  12
                  12
                  12
                  12
                  12
                  12
                  11
                  11
                  11
                  11
                  11
                  11
                  11
                  11
                  11
                  11
                  11
                  11
                  11
                  11
                  11
                  12
                  11
                  11
                  11
                  11
                  12
                  12
                  11
                  12
                  12
                  12
                  12
                  12
                  12
                  11
                  11
                  11
                  11
                  11
                  11
                  11
                  11
                  11
                  11
                  11
                  12
                  12
                  12
                  11
                  11
                  11
                  11
                  11
                  11
                  12
                  12
                  12
                  12
                  12
                  12
                  12
                  11
                  11
                  11
                  11
                  11
                  11
                  11
                  11
                  11
                  11
                  11
                  11
                  12
                  12
                  12
                  12
                  12
                  12
                  12
                  12
                  12
                  12
                  11
                  11
                  11
                  11
                  11
                  11
                  11
                  11
                  11
                  11
                  11
                  11
                  11
                  11
                  11
                  12
                  11
                  11
                  11
                  11
                  12
                  12
                  11
                  12
                  12
                  12
                  12
                  12
                  12
                  11
                  11
                  11
                  11
                  11
                  11
                  11
                  11
                  11
                  11
                  11
                  12
                  12
                  12
                  11
                  11
                  11
                  11
                  11
                  11
                  12
                  12
                  12
                  12
                  12
                  12
                  12
                  11
                  11
                  11
                  11
                  11
                  11
                  11
                  11
                  11
                  11
                  11
                  11
                  12
                  12
                  12
                  12
                  12
                  12
                  12
                  12
                  12
                  12
                  11
                  11
                  11
                  11
                  11
                  11
                  11
                  11
                  11
                  11
                  11
                  11
                  11
                  11
                  11
                  12
                  11
                  11
                  11
                  11
                  12
                  12
                  11
                  12
                  12
                  12
                  12
                  12
                  12
                  11
                  11
                  11
                  11
                  11
                  11
                  11
                  11
                  11
                  11
                  11
                  12
                  12
                  12
                  11
                  11
                  11
                  11
                  11
                  11
                  12
                  12
                  12
                  12
                  12
                  12
                  12
                  11
                  11
                  11
                  11
                  11
                  11
                  11
                  11
                  11
                  11
                  11
                  11
                  12
                  12
                  12
                  12
                  12
                  12
                  12
                  12
                  12
                  12
                  11
                  11
                  11
                  11
                  11
                  11
                  11
                  11
                  11
                  11
                  11
                  11
                  11
                  11
                  11
                  12
                  11
                  11
                  11
                  11
                  12
                  12
                  11
                  12
                  12
                  12
                  12
                  12
                  12
                  11
                  11
                  11
                  11
                  11
                  11
                  11
                  11
                  11
                  11
                  11
                  12
                  12
                  12
                  11
                  11
                  11
                  11
                  11
                  11
                  12
                  12
                  12
                  12
                  12
                  12
                  12
                  11
                  11
                  11
                  11
                  11
                  11
                  11
                  11
                  11
                  11
                  11
                  11
                  12
                  12
                  12
                  12
                  12
                  12
                  12
                  12
                  12
                  12
                  11
                  11
                  11
                  11
                  11
                  11
                  11
                  11
                  11
                  11
                  11
                  11
                  11
                  11
                  11
                  12
                  11
                  11
                  11
                  11
                  12
                  12
                  11
                  12
                  12
                  12
                  12
                  12
                  12
                  11
                  11
                  11
                  11
                  11
                  11
                  11
                  11
                  11
                  11
                  11
                  12
                  12
                  12
                  11
                  11
                  11
                  11
                  11
                  11
                  12
                  12
                  12
                  12
                  12
                  12
                  12
                  11
                  11
                  11
                  11
                  11
                  11
                  11
                  11
                  11
                  11
                  11
                  11
                  12
                  12
                  12
                  12
                  12
                  12
                  12
                  12
                  12
                  12
                  11
                  11
                  11
                  11
                  11
                  11
                  11
                  11
                  11
                  11
                  11
                  11
                  11
                  11
  
SCALARS                         Kspace  double 1
LOOKUP_TABLE default
                  11
                  11
                  11
                  11
                  11
                  11
                  11
                  11
                  11
                  11
                  11
                  11
                  11
                  11
                  11
                  11
                  11
                  11
                  11
                  11
                  11
                  11
                  11
                  11
                  11
                  11
                  11
                  11
                  11
                  11
                  11
                  11
                  11
                  11
                  11
                  11
                  11
                  11
                  11
                  11
                  11
                  11
                  11
                  11
                  11
                  11
                  11
                  11
                  11
                  11
                  11
                  11
                  11
                  11
                  11
                  11
                  11
                  11
                  11
                  11
                  11
                  11
                  11
                  11
                  11
                  11
                  11
                  11
                  11
                  11
                  11
                  11
                  11
                  11
                  11
                  11
                  11
                  11
                  11
                  11
                  11
                  11
                  11
                  11
                  11
                  11
                  11
                  11
                  11
                  11
                  11
                  11
                  11
                  11
                  11
                  11
                  11
                  11
                  11
                  11
                  11
                  11
                  11
                  11
                  11
                  11
                  11
                  11
                  11
                  11
                  11
                  11
                  11
                  11
                  11
                  11
                  11
                  11
                  11
                  11
                  11
                  11
                  11
                  11
                  11
                  11
                  11
                  11
                  11
                  11
                  11
                  11
                  11
                  11
                  11
                  11
                  11
                  11
                  11
                  11
                  11
                  11
                  11
                  11
                  11
                  11
                  11
                  11
                  11
                  11
                  11
                  11
                  11
                  11
                  11
                  11
                  11
                  11
                  11
                  11
                  11
                  11
                  11
                  11
                  11
                  11
                  11
                  11
                  11
                  11
                  11
                  11
                  11
                  11
                  11
                  11
                  11
                  11
                  11
                  11
                  11
                  11
                  11
                  11
                  11
                  11
                  11
                  11
                  11
                  11
                  11
                  11
                  11
                  11
                  11
                  11
                  11
                  11
                  11
                  11
                  11
                  11
                  11
                  11
                  11
                  11
                  11
                  11
                  11
                  11
                  11
                  11
                  11
                  11
                  11
                  11
                  11
                  11
                  11
                  11
                  11
                  11
                  11
                  11
                  11
                  11
                  11
                  11
                  11
                  11
                  11
                  11
                  11
                  11
                  11
                  11
                  11
                  11
                  11
                  11
                  11
                  11
                  11
                  11
                  11
                  11
                  11
                  11
                  11
                  11
                  11
                  11
                  11
                  11
                  11
                  11
                  11
                  11
                  11
                  11
                  11
                  11
                  11
                  11
                  11
                  11
                  11
                  11
                  11
                  11
                  11
                  11
                  11
                  11
                  11
                  11
                  11
                  11
                  11
                  11
                  11
                  11
                  11
                  11
                  11
                  11
                  11
                  11
                  11
                  11
                  11
                  11
                  11
                  11
                  11
                  11
                  11
                  11
                  11
                  11
                  11
                  11
                  11
                  11
                  11
                  11
                  11
                  11
                  11
                  11
                  11
                  11
                  12
                  12
                  12
                  12
                  12
                  12
                  12
                  12
                  12
                  12
                  12
                  12
                  12
                  12
                  12
                  12
                  12
                  12
                  12
                  12
                  12
                  12
                  12
                  12
                  12
                  12
                  12
                  12
                  12
                  12
                  12
                  12
                  12
                  12
                  12
                  12
                  12
                  12
                  12
                  12
                  12
                  12
                  12
                  12
                  12
                  12
                  12
                  12
                  12
                  12
                  12
                  12
                  12
                  12
                  12
                  12
                  12
                  12
                  12
                  12
                  12
                  12
                  12
                  12
                  12
                  12
                  12
                  12
                  12
                  12
                  12
                  12
                  12
                  12
                  12
                  12
                  12
                  12
                  12
                  12
                  12
                  12
                  12
                  12
                  12
                  12
                  12
                  12
                  12
                  12
                  12
                  12
                  12
                  12
                  12
                  12
                  12
                  12
                  12
                  12
                  12
                  12
                  12
                  12
                  12
                  12
                  12
                  12
                  12
                  12
                  12
                  12
                  12
                  12
                  12
                  12
                  12
                  12
                  12
                  12
                  12
                  12
                  12
                  12
                  12
                  12
                  12
                  12
                  12
                  12
                  12
                  12
                  12
                  12
                  12
                  12
                  12
                  12
                  12
                  12
                  12
                  12
                  12
                  12
                  12
                  12
                  12
                  12
                  12
                  12
                  12
                  12
                  12
                  12
                  12
                  12
                  12
                  12
                  12
                  12
                  12
                  12
                  12
                  12
                  12
                  12
                  12
                  12
                  12
                  12
                  12
                  12
                  12
                  12
                  12
                  12
                  12
                  12
                  12
                  12
                  12
                  12
                  12
                  12
                  12
                  12
                  12
                  12
                  12
                  12
                  12
                  12
                  12
                  12
                  12
                  12
                  12
                  12
                  12
                  12
                  12
                  12
                  12
                  12
                  12
                  12
                  12
                  12
                  12
                  12
                  12
                  12
                  12
                  12
                  12
                  12
                  12
                  12
                  12
                  12
                  12
                  12
                  12
                  12
                  12
                  12
                  12
                  12
                  12
                  12
                  12
                  12
                  12
                  12
                  13
                  13
                  13
                  13
                  13
                  13
                  13
                  13
                  13
                  13
                  13
                  13
                  13
                  13
                  13
                  13
                  13
                  13
                  13
                  13
                  13
                  13
                  13
                  13
                  13
                  13
                  13
                  13
                  13
                  13
                  13
                  13
                  13
                  13
                  13
                  13
                  13
                  13
                  13
                  13
                  13
                  13
                  13
                  13
                  13
                  13
                  13
                  13
                  13
                  13
                  13
                  13
                  13
                  13
                  13
                  13
                  13
                  13
                  13
                  13
                  13
                  13
                  13
                  13
                  13
                  13
                  13
                  13
                  13
                  13
                  13
                  13
                  13
                  13
                  13
                  13
                  13
                  13
                  13
                  13
                  13
                  13
                  13
                  13
                  13
                  13
                  13
                  13
                  13
                  13
                  13
                  13
                  13
                  13
                  13
                  13
                  13
                  13
                  13
                  13
                  13
                  13
                  13
                  13
                  13
                  13
                  13
                  13
                  13
                  13
                  13
                  13
                  13
                  13
                  13
                  13
                  13
                  13
                  13
                  13
                  13
                  13
                  13
                  13
                  13
                  13
                  13
                  13
                  13
                  13
                  13
                  13
                  13
                  13
                  13
                  13
                  13
                  13
                  13
                  13
                  13
                  13
                  13
                  13
                  13
                  13
                  13
                  13
                  13
                  13
                  13
                  13
                  13
                  13
                  13
                  13
                  13
                  13
                  13
                  13
                  13
                  13
                  13
                  13
                  13
                  13
                  13
                  13
                  13
                  13
                  13
                  13
                  13
                  13
                  13
                  13
                  13
                  13
                  13
                  13
                  13
                  13
                  13
                  13
                  13
                  13
                  13
                  13
                  13
                  13
                  13
                  13
                  13
                  13
                  13
                  13
                  13
                  13
                  13
                  13
                  13
                  13
                  13
                  13
                  13
                  13
                  13
                  13
                  13
                  13
                  13
                  13
                  13
                  13
                  13
                  13
                  13
                  13
                  13
                  13
                  13
                  13
                  13
                  13
                  13
                  13
                  13
                  13
                  13
                  13
                  13
                  13
                  13
                  13
                  14
                  14
                  14
                  14
                  14
                  14
                  14
                  14
                  14
                  14
                  14
                  14
                  14
                  14
                  14
                  14
                  14
                  14
                  14
                  14
                  14
                  14
                  14
                  14
                  14
                  14
                  14
                  14
                  14
                  14
                  14
                  14
                  14
                  14
                  14
                  14
                  14
                  14
                  14
                  14
                  14
                  14
                  14
                  14
                  14
                  14
                  14
                  14
                  14
                  14
                  14
                  14
                  14
                  14
                  14
                  14
                  14
                  14
                  14
                  14
                  14
                  14
                  14
                  14
                  14
                  14
                  14
                  14
                  14
                  14
                  14
                  14
                  14
                  14
                  14
                  14
                  14
                  14
                  14
                  14
                  14
                  14
                  14
                  14
                  14
                  14
                  14
                  14
                  14
                  14
                  14
                  14
                  14
                  14
                  14
                  14
                  14
                  14
                  14
                  14
                  14
                  14
                  14
                  14
                  14
                  14
                  14
                  14
                  14
                  14
                  14
                  14
                  14
                  14
                  14
                  14
                  14
                  14
                  14
                  14
                  14
                  14
                  14
                  14
                  14
                  14
                  14
                  14
                  14
                  14
                  14
                  14
                  14
                  14
                  14
                  14
                  14
                  14
                  14
                  14
                  14
                  14
                  14
                  14
                  14
                  14
                  14
                  14
                  14
                  14
                  14
                  14
                  14
                  14
                  14
                  14
                  14
                  14
                  14
                  14
                  14
                  14
                  14
                  14
                  14
                  14
                  14
                  14
                  14
                  14
                  14
                  14
                  14
                  14
                  14
                  14
                  14
                  14
                  14
                  14
                  14
                  14
                  14
                  14
                  14
                  14
                  14
                  14
                  14
                  14
                  14
                  14
                  14
                  14
                  14
                  14
                  14
                  14
                  14
                  14
                  14
                  14
                  14
                  14
                  14
                  14
                  14
                  14
                  14
                  14
                  14
                  14
                  14
                  14
                  14
                  14
                  14
                  14
                  14
                  14
                  14
                  14
                  14
                  14
                  14
                  14
                  14
                  14
                  14
                  14
                  14
                  14
                  14
                  14
                  15
                  15
                  15
                  15
                  15
                  15
                  15
                  15
                  15
                  15
                  15
                  15
                  15
                  15
                  15
                  15
                  15
                  15
                  15
                  15
                  15
                  15
                  15
                  15
                  15
                  15
                  15
                  15
                  15
                  15
                  15
                  15
                  15
                  15
                  15
                  15
                  15
                  15
                  15
                  15
                  15
                  15
                  15
                  15
                  15
                  15
                  15
                  15
                  15
                  15
                  15
                  15
                  15
                  15
                  15
                  15
                  15
                  15
                  15
                  15
                  15
                  15
                  15
                  15
                  15
                  15
                  15
                  15
                  15
                  15
                  15
                  15
                  15
                  15
                  15
                  15
                  15
                  15
                  15
                  15
                  15
                  15
                  15
                  15
                  15
                  15
                  15
                  15
                  15
                  15
                  15
                  15
                  15
                  15
                  15
                  15
                  15
                  15
                  15
                  15
                  15
                  15
                  15
                  15
                  15
                  15
                  15
                  15
                  15
                  15
                  15
                  15
                  15
                  15
                  15
                  15
                  15
                  15
                  15
                  15
                  15
                  15
                  15
                  15
                  15
                  15
                  15
                  15
                  15
                  15
                  15
                  15
                  15
                  15
                  15
                  15
                  15
                  15
                  15
                  15
                  15
                  15
                  15
                  15
                  15
                  15
                  15
                  15
                  15
                  15
                  15
                  15
                  15
                  15
                  15
                  15
                  15
                  15
                  15
                  15
                  15
                  15
                  15
                  15
                  15
                  15
                  15
                  15
                  15
                  15
                  15
                  15
                  15
                  15
                  15
                  15
                  15
                  15
                  15
                  15
                  15
                  15
                  15
                  15
                  15
                  15
                  15
                  15
                  15
                  15
                  15
                  15
                  15
                  15
                  15
                  15
                  15
                  15
                  15
                  15
                  15
                  15
                  15
                  15
                  15
                  15
                  15
                  15
                  15
                  15
                  15
                  15
                  15
                  15
                  15
                  15
                  15
                  15
                  15
                  15
                  15
                  15
                  15
                  15
                  15
                  15
                  15
                  15
                  15
                  15
                  15
                  15
                  15
                  15
                  15
                  15
                  15
                  15
                  15
                  15
                  15
                  15
                  15
                  15
                  15
                  15
                  15
                  15
                  15
                  15
                  15
                  15
                  15
                  15
                  15
                  15
                  15
                  15
                  15
                  15
                  15
                  15
                  15
                  15
                  15
                  15
                  15
                  15
                  15
                  15
                  15
                  15
                  15
                  15
                  15
                  15
                  15
                  15
                  15
                  15
                  15
                  15
                  15
                  15
                  15
                  15
                  15
                  15
                  15
                  15
                  15
                  15
                  15
                  15
                  15
                  15
                  15
                  15
                  15
                  15
                  15
                  15
                  15
                  15
                  15
                  15
                  15
                  15
                  15
                  15
                  15
                  15
                  16
                  16
                  16
                  16
                  16
                  16
                  16
                  16
                  16
                  16
                  16
                  16
                  16
                  16
                  16
                  16
                  16
                  16
                  16
                  16
                  16
                  16
                  16
                  16
                  16
                  16
                  16
                  16
                  16
                  16
                  16
                  16
                  16
                  16
                  16
                  16
                  16
                  16
                  16
                  16
                  16
                  16
                  16
                  16
                  16
                  16
                  16
                  16
                  16
                  16
                  16
                  16
                  16
                  16
                  16
                  16
                  16
                  16
                  16
                  16
                  16
                  16
                  16
                  16
                  16
                  16
                  16
                  16
                  16
                  16
                  16
                  16
                  16
                  16
                  16
                  16
                  16
                  16
                  16
                  16
                  16
                  16
                  16
                  16
                  16
                  16
                  16
                  16
                  16
                  16
                  16
                  16
                  16
                  16
                  16
                  16
                  16
                  16
                  16
                  16
                  16
                  16
                  16
                  16
                  16
                  16
                  16
                  16
                  16
                  16
                  16
                  16
                  16
                  16
                  16
                  16
                  16
                  16
                  16
                  16
                  16
                  16
                  16
                  16
                  16
                  16
                  16
                  16
                  16
                  16
                  16
                  16
                  16
                  16
                  16
                  16
                  16
                  16
                  16
                  16
                  16
                  16
                  16
                  16
                  16
                  16
                  16
                  16
                  16
                  16
                  16
                  16
                  16
                  16
                  16
                  16
                  16
                  16
                  16
                  16
                  16
                  16
                  16
                  16
                  16
                  16
                  16
                  16
                  16
                  16
                  16
                  16
                  16
                  16
                  16
                  16
                  16
                  16
                  16
                  16
                  16
                  16
                  16
                  16
                  16
                  16
                  16
                  16
                  16
                  16
                  16
                  16
                  16
                  16
                  16
                  16
                  16
                  16
                  16
                  16
                  16
                  16
                  16
                  16
                  16
                  16
                  16
                  16
                  16
                  16
                  16
                  16
                  16
                  16
                  16
                  16
                  16
                  16
                  16
                  16
                  16
                  16
                  16
                  16
                  16
                  16
                  16
                  16
                  16
                  16
                  16
                  16
                  16
                  16
                  17
                  17
                  17
                  17
                  17
                  17
                  17
                  17
                  17
                  17
                  17
                  17
                  17
                  17
                  17
                  17
                  17
                  17
                  17
                  17
                  17
                  17
                  17
                  17
                  17
                  17
                  17
                  17
                  17
                  17
                  17
                  17
                  17
                  17
                  17
                  17
                  17
                  17
                  17
                  17
                  17
                  17
                  17
                  17
                  17
                  17
                  17
                  17
                  17
                  17
                  17
                  17
                  17
                  17
                  17
                  17
                  17
                  17
                  17
                  17
                  17
                  17
                  17
                  17
                  17
                  17
                  17
                  17
                  17
                  17
                  17
                  17
                  17
                  17
                  17
                  17
                  17
                  17
                  17
                  17
                  17
                  17
                  17
                  17
                  17
                  17
                  17
                  17
                  17
                  17
                  17
                  17
                  17
                  17
                  17
                  17
                  17
                  17
                  17
                  17
                  17
                  17
                  17
                  17
                  17
                  17
                  17
                  17
                  17
                  17
                  17
                  17
                  17
                  17
                  17
                  17
                  17
                  17
                  17
                  17
                  17
                  17
                  17
                  17
                  17
                  17
                  17
                  17
                  17
                  17
                  17
                  17
                  17
                  17
                  17
                  17
                  17
                  17
                  17
                  17
                  17
                  17
                  17
                  17
                  17
                  17
                  17
                  17
                  17
                  17
                  17
                  17
                  17
                  17
                  17
                  17
                  17
                  17
                  17
                  17
                  17
                  17
                  17
                  17
                  17
                  17
                  17
                  17
                  17
                  17
                  17
                  17
                  17
                  17
                  17
                  17
                  17
                  17
                  17
                  17
                  17
                  17
                  17
                  17
                  17
                  17
                  17
                  17
                  17
                  17
                  17
                  17
                  17
                  17
                  17
                  17
                  17
                  17
                  17
                  17
                  17
                  17
                  17
                  17
                  17
                  17
                  17
                  17
                  17
                  17
                  17
                  17
                  17
                  17
                  17
                  17
                  17
                  17
                  17
                  17
                  17
                  17
                  17
                  17
                  17
                  17
                  17
                  17
                  17
                  17
                  17
                  17
                  17
                  17
                  18
                  18
                  18
                  18
                  18
                  18
                  18
                  18
                  18
                  18
                  18
                  18
                  18
                  18
                  18
                  18
                  18
                  18
                  18
                  18
                  18
                  18
                  18
                  18
                  18
                  18
                  18
                  18
                  18
                  18
                  18
                  18
                  18
                  18
                  18
                  18
                  18
                  18
                  18
                  18
                  18
                  18
                  18
                  18
                  18
                  18
                  18
                  18
                  18
                  18
                  18
                  18
                  18
                  18
                  18
                  18
                  18
                  18
                  18
                  18
                  18
                  18
                  18
                  18
                  18
                  18
                  18
                  18
                  18
                  18
                  18
                  18
                  18
                  18
                  18
                  18
                  18
                  18
                  18
                  18
                  18
                  18
                  18
                  18
                  18
                  18
                  18
                  18
                  18
                  18
                  18
                  18
                  18
                  18
                  18
                  18
                  18
                  18
                  18
                  18
                  18
                  18
                  18
                  18
                  18
                  18
                  18
                  18
                  18
                  18
                  18
                  18
                  18
                  18
                  18
                  18
                  18
                  18
                  18
                  18
                  18
                  18
                  18
                  18
                  18
                  18
                  18
                  18
                  18
                  18
                  18
                  18
                  18
                  18
                  18
                  18
                  18
                  18
                  18
                  18
                  18
                  18
                  18
                  18
                  18
                  18
                  18
                  18
                  18
                  18
                  18
                  18
                  18
                  18
                  18
                  18
  
SCALARS                 displacement_x  double 1
LOOKUP_TABLE default
        -0.11270E-03
        -0.16145E-03
        -0.15543E-03
        -0.10515E-03
        -0.11283E-04
        -0.10496E-02
        -0.68661E-03
        -0.54913E-03
        -0.16147E-03
        -0.13466E-03
         0.38931E-04
        -0.72645E-03
        -0.17133E-03
        -0.12838E-03
        -0.47781E-04
        -0.57736E-03
        -0.47895E-04
        -0.73415E-04
         0.75500E-05
        -0.49780E-03
        -0.18277E-03
        -0.19968E-03
        -0.16053E-03
        -0.10793E-03
        -0.92572E-03
        -0.72459E-03
        -0.14820E-03
        -0.19788E-03
        -0.71872E-04
        -0.97142E-03
        -0.80204E-05
        -0.16839E-04
        -0.43074E-04
         0.32677E-05
        -0.70120E-04
        -0.18534E-03
         0.61786E-05
        -0.36525E-04
         0.11925E-05
        -0.13802E-04
        -0.40569E-04
        -0.91968E-04
        -0.52536E-04
         0.74216E-06
        -0.20442E-04
        -0.32852E-06
        -0.16275E-04
        -0.34725E-04
        -0.72618E-04
         0.16396E-04
        -0.12348E-04
        -0.27025E-04
        -0.11142E-03
        -0.95781E-04
        -0.13531E-03
        -0.14819E-03
        -0.19877E-03
        -0.12510E-03
        -0.84112E-05
        -0.83867E-03
        -0.24720E-04
        -0.34056E-04
        -0.23949E-04
        -0.35013E-03
        -0.24663E-04
        -0.33048E-04
        -0.53500E-04
        -0.16350E-04
        -0.14431E-03
        -0.13831E-03
        -0.19534E-04
        -0.72798E-03
        -0.13277E-03
        -0.33704E-04
        -0.17043E-03
        -0.74374E-04
        -0.20730E-03
        -0.12872E-03
        -0.28342E-03
        -0.25956E-03
        -0.35206E-03
        -0.28470E-03
        -0.35543E-03
        -0.79682E-03
        -0.18076E-03
        -0.84692E-04
        -0.92198E-05
         0.32380E-04
        -0.82609E-05
         0.10003E-03
        -0.21660E-05
        -0.24877E-04
         0.75283E-04
        -0.73202E-03
        -0.34961E-05
         0.40687E-04
         0.93310E-05
         0.52943E-04
        -0.22883E-05
         0.11288E-03
        -0.16625E-04
        -0.78738E-04
         0.14879E-03
        -0.75717E-03
        -0.11783E-03
        -0.22801E-03
         0.13363E-03
        -0.14122E-02
        -0.59018E-04
         0.12884E-04
        -0.30283E-04
         0.78863E-05
        -0.58070E-04
        -0.24553E-04
        -0.13369E-03
        -0.21471E-03
        -0.19718E-03
        -0.34512E-03
        -0.23655E-03
        -0.25543E-03
        -0.32030E-03
        -0.31727E-03
        -0.45093E-03
        -0.45485E-03
        -0.52495E-03
        -0.62127E-03
        -0.42471E-03
        -0.34424E-03
        -0.30291E-03
        -0.88159E-04
        -0.23577E-03
        -0.26236E-04
        -0.15457E-03
         0.13167E-03
        -0.63224E-04
         0.27509E-03
         0.23613E-04
         0.34404E-03
         0.76835E-04
         0.54876E-03
         0.72801E-04
         0.66078E-03
         0.69671E-04
         0.58661E-03
         0.92121E-04
         0.58928E-03
         0.98484E-04
         0.73281E-03
         0.74832E-04
         0.71866E-03
         0.49384E-04
         0.68972E-03
        -0.22542E-04
         0.34689E-03
        -0.11886E-03
         0.17100E-03
         0.85845E-04
         0.10172E-03
         0.12355E-03
         0.10579E-03
         0.18726E-03
         0.18323E-03
         0.10744E-03
         0.10521E-03
         0.96580E-04
         0.10931E-03
         0.11074E-03
         0.10064E-03
         0.11320E-03
         0.10811E-03
         0.83963E-04
         0.11628E-03
         0.11281E-03
         0.90746E-04
         0.12869E-03
         0.10805E-03
         0.10989E-03
         0.78912E-04
         0.13311E-03
         0.13641E-03
         0.10263E-03
         0.13808E-03
         0.96775E-04
         0.79789E-04
         0.60701E-04
         0.85002E-04
         0.12470E-03
         0.14980E-03
         0.12609E-03
         0.16449E-03
         0.22032E-03
         0.17688E-03
         0.13559E-03
         0.56690E-04
         0.33213E-04
         0.15685E-04
        -0.25221E-05
         0.26994E-04
         0.51443E-04
         0.15613E-03
         0.18558E-03
         0.21029E-03
         0.18044E-03
         0.16110E-03
         0.17890E-03
         0.23125E-03
         0.27803E-03
         0.22982E-03
         0.33108E-03
         0.29530E-03
         0.27801E-03
         0.17872E-03
         0.10322E-03
         0.57459E-04
         0.20243E-04
        -0.15331E-04
        -0.51637E-04
        -0.87647E-04
        -0.95558E-04
        -0.59389E-04
        -0.52524E-05
         0.38863E-04
         0.83683E-04
         0.13771E-03
         0.20398E-03
         0.26521E-03
         0.27385E-03
         0.22786E-03
         0.20248E-03
         0.24974E-03
         0.34134E-03
         0.38330E-03
         0.32045E-03
         0.26643E-03
         0.12052E-03
         0.13951E-03
         0.14915E-03
         0.11919E-03
         0.19146E-03
         0.16434E-03
         0.15487E-03
         0.14325E-03
         0.11416E-03
         0.12903E-03
         0.16206E-03
         0.15510E-03
         0.15292E-03
         0.15190E-03
         0.14553E-03
         0.12229E-03
         0.11617E-03
         0.10700E-03
         0.13313E-03
         0.12037E-03
         0.15761E-03
         0.14260E-03
         0.17252E-03
         0.14966E-03
         0.12444E-03
         0.14828E-03
         0.13765E-03
         0.14038E-03
         0.14928E-03
         0.12679E-03
         0.12640E-03
         0.15341E-03
         0.12400E-03
         0.14673E-03
         0.22991E-03
         0.19483E-03
         0.15997E-03
         0.13535E-03
         0.14693E-03
         0.16761E-03
         0.17574E-03
         0.15755E-03
         0.14164E-03
         0.18030E-03
         0.19226E-03
         0.20300E-03
         0.17026E-03
         0.14621E-03
         0.15596E-03
         0.18866E-03
         0.21178E-03
         0.18175E-03
         0.31579E-03
         0.26487E-03
         0.27088E-03
         0.18569E-03
         0.13660E-03
         0.12379E-03
         0.12534E-03
         0.13171E-03
         0.15326E-03
         0.18388E-03
         0.19097E-03
         0.17790E-03
         0.19693E-03
         0.22712E-03
         0.23944E-03
         0.23706E-03
         0.24016E-03
         0.25628E-03
         0.25319E-03
         0.20771E-03
         0.17425E-03
         0.19893E-03
         0.25320E-03
         0.26726E-03
         0.22836E-03
         0.21462E-03
         0.43743E-04
         0.43683E-04
         0.34218E-04
         0.28742E-04
         0.15531E-04
        -0.11447E-04
         0.53030E-04
         0.50689E-04
         0.41614E-04
         0.46464E-04
         0.59329E-04
         0.63666E-04
         0.51086E-04
         0.56753E-04
         0.67617E-04
         0.43151E-04
         0.41659E-04
         0.36707E-04
         0.50679E-04
         0.49835E-04
         0.75626E-04
         0.77447E-04
         0.71422E-04
         0.56961E-04
         0.50337E-04
         0.49468E-04
         0.55973E-04
         0.67670E-04
         0.84820E-04
         0.62235E-04
         0.30889E-04
         0.33920E-04
         0.20878E-04
        -0.11003E-05
         0.23908E-04
         0.31270E-04
         0.38484E-04
         0.72550E-04
         0.90358E-04
         0.11264E-03
         0.12479E-03
         0.10405E-03
         0.86027E-04
         0.55104E-04
         0.32120E-04
         0.10471E-04
         0.83158E-05
         0.21310E-05
        -0.14327E-04
        -0.45342E-04
        -0.80861E-04
        -0.49920E-04
         0.11502E-04
        -0.12052E-04
         0.16253E-04
         0.28277E-04
         0.46383E-04
         0.69225E-04
         0.90714E-04
         0.10666E-03
         0.13392E-03
         0.16247E-03
         0.15838E-03
         0.13576E-03
         0.13779E-03
         0.14959E-03
         0.13816E-03
         0.10192E-03
         0.56851E-04
         0.14481E-04
        -0.14639E-04
        -0.29356E-04
        -0.45078E-04
        -0.81043E-04
        -0.13723E-03
        -0.17029E-03
        -0.14366E-03
        -0.75642E-04
         0.12011E-06
        -0.10759E-05
        -0.85817E-05
        -0.71628E-05
        -0.25656E-04
        -0.38312E-04
         0.55664E-05
         0.46231E-05
         0.26231E-05
         0.67811E-05
         0.11911E-04
         0.19382E-04
         0.82851E-05
         0.12222E-04
         0.25109E-04
         0.76177E-05
         0.76649E-05
         0.17221E-05
         0.13681E-04
         0.18233E-04
         0.30954E-04
         0.39107E-04
         0.24145E-04
         0.15884E-04
         0.16607E-04
         0.99921E-05
         0.16817E-04
         0.31039E-04
         0.50155E-04
         0.32117E-04
        -0.11852E-05
        -0.31105E-05
        -0.87386E-05
        -0.27764E-04
        -0.26262E-04
        -0.15748E-04
        -0.40119E-05
         0.32939E-04
         0.49883E-04
         0.70629E-04
         0.83462E-04
         0.68971E-04
         0.52317E-04
         0.93270E-05
        -0.11535E-04
        -0.30292E-04
        -0.25362E-04
        -0.24737E-04
        -0.36998E-04
        -0.62969E-04
        -0.90714E-04
        -0.65690E-04
        -0.47611E-04
        -0.55327E-04
        -0.36056E-04
        -0.12406E-04
         0.10581E-04
         0.32301E-04
         0.49477E-04
         0.60162E-04
         0.80419E-04
         0.10351E-03
         0.10714E-03
         0.90641E-04
         0.84132E-04
         0.84190E-04
         0.69057E-04
         0.37813E-04
        -0.48668E-06
        -0.37812E-04
        -0.58924E-04
        -0.59751E-04
        -0.62947E-04
        -0.89710E-04
        -0.13527E-03
        -0.16011E-03
        -0.13686E-03
        -0.89490E-04
        -0.33466E-05
        -0.27121E-05
        -0.42525E-05
        -0.35356E-05
        -0.72544E-05
        -0.91553E-05
         0.11611E-06
        -0.85520E-06
        -0.19444E-05
         0.93084E-06
         0.32671E-05
         0.68424E-05
         0.20927E-05
         0.38061E-05
         0.10270E-04
         0.24319E-05
         0.19460E-05
        -0.92277E-06
         0.56487E-05
         0.90927E-05
         0.14733E-04
         0.21343E-04
         0.11080E-04
         0.71107E-05
         0.80856E-05
         0.49503E-05
         0.77756E-05
         0.18142E-04
         0.32225E-04
         0.19079E-04
         0.80639E-06
         0.37601E-06
        -0.14772E-05
        -0.56924E-05
        -0.73695E-05
        -0.54211E-05
        -0.24590E-05
         0.17232E-04
         0.30918E-04
         0.47301E-04
         0.58173E-04
         0.46690E-04
         0.32726E-04
         0.48504E-05
        -0.33134E-05
        -0.10161E-04
        -0.73844E-05
        -0.59409E-05
        -0.77636E-05
        -0.12512E-04
        -0.18046E-04
        -0.13535E-04
        -0.11687E-04
        -0.14428E-04
        -0.10779E-04
        -0.57449E-05
         0.27232E-05
         0.12085E-04
         0.20318E-04
         0.29861E-04
         0.49405E-04
         0.71109E-04
         0.78909E-04
         0.65298E-04
         0.53119E-04
         0.45833E-04
         0.33631E-04
         0.16281E-04
        -0.15045E-05
        -0.15916E-04
        -0.21857E-04
        -0.19722E-04
        -0.17899E-04
        -0.21596E-04
        -0.28666E-04
        -0.32536E-04
        -0.29243E-04
        -0.21516E-04
        -0.58495E-06
        -0.16098E-06
         0.95615E-08
         0.37375E-06
         0.24326E-06
         0.10132E-05
         0.43708E-06
         0.14462E-06
        -0.54598E-06
         0.70660E-06
         0.12208E-05
         0.14604E-05
         0.46397E-07
         0.17558E-05
         0.33281E-05
         0.13234E-05
         0.90422E-06
         0.35211E-06
         0.22862E-05
         0.41454E-05
         0.52487E-05
         0.95687E-05
         0.32494E-05
         0.27706E-05
         0.39544E-05
         0.24280E-05
         0.39424E-05
         0.93101E-05
         0.17095E-04
         0.95710E-05
         0.17748E-05
         0.14065E-05
         0.17067E-05
         0.21142E-05
         0.19444E-06
        -0.44888E-06
        -0.88884E-06
         0.79166E-05
         0.16236E-04
         0.26171E-04
         0.33543E-04
         0.26275E-04
         0.17150E-04
         0.12858E-05
        -0.90359E-06
        -0.26957E-05
        -0.76497E-06
         0.74242E-06
         0.18374E-05
         0.28574E-05
         0.33836E-05
         0.25512E-05
         0.17139E-06
        -0.12089E-05
        -0.29399E-05
        -0.50005E-05
        -0.27206E-05
         0.61488E-06
         0.41256E-05
         0.11558E-04
         0.26117E-04
         0.41884E-04
         0.49061E-04
         0.40798E-04
         0.28793E-04
         0.19352E-04
         0.10251E-04
         0.15628E-05
        -0.49354E-05
        -0.81851E-05
        -0.78408E-05
        -0.52275E-05
        -0.23377E-05
         0.59075E-07
         0.23551E-05
         0.37212E-05
         0.22767E-05
        -0.72181E-06
         0.30083E-06
         0.32205E-06
         0.42208E-06
         0.76659E-06
         0.15493E-07
         0.51886E-06
         0.34753E-06
         0.51259E-06
         0.99628E-07
         0.67712E-06
         0.39945E-06
        -0.58406E-06
        -0.10464E-05
         0.94162E-06
         0.50517E-06
         0.81468E-06
         0.58049E-06
         0.54920E-06
         0.90190E-06
         0.18304E-05
         0.99312E-06
         0.35600E-05
        -0.29077E-06
         0.80533E-06
         0.19481E-05
         0.90307E-06
         0.20411E-05
         0.44453E-05
         0.82834E-05
         0.44792E-05
         0.98686E-06
         0.39195E-06
         0.10924E-05
         0.13483E-05
        -0.24749E-06
        -0.60846E-06
        -0.11976E-05
         0.29802E-05
         0.73202E-05
         0.12773E-04
         0.17254E-04
         0.13311E-04
         0.79998E-05
        -0.10797E-05
        -0.19634E-05
        -0.29549E-05
        -0.12787E-05
        -0.18779E-06
         0.47189E-06
         0.10463E-05
         0.12498E-05
         0.11957E-05
        -0.10851E-05
        -0.21292E-05
        -0.38468E-05
        -0.61008E-05
        -0.52123E-05
        -0.37017E-05
        -0.22188E-05
         0.18546E-05
         0.10415E-04
         0.20534E-04
         0.26520E-04
         0.21836E-04
         0.12831E-04
         0.56242E-05
        -0.35899E-06
        -0.48921E-05
        -0.76535E-05
        -0.84043E-05
        -0.72439E-05
        -0.53674E-05
        -0.36290E-05
        -0.22615E-05
        -0.77323E-06
         0.48230E-06
         0.58168E-07
        -0.18046E-05
         0.46484E-06
         0.39829E-06
         0.34140E-06
         0.61025E-06
        -0.52617E-06
        -0.40508E-06
         0.35138E-06
         0.63733E-06
         0.28327E-06
         0.66015E-06
         0.21992E-06
        -0.11551E-05
        -0.12529E-05
         0.69550E-06
        -0.60998E-06
         0.69415E-06
         0.49796E-06
         0.51216E-06
         0.57719E-06
         0.96419E-06
        -0.21558E-06
         0.11372E-05
        -0.10070E-05
         0.35972E-06
         0.11034E-05
         0.51891E-06
         0.12230E-05
         0.22463E-05
         0.41134E-05
         0.21845E-05
         0.64231E-06
         0.10327E-06
         0.57757E-06
         0.38525E-06
        -0.79463E-06
        -0.80911E-06
        -0.12147E-05
         0.59797E-06
         0.30081E-05
         0.62754E-05
         0.89394E-05
         0.66303E-05
         0.35353E-05
        -0.14372E-05
        -0.20076E-05
        -0.28348E-05
        -0.14583E-05
        -0.80705E-06
        -0.75676E-06
        -0.87073E-06
        -0.12079E-05
        -0.56185E-06
        -0.21437E-05
        -0.32132E-05
        -0.41953E-05
        -0.60215E-05
        -0.57055E-05
        -0.50912E-05
        -0.49492E-05
        -0.32931E-05
         0.21945E-05
         0.97309E-05
         0.14293E-04
         0.10720E-04
         0.44554E-05
         0.45992E-07
        -0.33292E-05
        -0.56874E-05
        -0.71770E-05
        -0.75314E-05
        -0.66478E-05
        -0.53977E-05
        -0.46778E-05
        -0.46283E-05
        -0.42158E-05
        -0.33040E-05
        -0.29823E-05
        -0.35707E-05
         0.50520E-06
         0.42389E-06
         0.34951E-06
         0.61441E-06
        -0.57672E-06
        -0.46344E-06
         0.39109E-06
         0.73054E-06
         0.33396E-06
         0.69246E-06
         0.21658E-06
        -0.13786E-05
        -0.13521E-05
         0.68748E-06
        -0.10269E-05
         0.65617E-06
         0.47399E-06
         0.49798E-06
         0.41553E-06
         0.61867E-06
        -0.10350E-05
        -0.42936E-07
        -0.17030E-05
         0.84354E-07
         0.80747E-06
         0.34517E-06
         0.98319E-06
         0.14446E-05
         0.25216E-05
         0.12991E-05
         0.61595E-06
         0.26109E-07
         0.57695E-06
         0.39812E-06
        -0.84085E-06
        -0.83590E-06
        -0.12617E-05
        -0.27148E-06
         0.14098E-05
         0.38252E-05
         0.57836E-05
         0.40505E-05
         0.17015E-05
        -0.19028E-05
        -0.22499E-05
        -0.29523E-05
        -0.14274E-05
        -0.71573E-06
        -0.68134E-06
        -0.81823E-06
        -0.11852E-05
        -0.58593E-06
        -0.22720E-05
        -0.33962E-05
        -0.43759E-05
        -0.62712E-05
        -0.61069E-05
        -0.58561E-05
        -0.62456E-05
        -0.53005E-05
        -0.82515E-06
         0.57575E-05
         0.97530E-05
         0.65794E-05
         0.85721E-06
        -0.31133E-05
        -0.57812E-05
        -0.73526E-05
        -0.81169E-05
        -0.80520E-05
        -0.69334E-05
        -0.53274E-05
        -0.44420E-05
        -0.44684E-05
        -0.41255E-05
        -0.32692E-05
        -0.30920E-05
        -0.38101E-05
         0.51915E-06
         0.39786E-06
         0.37293E-06
         0.71183E-06
        -0.48511E-06
        -0.15077E-06
         0.35640E-06
         0.79662E-06
         0.33312E-06
         0.74025E-06
         0.15591E-06
        -0.17605E-05
        -0.17409E-05
         0.73212E-06
        -0.12775E-05
         0.61100E-06
         0.43694E-06
         0.51088E-06
         0.24434E-06
         0.45648E-06
        -0.16439E-05
        -0.51766E-06
        -0.25146E-05
        -0.24464E-06
         0.72364E-06
         0.97498E-07
         0.99371E-06
         0.12513E-05
         0.21156E-05
         0.10424E-05
         0.60387E-06
        -0.26161E-06
         0.72233E-06
         0.76348E-06
        -0.82717E-06
        -0.95364E-06
        -0.15607E-05
        -0.54829E-06
         0.92547E-06
         0.31486E-05
         0.51271E-05
         0.35881E-05
         0.12954E-05
        -0.27628E-05
        -0.31861E-05
        -0.40813E-05
        -0.20297E-05
        -0.86342E-06
        -0.46571E-06
        -0.22985E-06
        -0.29546E-06
         0.89515E-07
        -0.22759E-05
        -0.33761E-05
        -0.48917E-05
        -0.73269E-05
        -0.73870E-05
        -0.71443E-05
        -0.72900E-05
        -0.62856E-05
        -0.20381E-05
         0.44582E-05
         0.90232E-05
         0.64198E-05
         0.35398E-06
        -0.43786E-05
        -0.75493E-05
        -0.94623E-05
        -0.10380E-04
        -0.10433E-04
        -0.91981E-05
        -0.68953E-05
        -0.51528E-05
        -0.44271E-05
        -0.33262E-05
        -0.19022E-05
        -0.19081E-05
        -0.33593E-05
         0.49873E-06
         0.34829E-06
         0.32180E-06
         0.71663E-06
        -0.51453E-06
        -0.51708E-07
         0.32907E-06
         0.81947E-06
         0.29672E-06
         0.74823E-06
         0.14556E-06
        -0.19096E-05
        -0.19554E-05
         0.77758E-06
        -0.13333E-05
         0.57156E-06
         0.39581E-06
         0.48641E-06
         0.20554E-06
         0.46599E-06
        -0.16337E-05
        -0.32465E-06
        -0.25759E-05
        -0.29284E-06
         0.72017E-06
         0.34892E-07
         0.10201E-05
         0.12339E-05
         0.21704E-05
         0.11264E-05
         0.54830E-06
        -0.42126E-06
         0.73283E-06
         0.87097E-06
        -0.89699E-06
        -0.10722E-05
        -0.17532E-05
        -0.64433E-06
         0.71987E-06
         0.29680E-05
         0.52036E-05
         0.39578E-05
         0.17017E-05
        -0.29167E-05
        -0.35282E-05
        -0.46899E-05
        -0.25181E-05
        -0.11851E-05
        -0.58273E-06
        -0.10791E-06
         0.11603E-07
         0.34470E-06
        -0.23039E-05
        -0.34077E-05
        -0.50872E-05
        -0.78800E-05
        -0.81014E-05
        -0.77520E-05
        -0.77054E-05
        -0.67599E-05
        -0.27610E-05
         0.36940E-05
         0.90387E-05
         0.75061E-05
         0.15706E-05
        -0.38183E-05
        -0.74507E-05
        -0.95844E-05
        -0.10753E-04
        -0.11187E-04
        -0.10372E-04
        -0.82040E-05
        -0.62608E-05
        -0.50490E-05
        -0.33078E-05
        -0.14036E-05
        -0.13895E-05
        -0.31280E-05
         0.50839E-06
         0.38901E-06
         0.31960E-06
         0.71164E-06
        -0.57411E-06
        -0.96733E-07
         0.41379E-06
         0.83848E-06
         0.28076E-06
         0.73592E-06
         0.26836E-06
        -0.16396E-05
        -0.17319E-05
         0.83377E-06
        -0.11860E-05
         0.56936E-06
         0.37872E-06
         0.47537E-06
         0.21681E-06
         0.45219E-06
        -0.16089E-05
        -0.38510E-06
        -0.24988E-05
        -0.25175E-06
         0.69555E-06
         0.63678E-07
         0.10251E-05
         0.11592E-05
         0.18499E-05
         0.10184E-05
         0.49434E-06
        -0.45941E-06
         0.67437E-06
         0.82578E-06
        -0.96186E-06
        -0.10815E-05
        -0.16672E-05
        -0.58441E-06
         0.59574E-06
         0.23752E-05
         0.39714E-05
         0.30768E-05
         0.13293E-05
        -0.28367E-05
        -0.35323E-05
        -0.48523E-05
        -0.27667E-05
        -0.14919E-05
        -0.84176E-06
        -0.25089E-06
        -0.77579E-07
         0.28956E-06
        -0.24095E-05
        -0.35279E-05
        -0.51305E-05
        -0.77728E-05
        -0.75854E-05
        -0.71125E-05
        -0.74067E-05
        -0.65547E-05
        -0.28217E-05
         0.25302E-05
         0.63809E-05
         0.51658E-05
         0.64730E-06
        -0.39793E-05
        -0.74447E-05
        -0.94464E-05
        -0.10563E-04
        -0.11150E-04
        -0.10687E-04
        -0.89181E-05
        -0.72071E-05
        -0.58152E-05
        -0.36290E-05
        -0.15260E-05
        -0.14811E-05
        -0.31935E-05
         0.55819E-06
         0.50764E-06
         0.43159E-06
         0.77354E-06
        -0.41620E-06
         0.17225E-08
         0.55064E-06
         0.86262E-06
         0.29196E-06
         0.70059E-06
         0.39610E-06
        -0.13217E-05
        -0.13543E-05
         0.83644E-06
        -0.11168E-05
         0.56779E-06
         0.34645E-06
         0.50622E-06
         0.13024E-06
         0.23981E-06
        -0.19313E-05
        -0.12149E-05
        -0.26310E-05
        -0.32103E-06
         0.56710E-06
         0.59375E-07
         0.93101E-06
         0.88003E-06
         0.10070E-05
         0.51599E-06
         0.52681E-06
        -0.38105E-06
         0.70795E-06
         0.88835E-06
        -0.70278E-06
        -0.83436E-06
        -0.13651E-05
        -0.73772E-06
         0.12365E-06
         0.11512E-05
         0.16114E-05
         0.90947E-06
        -0.27630E-06
        -0.27920E-05
        -0.33266E-05
        -0.45640E-05
        -0.26088E-05
        -0.14456E-05
        -0.82473E-06
        -0.19951E-06
        -0.89868E-08
         0.37070E-06
        -0.19543E-05
        -0.33018E-05
        -0.46107E-05
        -0.70600E-05
        -0.66281E-05
        -0.62709E-05
        -0.71056E-05
        -0.68290E-05
        -0.36678E-05
         0.25154E-06
         0.19572E-05
        -0.15450E-06
        -0.35943E-05
        -0.60848E-05
        -0.82562E-05
        -0.97004E-05
        -0.10326E-04
        -0.10587E-04
        -0.10160E-04
        -0.86457E-05
        -0.71879E-05
        -0.58432E-05
        -0.35543E-05
        -0.14798E-05
        -0.14582E-05
        -0.31341E-05
         0.54088E-06
         0.53579E-06
         0.53985E-06
         0.82451E-06
        -0.94247E-07
         0.22126E-06
         0.55434E-06
         0.79962E-06
         0.28723E-06
         0.62444E-06
         0.37103E-06
        -0.12131E-05
        -0.11463E-05
         0.71357E-06
        -0.12145E-05
         0.59735E-06
         0.31507E-06
         0.55153E-06
         0.94541E-07
         0.79697E-07
        -0.20010E-05
        -0.16937E-05
        -0.24281E-05
        -0.25819E-06
         0.43060E-06
         0.19691E-06
         0.71823E-06
         0.53816E-06
         0.38794E-06
         0.15341E-06
         0.67880E-06
        -0.95421E-07
         0.82701E-06
         0.99781E-06
        -0.23145E-06
        -0.47048E-06
        -0.10774E-05
        -0.11590E-05
        -0.63713E-06
         0.65789E-07
         0.21175E-06
        -0.24677E-06
        -0.11827E-05
        -0.23479E-05
        -0.26915E-05
        -0.38247E-05
        -0.21324E-05
        -0.11517E-05
        -0.64537E-06
        -0.11863E-06
         0.20267E-07
         0.50329E-06
        -0.10737E-05
        -0.26311E-05
        -0.35961E-05
        -0.60604E-05
        -0.58931E-05
        -0.58082E-05
        -0.69560E-05
        -0.75820E-05
        -0.54247E-05
        -0.20973E-05
        -0.35639E-06
        -0.23334E-05
        -0.56519E-05
        -0.71004E-05
        -0.82453E-05
        -0.90469E-05
        -0.91023E-05
        -0.91049E-05
        -0.89220E-05
        -0.78308E-05
        -0.66833E-05
        -0.55981E-05
        -0.36347E-05
        -0.16691E-05
        -0.13410E-05
        -0.26849E-05
         0.51868E-06
         0.48322E-06
         0.52779E-06
         0.82786E-06
        -0.34494E-07
         0.26314E-06
         0.46671E-06
         0.75095E-06
         0.32513E-06
         0.63934E-06
         0.26080E-06
        -0.13451E-05
        -0.12210E-05
         0.61708E-06
        -0.13721E-05
         0.69886E-06
         0.39710E-06
         0.60555E-06
         0.30567E-06
         0.28831E-06
        -0.13771E-05
        -0.10017E-05
        -0.18639E-05
         0.28859E-07
         0.52845E-06
         0.41034E-06
         0.66447E-06
         0.65336E-06
         0.95786E-06
         0.48623E-06
         0.80219E-06
         0.85396E-07
         0.91414E-06
         0.10423E-05
        -0.13735E-06
        -0.39237E-06
        -0.10500E-05
        -0.13291E-05
        -0.56200E-06
         0.89817E-06
         0.20703E-05
         0.12954E-05
        -0.17306E-06
        -0.19484E-05
        -0.24342E-05
        -0.36327E-05
        -0.19596E-05
        -0.99851E-06
        -0.52958E-06
        -0.69646E-07
         0.83037E-08
         0.51650E-06
        -0.86364E-06
        -0.23997E-05
        -0.32243E-05
        -0.57412E-05
        -0.58885E-05
        -0.59676E-05
        -0.71501E-05
        -0.79510E-05
        -0.55116E-05
        -0.49538E-06
         0.34978E-05
         0.16795E-05
        -0.30935E-05
        -0.52095E-05
        -0.65665E-05
        -0.77778E-05
        -0.83897E-05
        -0.88207E-05
        -0.87551E-05
        -0.76204E-05
        -0.64351E-05
        -0.54269E-05
        -0.36490E-05
        -0.17789E-05
        -0.13166E-05
        -0.24616E-05
         0.57781E-06
         0.55198E-06
         0.55271E-06
         0.84106E-06
        -0.10411E-06
         0.18733E-06
         0.55175E-06
         0.83910E-06
         0.37775E-06
         0.72632E-06
         0.35831E-06
        -0.12384E-05
        -0.11161E-05
         0.72717E-06
        -0.12604E-05
         0.70380E-06
         0.46327E-06
         0.61344E-06
         0.36917E-06
         0.43238E-06
        -0.12178E-05
        -0.54101E-06
        -0.19491E-05
         0.87785E-08
         0.63834E-06
         0.33477E-06
         0.77877E-06
         0.83368E-06
         0.14398E-05
         0.76021E-06
         0.75437E-06
        -0.30689E-07
         0.88953E-06
         0.10129E-05
        -0.21182E-06
        -0.37921E-06
        -0.96383E-06
        -0.11871E-05
        -0.27009E-06
         0.16852E-05
         0.36048E-05
         0.25468E-05
         0.67988E-06
        -0.22085E-05
        -0.27277E-05
        -0.38392E-05
        -0.20075E-05
        -0.94723E-06
        -0.47704E-06
        -0.70978E-07
        -0.31149E-07
         0.44529E-06
        -0.10616E-05
        -0.26039E-05
        -0.32721E-05
        -0.56311E-05
        -0.57289E-05
        -0.57971E-05
        -0.70184E-05
        -0.77836E-05
        -0.50341E-05
         0.11200E-05
         0.67329E-05
         0.50580E-05
        -0.61176E-06
        -0.39667E-05
        -0.62513E-05
        -0.80838E-05
        -0.91511E-05
        -0.95691E-05
        -0.90202E-05
        -0.74338E-05
        -0.59925E-05
        -0.50789E-05
        -0.35576E-05
        -0.17818E-05
        -0.14510E-05
        -0.26739E-05
         0.64149E-06
         0.75045E-06
         0.73825E-06
         0.88933E-06
         0.62330E-07
         0.24393E-06
         0.75976E-06
         0.90592E-06
         0.33347E-06
         0.67619E-06
         0.58872E-06
        -0.76957E-06
        -0.64599E-06
         0.84925E-06
        -0.88064E-06
         0.51687E-06
         0.33503E-06
         0.54260E-06
         0.32595E-07
         0.15647E-06
        -0.19879E-05
        -0.11781E-05
        -0.28042E-05
        -0.47820E-06
         0.45231E-06
        -0.33791E-07
         0.72757E-06
         0.45657E-06
         0.56972E-06
         0.33300E-06
         0.59608E-06
        -0.26350E-06
         0.80330E-06
         0.98419E-06
         0.38972E-07
        -0.64655E-07
        -0.55285E-06
        -0.11160E-05
        -0.95466E-06
         0.44283E-07
         0.12538E-05
         0.98486E-06
        -0.18221E-06
        -0.28341E-05
        -0.30228E-05
        -0.38701E-05
        -0.20180E-05
        -0.93418E-06
        -0.46414E-06
        -0.90344E-07
        -0.72309E-07
         0.42548E-06
        -0.79957E-06
        -0.24701E-05
        -0.28173E-05
        -0.48589E-05
        -0.46876E-05
        -0.46996E-05
        -0.59538E-05
        -0.72025E-05
        -0.62529E-05
        -0.24129E-05
         0.23593E-05
         0.20868E-05
        -0.20407E-05
        -0.53211E-05
        -0.80684E-05
        -0.98059E-05
        -0.10170E-04
        -0.97828E-05
        -0.87446E-05
        -0.70368E-05
        -0.55662E-05
        -0.47573E-05
        -0.34811E-05
        -0.18494E-05
        -0.15793E-05
        -0.27338E-05
         0.61642E-06
         0.85653E-06
         0.90004E-06
         0.89907E-06
         0.36798E-06
         0.38864E-06
         0.82986E-06
         0.84915E-06
         0.25452E-06
         0.55381E-06
         0.64893E-06
        -0.49637E-06
        -0.26798E-06
         0.81964E-06
        -0.64617E-06
         0.37583E-06
         0.20159E-06
         0.47818E-06
        -0.24846E-06
        -0.13061E-06
        -0.26805E-05
        -0.19588E-05
        -0.33399E-05
        -0.81884E-06
         0.22833E-06
        -0.26073E-06
         0.59340E-06
         0.60061E-07
        -0.36019E-06
        -0.14989E-06
         0.55906E-06
        -0.32242E-06
         0.81442E-06
         0.10385E-05
         0.48233E-06
         0.35150E-06
        -0.11668E-06
        -0.10175E-05
        -0.14721E-05
        -0.15129E-05
        -0.13217E-05
        -0.88484E-06
        -0.12970E-05
        -0.31096E-05
        -0.30261E-05
        -0.36642E-05
        -0.18435E-05
        -0.77115E-06
        -0.27342E-06
         0.13262E-06
         0.13694E-06
         0.52953E-06
        -0.11539E-06
        -0.18472E-05
        -0.19339E-05
        -0.37013E-05
        -0.35837E-05
        -0.38807E-05
        -0.50597E-05
        -0.62773E-05
        -0.67245E-05
        -0.54163E-05
        -0.26079E-05
        -0.20699E-05
        -0.45011E-05
        -0.73120E-05
        -0.96829E-05
        -0.10635E-04
        -0.10252E-04
        -0.94101E-05
        -0.82428E-05
        -0.65522E-05
        -0.51440E-05
        -0.42470E-05
        -0.28659E-05
        -0.14714E-05
        -0.14552E-05
        -0.24351E-05
         0.78701E-06
         0.10845E-05
         0.13310E-05
         0.12288E-05
         0.12017E-05
         0.11708E-05
         0.94232E-06
         0.97390E-06
         0.33880E-06
         0.60265E-06
         0.62173E-06
        -0.83516E-06
        -0.38932E-06
         0.80993E-06
        -0.10149E-05
         0.50846E-06
         0.24283E-06
         0.64249E-06
        -0.66079E-07
        -0.57897E-07
        -0.22038E-05
        -0.16543E-05
        -0.27276E-05
        -0.51330E-06
         0.18698E-06
         0.38592E-07
         0.53597E-06
        -0.11805E-06
        -0.66399E-06
        -0.21509E-06
         0.98992E-06
         0.22637E-06
         0.13297E-05
         0.17913E-05
         0.14531E-05
         0.92470E-06
         0.46431E-07
        -0.13622E-05
        -0.19504E-05
        -0.22071E-05
        -0.20930E-05
        -0.11831E-05
        -0.11811E-05
        -0.25066E-05
        -0.22141E-05
        -0.24521E-05
        -0.69276E-06
         0.36102E-06
         0.96895E-06
         0.15805E-05
         0.17301E-05
         0.16408E-05
         0.14480E-05
        -0.38471E-06
        -0.11015E-05
        -0.37665E-05
        -0.42204E-05
        -0.49691E-05
        -0.62932E-05
        -0.72777E-05
        -0.78829E-05
        -0.69852E-05
        -0.40257E-05
        -0.22834E-05
        -0.38139E-05
        -0.64508E-05
        -0.83374E-05
        -0.90982E-05
        -0.89628E-05
        -0.79948E-05
        -0.63479E-05
        -0.43272E-05
        -0.28049E-05
        -0.17380E-05
        -0.19200E-06
         0.88195E-06
         0.15291E-06
        -0.12147E-05
         0.13991E-05
         0.18755E-05
         0.26469E-05
         0.23287E-05
         0.36209E-05
         0.37559E-05
         0.14997E-05
         0.15267E-05
         0.74553E-06
         0.97179E-06
         0.83541E-06
        -0.13683E-05
        -0.32672E-06
         0.96189E-06
        -0.20885E-05
         0.11245E-05
         0.61070E-06
         0.12688E-05
         0.78599E-06
         0.52152E-06
        -0.29518E-06
        -0.29722E-06
        -0.46214E-06
         0.79172E-06
         0.40719E-06
         0.13210E-05
         0.45761E-06
        -0.49751E-06
        -0.14327E-05
        -0.47770E-07
         0.23609E-05
         0.20205E-05
         0.29218E-05
         0.41783E-05
         0.42828E-05
         0.27805E-05
         0.82409E-06
        -0.29642E-05
        -0.40709E-05
        -0.48455E-05
        -0.52071E-05
        -0.25582E-05
        -0.89378E-06
        -0.22388E-06
         0.38768E-06
         0.79872E-06
         0.22570E-05
         0.32402E-05
         0.42697E-05
         0.56839E-05
         0.65706E-05
         0.53405E-05
         0.59525E-05
         0.35830E-05
         0.19581E-05
        -0.31551E-05
        -0.52251E-05
        -0.72085E-05
        -0.10051E-04
        -0.12398E-04
        -0.14023E-04
        -0.13967E-04
        -0.10611E-04
        -0.57445E-05
        -0.32091E-05
        -0.30787E-05
        -0.36750E-05
        -0.44322E-05
        -0.49463E-05
        -0.39924E-05
        -0.17212E-05
         0.63562E-06
         0.24603E-05
         0.41956E-05
         0.65459E-05
         0.77904E-05
         0.59384E-05
         0.30688E-05
         0.28419E-05
         0.36777E-05
         0.49779E-05
         0.40197E-05
         0.75045E-05
         0.72532E-05
         0.32008E-05
         0.30954E-05
         0.20178E-05
         0.23596E-05
         0.23072E-05
        -0.34600E-06
         0.12530E-05
         0.22571E-05
        -0.16341E-05
         0.27345E-05
         0.20729E-05
         0.25353E-05
         0.31281E-05
         0.27481E-05
         0.37513E-05
         0.36593E-05
         0.37800E-05
         0.37537E-05
         0.20025E-05
         0.39079E-05
         0.15325E-05
         0.78723E-06
         0.48930E-06
         0.22603E-05
         0.41148E-05
         0.43681E-05
         0.46528E-05
         0.65764E-05
         0.90004E-05
         0.63781E-05
         0.32343E-05
        -0.29787E-05
        -0.40169E-05
        -0.40930E-05
        -0.37550E-05
         0.64299E-07
         0.26815E-05
         0.34850E-05
         0.34316E-05
         0.35575E-05
         0.46106E-05
         0.52415E-05
         0.64050E-05
         0.85642E-05
         0.10354E-04
         0.90607E-05
         0.13338E-04
         0.10389E-04
         0.85158E-05
         0.68098E-06
        -0.38005E-05
        -0.70929E-05
        -0.11068E-04
        -0.14516E-04
        -0.16591E-04
        -0.15716E-04
        -0.10574E-04
        -0.34533E-05
         0.23137E-05
         0.44961E-05
         0.40302E-05
         0.21979E-05
        -0.19568E-06
        -0.69334E-06
         0.12664E-05
         0.32884E-05
         0.44976E-05
         0.60329E-05
         0.93544E-05
         0.12390E-04
         0.11884E-04
         0.95849E-05
         0.94121E-06
         0.15948E-05
         0.16861E-05
         0.41717E-06
         0.24704E-05
         0.69611E-06
         0.11497E-05
         0.86144E-06
         0.13917E-06
         0.16709E-06
         0.64065E-06
        -0.52937E-07
         0.11168E-05
         0.61924E-06
        -0.51314E-06
        -0.12777E-05
        -0.73930E-06
        -0.23646E-06
        -0.32856E-05
        -0.24419E-05
        -0.10129E-04
        -0.85351E-05
        -0.11741E-04
        -0.53561E-05
        -0.75354E-06
        -0.45705E-05
         0.24939E-06
        -0.62448E-06
        -0.17781E-05
        -0.21298E-05
        -0.32025E-05
        -0.64022E-05
        -0.25798E-05
        -0.26043E-05
         0.35397E-05
         0.30925E-05
         0.24424E-05
        -0.62469E-06
        -0.88760E-06
        -0.15392E-05
        -0.29099E-05
        -0.42998E-05
        -0.65079E-05
        -0.12280E-04
        -0.13841E-04
        -0.16650E-04
        -0.12157E-04
        -0.98145E-05
        -0.96723E-05
        -0.94031E-05
        -0.84620E-05
        -0.30777E-05
         0.60547E-05
         0.54101E-05
         0.60800E-05
         0.36663E-05
         0.31320E-06
        -0.20442E-05
        -0.40383E-05
        -0.47785E-05
        -0.37393E-05
        -0.28490E-05
        -0.45313E-05
        -0.10412E-04
        -0.18584E-04
        -0.25332E-04
        -0.28550E-04
        -0.29459E-04
        -0.30197E-04
        -0.30509E-04
        -0.28387E-04
        -0.24834E-04
        -0.23942E-04
        -0.25811E-04
        -0.24008E-04
        -0.15354E-04
        -0.48098E-05
         0.25663E-05
        -0.11408E-04
        -0.12268E-04
        -0.16152E-04
        -0.16162E-04
        -0.23225E-04
        -0.26935E-04
        -0.13362E-04
        -0.13759E-04
        -0.12062E-04
        -0.14157E-04
        -0.13246E-04
        -0.89366E-05
        -0.88112E-05
        -0.12800E-04
        -0.67256E-05
        -0.22261E-04
        -0.17473E-04
        -0.14393E-04
        -0.34824E-04
        -0.30199E-04
        -0.67529E-04
        -0.63346E-04
        -0.73252E-04
        -0.46582E-04
        -0.19218E-04
        -0.42470E-04
        -0.12229E-04
        -0.17164E-04
        -0.27933E-04
        -0.30831E-04
        -0.32048E-04
        -0.48199E-04
        -0.29279E-04
        -0.35003E-04
        -0.25154E-04
        -0.17853E-04
        -0.99308E-05
        -0.37108E-05
        -0.66484E-05
        -0.17767E-04
        -0.31237E-04
        -0.44776E-04
        -0.57024E-04
        -0.72258E-04
        -0.74434E-04
        -0.82000E-04
        -0.66942E-04
        -0.57129E-04
        -0.58284E-04
        -0.63271E-04
        -0.65261E-04
        -0.44504E-04
        -0.31877E-04
        -0.26368E-04
        -0.18948E-04
        -0.32965E-05
         0.18947E-06
         0.98581E-06
         0.38635E-05
         0.91708E-05
         0.11813E-04
        -0.16571E-06
        -0.29466E-04
        -0.68859E-04
        -0.11169E-03
        -0.13889E-03
        -0.14307E-03
        -0.13525E-03
        -0.12553E-03
        -0.11992E-03
        -0.11480E-03
        -0.10459E-03
        -0.10055E-03
        -0.10766E-03
        -0.10938E-03
        -0.91397E-04
        -0.59498E-04
        -0.32108E-04
  
SCALARS                 displacement_y  double 1
LOOKUP_TABLE default
        -0.34641E-05
         0.49794E-04
         0.99199E-04
         0.25973E-04
        -0.17219E-03
        -0.45059E-04
        -0.15275E-03
        -0.17555E-03
         0.33307E-03
         0.31297E-03
         0.43094E-04
         0.12962E-03
         0.73751E-04
         0.25363E-04
         0.22301E-04
         0.11444E-03
        -0.13676E-04
        -0.17734E-05
         0.53037E-04
        -0.94673E-05
         0.92824E-04
         0.16327E-03
         0.16879E-03
         0.20360E-03
         0.21151E-03
         0.17424E-03
         0.45439E-04
         0.83283E-04
         0.29526E-04
         0.53525E-04
        -0.14670E-04
        -0.70416E-05
        -0.16287E-04
        -0.10401E-04
        -0.63447E-04
         0.34864E-04
        -0.22571E-04
        -0.53333E-05
        -0.17974E-04
        -0.54545E-04
        -0.13773E-03
        -0.15919E-03
         0.10744E-03
         0.23617E-03
        -0.17202E-03
        -0.60245E-04
         0.36481E-05
        -0.17743E-04
        -0.57141E-05
        -0.37758E-04
        -0.44072E-04
         0.45502E-04
        -0.39609E-05
        -0.33315E-04
        -0.48513E-04
        -0.36598E-04
        -0.15010E-03
        -0.39538E-04
         0.73853E-04
         0.75562E-04
        -0.11048E-05
        -0.26634E-04
         0.22186E-04
         0.20917E-03
         0.19784E-04
        -0.19834E-03
         0.11050E-03
         0.18080E-04
         0.38101E-03
         0.23363E-03
         0.32430E-03
         0.14454E-03
         0.16456E-03
         0.97195E-04
        -0.22658E-04
        -0.56968E-04
        -0.15045E-03
        -0.11218E-03
        -0.35723E-03
         0.31627E-04
        -0.65140E-03
        -0.47857E-03
        -0.10213E-03
         0.65268E-04
        -0.28579E-03
         0.24640E-03
        -0.18264E-03
        -0.98927E-04
        -0.15427E-03
        -0.60924E-05
        -0.11378E-03
        -0.13989E-04
         0.21218E-03
         0.17669E-03
         0.46208E-04
        -0.81264E-04
         0.12126E-03
        -0.51411E-04
         0.24889E-03
         0.89142E-04
         0.42166E-03
         0.36550E-03
         0.40176E-03
         0.21909E-03
         0.70342E-03
         0.82876E-03
         0.14075E-02
         0.12830E-02
         0.47849E-03
         0.58920E-03
         0.34185E-03
         0.37036E-03
         0.33170E-03
         0.48504E-03
         0.30732E-03
         0.43316E-03
         0.18404E-03
         0.28816E-03
        -0.33116E-04
        -0.23050E-05
        -0.34917E-03
        -0.19570E-03
        -0.89741E-03
        -0.11900E-02
        -0.14496E-02
        -0.23991E-02
        -0.14855E-02
        -0.21583E-02
        -0.10859E-02
        -0.13611E-02
        -0.71427E-03
        -0.83883E-03
        -0.53619E-03
        -0.67306E-03
        -0.49479E-03
        -0.65882E-03
        -0.52735E-03
        -0.81857E-03
        -0.47543E-03
        -0.11192E-02
        -0.24951E-03
        -0.47311E-03
        -0.41612E-04
        -0.92248E-04
         0.12973E-03
         0.17607E-04
         0.33081E-03
         0.59400E-03
         0.53631E-03
         0.87769E-03
         0.75548E-03
         0.15978E-02
         0.88513E-03
         0.16263E-02
         0.89539E-03
         0.14546E-02
         0.81274E-05
         0.44874E-04
         0.73568E-04
         0.33678E-04
         0.17659E-03
         0.15375E-03
         0.54931E-04
         0.20840E-04
        -0.72176E-05
         0.51373E-05
         0.66531E-04
         0.11638E-03
         0.11700E-03
         0.37377E-04
         0.63859E-04
        -0.15809E-04
        -0.18297E-05
        -0.15591E-05
        -0.23018E-04
        -0.50072E-05
        -0.11490E-03
        -0.14380E-03
        -0.12275E-03
        -0.53864E-04
         0.48507E-05
        -0.43398E-04
         0.89097E-05
        -0.30433E-04
        -0.13363E-03
        -0.35968E-04
         0.41563E-05
        -0.26012E-04
         0.30142E-04
         0.66655E-04
         0.19620E-03
         0.13488E-03
         0.10818E-03
        -0.15444E-04
        -0.12853E-03
        -0.31118E-03
        -0.54770E-03
        -0.40783E-03
        -0.25106E-03
        -0.11255E-03
        -0.84282E-04
        -0.49172E-04
         0.34303E-05
         0.45562E-04
         0.72539E-04
         0.97611E-04
         0.13659E-03
         0.14521E-03
         0.32040E-03
         0.37307E-03
         0.23870E-03
         0.19953E-03
         0.22123E-03
         0.22085E-03
         0.12646E-03
        -0.61106E-04
        -0.35001E-03
        -0.76847E-03
        -0.11567E-02
        -0.11733E-02
        -0.87316E-03
        -0.57767E-03
        -0.40007E-03
        -0.31054E-03
        -0.26134E-03
        -0.19012E-03
        -0.77389E-04
         0.33926E-04
         0.10500E-03
         0.12563E-03
         0.12773E-03
         0.17882E-03
         0.28210E-03
         0.36073E-03
         0.13769E-04
         0.26410E-04
         0.27393E-04
         0.23424E-04
         0.26603E-04
         0.11407E-04
         0.33850E-04
         0.19178E-04
         0.72388E-05
         0.16871E-04
         0.43003E-04
         0.72873E-04
         0.66025E-04
         0.31751E-04
         0.48955E-04
         0.52848E-06
         0.13279E-04
         0.13159E-04
        -0.19552E-05
         0.12252E-04
        -0.59900E-04
        -0.90889E-04
        -0.47128E-04
        -0.18249E-04
         0.21812E-04
        -0.12771E-04
         0.22297E-04
        -0.30639E-05
        -0.80654E-04
        -0.78473E-05
         0.15232E-04
         0.60069E-06
         0.26402E-04
         0.17040E-04
         0.31076E-04
         0.35712E-04
         0.47890E-04
         0.43021E-05
        -0.79841E-04
        -0.22160E-03
        -0.39475E-03
        -0.28282E-03
        -0.16903E-03
        -0.29669E-04
        -0.10770E-04
         0.10498E-04
         0.25840E-04
         0.37037E-04
         0.23505E-04
        -0.16510E-04
        -0.57746E-04
        -0.22229E-04
         0.27606E-04
         0.15036E-04
         0.42251E-04
         0.77442E-04
         0.12523E-03
         0.13963E-03
         0.84954E-04
        -0.33927E-04
        -0.25990E-03
        -0.59426E-03
        -0.85724E-03
        -0.84295E-03
        -0.63682E-03
        -0.41174E-03
        -0.23896E-03
        -0.12290E-03
        -0.51391E-04
        -0.96171E-05
         0.25032E-04
         0.63880E-04
         0.65378E-04
        -0.60016E-05
        -0.11729E-03
        -0.16738E-03
        -0.11404E-03
        -0.31573E-04
         0.13975E-04
         0.13401E-04
         0.47113E-05
         0.13158E-04
        -0.24976E-04
        -0.30516E-04
         0.19748E-04
         0.18421E-04
         0.15216E-04
         0.23436E-04
         0.27001E-04
         0.39650E-04
         0.30541E-04
         0.27612E-04
         0.36819E-04
         0.12095E-04
         0.21774E-04
         0.16101E-04
         0.14166E-04
         0.22692E-04
        -0.15343E-04
        -0.40075E-04
         0.73639E-06
         0.81401E-05
         0.29669E-04
         0.95215E-05
         0.29208E-04
         0.15837E-04
        -0.32990E-04
         0.11892E-04
         0.17244E-04
         0.14958E-04
         0.18236E-04
         0.12072E-06
        -0.26209E-04
        -0.43257E-05
         0.15092E-04
         0.19876E-04
        -0.31953E-04
        -0.12504E-03
        -0.23258E-03
        -0.15818E-03
        -0.88694E-04
         0.13883E-04
         0.21438E-04
         0.28154E-04
         0.26589E-04
         0.24453E-04
         0.63364E-05
        -0.34031E-04
        -0.80162E-04
        -0.54560E-04
        -0.63376E-04
        -0.89994E-04
        -0.25478E-04
         0.18454E-04
         0.55627E-04
         0.70328E-04
         0.53042E-04
        -0.20329E-05
        -0.14795E-03
        -0.37667E-03
        -0.52888E-03
        -0.50289E-03
        -0.38329E-03
        -0.23558E-03
        -0.10813E-03
        -0.18500E-04
         0.33853E-04
         0.48324E-04
         0.44479E-04
         0.46930E-04
         0.33628E-04
        -0.26946E-04
        -0.12234E-03
        -0.18299E-03
        -0.16958E-03
        -0.12415E-03
         0.89583E-05
         0.76803E-05
         0.37015E-05
         0.64950E-05
        -0.55537E-05
        -0.55191E-05
         0.12500E-04
         0.14539E-04
         0.11847E-04
         0.20045E-04
         0.18453E-04
         0.24123E-04
         0.16349E-04
         0.22388E-04
         0.29236E-04
         0.93517E-05
         0.17014E-04
         0.83940E-05
         0.13026E-04
         0.18396E-04
        -0.56586E-06
        -0.14583E-04
         0.77549E-05
         0.10129E-04
         0.24678E-04
         0.94355E-05
         0.26805E-04
         0.20058E-04
        -0.10342E-04
         0.13945E-04
         0.84992E-05
         0.98262E-05
         0.83577E-05
         0.42640E-05
        -0.59254E-05
         0.15405E-05
         0.88787E-05
         0.24586E-04
        -0.58056E-05
        -0.64663E-04
        -0.13274E-03
        -0.86961E-04
        -0.43959E-04
         0.13374E-04
         0.15335E-04
         0.16382E-04
         0.13128E-04
         0.11403E-04
         0.74716E-05
        -0.16648E-05
        -0.13081E-04
        -0.91143E-05
        -0.17482E-04
        -0.25495E-04
        -0.32593E-05
         0.13149E-04
         0.28117E-04
         0.38606E-04
         0.40303E-04
         0.16005E-04
        -0.75237E-04
        -0.22173E-03
        -0.31873E-03
        -0.29525E-03
        -0.20912E-03
        -0.11555E-03
        -0.44498E-04
         0.49767E-06
         0.24840E-04
         0.30030E-04
         0.24161E-04
         0.20583E-04
         0.17340E-04
         0.46504E-05
        -0.18314E-04
        -0.36008E-04
        -0.37558E-04
        -0.31219E-04
         0.34170E-05
         0.34332E-05
         0.30993E-05
         0.15881E-05
         0.67153E-05
         0.78254E-05
         0.63072E-05
         0.77591E-05
         0.53915E-05
         0.11092E-04
         0.10307E-04
         0.13744E-04
         0.85540E-05
         0.13271E-04
         0.19172E-04
         0.30584E-05
         0.81696E-05
         0.14021E-05
         0.61174E-05
         0.90860E-05
         0.24922E-05
        -0.34995E-05
         0.53543E-05
         0.48257E-05
         0.13355E-04
         0.34596E-05
         0.16252E-04
         0.12663E-04
        -0.35841E-05
         0.77939E-05
         0.56542E-06
         0.23688E-05
         0.83886E-06
         0.40871E-05
         0.72955E-05
         0.57530E-05
         0.59752E-05
         0.18028E-04
         0.96374E-06
        -0.31572E-04
        -0.67948E-04
        -0.42546E-04
        -0.18611E-04
         0.64686E-05
         0.62862E-05
         0.59942E-05
         0.30893E-05
         0.22179E-05
         0.48627E-05
         0.10476E-04
         0.16471E-04
         0.11975E-04
         0.11754E-04
         0.14723E-04
         0.11127E-04
         0.12054E-04
         0.15324E-04
         0.22156E-04
         0.29666E-04
         0.19513E-04
        -0.34096E-04
        -0.11677E-03
        -0.16862E-03
        -0.14722E-03
        -0.89717E-04
        -0.39944E-04
        -0.94537E-05
         0.64738E-05
         0.13408E-04
         0.14164E-04
         0.10391E-04
         0.65531E-05
         0.74556E-05
         0.14833E-04
         0.25291E-04
         0.30917E-04
         0.27626E-04
         0.20423E-04
         0.44542E-07
         0.28590E-06
         0.60529E-06
        -0.10619E-05
         0.50245E-05
         0.51409E-05
         0.16184E-05
         0.21922E-05
         0.10400E-05
         0.35970E-05
         0.35942E-05
         0.56989E-05
         0.31110E-05
         0.49469E-05
         0.90095E-05
        -0.61432E-06
         0.18799E-05
        -0.13437E-05
         0.10577E-05
         0.21887E-05
         0.26564E-05
         0.92971E-06
         0.33584E-05
         0.92098E-06
         0.41367E-05
        -0.24864E-06
         0.61963E-05
         0.45898E-05
        -0.12819E-05
         0.21589E-05
        -0.22844E-05
        -0.11136E-05
        -0.20096E-05
         0.48885E-06
         0.56605E-05
         0.31888E-05
         0.23565E-05
         0.91456E-05
         0.20309E-05
        -0.10557E-04
        -0.22735E-04
        -0.13108E-04
        -0.42075E-05
         0.28662E-05
         0.19826E-05
         0.13693E-05
        -0.88899E-06
        -0.15049E-05
         0.51927E-06
         0.49245E-05
         0.10130E-04
         0.74235E-05
         0.11460E-04
         0.15352E-04
         0.85907E-05
         0.70733E-05
         0.70751E-05
         0.10588E-04
         0.17158E-04
         0.15337E-04
        -0.72391E-05
        -0.40433E-04
        -0.56970E-04
        -0.43214E-04
        -0.18291E-04
        -0.51784E-06
         0.77723E-05
         0.10509E-04
         0.10413E-04
         0.83465E-05
         0.45055E-05
         0.11295E-05
         0.15787E-05
         0.72332E-05
         0.15746E-04
         0.21680E-04
         0.21847E-04
         0.18904E-04
        -0.11856E-05
        -0.95099E-06
        -0.46492E-06
        -0.16094E-05
         0.31833E-05
         0.29636E-05
        -0.52050E-06
        -0.45137E-06
        -0.72094E-06
        -0.54478E-07
         0.17697E-06
         0.14764E-05
         0.74146E-06
         0.51783E-06
         0.28408E-05
        -0.16540E-05
        -0.88164E-06
        -0.17754E-05
        -0.10568E-05
        -0.10636E-05
         0.19631E-05
         0.21470E-05
         0.22155E-05
        -0.52474E-06
        -0.38379E-06
        -0.12306E-05
         0.88537E-06
         0.49693E-06
         0.30568E-07
        -0.67791E-06
        -0.23723E-05
        -0.16755E-05
        -0.21295E-05
        -0.71461E-06
         0.36362E-05
         0.15566E-05
         0.75912E-06
         0.37740E-05
         0.28762E-05
         0.13441E-05
         0.14623E-05
         0.17139E-05
         0.22366E-05
         0.16663E-05
         0.78110E-06
         0.16718E-06
        -0.14805E-05
        -0.18742E-05
        -0.76854E-06
         0.16024E-05
         0.47529E-05
         0.37544E-05
         0.84649E-05
         0.11860E-04
         0.60384E-05
         0.47302E-05
         0.38565E-05
         0.46667E-05
         0.81852E-05
         0.11046E-04
         0.86614E-05
         0.38050E-05
         0.34146E-05
         0.89665E-05
         0.14329E-04
         0.14264E-04
         0.11795E-04
         0.10342E-04
         0.89310E-05
         0.61586E-05
         0.25089E-05
        -0.56124E-07
         0.74222E-08
         0.28634E-05
         0.71984E-05
         0.11181E-04
         0.13472E-04
         0.13732E-04
        -0.15554E-05
        -0.13076E-05
        -0.69247E-06
        -0.15731E-05
         0.27761E-05
         0.28288E-05
        -0.13031E-05
        -0.14512E-05
        -0.13066E-05
        -0.15216E-05
        -0.12158E-05
        -0.32549E-06
        -0.12074E-06
        -0.13458E-05
         0.36666E-08
        -0.17818E-05
        -0.18986E-05
        -0.17308E-05
        -0.18131E-05
        -0.24137E-05
         0.12602E-05
         0.22093E-05
         0.15652E-05
        -0.94718E-06
        -0.23086E-05
        -0.12735E-05
        -0.14382E-05
        -0.14702E-05
         0.59064E-07
        -0.20534E-05
        -0.19916E-05
        -0.14420E-05
        -0.17175E-05
        -0.41844E-06
         0.30703E-05
         0.11458E-05
         0.31731E-06
         0.10674E-05
         0.26086E-05
         0.53662E-05
         0.10177E-04
         0.69454E-05
         0.43898E-05
         0.13150E-05
         0.64851E-06
         0.14485E-06
        -0.11733E-05
        -0.13375E-05
        -0.21245E-06
         0.19495E-05
         0.47978E-05
         0.37618E-05
         0.74857E-05
         0.10865E-04
         0.53720E-05
         0.41527E-05
         0.27704E-05
         0.21355E-05
         0.38089E-05
         0.80932E-05
         0.14001E-04
         0.20557E-04
         0.26037E-04
         0.28814E-04
         0.26640E-04
         0.18711E-04
         0.11730E-04
         0.91275E-05
         0.77628E-05
         0.52756E-05
         0.21004E-05
         0.11063E-06
         0.56802E-06
         0.34150E-05
         0.73043E-05
         0.10747E-04
         0.12927E-04
         0.13070E-04
        -0.17424E-05
        -0.14657E-05
        -0.76477E-06
        -0.16292E-05
         0.28926E-05
         0.32940E-05
        -0.16431E-05
        -0.18907E-05
        -0.15790E-05
        -0.21580E-05
        -0.18097E-05
        -0.10359E-05
        -0.43571E-06
        -0.21542E-05
        -0.11613E-05
        -0.20227E-05
        -0.23748E-05
        -0.18582E-05
        -0.21556E-05
        -0.29654E-05
         0.17805E-05
         0.27496E-05
         0.20237E-05
        -0.10945E-05
        -0.31559E-05
        -0.14262E-05
        -0.24639E-05
        -0.24013E-05
        -0.16306E-06
        -0.26944E-05
        -0.20663E-05
        -0.14660E-05
        -0.17333E-05
        -0.16861E-06
         0.30481E-05
         0.10849E-05
         0.20712E-06
        -0.69980E-07
         0.24800E-05
         0.68319E-05
         0.13264E-04
         0.86617E-05
         0.52703E-05
         0.15748E-05
         0.85441E-06
         0.36343E-06
        -0.10429E-05
        -0.11568E-05
         0.23618E-06
         0.28960E-05
         0.63066E-05
         0.47529E-05
         0.74934E-05
         0.11339E-04
         0.54277E-05
         0.41813E-05
         0.25072E-05
         0.12699E-05
         0.21934E-05
         0.70507E-05
         0.16780E-04
         0.27885E-04
         0.34646E-04
         0.35969E-04
         0.31916E-04
         0.22839E-04
         0.15314E-04
         0.11578E-04
         0.91272E-05
         0.60610E-05
         0.25171E-05
         0.47112E-06
         0.12991E-05
         0.50288E-05
         0.99434E-05
         0.13807E-04
         0.15525E-04
         0.14625E-04
        -0.19478E-05
        -0.15669E-05
        -0.71381E-06
        -0.18308E-05
         0.34999E-05
         0.39231E-05
        -0.18953E-05
        -0.22472E-05
        -0.18451E-05
        -0.26019E-05
        -0.22423E-05
        -0.14083E-05
        -0.45134E-06
        -0.27574E-05
        -0.18796E-05
        -0.24220E-05
        -0.27808E-05
        -0.21791E-05
        -0.23678E-05
        -0.33259E-05
         0.28488E-05
         0.35670E-05
         0.31257E-05
        -0.10591E-05
        -0.36976E-05
        -0.16150E-05
        -0.31885E-05
        -0.29826E-05
        -0.13693E-06
        -0.30706E-05
        -0.24720E-05
        -0.16694E-05
        -0.21027E-05
        -0.23322E-06
         0.37033E-05
         0.14523E-05
         0.41680E-06
        -0.79358E-06
         0.24579E-05
         0.81471E-05
         0.15912E-04
         0.10091E-04
         0.60633E-05
         0.23198E-05
         0.13357E-05
         0.75873E-06
        -0.10596E-05
        -0.12991E-05
         0.33639E-06
         0.35584E-05
         0.76889E-05
         0.56711E-05
         0.88068E-05
         0.13277E-04
         0.64983E-05
         0.51087E-05
         0.30666E-05
         0.11752E-05
         0.16362E-05
         0.70340E-05
         0.19165E-04
         0.33747E-04
         0.41752E-04
         0.41284E-04
         0.36307E-04
         0.27375E-04
         0.20158E-04
         0.15763E-04
         0.12174E-04
         0.80771E-05
         0.36019E-05
         0.10513E-05
         0.19895E-05
         0.66037E-05
         0.12690E-04
         0.17122E-04
         0.18650E-04
         0.17240E-04
        -0.21116E-05
        -0.16632E-05
        -0.68411E-06
        -0.20019E-05
         0.37462E-05
         0.39146E-05
        -0.21362E-05
        -0.25243E-05
        -0.20110E-05
        -0.28851E-05
        -0.26080E-05
        -0.17665E-05
        -0.57029E-06
        -0.31850E-05
        -0.23829E-05
        -0.25704E-05
        -0.29746E-05
        -0.23491E-05
        -0.24797E-05
        -0.34975E-05
         0.29769E-05
         0.37665E-05
         0.33038E-05
        -0.10850E-05
        -0.39586E-05
        -0.16944E-05
        -0.36403E-05
        -0.32393E-05
         0.35749E-06
        -0.30507E-05
        -0.26232E-05
        -0.17328E-05
        -0.22862E-05
        -0.42922E-06
         0.41803E-05
         0.17880E-05
         0.56017E-06
        -0.13350E-05
         0.23359E-05
         0.93165E-05
         0.18863E-04
         0.12296E-04
         0.70535E-05
         0.24293E-05
         0.14623E-05
         0.10244E-05
        -0.90077E-06
        -0.12031E-05
         0.40242E-06
         0.35587E-05
         0.76479E-05
         0.55527E-05
         0.97410E-05
         0.14019E-04
         0.74677E-05
         0.58063E-05
         0.32498E-05
         0.92119E-06
         0.12203E-05
         0.66094E-05
         0.19535E-04
         0.36955E-04
         0.48419E-04
         0.48019E-04
         0.39764E-04
         0.28565E-04
         0.20959E-04
         0.16466E-04
         0.12663E-04
         0.86006E-05
         0.42992E-05
         0.18472E-05
         0.28505E-05
         0.74601E-05
         0.13247E-04
         0.17266E-04
         0.18709E-04
         0.17599E-04
        -0.22651E-05
        -0.19002E-05
        -0.86862E-06
        -0.21536E-05
         0.37310E-05
         0.38773E-05
        -0.23758E-05
        -0.26551E-05
        -0.20754E-05
        -0.29692E-05
        -0.28518E-05
        -0.21818E-05
        -0.10082E-05
        -0.33276E-05
        -0.26291E-05
        -0.26040E-05
        -0.30288E-05
        -0.24382E-05
        -0.25481E-05
        -0.36343E-05
         0.28102E-05
         0.37315E-05
         0.30272E-05
        -0.12009E-05
        -0.41003E-05
        -0.17936E-05
        -0.37293E-05
        -0.33499E-05
         0.43920E-06
        -0.31782E-05
        -0.26367E-05
        -0.17471E-05
        -0.23103E-05
        -0.46206E-06
         0.41938E-05
         0.16064E-05
         0.19606E-06
        -0.13638E-05
         0.24170E-05
         0.97252E-05
         0.20098E-04
         0.13232E-04
         0.74295E-05
         0.21502E-05
         0.13733E-05
         0.12217E-05
        -0.61673E-06
        -0.92220E-06
         0.57568E-06
         0.35891E-05
         0.75964E-05
         0.55243E-05
         0.10024E-04
         0.14325E-04
         0.73408E-05
         0.51985E-05
         0.24156E-05
         0.11321E-06
         0.63337E-06
         0.66679E-05
         0.19944E-04
         0.37906E-04
         0.51471E-04
         0.51592E-04
         0.41839E-04
         0.29110E-04
         0.20722E-04
         0.15805E-04
         0.11970E-04
         0.83984E-05
         0.47606E-05
         0.27321E-05
         0.37586E-05
         0.79024E-05
         0.13117E-04
         0.16982E-04
         0.18628E-04
         0.17711E-04
        -0.22690E-05
        -0.19787E-05
        -0.94648E-06
        -0.21525E-05
         0.39478E-05
         0.43646E-05
        -0.24115E-05
        -0.26237E-05
        -0.20572E-05
        -0.29126E-05
        -0.28802E-05
        -0.23334E-05
        -0.12525E-05
        -0.32832E-05
        -0.26020E-05
        -0.25870E-05
        -0.29749E-05
        -0.24687E-05
        -0.24639E-05
        -0.35590E-05
         0.27654E-05
         0.37896E-05
         0.27627E-05
        -0.12374E-05
        -0.40772E-05
        -0.18524E-05
        -0.36179E-05
        -0.33578E-05
         0.46846E-07
        -0.32901E-05
        -0.26562E-05
        -0.17882E-05
        -0.23235E-05
        -0.34705E-06
         0.41108E-05
         0.12904E-05
        -0.15914E-06
        -0.11284E-05
         0.24186E-05
         0.89916E-05
         0.18670E-04
         0.12273E-04
         0.71457E-05
         0.18443E-05
         0.11885E-05
         0.12082E-05
        -0.52707E-06
        -0.83940E-06
         0.60406E-06
         0.37293E-05
         0.80928E-05
         0.61256E-05
         0.99706E-05
         0.15230E-04
         0.64763E-05
         0.41518E-05
         0.16772E-05
        -0.36007E-06
         0.55262E-06
         0.73366E-05
         0.20063E-04
         0.36027E-04
         0.48631E-04
         0.49460E-04
         0.41453E-04
         0.29008E-04
         0.20138E-04
         0.14857E-04
         0.11035E-04
         0.78887E-05
         0.47854E-05
         0.30657E-05
         0.39929E-05
         0.77729E-05
         0.13101E-04
         0.17820E-04
         0.20373E-04
         0.19422E-04
        -0.20964E-05
        -0.17853E-05
        -0.86224E-06
        -0.20412E-05
         0.38123E-05
         0.42662E-05
        -0.22065E-05
        -0.24628E-05
        -0.19667E-05
        -0.27774E-05
        -0.26910E-05
        -0.21344E-05
        -0.10726E-05
        -0.31130E-05
        -0.24120E-05
        -0.25495E-05
        -0.28597E-05
        -0.24166E-05
        -0.23558E-05
        -0.33637E-05
         0.24308E-05
         0.35932E-05
         0.22331E-05
        -0.13253E-05
        -0.39202E-05
        -0.19443E-05
        -0.34263E-05
        -0.32351E-05
        -0.20385E-06
        -0.31987E-05
        -0.26869E-05
        -0.18984E-05
        -0.23422E-05
        -0.40498E-06
         0.38323E-05
         0.11550E-05
        -0.11051E-06
        -0.96593E-06
         0.23135E-05
         0.81043E-05
         0.16785E-04
         0.11141E-04
         0.67175E-05
         0.13454E-05
         0.81180E-06
         0.95890E-06
        -0.61809E-06
        -0.90505E-06
         0.47045E-06
         0.35102E-05
         0.77944E-05
         0.59169E-05
         0.92956E-05
         0.14759E-04
         0.57498E-05
         0.37419E-05
         0.16721E-05
        -0.22180E-06
         0.72156E-06
         0.73715E-05
         0.19311E-04
         0.33390E-04
         0.44041E-04
         0.45858E-04
         0.39248E-04
         0.26960E-04
         0.17995E-04
         0.12927E-04
         0.95015E-05
         0.69037E-05
         0.44083E-05
         0.30089E-05
         0.38628E-05
         0.74063E-05
         0.12666E-04
         0.17358E-04
         0.19894E-04
         0.19047E-04
        -0.19697E-05
        -0.15958E-05
        -0.66988E-06
        -0.18695E-05
         0.36198E-05
         0.38283E-05
        -0.20710E-05
        -0.23759E-05
        -0.19403E-05
        -0.27073E-05
        -0.25639E-05
        -0.19707E-05
        -0.87514E-06
        -0.29828E-05
        -0.22751E-05
        -0.26454E-05
        -0.29017E-05
        -0.23618E-05
        -0.25415E-05
        -0.34779E-05
         0.20131E-05
         0.31586E-05
         0.19310E-05
        -0.15353E-05
        -0.38629E-05
        -0.20863E-05
        -0.32467E-05
        -0.30484E-05
        -0.97277E-07
        -0.32045E-05
        -0.27006E-05
        -0.19621E-05
        -0.22773E-05
        -0.42322E-06
         0.37918E-05
         0.13092E-05
         0.98224E-07
        -0.81242E-06
         0.25185E-05
         0.82152E-05
         0.16734E-04
         0.11082E-04
         0.64227E-05
         0.12051E-05
         0.75316E-06
         0.94342E-06
        -0.61487E-06
        -0.86241E-06
         0.49382E-06
         0.33039E-05
         0.71161E-05
         0.52604E-05
         0.89479E-05
         0.13590E-04
         0.57364E-05
         0.39301E-05
         0.19576E-05
         0.71220E-08
         0.72089E-06
         0.69470E-05
         0.18981E-04
         0.33151E-04
         0.43538E-04
         0.45557E-04
         0.37983E-04
         0.25653E-04
         0.16952E-04
         0.12387E-04
         0.94155E-05
         0.69152E-05
         0.44288E-05
         0.30433E-05
         0.39320E-05
         0.74193E-05
         0.12207E-04
         0.15950E-04
         0.17617E-04
         0.16920E-04
        -0.19023E-05
        -0.15524E-05
        -0.49943E-06
        -0.15835E-05
         0.36690E-05
         0.38950E-05
        -0.21100E-05
        -0.23850E-05
        -0.19316E-05
        -0.27019E-05
        -0.26139E-05
        -0.20790E-05
        -0.99754E-06
        -0.29854E-05
        -0.23438E-05
        -0.26376E-05
        -0.29555E-05
        -0.21905E-05
        -0.25990E-05
        -0.35097E-05
         0.23538E-05
         0.33545E-05
         0.24229E-05
        -0.14409E-05
        -0.38009E-05
        -0.19751E-05
        -0.31701E-05
        -0.27762E-05
         0.63453E-06
        -0.29789E-05
        -0.24824E-05
        -0.17727E-05
        -0.19562E-05
        -0.71833E-07
         0.38388E-05
         0.13635E-05
         0.43547E-07
        -0.76685E-06
         0.30645E-05
         0.97438E-05
         0.19350E-04
         0.12684E-04
         0.69733E-05
         0.16293E-05
         0.10607E-05
         0.11317E-05
        -0.48704E-06
        -0.70340E-06
         0.72815E-06
         0.35267E-05
         0.71830E-05
         0.53447E-05
         0.87971E-05
         0.13044E-04
         0.56133E-05
         0.37108E-05
         0.16949E-05
        -0.21683E-06
         0.42507E-06
         0.65448E-05
         0.19849E-04
         0.36887E-04
         0.49439E-04
         0.49669E-04
         0.39000E-04
         0.26679E-04
         0.18667E-04
         0.14061E-04
         0.10609E-04
         0.75002E-05
         0.45485E-05
         0.28204E-05
         0.36467E-05
         0.72805E-05
         0.12038E-04
         0.15611E-04
         0.16956E-04
         0.16060E-04
        -0.17980E-05
        -0.16007E-05
        -0.66638E-06
        -0.14576E-05
         0.31367E-05
         0.34767E-05
        -0.20575E-05
        -0.22597E-05
        -0.17827E-05
        -0.26063E-05
        -0.25110E-05
        -0.21020E-05
        -0.11795E-05
        -0.28858E-05
        -0.24413E-05
        -0.22642E-05
        -0.27354E-05
        -0.18932E-05
        -0.21524E-05
        -0.30983E-05
         0.30960E-05
         0.40771E-05
         0.30031E-05
        -0.94651E-06
        -0.36526E-05
        -0.15036E-05
        -0.31955E-05
        -0.28003E-05
         0.84567E-06
        -0.26446E-05
        -0.20393E-05
        -0.13344E-05
        -0.16130E-05
         0.35074E-07
         0.31714E-05
         0.86303E-06
        -0.32920E-06
        -0.11528E-05
         0.26597E-05
         0.98297E-05
         0.19966E-04
         0.13173E-04
         0.74930E-05
         0.20509E-05
         0.13706E-05
         0.13112E-05
        -0.25962E-06
        -0.53488E-06
         0.72106E-06
         0.32559E-05
         0.65686E-05
         0.48878E-05
         0.76457E-05
         0.11696E-04
         0.45151E-05
         0.27153E-05
         0.10336E-05
        -0.59401E-06
        -0.14886E-06
         0.54846E-05
         0.18806E-04
         0.37237E-04
         0.51105E-04
         0.50452E-04
         0.39371E-04
         0.27831E-04
         0.19897E-04
         0.14716E-04
         0.10806E-04
         0.74608E-05
         0.43969E-05
         0.25282E-05
         0.30829E-05
         0.63102E-05
         0.10710E-04
         0.14124E-04
         0.15371E-04
         0.14515E-04
        -0.14913E-05
        -0.13888E-05
        -0.73794E-06
        -0.12640E-05
         0.22347E-05
         0.25521E-05
        -0.17211E-05
        -0.19249E-05
        -0.14866E-05
        -0.23510E-05
        -0.21179E-05
        -0.17580E-05
        -0.10132E-05
        -0.25376E-05
        -0.21757E-05
        -0.17836E-05
        -0.23522E-05
        -0.15100E-05
        -0.16795E-05
        -0.26571E-05
         0.30031E-05
         0.38302E-05
         0.30248E-05
        -0.52113E-06
        -0.33846E-05
        -0.10074E-05
        -0.30411E-05
        -0.28649E-05
         0.49614E-06
        -0.24323E-05
        -0.15881E-05
        -0.87617E-06
        -0.13269E-05
        -0.12231E-06
         0.21445E-05
         0.34931E-06
        -0.45471E-06
        -0.13517E-05
         0.18040E-05
         0.83817E-05
         0.17909E-04
         0.11905E-04
         0.68525E-05
         0.22684E-05
         0.16621E-05
         0.15682E-05
         0.36327E-07
        -0.41072E-06
         0.39539E-06
         0.22649E-05
         0.48083E-05
         0.35982E-05
         0.55739E-05
         0.91112E-05
         0.29952E-05
         0.18483E-05
         0.79313E-06
        -0.45877E-06
        -0.16353E-06
         0.45291E-05
         0.16082E-04
         0.32940E-04
         0.46401E-04
         0.45957E-04
         0.35617E-04
         0.24982E-04
         0.17778E-04
         0.13410E-04
         0.10281E-04
         0.73672E-05
         0.44380E-05
         0.25100E-05
         0.24713E-05
         0.44991E-05
         0.77166E-05
         0.10499E-04
         0.11739E-04
         0.11363E-04
        -0.11752E-05
        -0.10934E-05
        -0.69129E-06
        -0.10072E-05
         0.12109E-05
         0.15019E-05
        -0.14744E-05
        -0.17328E-05
        -0.11836E-05
        -0.21266E-05
        -0.18960E-05
        -0.14221E-05
        -0.69937E-06
        -0.23535E-05
        -0.18058E-05
        -0.14176E-05
        -0.19891E-05
        -0.11180E-05
        -0.14187E-05
        -0.23544E-05
         0.24834E-05
         0.32750E-05
         0.28068E-05
        -0.34194E-06
        -0.30245E-05
        -0.74740E-06
        -0.28075E-05
        -0.24613E-05
         0.11322E-05
        -0.20059E-05
        -0.12974E-05
        -0.66739E-06
        -0.11432E-05
        -0.45638E-06
         0.99778E-06
         0.49074E-07
        -0.23578E-06
        -0.95986E-06
         0.23333E-05
         0.92012E-05
         0.19122E-04
         0.12807E-04
         0.69196E-05
         0.23180E-05
         0.17352E-05
         0.15271E-05
         0.19491E-08
        -0.60004E-06
        -0.28860E-06
         0.74081E-06
         0.23656E-05
         0.19397E-05
         0.29458E-05
         0.58306E-05
         0.19415E-05
         0.20012E-05
         0.12525E-05
         0.15673E-06
         0.69718E-06
         0.53508E-05
         0.16879E-04
         0.34108E-04
         0.48392E-04
         0.47860E-04
         0.34291E-04
         0.21524E-04
         0.14915E-04
         0.12122E-04
         0.10026E-04
         0.72867E-05
         0.41643E-05
         0.19326E-05
         0.11911E-05
         0.19109E-05
         0.36048E-05
         0.56793E-05
         0.74446E-05
         0.77887E-05
        -0.15595E-05
        -0.16133E-05
        -0.16689E-05
        -0.15462E-05
        -0.15805E-05
        -0.13969E-05
        -0.20499E-05
        -0.23492E-05
        -0.15492E-05
        -0.26621E-05
        -0.24610E-05
        -0.16616E-05
        -0.11271E-05
        -0.29494E-05
        -0.19234E-05
        -0.18560E-05
        -0.24530E-05
        -0.13473E-05
        -0.21037E-05
        -0.30470E-05
         0.17892E-05
         0.27287E-05
         0.19612E-05
        -0.11121E-05
        -0.35296E-05
        -0.14501E-05
        -0.32980E-05
        -0.28473E-05
         0.77482E-06
        -0.26166E-05
        -0.18333E-05
        -0.13459E-05
        -0.18409E-05
        -0.21162E-05
        -0.20591E-05
        -0.16392E-05
        -0.98725E-06
        -0.10461E-05
         0.22110E-05
         0.90269E-05
         0.19196E-04
         0.12896E-04
         0.66877E-05
         0.14951E-05
         0.10073E-05
         0.75614E-06
        -0.95726E-06
        -0.19751E-05
        -0.25595E-05
        -0.30196E-05
        -0.30399E-05
        -0.20986E-05
        -0.25558E-05
        -0.64552E-06
        -0.12646E-05
         0.85795E-06
         0.11059E-05
         0.74580E-06
         0.18221E-05
         0.62979E-05
         0.17078E-04
         0.33706E-04
         0.48929E-04
         0.50607E-04
         0.36655E-04
         0.22477E-04
         0.14799E-04
         0.11389E-04
         0.93108E-05
         0.67966E-05
         0.34561E-05
         0.28232E-06
        -0.20616E-05
        -0.35858E-05
        -0.44913E-05
        -0.37957E-05
        -0.12614E-05
         0.52005E-06
        -0.28876E-05
        -0.31090E-05
        -0.37340E-05
        -0.29002E-05
        -0.63059E-05
        -0.62714E-05
        -0.35706E-05
        -0.39381E-05
        -0.29348E-05
        -0.42442E-05
        -0.38919E-05
        -0.27148E-05
        -0.25455E-05
        -0.43955E-05
        -0.27408E-05
        -0.34176E-05
        -0.41780E-05
        -0.24067E-05
        -0.40223E-05
        -0.50591E-05
         0.18449E-05
         0.30463E-05
         0.18020E-05
        -0.26675E-05
        -0.52911E-05
        -0.28505E-05
        -0.47233E-05
        -0.44704E-05
        -0.11470E-05
        -0.45651E-05
        -0.29373E-05
        -0.20908E-05
        -0.31288E-05
        -0.45648E-05
        -0.68559E-05
        -0.46397E-05
        -0.28951E-05
        -0.19234E-05
         0.74094E-06
         0.67310E-05
         0.16791E-04
         0.11711E-04
         0.66530E-05
         0.14090E-05
         0.15405E-05
         0.17721E-05
        -0.11547E-05
        -0.34126E-05
        -0.52978E-05
        -0.76680E-05
        -0.10112E-04
        -0.79996E-05
        -0.10408E-04
        -0.11202E-04
        -0.62476E-05
        -0.19805E-05
        -0.28933E-06
         0.48899E-06
         0.22110E-05
         0.63728E-05
         0.15081E-04
         0.29198E-04
         0.45123E-04
         0.53295E-04
         0.45743E-04
         0.32612E-04
         0.22302E-04
         0.15867E-04
         0.12640E-04
         0.10470E-04
         0.65093E-05
         0.73633E-06
        -0.49041E-05
        -0.95561E-05
        -0.13877E-04
        -0.15995E-04
        -0.14388E-04
        -0.11861E-04
        -0.79923E-06
        -0.44423E-06
        -0.17867E-06
         0.41931E-06
        -0.36494E-05
        -0.44868E-05
        -0.16898E-05
        -0.25868E-05
        -0.19764E-05
        -0.40342E-05
        -0.24456E-05
        -0.13424E-05
        -0.75557E-06
        -0.34913E-05
        -0.18078E-05
        -0.28521E-05
        -0.51230E-05
        -0.42503E-06
        -0.37350E-05
        -0.63546E-05
         0.11522E-04
         0.13026E-04
         0.12683E-04
         0.70290E-06
        -0.67696E-05
         0.56761E-06
        -0.48972E-05
        -0.53853E-05
         0.12389E-06
        -0.53338E-05
        -0.73381E-07
         0.33318E-05
         0.35865E-07
        -0.81063E-06
        -0.28651E-05
        -0.54017E-06
        -0.31491E-07
        -0.17227E-05
         0.11253E-05
         0.10521E-04
         0.28314E-04
         0.23708E-04
         0.18081E-04
         0.12513E-04
         0.13603E-04
         0.14744E-04
         0.68265E-05
         0.10183E-05
        -0.17377E-05
        -0.41545E-05
        -0.78832E-05
        -0.61147E-05
        -0.63618E-05
        -0.12628E-04
        -0.10514E-05
         0.99232E-06
         0.99823E-06
         0.16451E-05
         0.36418E-05
         0.78740E-05
         0.17577E-04
         0.38394E-04
         0.70296E-04
         0.97112E-04
         0.97802E-04
         0.80332E-04
         0.61734E-04
         0.48271E-04
         0.40866E-04
         0.36286E-04
         0.27293E-04
         0.12895E-04
         0.14059E-06
        -0.69707E-05
        -0.12069E-04
        -0.16561E-04
        -0.18639E-04
        -0.17132E-04
         0.10223E-04
         0.12462E-04
         0.16169E-04
         0.14472E-04
         0.15192E-04
         0.11781E-04
         0.90103E-05
         0.67666E-05
         0.57748E-05
         0.19937E-05
         0.68077E-05
         0.71235E-05
         0.95844E-05
         0.42299E-05
         0.47568E-05
         0.42109E-05
        -0.21851E-05
         0.93512E-05
         0.34520E-05
        -0.39076E-05
         0.37008E-04
         0.38544E-04
         0.41684E-04
         0.15189E-04
        -0.53646E-05
         0.15056E-04
        -0.32895E-06
        -0.25832E-05
         0.99277E-05
        -0.17835E-05
         0.11589E-04
         0.21210E-04
         0.12540E-04
         0.15115E-04
         0.18983E-04
         0.18484E-04
         0.13978E-04
         0.24797E-05
         0.71443E-05
         0.28148E-04
         0.65393E-04
         0.59241E-04
         0.48652E-04
         0.42331E-04
         0.44541E-04
         0.46306E-04
         0.28717E-04
         0.15614E-04
         0.12369E-04
         0.12892E-04
         0.10093E-04
         0.10726E-04
         0.19730E-04
         0.64544E-05
         0.22639E-04
         0.16279E-04
         0.10102E-04
         0.84480E-05
         0.94425E-05
         0.13298E-04
         0.29081E-04
         0.71696E-04
         0.13965E-03
         0.19764E-03
         0.20520E-03
         0.17381E-03
         0.13909E-03
         0.11493E-03
         0.10111E-03
         0.90944E-04
         0.71464E-04
         0.40971E-04
         0.15694E-04
         0.65239E-05
         0.48576E-05
         0.10586E-05
        -0.50812E-05
        -0.46201E-05
  
SCALARS                 displacement_z  double 1
LOOKUP_TABLE default
        -0.34281E-03
        -0.30967E-03
        -0.32484E-03
        -0.36276E-03
        -0.20701E-17
        -0.20887E-17
        -0.20925E-17
        -0.21438E-17
        -0.34460E-03
        -0.40649E-03
        -0.20498E-17
        -0.23425E-17
        -0.28897E-03
        -0.32483E-03
        -0.20874E-17
        -0.21734E-17
        -0.35965E-03
        -0.35080E-03
        -0.19353E-17
        -0.20556E-17
        -0.25848E-03
        -0.18638E-03
        -0.22846E-03
        -0.19035E-17
        -0.13697E-17
        -0.15955E-17
        -0.27404E-03
        -0.15534E-03
        -0.19058E-17
        -0.11391E-17
        -0.35178E-03
        -0.37243E-03
        -0.35759E-03
        -0.20599E-17
        -0.20310E-17
        -0.19056E-17
        -0.36753E-03
        -0.38579E-03
        -0.22771E-17
        -0.21757E-17
        -0.40077E-03
        -0.39555E-03
        -0.21003E-17
        -0.18767E-17
        -0.40434E-03
        -0.36710E-03
        -0.23083E-17
        -0.24159E-17
        -0.36694E-03
        -0.20847E-17
        -0.36892E-03
        -0.24917E-17
        -0.28605E-03
        -0.17507E-17
        -0.27929E-03
        -0.16159E-17
        -0.24526E-03
        -0.36108E-03
        -0.13901E-17
        -0.20641E-17
        -0.38113E-03
        -0.41181E-03
        -0.22385E-17
        -0.27478E-17
        -0.39086E-03
        -0.22420E-17
        -0.41969E-03
        -0.26502E-17
        -0.29522E-03
        -0.27328E-03
        -0.17976E-17
        -0.17783E-17
        -0.25291E-03
        -0.16897E-17
        -0.11888E-03
        -0.82732E-18
        -0.69751E-04
        -0.54973E-18
        -0.10434E-04
        -0.28313E-18
         0.36949E-04
        -0.16156E-03
        -0.12363E-18
        -0.85605E-18
        -0.32309E-03
        -0.15698E-17
        -0.42736E-03
        -0.25674E-17
        -0.48232E-03
        -0.29386E-17
        -0.54470E-03
        -0.50483E-03
        -0.31374E-17
        -0.30330E-17
        -0.47876E-03
        -0.26477E-17
        -0.48299E-03
        -0.26829E-17
        -0.50601E-03
        -0.30105E-17
        -0.53203E-03
        -0.47475E-03
        -0.30467E-17
        -0.28155E-17
        -0.25988E-03
        -0.35513E-03
        -0.12673E-17
        -0.14706E-17
        -0.19456E-03
        -0.10290E-17
        -0.16583E-03
        -0.89142E-18
        -0.13022E-03
        -0.78042E-18
        -0.45841E-04
        -0.54035E-18
         0.65100E-04
        -0.23706E-18
         0.18370E-03
         0.18229E-19
         0.34759E-03
         0.31552E-18
         0.48845E-03
         0.57401E-18
         0.41682E-03
         0.45664E-18
         0.10216E-03
        -0.16905E-18
        -0.22421E-03
        -0.81602E-18
        -0.41177E-03
        -0.11768E-17
        -0.47891E-03
        -0.14129E-17
        -0.50186E-03
        -0.16371E-17
        -0.54431E-03
        -0.18633E-17
        -0.62799E-03
        -0.22683E-17
        -0.68199E-03
        -0.26692E-17
        -0.67054E-03
        -0.25026E-17
        -0.64922E-03
        -0.22289E-17
        -0.64814E-03
        -0.22672E-17
        -0.65470E-03
        -0.24563E-17
        -0.64510E-03
        -0.25240E-17
        -0.58061E-03
        -0.21599E-17
        -0.46859E-03
        -0.17128E-17
        -0.49159E-03
        -0.45738E-03
        -0.47434E-03
        -0.51492E-03
        -0.50283E-03
        -0.56309E-03
        -0.43886E-03
        -0.47949E-03
        -0.51148E-03
        -0.51092E-03
        -0.40589E-03
        -0.31538E-03
        -0.37001E-03
        -0.42462E-03
        -0.26731E-03
        -0.50570E-03
        -0.52807E-03
        -0.51206E-03
        -0.52336E-03
        -0.54776E-03
        -0.57084E-03
        -0.56330E-03
        -0.57261E-03
        -0.52528E-03
        -0.53215E-03
        -0.52907E-03
        -0.43828E-03
        -0.42981E-03
        -0.38476E-03
        -0.52474E-03
        -0.54383E-03
        -0.57233E-03
        -0.54982E-03
        -0.57394E-03
        -0.45419E-03
        -0.42534E-03
        -0.39971E-03
        -0.20825E-03
        -0.14020E-03
        -0.65474E-04
        -0.44499E-06
        -0.26613E-03
        -0.47082E-03
        -0.59133E-03
        -0.63609E-03
        -0.67807E-03
        -0.63574E-03
        -0.60395E-03
        -0.60322E-03
        -0.62891E-03
        -0.66078E-03
        -0.62387E-03
        -0.43120E-03
        -0.53207E-03
        -0.35515E-03
        -0.31463E-03
        -0.25852E-03
        -0.13247E-03
         0.46534E-04
         0.24819E-03
         0.49322E-03
         0.66934E-03
         0.54091E-03
         0.10268E-03
        -0.33884E-03
        -0.60197E-03
        -0.69157E-03
        -0.70284E-03
        -0.72050E-03
        -0.76456E-03
        -0.77513E-03
        -0.71898E-03
        -0.65950E-03
        -0.64633E-03
        -0.68388E-03
        -0.73505E-03
        -0.72268E-03
        -0.63961E-03
        -0.51275E-03
        -0.49852E-03
        -0.50628E-03
        -0.52551E-03
        -0.52229E-03
        -0.53928E-03
        -0.49457E-03
        -0.51532E-03
        -0.52406E-03
        -0.53407E-03
        -0.48022E-03
        -0.42496E-03
        -0.46021E-03
        -0.49167E-03
        -0.38839E-03
        -0.52596E-03
        -0.53696E-03
        -0.52756E-03
        -0.53732E-03
        -0.55508E-03
        -0.57536E-03
        -0.57193E-03
        -0.56599E-03
        -0.53841E-03
        -0.55023E-03
        -0.53778E-03
        -0.49897E-03
        -0.49231E-03
        -0.45975E-03
        -0.54745E-03
        -0.54310E-03
        -0.54637E-03
        -0.54153E-03
        -0.54157E-03
        -0.50766E-03
        -0.49273E-03
        -0.47829E-03
        -0.33821E-03
        -0.28243E-03
        -0.22865E-03
        -0.18173E-03
        -0.37108E-03
        -0.50947E-03
        -0.55585E-03
        -0.54969E-03
        -0.53310E-03
        -0.52458E-03
        -0.50978E-03
        -0.50072E-03
        -0.50575E-03
        -0.51518E-03
        -0.54108E-03
        -0.51224E-03
        -0.54169E-03
        -0.48323E-03
        -0.45422E-03
        -0.40247E-03
        -0.30282E-03
        -0.15831E-03
         0.14790E-04
         0.21998E-03
         0.34362E-03
         0.22473E-03
        -0.96905E-04
        -0.41329E-03
        -0.61147E-03
        -0.66915E-03
        -0.64082E-03
        -0.59000E-03
        -0.54517E-03
        -0.50033E-03
        -0.43584E-03
        -0.36693E-03
        -0.33478E-03
        -0.37259E-03
        -0.46363E-03
        -0.53727E-03
        -0.55864E-03
        -0.51117E-03
        -0.50843E-03
        -0.50871E-03
        -0.51310E-03
        -0.51209E-03
        -0.50780E-03
        -0.51183E-03
        -0.51908E-03
        -0.51608E-03
        -0.52790E-03
        -0.50950E-03
        -0.48554E-03
        -0.50102E-03
        -0.51504E-03
        -0.46547E-03
        -0.51734E-03
        -0.52465E-03
        -0.51608E-03
        -0.52660E-03
        -0.53863E-03
        -0.55072E-03
        -0.55259E-03
        -0.53772E-03
        -0.52489E-03
        -0.53843E-03
        -0.51968E-03
        -0.51829E-03
        -0.51456E-03
        -0.49702E-03
        -0.54017E-03
        -0.51727E-03
        -0.51255E-03
        -0.51393E-03
        -0.50587E-03
        -0.51465E-03
        -0.51167E-03
        -0.50764E-03
        -0.43357E-03
        -0.39620E-03
        -0.36294E-03
        -0.33655E-03
        -0.44719E-03
        -0.52171E-03
        -0.51872E-03
        -0.49896E-03
        -0.47586E-03
        -0.48054E-03
        -0.47502E-03
        -0.46216E-03
        -0.45372E-03
        -0.45022E-03
        -0.48801E-03
        -0.52462E-03
        -0.51681E-03
        -0.52515E-03
        -0.51214E-03
        -0.48154E-03
        -0.42679E-03
        -0.34194E-03
        -0.22878E-03
        -0.86409E-04
        -0.32248E-05
        -0.88447E-04
        -0.28737E-03
        -0.46810E-03
        -0.58094E-03
        -0.60634E-03
        -0.57120E-03
        -0.51397E-03
        -0.46165E-03
        -0.42799E-03
        -0.39889E-03
        -0.35464E-03
        -0.30977E-03
        -0.31271E-03
        -0.37599E-03
        -0.45057E-03
        -0.49779E-03
        -0.50360E-03
        -0.50296E-03
        -0.50080E-03
        -0.50071E-03
        -0.50045E-03
        -0.49773E-03
        -0.50691E-03
        -0.51051E-03
        -0.50646E-03
        -0.51624E-03
        -0.50787E-03
        -0.49806E-03
        -0.50316E-03
        -0.51141E-03
        -0.48804E-03
        -0.50356E-03
        -0.51198E-03
        -0.50206E-03
        -0.51139E-03
        -0.52099E-03
        -0.52451E-03
        -0.52933E-03
        -0.51532E-03
        -0.50843E-03
        -0.52347E-03
        -0.50366E-03
        -0.51439E-03
        -0.51336E-03
        -0.50366E-03
        -0.52554E-03
        -0.50047E-03
        -0.49979E-03
        -0.49911E-03
        -0.49638E-03
        -0.50284E-03
        -0.50332E-03
        -0.50374E-03
        -0.46853E-03
        -0.44463E-03
        -0.42391E-03
        -0.40761E-03
        -0.47430E-03
        -0.51568E-03
        -0.50508E-03
        -0.49716E-03
        -0.49138E-03
        -0.49277E-03
        -0.49050E-03
        -0.48465E-03
        -0.48005E-03
        -0.47813E-03
        -0.49041E-03
        -0.50673E-03
        -0.50108E-03
        -0.51001E-03
        -0.50712E-03
        -0.49649E-03
        -0.47329E-03
        -0.42705E-03
        -0.35042E-03
        -0.25179E-03
        -0.19690E-03
        -0.25132E-03
        -0.37764E-03
        -0.48601E-03
        -0.54494E-03
        -0.55274E-03
        -0.53251E-03
        -0.50684E-03
        -0.48802E-03
        -0.48093E-03
        -0.47846E-03
        -0.46645E-03
        -0.44539E-03
        -0.43805E-03
        -0.45466E-03
        -0.47827E-03
        -0.49379E-03
        -0.49818E-03
        -0.49800E-03
        -0.49630E-03
        -0.49539E-03
        -0.49644E-03
        -0.49703E-03
        -0.50056E-03
        -0.50251E-03
        -0.49975E-03
        -0.50600E-03
        -0.50188E-03
        -0.49839E-03
        -0.49926E-03
        -0.50407E-03
        -0.49405E-03
        -0.49641E-03
        -0.50266E-03
        -0.49542E-03
        -0.50119E-03
        -0.50727E-03
        -0.50705E-03
        -0.51169E-03
        -0.50177E-03
        -0.49884E-03
        -0.51007E-03
        -0.49619E-03
        -0.50627E-03
        -0.50630E-03
        -0.50186E-03
        -0.51139E-03
        -0.49458E-03
        -0.49556E-03
        -0.49480E-03
        -0.49615E-03
        -0.49670E-03
        -0.49713E-03
        -0.49824E-03
        -0.48307E-03
        -0.46960E-03
        -0.45962E-03
        -0.45272E-03
        -0.48788E-03
        -0.50749E-03
        -0.49805E-03
        -0.49734E-03
        -0.49915E-03
        -0.49893E-03
        -0.49913E-03
        -0.49987E-03
        -0.50104E-03
        -0.50244E-03
        -0.49921E-03
        -0.49745E-03
        -0.49820E-03
        -0.49837E-03
        -0.49893E-03
        -0.49725E-03
        -0.48966E-03
        -0.46708E-03
        -0.41996E-03
        -0.35963E-03
        -0.33302E-03
        -0.36985E-03
        -0.44102E-03
        -0.49665E-03
        -0.52021E-03
        -0.51875E-03
        -0.50850E-03
        -0.50105E-03
        -0.49995E-03
        -0.50336E-03
        -0.50826E-03
        -0.51201E-03
        -0.51351E-03
        -0.51298E-03
        -0.50995E-03
        -0.50534E-03
        -0.50108E-03
        -0.49605E-03
        -0.49611E-03
        -0.49541E-03
        -0.49481E-03
        -0.49624E-03
        -0.49739E-03
        -0.49726E-03
        -0.49792E-03
        -0.49663E-03
        -0.49930E-03
        -0.49809E-03
        -0.49745E-03
        -0.49711E-03
        -0.49900E-03
        -0.49630E-03
        -0.49502E-03
        -0.49767E-03
        -0.49456E-03
        -0.49685E-03
        -0.49945E-03
        -0.49881E-03
        -0.50206E-03
        -0.49620E-03
        -0.49569E-03
        -0.50091E-03
        -0.49473E-03
        -0.50006E-03
        -0.50062E-03
        -0.50033E-03
        -0.50202E-03
        -0.49435E-03
        -0.49476E-03
        -0.49475E-03
        -0.49635E-03
        -0.49585E-03
        -0.49573E-03
        -0.49632E-03
        -0.49238E-03
        -0.48809E-03
        -0.48664E-03
        -0.48704E-03
        -0.49836E-03
        -0.50300E-03
        -0.49495E-03
        -0.49535E-03
        -0.49701E-03
        -0.49735E-03
        -0.49820E-03
        -0.49979E-03
        -0.50191E-03
        -0.50408E-03
        -0.50024E-03
        -0.49630E-03
        -0.49886E-03
        -0.49592E-03
        -0.49651E-03
        -0.49693E-03
        -0.49570E-03
        -0.48826E-03
        -0.46955E-03
        -0.44683E-03
        -0.44201E-03
        -0.46246E-03
        -0.48945E-03
        -0.50569E-03
        -0.50770E-03
        -0.50236E-03
        -0.49693E-03
        -0.49472E-03
        -0.49615E-03
        -0.49962E-03
        -0.50383E-03
        -0.50826E-03
        -0.51250E-03
        -0.51505E-03
        -0.51334E-03
        -0.50826E-03
        -0.50300E-03
        -0.49570E-03
        -0.49568E-03
        -0.49551E-03
        -0.49540E-03
        -0.49648E-03
        -0.49766E-03
        -0.49598E-03
        -0.49611E-03
        -0.49581E-03
        -0.49630E-03
        -0.49624E-03
        -0.49632E-03
        -0.49584E-03
        -0.49651E-03
        -0.49687E-03
        -0.49544E-03
        -0.49585E-03
        -0.49526E-03
        -0.49555E-03
        -0.49601E-03
        -0.49556E-03
        -0.49736E-03
        -0.49475E-03
        -0.49525E-03
        -0.49651E-03
        -0.49520E-03
        -0.49692E-03
        -0.49766E-03
        -0.49924E-03
        -0.49728E-03
        -0.49532E-03
        -0.49526E-03
        -0.49558E-03
        -0.49667E-03
        -0.49575E-03
        -0.49535E-03
        -0.49551E-03
        -0.49738E-03
        -0.49855E-03
        -0.50113E-03
        -0.50433E-03
        -0.50282E-03
        -0.50017E-03
        -0.49457E-03
        -0.49484E-03
        -0.49549E-03
        -0.49615E-03
        -0.49698E-03
        -0.49820E-03
        -0.49996E-03
        -0.50193E-03
        -0.49968E-03
        -0.49600E-03
        -0.49905E-03
        -0.49483E-03
        -0.49486E-03
        -0.49536E-03
        -0.49628E-03
        -0.49717E-03
        -0.49702E-03
        -0.49811E-03
        -0.50365E-03
        -0.51045E-03
        -0.51206E-03
        -0.50831E-03
        -0.50102E-03
        -0.49552E-03
        -0.49327E-03
        -0.49287E-03
        -0.49377E-03
        -0.49571E-03
        -0.49830E-03
        -0.50116E-03
        -0.50436E-03
        -0.50737E-03
        -0.50816E-03
        -0.50619E-03
        -0.50279E-03
        -0.49576E-03
        -0.49571E-03
        -0.49565E-03
        -0.49575E-03
        -0.49658E-03
        -0.49785E-03
        -0.49572E-03
        -0.49562E-03
        -0.49568E-03
        -0.49525E-03
        -0.49574E-03
        -0.49599E-03
        -0.49551E-03
        -0.49572E-03
        -0.49727E-03
        -0.49578E-03
        -0.49525E-03
        -0.49569E-03
        -0.49515E-03
        -0.49461E-03
        -0.49436E-03
        -0.49522E-03
        -0.49454E-03
        -0.49531E-03
        -0.49472E-03
        -0.49566E-03
        -0.49573E-03
        -0.49627E-03
        -0.49829E-03
        -0.49512E-03
        -0.49596E-03
        -0.49585E-03
        -0.49615E-03
        -0.49704E-03
        -0.49570E-03
        -0.49527E-03
        -0.49534E-03
        -0.49955E-03
        -0.50259E-03
        -0.50627E-03
        -0.51029E-03
        -0.50378E-03
        -0.49844E-03
        -0.49495E-03
        -0.49531E-03
        -0.49575E-03
        -0.49645E-03
        -0.49730E-03
        -0.49845E-03
        -0.50000E-03
        -0.50176E-03
        -0.49975E-03
        -0.49574E-03
        -0.49899E-03
        -0.49440E-03
        -0.49430E-03
        -0.49475E-03
        -0.49637E-03
        -0.50078E-03
        -0.50874E-03
        -0.51917E-03
        -0.52768E-03
        -0.52841E-03
        -0.51988E-03
        -0.50824E-03
        -0.49791E-03
        -0.49311E-03
        -0.49259E-03
        -0.49316E-03
        -0.49404E-03
        -0.49552E-03
        -0.49780E-03
        -0.50060E-03
        -0.50374E-03
        -0.50653E-03
        -0.50729E-03
        -0.50575E-03
        -0.50273E-03
        -0.49578E-03
        -0.49576E-03
        -0.49567E-03
        -0.49577E-03
        -0.49656E-03
        -0.49808E-03
        -0.49570E-03
        -0.49547E-03
        -0.49559E-03
        -0.49478E-03
        -0.49565E-03
        -0.49609E-03
        -0.49556E-03
        -0.49546E-03
        -0.49765E-03
        -0.49580E-03
        -0.49496E-03
        -0.49572E-03
        -0.49496E-03
        -0.49402E-03
        -0.49406E-03
        -0.49458E-03
        -0.49445E-03
        -0.49526E-03
        -0.49387E-03
        -0.49574E-03
        -0.49519E-03
        -0.49546E-03
        -0.49752E-03
        -0.49409E-03
        -0.49611E-03
        -0.49606E-03
        -0.49630E-03
        -0.49735E-03
        -0.49562E-03
        -0.49527E-03
        -0.49539E-03
        -0.50058E-03
        -0.50420E-03
        -0.50797E-03
        -0.51206E-03
        -0.50367E-03
        -0.49765E-03
        -0.49505E-03
        -0.49557E-03
        -0.49614E-03
        -0.49687E-03
        -0.49786E-03
        -0.49927E-03
        -0.50113E-03
        -0.50315E-03
        -0.50050E-03
        -0.49556E-03
        -0.49893E-03
        -0.49434E-03
        -0.49435E-03
        -0.49487E-03
        -0.49689E-03
        -0.50285E-03
        -0.51442E-03
        -0.52887E-03
        -0.53774E-03
        -0.53493E-03
        -0.52227E-03
        -0.50839E-03
        -0.49768E-03
        -0.49291E-03
        -0.49245E-03
        -0.49323E-03
        -0.49438E-03
        -0.49603E-03
        -0.49862E-03
        -0.50227E-03
        -0.50640E-03
        -0.50967E-03
        -0.51006E-03
        -0.50749E-03
        -0.50336E-03
        -0.49569E-03
        -0.49568E-03
        -0.49556E-03
        -0.49563E-03
        -0.49654E-03
        -0.49833E-03
        -0.49557E-03
        -0.49530E-03
        -0.49545E-03
        -0.49443E-03
        -0.49544E-03
        -0.49589E-03
        -0.49534E-03
        -0.49516E-03
        -0.49766E-03
        -0.49563E-03
        -0.49470E-03
        -0.49554E-03
        -0.49476E-03
        -0.49362E-03
        -0.49398E-03
        -0.49436E-03
        -0.49432E-03
        -0.49510E-03
        -0.49328E-03
        -0.49558E-03
        -0.49468E-03
        -0.49480E-03
        -0.49690E-03
        -0.49338E-03
        -0.49596E-03
        -0.49593E-03
        -0.49620E-03
        -0.49752E-03
        -0.49552E-03
        -0.49516E-03
        -0.49525E-03
        -0.50100E-03
        -0.50506E-03
        -0.50903E-03
        -0.51320E-03
        -0.50350E-03
        -0.49722E-03
        -0.49482E-03
        -0.49538E-03
        -0.49610E-03
        -0.49699E-03
        -0.49824E-03
        -0.50005E-03
        -0.50241E-03
        -0.50493E-03
        -0.50141E-03
        -0.49545E-03
        -0.49914E-03
        -0.49419E-03
        -0.49406E-03
        -0.49440E-03
        -0.49669E-03
        -0.50399E-03
        -0.51824E-03
        -0.53564E-03
        -0.54518E-03
        -0.53960E-03
        -0.52388E-03
        -0.50908E-03
        -0.49818E-03
        -0.49320E-03
        -0.49236E-03
        -0.49278E-03
        -0.49397E-03
        -0.49604E-03
        -0.49933E-03
        -0.50410E-03
        -0.50960E-03
        -0.51377E-03
        -0.51387E-03
        -0.51003E-03
        -0.50448E-03
        -0.49560E-03
        -0.49559E-03
        -0.49545E-03
        -0.49548E-03
        -0.49644E-03
        -0.49825E-03
        -0.49547E-03
        -0.49517E-03
        -0.49535E-03
        -0.49423E-03
        -0.49532E-03
        -0.49581E-03
        -0.49524E-03
        -0.49499E-03
        -0.49767E-03
        -0.49551E-03
        -0.49454E-03
        -0.49540E-03
        -0.49464E-03
        -0.49338E-03
        -0.49381E-03
        -0.49403E-03
        -0.49422E-03
        -0.49500E-03
        -0.49299E-03
        -0.49545E-03
        -0.49444E-03
        -0.49465E-03
        -0.49718E-03
        -0.49314E-03
        -0.49583E-03
        -0.49580E-03
        -0.49609E-03
        -0.49746E-03
        -0.49542E-03
        -0.49504E-03
        -0.49515E-03
        -0.50120E-03
        -0.50581E-03
        -0.51078E-03
        -0.51593E-03
        -0.50469E-03
        -0.49725E-03
        -0.49468E-03
        -0.49524E-03
        -0.49607E-03
        -0.49703E-03
        -0.49839E-03
        -0.50032E-03
        -0.50272E-03
        -0.50521E-03
        -0.50146E-03
        -0.49539E-03
        -0.49920E-03
        -0.49403E-03
        -0.49390E-03
        -0.49425E-03
        -0.49673E-03
        -0.50457E-03
        -0.51974E-03
        -0.53885E-03
        -0.55113E-03
        -0.54644E-03
        -0.52765E-03
        -0.50960E-03
        -0.49764E-03
        -0.49295E-03
        -0.49229E-03
        -0.49258E-03
        -0.49379E-03
        -0.49618E-03
        -0.49986E-03
        -0.50503E-03
        -0.51085E-03
        -0.51487E-03
        -0.51448E-03
        -0.51024E-03
        -0.50457E-03
        -0.49553E-03
        -0.49552E-03
        -0.49537E-03
        -0.49539E-03
        -0.49646E-03
        -0.49830E-03
        -0.49541E-03
        -0.49511E-03
        -0.49529E-03
        -0.49420E-03
        -0.49528E-03
        -0.49583E-03
        -0.49523E-03
        -0.49500E-03
        -0.49786E-03
        -0.49542E-03
        -0.49447E-03
        -0.49530E-03
        -0.49455E-03
        -0.49321E-03
        -0.49357E-03
        -0.49367E-03
        -0.49401E-03
        -0.49488E-03
        -0.49291E-03
        -0.49529E-03
        -0.49455E-03
        -0.49480E-03
        -0.49736E-03
        -0.49296E-03
        -0.49568E-03
        -0.49564E-03
        -0.49600E-03
        -0.49745E-03
        -0.49541E-03
        -0.49499E-03
        -0.49512E-03
        -0.50168E-03
        -0.50655E-03
        -0.51174E-03
        -0.51703E-03
        -0.50499E-03
        -0.49698E-03
        -0.49447E-03
        -0.49511E-03
        -0.49613E-03
        -0.49707E-03
        -0.49836E-03
        -0.50025E-03
        -0.50268E-03
        -0.50524E-03
        -0.50153E-03
        -0.49545E-03
        -0.49949E-03
        -0.49395E-03
        -0.49393E-03
        -0.49441E-03
        -0.49690E-03
        -0.50513E-03
        -0.52094E-03
        -0.54039E-03
        -0.55333E-03
        -0.54887E-03
        -0.52851E-03
        -0.50919E-03
        -0.49692E-03
        -0.49238E-03
        -0.49186E-03
        -0.49226E-03
        -0.49377E-03
        -0.49658E-03
        -0.50040E-03
        -0.50523E-03
        -0.51058E-03
        -0.51449E-03
        -0.51436E-03
        -0.51039E-03
        -0.50488E-03
        -0.49551E-03
        -0.49549E-03
        -0.49540E-03
        -0.49543E-03
        -0.49673E-03
        -0.49878E-03
        -0.49536E-03
        -0.49509E-03
        -0.49529E-03
        -0.49422E-03
        -0.49525E-03
        -0.49586E-03
        -0.49516E-03
        -0.49500E-03
        -0.49805E-03
        -0.49536E-03
        -0.49449E-03
        -0.49524E-03
        -0.49455E-03
        -0.49322E-03
        -0.49351E-03
        -0.49354E-03
        -0.49387E-03
        -0.49481E-03
        -0.49296E-03
        -0.49518E-03
        -0.49457E-03
        -0.49477E-03
        -0.49716E-03
        -0.49294E-03
        -0.49557E-03
        -0.49555E-03
        -0.49592E-03
        -0.49758E-03
        -0.49550E-03
        -0.49497E-03
        -0.49505E-03
        -0.50173E-03
        -0.50610E-03
        -0.51078E-03
        -0.51576E-03
        -0.50439E-03
        -0.49670E-03
        -0.49431E-03
        -0.49508E-03
        -0.49633E-03
        -0.49721E-03
        -0.49833E-03
        -0.50013E-03
        -0.50280E-03
        -0.50581E-03
        -0.50216E-03
        -0.49559E-03
        -0.50020E-03
        -0.49385E-03
        -0.49378E-03
        -0.49430E-03
        -0.49711E-03
        -0.50604E-03
        -0.52167E-03
        -0.53907E-03
        -0.54997E-03
        -0.54565E-03
        -0.52681E-03
        -0.50829E-03
        -0.49644E-03
        -0.49208E-03
        -0.49151E-03
        -0.49199E-03
        -0.49388E-03
        -0.49717E-03
        -0.50111E-03
        -0.50536E-03
        -0.51008E-03
        -0.51441E-03
        -0.51536E-03
        -0.51206E-03
        -0.50631E-03
        -0.49559E-03
        -0.49558E-03
        -0.49556E-03
        -0.49554E-03
        -0.49696E-03
        -0.49898E-03
        -0.49542E-03
        -0.49516E-03
        -0.49536E-03
        -0.49432E-03
        -0.49532E-03
        -0.49599E-03
        -0.49520E-03
        -0.49506E-03
        -0.49816E-03
        -0.49539E-03
        -0.49461E-03
        -0.49527E-03
        -0.49467E-03
        -0.49343E-03
        -0.49364E-03
        -0.49365E-03
        -0.49400E-03
        -0.49489E-03
        -0.49315E-03
        -0.49522E-03
        -0.49460E-03
        -0.49476E-03
        -0.49698E-03
        -0.49315E-03
        -0.49557E-03
        -0.49562E-03
        -0.49589E-03
        -0.49755E-03
        -0.49567E-03
        -0.49507E-03
        -0.49509E-03
        -0.50151E-03
        -0.50539E-03
        -0.50950E-03
        -0.51400E-03
        -0.50368E-03
        -0.49661E-03
        -0.49443E-03
        -0.49524E-03
        -0.49656E-03
        -0.49738E-03
        -0.49836E-03
        -0.49998E-03
        -0.50258E-03
        -0.50564E-03
        -0.50218E-03
        -0.49573E-03
        -0.50051E-03
        -0.49387E-03
        -0.49373E-03
        -0.49429E-03
        -0.49736E-03
        -0.50640E-03
        -0.52121E-03
        -0.53684E-03
        -0.54583E-03
        -0.54122E-03
        -0.52437E-03
        -0.50713E-03
        -0.49608E-03
        -0.49220E-03
        -0.49173E-03
        -0.49227E-03
        -0.49423E-03
        -0.49758E-03
        -0.50149E-03
        -0.50545E-03
        -0.50971E-03
        -0.51391E-03
        -0.51510E-03
        -0.51218E-03
        -0.50668E-03
        -0.49567E-03
        -0.49563E-03
        -0.49572E-03
        -0.49568E-03
        -0.49709E-03
        -0.49880E-03
        -0.49542E-03
        -0.49520E-03
        -0.49541E-03
        -0.49442E-03
        -0.49532E-03
        -0.49593E-03
        -0.49517E-03
        -0.49509E-03
        -0.49798E-03
        -0.49543E-03
        -0.49467E-03
        -0.49537E-03
        -0.49469E-03
        -0.49356E-03
        -0.49369E-03
        -0.49384E-03
        -0.49405E-03
        -0.49492E-03
        -0.49331E-03
        -0.49530E-03
        -0.49472E-03
        -0.49494E-03
        -0.49715E-03
        -0.49337E-03
        -0.49569E-03
        -0.49575E-03
        -0.49596E-03
        -0.49744E-03
        -0.49589E-03
        -0.49520E-03
        -0.49509E-03
        -0.50125E-03
        -0.50524E-03
        -0.50946E-03
        -0.51402E-03
        -0.50388E-03
        -0.49690E-03
        -0.49454E-03
        -0.49538E-03
        -0.49663E-03
        -0.49742E-03
        -0.49837E-03
        -0.49985E-03
        -0.50209E-03
        -0.50472E-03
        -0.50155E-03
        -0.49600E-03
        -0.50045E-03
        -0.49400E-03
        -0.49368E-03
        -0.49426E-03
        -0.49728E-03
        -0.50562E-03
        -0.51938E-03
        -0.53512E-03
        -0.54517E-03
        -0.54124E-03
        -0.52492E-03
        -0.50767E-03
        -0.49633E-03
        -0.49230E-03
        -0.49186E-03
        -0.49248E-03
        -0.49438E-03
        -0.49749E-03
        -0.50117E-03
        -0.50514E-03
        -0.50925E-03
        -0.51281E-03
        -0.51329E-03
        -0.51032E-03
        -0.50569E-03
        -0.49576E-03
        -0.49574E-03
        -0.49593E-03
        -0.49594E-03
        -0.49733E-03
        -0.49890E-03
        -0.49553E-03
        -0.49529E-03
        -0.49546E-03
        -0.49451E-03
        -0.49548E-03
        -0.49614E-03
        -0.49536E-03
        -0.49529E-03
        -0.49816E-03
        -0.49552E-03
        -0.49469E-03
        -0.49557E-03
        -0.49466E-03
        -0.49360E-03
        -0.49367E-03
        -0.49406E-03
        -0.49398E-03
        -0.49489E-03
        -0.49345E-03
        -0.49535E-03
        -0.49504E-03
        -0.49545E-03
        -0.49796E-03
        -0.49363E-03
        -0.49586E-03
        -0.49579E-03
        -0.49620E-03
        -0.49762E-03
        -0.49616E-03
        -0.49541E-03
        -0.49525E-03
        -0.50174E-03
        -0.50647E-03
        -0.51147E-03
        -0.51665E-03
        -0.50537E-03
        -0.49758E-03
        -0.49451E-03
        -0.49528E-03
        -0.49628E-03
        -0.49709E-03
        -0.49813E-03
        -0.49967E-03
        -0.50187E-03
        -0.50435E-03
        -0.50142E-03
        -0.49632E-03
        -0.50054E-03
        -0.49427E-03
        -0.49394E-03
        -0.49464E-03
        -0.49756E-03
        -0.50540E-03
        -0.51955E-03
        -0.53777E-03
        -0.55059E-03
        -0.54714E-03
        -0.52882E-03
        -0.50952E-03
        -0.49701E-03
        -0.49234E-03
        -0.49173E-03
        -0.49235E-03
        -0.49405E-03
        -0.49666E-03
        -0.49982E-03
        -0.50370E-03
        -0.50798E-03
        -0.51163E-03
        -0.51228E-03
        -0.50942E-03
        -0.50520E-03
        -0.49586E-03
        -0.49591E-03
        -0.49607E-03
        -0.49610E-03
        -0.49735E-03
        -0.49881E-03
        -0.49578E-03
        -0.49543E-03
        -0.49552E-03
        -0.49457E-03
        -0.49580E-03
        -0.49653E-03
        -0.49577E-03
        -0.49552E-03
        -0.49837E-03
        -0.49567E-03
        -0.49475E-03
        -0.49578E-03
        -0.49474E-03
        -0.49368E-03
        -0.49377E-03
        -0.49419E-03
        -0.49404E-03
        -0.49497E-03
        -0.49347E-03
        -0.49546E-03
        -0.49510E-03
        -0.49538E-03
        -0.49792E-03
        -0.49368E-03
        -0.49602E-03
        -0.49583E-03
        -0.49638E-03
        -0.49767E-03
        -0.49627E-03
        -0.49563E-03
        -0.49556E-03
        -0.50164E-03
        -0.50621E-03
        -0.51141E-03
        -0.51686E-03
        -0.50544E-03
        -0.49765E-03
        -0.49453E-03
        -0.49515E-03
        -0.49589E-03
        -0.49673E-03
        -0.49774E-03
        -0.49919E-03
        -0.50128E-03
        -0.50360E-03
        -0.50108E-03
        -0.49635E-03
        -0.50028E-03
        -0.49460E-03
        -0.49449E-03
        -0.49527E-03
        -0.49794E-03
        -0.50517E-03
        -0.51894E-03
        -0.53726E-03
        -0.55101E-03
        -0.54815E-03
        -0.52909E-03
        -0.50946E-03
        -0.49712E-03
        -0.49243E-03
        -0.49174E-03
        -0.49226E-03
        -0.49367E-03
        -0.49586E-03
        -0.49857E-03
        -0.50192E-03
        -0.50579E-03
        -0.50943E-03
        -0.51054E-03
        -0.50830E-03
        -0.50456E-03
        -0.49599E-03
        -0.49608E-03
        -0.49620E-03
        -0.49625E-03
        -0.49719E-03
        -0.49838E-03
        -0.49596E-03
        -0.49556E-03
        -0.49566E-03
        -0.49467E-03
        -0.49598E-03
        -0.49671E-03
        -0.49605E-03
        -0.49563E-03
        -0.49818E-03
        -0.49589E-03
        -0.49492E-03
        -0.49601E-03
        -0.49497E-03
        -0.49389E-03
        -0.49394E-03
        -0.49417E-03
        -0.49430E-03
        -0.49522E-03
        -0.49354E-03
        -0.49570E-03
        -0.49500E-03
        -0.49497E-03
        -0.49721E-03
        -0.49367E-03
        -0.49622E-03
        -0.49599E-03
        -0.49649E-03
        -0.49748E-03
        -0.49631E-03
        -0.49586E-03
        -0.49587E-03
        -0.50067E-03
        -0.50434E-03
        -0.50899E-03
        -0.51424E-03
        -0.50418E-03
        -0.49722E-03
        -0.49477E-03
        -0.49524E-03
        -0.49577E-03
        -0.49658E-03
        -0.49740E-03
        -0.49847E-03
        -0.50008E-03
        -0.50192E-03
        -0.50012E-03
        -0.49632E-03
        -0.49950E-03
        -0.49506E-03
        -0.49508E-03
        -0.49575E-03
        -0.49807E-03
        -0.50424E-03
        -0.51590E-03
        -0.53157E-03
        -0.54407E-03
        -0.54259E-03
        -0.52575E-03
        -0.50747E-03
        -0.49617E-03
        -0.49229E-03
        -0.49202E-03
        -0.49254E-03
        -0.49363E-03
        -0.49542E-03
        -0.49774E-03
        -0.50030E-03
        -0.50296E-03
        -0.50577E-03
        -0.50703E-03
        -0.50569E-03
        -0.50296E-03
        -0.49623E-03
        -0.49629E-03
        -0.49646E-03
        -0.49663E-03
        -0.49722E-03
        -0.49825E-03
        -0.49605E-03
        -0.49566E-03
        -0.49592E-03
        -0.49485E-03
        -0.49597E-03
        -0.49667E-03
        -0.49618E-03
        -0.49560E-03
        -0.49796E-03
        -0.49625E-03
        -0.49520E-03
        -0.49643E-03
        -0.49519E-03
        -0.49414E-03
        -0.49392E-03
        -0.49414E-03
        -0.49445E-03
        -0.49547E-03
        -0.49385E-03
        -0.49604E-03
        -0.49508E-03
        -0.49529E-03
        -0.49783E-03
        -0.49407E-03
        -0.49664E-03
        -0.49632E-03
        -0.49686E-03
        -0.49758E-03
        -0.49641E-03
        -0.49609E-03
        -0.49610E-03
        -0.50046E-03
        -0.50447E-03
        -0.50967E-03
        -0.51545E-03
        -0.50516E-03
        -0.49759E-03
        -0.49506E-03
        -0.49547E-03
        -0.49569E-03
        -0.49644E-03
        -0.49716E-03
        -0.49797E-03
        -0.49918E-03
        -0.50059E-03
        -0.49950E-03
        -0.49626E-03
        -0.49892E-03
        -0.49532E-03
        -0.49549E-03
        -0.49609E-03
        -0.49807E-03
        -0.50374E-03
        -0.51507E-03
        -0.53106E-03
        -0.54461E-03
        -0.54449E-03
        -0.52775E-03
        -0.50749E-03
        -0.49521E-03
        -0.49164E-03
        -0.49193E-03
        -0.49279E-03
        -0.49367E-03
        -0.49478E-03
        -0.49631E-03
        -0.49819E-03
        -0.50016E-03
        -0.50244E-03
        -0.50395E-03
        -0.50358E-03
        -0.50174E-03
        -0.49639E-03
        -0.49642E-03
        -0.49672E-03
        -0.49711E-03
        -0.49726E-03
        -0.49816E-03
        -0.49597E-03
        -0.49559E-03
        -0.49604E-03
        -0.49484E-03
        -0.49575E-03
        -0.49633E-03
        -0.49610E-03
        -0.49540E-03
        -0.49752E-03
        -0.49658E-03
        -0.49517E-03
        -0.49696E-03
        -0.49497E-03
        -0.49385E-03
        -0.49317E-03
        -0.49360E-03
        -0.49390E-03
        -0.49534E-03
        -0.49386E-03
        -0.49628E-03
        -0.49505E-03
        -0.49553E-03
        -0.49842E-03
        -0.49408E-03
        -0.49721E-03
        -0.49654E-03
        -0.49743E-03
        -0.49776E-03
        -0.49649E-03
        -0.49631E-03
        -0.49628E-03
        -0.50012E-03
        -0.50454E-03
        -0.51043E-03
        -0.51709E-03
        -0.50654E-03
        -0.49795E-03
        -0.49484E-03
        -0.49506E-03
        -0.49435E-03
        -0.49524E-03
        -0.49609E-03
        -0.49683E-03
        -0.49771E-03
        -0.49866E-03
        -0.49873E-03
        -0.49615E-03
        -0.49825E-03
        -0.49567E-03
        -0.49593E-03
        -0.49611E-03
        -0.49756E-03
        -0.50281E-03
        -0.51372E-03
        -0.52971E-03
        -0.54441E-03
        -0.54713E-03
        -0.53191E-03
        -0.50944E-03
        -0.49445E-03
        -0.48989E-03
        -0.49048E-03
        -0.49183E-03
        -0.49213E-03
        -0.49145E-03
        -0.49112E-03
        -0.49227E-03
        -0.49430E-03
        -0.49681E-03
        -0.49944E-03
        -0.50083E-03
        -0.50035E-03
        -0.49642E-03
        -0.49658E-03
        -0.49710E-03
        -0.49765E-03
        -0.49727E-03
        -0.49759E-03
        -0.49594E-03
        -0.49543E-03
        -0.49585E-03
        -0.49455E-03
        -0.49570E-03
        -0.49623E-03
        -0.49615E-03
        -0.49539E-03
        -0.49747E-03
        -0.49687E-03
        -0.49468E-03
        -0.49755E-03
        -0.49428E-03
        -0.49304E-03
        -0.49168E-03
        -0.49298E-03
        -0.49238E-03
        -0.49479E-03
        -0.49350E-03
        -0.49635E-03
        -0.49514E-03
        -0.49587E-03
        -0.49955E-03
        -0.49399E-03
        -0.49783E-03
        -0.49629E-03
        -0.49802E-03
        -0.49765E-03
        -0.49691E-03
        -0.49689E-03
        -0.49665E-03
        -0.50012E-03
        -0.50488E-03
        -0.51201E-03
        -0.52064E-03
        -0.50976E-03
        -0.49930E-03
        -0.49355E-03
        -0.49304E-03
        -0.49021E-03
        -0.49181E-03
        -0.49325E-03
        -0.49413E-03
        -0.49463E-03
        -0.49483E-03
        -0.49687E-03
        -0.49664E-03
        -0.49707E-03
        -0.49685E-03
        -0.49675E-03
        -0.49617E-03
        -0.49710E-03
        -0.50198E-03
        -0.51188E-03
        -0.52721E-03
        -0.54435E-03
        -0.55278E-03
        -0.54103E-03
        -0.51535E-03
        -0.49474E-03
        -0.48677E-03
        -0.48656E-03
        -0.48778E-03
        -0.48643E-03
        -0.48244E-03
        -0.47921E-03
        -0.47983E-03
        -0.48276E-03
        -0.48645E-03
        -0.49121E-03
        -0.49531E-03
        -0.49719E-03
        -0.49710E-03
        -0.49801E-03
        -0.49915E-03
        -0.49910E-03
        -0.49899E-03
        -0.49757E-03
        -0.49700E-03
        -0.49566E-03
        -0.49569E-03
        -0.49391E-03
        -0.49690E-03
        -0.49841E-03
        -0.49811E-03
        -0.49620E-03
        -0.50011E-03
        -0.49767E-03
        -0.49353E-03
        -0.49876E-03
        -0.49294E-03
        -0.49114E-03
        -0.48857E-03
        -0.49254E-03
        -0.48891E-03
        -0.49379E-03
        -0.49243E-03
        -0.49641E-03
        -0.49585E-03
        -0.49791E-03
        -0.50596E-03
        -0.49444E-03
        -0.49846E-03
        -0.49494E-03
        -0.49859E-03
        -0.49727E-03
        -0.49998E-03
        -0.49991E-03
        -0.49900E-03
        -0.50409E-03
        -0.51264E-03
        -0.52681E-03
        -0.54377E-03
        -0.52587E-03
        -0.50612E-03
        -0.48992E-03
        -0.48719E-03
        -0.47985E-03
        -0.48360E-03
        -0.48677E-03
        -0.48840E-03
        -0.48894E-03
        -0.48865E-03
        -0.49419E-03
        -0.50056E-03
        -0.49718E-03
        -0.50160E-03
        -0.50038E-03
        -0.49935E-03
        -0.50099E-03
        -0.50733E-03
        -0.52018E-03
        -0.54328E-03
        -0.57480E-03
        -0.59657E-03
        -0.58259E-03
        -0.53891E-03
        -0.49861E-03
        -0.48011E-03
        -0.47673E-03
        -0.47616E-03
        -0.47082E-03
        -0.46138E-03
        -0.45455E-03
        -0.45584E-03
        -0.46180E-03
        -0.46930E-03
        -0.47884E-03
        -0.48779E-03
        -0.49352E-03
        -0.49932E-03
        -0.50189E-03
        -0.50429E-03
        -0.50248E-03
        -0.50402E-03
        -0.49944E-03
        -0.49999E-03
        -0.49671E-03
        -0.49597E-03
        -0.49284E-03
        -0.49994E-03
        -0.50375E-03
        -0.50312E-03
        -0.49805E-03
        -0.50607E-03
        -0.49946E-03
        -0.49153E-03
        -0.50132E-03
        -0.49083E-03
        -0.48732E-03
        -0.48304E-03
        -0.49111E-03
        -0.48319E-03
        -0.49235E-03
        -0.49022E-03
        -0.49649E-03
        -0.49721E-03
        -0.50275E-03
        -0.52160E-03
        -0.49555E-03
        -0.49919E-03
        -0.49200E-03
        -0.49937E-03
        -0.49693E-03
        -0.50723E-03
        -0.50691E-03
        -0.50470E-03
        -0.51329E-03
        -0.53214E-03
        -0.56337E-03
        -0.59710E-03
        -0.56192E-03
        -0.52006E-03
        -0.48363E-03
        -0.47679E-03
        -0.46238E-03
        -0.46960E-03
        -0.47577E-03
        -0.47897E-03
        -0.48043E-03
        -0.48052E-03
        -0.49147E-03
        -0.50924E-03
        -0.50048E-03
        -0.51125E-03
        -0.50823E-03
        -0.50715E-03
        -0.51085E-03
        -0.52078E-03
        -0.54216E-03
        -0.58575E-03
        -0.64815E-03
        -0.69136E-03
        -0.66477E-03
        -0.58199E-03
        -0.50417E-03
        -0.46829E-03
        -0.46058E-03
        -0.45696E-03
        -0.44538E-03
        -0.42840E-03
        -0.41713E-03
        -0.41969E-03
        -0.43098E-03
        -0.44598E-03
        -0.46376E-03
        -0.48047E-03
        -0.49177E-03
  
SCALARS                     velocity_x  double 1
LOOKUP_TABLE default
         0.00000E+00
        -0.23715E+01
        -0.38655E+02
         0.13334E+02
        -0.61889E+01
        -0.19812E+04
        -0.15197E+04
        -0.10793E+04
        -0.12082E+04
         0.72528E+02
         0.13544E+03
        -0.14076E+04
        -0.14872E+04
        -0.83003E+02
        -0.11150E+03
        -0.11865E+04
        -0.69438E+03
         0.40541E+02
        -0.60561E+01
        -0.98921E+03
        -0.30642E+04
        -0.96175E+02
        -0.74915E+02
        -0.13988E+03
        -0.17726E+04
        -0.10911E+04
        -0.58993E+03
        -0.93907E+02
        -0.21324E+03
        -0.18856E+04
        -0.44952E+03
         0.10522E+02
         0.30614E+02
         0.27090E+01
        -0.14342E+03
        -0.37852E+03
        -0.17870E+03
        -0.69584E+01
         0.17229E+02
        -0.24168E+02
        -0.65843E+02
        -0.36196E+02
        -0.11634E+03
         0.18366E+01
        -0.17015E+02
        -0.10036E+02
        -0.23843E+02
        -0.62205E+02
        -0.16432E+02
         0.39729E+02
        -0.58148E+03
        -0.57039E+02
        -0.22682E+03
        -0.23580E+03
        -0.10862E+04
        -0.34886E+03
        -0.12414E+04
        -0.22305E+03
        -0.31704E+02
        -0.16716E+04
        -0.26119E+03
        -0.76696E+02
        -0.46531E+02
        -0.70704E+03
        -0.38373E+03
        -0.20700E+02
        -0.18510E+03
        -0.37121E+02
        -0.22095E+04
         0.78622E+02
         0.10346E+03
        -0.14177E+04
        -0.67399E+03
        -0.88652E+00
        -0.44706E+03
        -0.99928E+02
        -0.91985E+03
        -0.17353E+03
        -0.10223E+04
        -0.49796E+03
        -0.12440E+04
        -0.30191E+03
        -0.83203E+03
        -0.14810E+04
        -0.70621E+03
        -0.20365E+03
        -0.67486E+03
         0.13230E+03
        -0.76520E+03
         0.31004E+03
        -0.14165E+04
         0.17817E+03
         0.25748E+03
        -0.14503E+04
        -0.33958E+03
         0.13139E+03
        -0.29418E+03
         0.29762E+03
        -0.10184E+04
         0.67843E+03
        -0.15770E+04
         0.39093E+03
         0.61938E+03
        -0.13080E+04
        -0.19398E+04
         0.20623E+03
         0.76104E+03
        -0.27569E+04
        -0.14490E+04
         0.27195E+03
        -0.67095E+03
         0.20459E+02
        -0.17392E+03
        -0.39942E+03
         0.28175E+03
        -0.11036E+04
         0.63813E+03
        -0.14578E+04
         0.62895E+03
        -0.14081E+04
         0.72708E+03
        -0.16858E+04
         0.67663E+03
        -0.17030E+04
        -0.13362E+04
        -0.14188E+04
        -0.16800E+04
        -0.77111E+03
        -0.14735E+04
        -0.29854E+03
        -0.15589E+04
        -0.21493E+03
        -0.16574E+04
         0.24025E+03
        -0.16338E+04
         0.69847E+03
        -0.13890E+04
         0.96496E+03
        -0.12009E+04
         0.15479E+04
        -0.21187E+04
         0.19512E+04
        -0.16606E+04
         0.18604E+04
        -0.12710E+04
         0.19359E+04
        -0.15434E+04
         0.32391E+04
        -0.22746E+04
         0.40976E+04
        -0.20029E+04
         0.46384E+04
        -0.16383E+04
         0.22760E+04
        -0.18107E+04
         0.93355E+03
        -0.90263E+03
         0.58614E+03
         0.57254E+03
         0.34208E+03
         0.59572E+03
         0.56098E+03
         0.11901E+04
         0.48473E+03
         0.50464E+03
         0.95192E+03
         0.19730E+04
         0.55015E+03
         0.22094E+03
         0.37130E+03
         0.60627E+03
         0.16324E+03
         0.53640E+03
         0.45990E+03
         0.97035E+03
         0.32221E+03
         0.33494E+03
         0.20500E+03
         0.17891E+03
         0.73961E+03
         0.35394E+03
         0.79516E+03
         0.60279E+03
         0.68632E+03
         0.70833E+03
         0.44083E+03
         0.28498E+03
         0.67035E+03
         0.43793E+03
         0.54005E+03
         0.15808E+04
         0.70976E+03
         0.63774E+03
         0.39652E+03
         0.40948E+03
         0.47118E+03
         0.62611E+03
         0.32498E+03
         0.38228E+03
         0.25606E+03
         0.69073E+03
         0.12576E+04
         0.78999E+03
         0.59725E+03
         0.67488E+03
         0.11038E+04
         0.20533E+04
         0.12038E+04
         0.28026E+04
         0.13465E+04
         0.19391E+04
         0.84779E+03
         0.27281E+03
        -0.22971E+03
        -0.67584E+03
        -0.10041E+04
        -0.12907E+04
        -0.16670E+04
        -0.91680E+03
         0.16927E+03
         0.48688E+03
         0.51517E+03
         0.72612E+03
         0.10320E+04
         0.13444E+04
         0.17480E+04
         0.22903E+04
         0.16146E+04
         0.12257E+04
         0.19410E+04
         0.35589E+04
         0.47360E+04
         0.32727E+04
         0.22288E+04
         0.84860E+03
         0.34260E+03
         0.20413E+03
         0.15687E+03
         0.35447E+03
         0.17794E+03
         0.31683E+03
         0.21336E+03
         0.18824E+03
         0.35005E+03
         0.72834E+03
         0.27910E+03
         0.17421E+03
         0.18750E+03
         0.31894E+03
         0.12590E+03
         0.23595E+03
         0.19404E+03
         0.40513E+03
         0.17377E+03
         0.23337E+03
         0.16912E+03
         0.29308E+03
         0.28878E+03
         0.16168E+03
         0.39586E+03
         0.28316E+03
         0.33338E+03
         0.34042E+03
         0.16762E+03
         0.21800E+03
         0.42230E+03
         0.21481E+03
         0.33980E+03
         0.52168E+03
         0.24035E+03
         0.20835E+03
         0.15799E+03
         0.20860E+03
         0.21118E+03
         0.31974E+03
         0.19401E+03
         0.10318E+03
         0.31752E+03
         0.23522E+03
         0.34441E+03
         0.13917E+03
         0.14317E+03
         0.17109E+03
         0.17520E+03
         0.71939E+02
        -0.49737E+02
         0.40456E+03
         0.22234E+03
         0.10793E+03
         0.19618E+03
         0.15135E+03
         0.80536E+02
         0.40339E+02
         0.70434E+02
        -0.78672E+02
         0.95527E+01
         0.35949E+02
         0.12950E+03
         0.34850E+03
         0.47103E+03
         0.57316E+03
         0.47185E+03
         0.34833E+03
         0.27769E+03
         0.15549E+03
         0.41765E+01
        -0.14292E+03
        -0.32358E+03
        -0.45802E+03
        -0.46993E+03
        -0.45208E+03
        -0.23287E+03
        -0.65550E+01
         0.29226E+02
         0.65637E+01
        -0.17664E+02
         0.30662E+02
        -0.94483E+02
        -0.19469E+03
         0.29038E+02
         0.27907E+02
         0.76014E+01
         0.11150E+03
         0.71482E+02
         0.81526E+02
         0.45130E+02
         0.87946E+02
         0.64445E+02
         0.10311E+02
         0.84043E+01
         0.50808E+01
         0.95145E+01
         0.42267E+02
         0.38890E+02
         0.12830E+03
        -0.14424E+02
         0.17897E+01
         0.46732E+02
         0.15395E+02
         0.87707E+02
         0.12945E+03
         0.99859E+02
         0.64585E+02
        -0.60872E+00
        -0.11708E+02
        -0.45956E+02
        -0.16983E+03
        -0.15041E+03
        -0.33878E+02
        -0.11420E+02
         0.12038E+03
         0.12706E+03
         0.22409E+03
         0.12845E+03
         0.12701E+03
         0.18722E+03
        -0.71655E+02
        -0.21581E+03
        -0.19040E+03
        -0.12897E+03
        -0.19270E+03
        -0.22714E+03
        -0.80282E+03
        -0.69446E+03
        -0.12167E+04
        -0.39539E+03
        -0.70772E+03
        -0.21193E+03
        -0.66144E+02
         0.12078E+03
         0.24952E+03
         0.19009E+03
         0.19804E+03
         0.23207E+03
         0.44439E+02
         0.21418E+02
         0.17110E+03
         0.26596E+03
         0.31357E+03
         0.19015E+03
        -0.47045E+02
        -0.33706E+03
        -0.63554E+03
        -0.52175E+03
        -0.44821E+03
        -0.72926E+03
        -0.19466E+04
        -0.30225E+04
        -0.21841E+04
        -0.14978E+04
        -0.47431E+03
        -0.93179E+01
        -0.10412E+02
        -0.12243E+02
        -0.16687E+02
        -0.36380E+02
        -0.89917E+02
        -0.35984E+00
         0.40854E+01
        -0.41763E+01
         0.37893E+02
         0.29361E+02
         0.50349E+02
         0.19698E+02
         0.43809E+02
         0.46797E+02
        -0.13000E+02
         0.19563E+01
        -0.24090E+02
        -0.32485E+01
         0.20188E+02
         0.32570E+02
         0.98041E+02
         0.18016E+02
        -0.45022E+01
         0.39146E+02
        -0.55867E+01
         0.70162E+02
         0.13857E+03
         0.16040E+03
         0.56392E+02
        -0.18603E+02
        -0.72553E+01
        -0.31551E+02
        -0.96959E+02
        -0.39394E+02
        -0.20571E+02
         0.26172E+00
         0.16376E+03
         0.23424E+03
         0.40979E+03
         0.21486E+03
         0.18739E+03
         0.18551E+03
        -0.10185E+02
        -0.44948E+02
        -0.35424E+02
        -0.30329E+02
        -0.47619E+02
        -0.56839E+02
        -0.15287E+03
        -0.13688E+03
        -0.26842E+03
        -0.14153E+03
        -0.20591E+03
        -0.37050E+02
         0.15884E+02
         0.94938E+02
         0.20690E+03
         0.17309E+03
         0.21330E+03
         0.17859E+03
         0.95013E+02
         0.41726E+02
         0.12783E+03
         0.28150E+03
         0.28279E+03
         0.19071E+03
         0.48237E+02
        -0.72560E+02
        -0.14832E+03
        -0.10051E+03
        -0.83641E+02
        -0.19970E+03
        -0.33728E+03
        -0.55577E+03
        -0.46986E+03
        -0.32364E+03
        -0.10251E+03
        -0.92927E+01
        -0.16813E+01
         0.26928E+01
        -0.32135E+01
         0.26433E+01
         0.86662E+01
        -0.12985E+01
         0.30520E+00
        -0.12962E+02
         0.12588E+02
         0.87437E+01
         0.21525E+02
         0.13864E+02
         0.17125E+02
         0.28540E+02
        -0.14695E+02
        -0.80666E+01
        -0.13813E+02
        -0.56362E+01
         0.46945E+01
         0.17913E+02
         0.53082E+02
         0.18240E+02
        -0.29543E+01
         0.20192E+02
        -0.66283E+01
         0.32916E+02
         0.72540E+02
         0.76014E+02
         0.26872E+02
         0.52620E+01
         0.28727E+01
         0.99164E+01
         0.14649E+02
         0.50696E+01
         0.46125E+01
         0.37346E+01
         0.88992E+02
         0.15368E+03
         0.23295E+03
         0.12734E+03
         0.76281E+02
         0.94132E+02
         0.12425E+02
         0.27570E+02
         0.24813E+02
         0.24091E+02
         0.32012E+02
         0.20447E+02
         0.68279E+02
         0.43879E+02
         0.85461E+02
        -0.71134E+01
        -0.59618E+01
        -0.11558E+02
         0.44939E+01
         0.36017E+02
         0.60752E+02
         0.78862E+02
         0.18315E+03
         0.22806E+03
         0.25577E+03
         0.22533E+03
         0.21350E+03
         0.17536E+03
         0.17769E+03
         0.10196E+03
         0.46664E+02
         0.28521E+02
         0.41495E+02
         0.44169E+02
         0.54747E+02
         0.82902E+02
         0.14817E+03
         0.17638E+03
         0.69073E+02
         0.33022E+02
         0.27368E+01
        -0.85259E+01
        -0.15548E+01
         0.26281E+01
        -0.51240E+00
         0.46088E+01
         0.14601E+02
        -0.36664E+01
        -0.29155E+01
        -0.11654E+02
        -0.11675E+02
        -0.31920E+00
         0.93786E+01
         0.55713E+01
         0.11855E+01
         0.12921E+02
        -0.83845E+01
        -0.68500E+01
        -0.10300E+02
        -0.42314E+01
        -0.31500E+01
         0.91093E+01
         0.25247E+02
         0.85827E+01
        -0.16538E+01
        -0.12731E+01
        -0.30682E+01
         0.80750E+01
         0.27437E+02
         0.42558E+02
         0.55017E+01
         0.15878E+01
         0.15936E+01
         0.51110E+01
         0.20491E+02
         0.31530E+01
         0.37109E+01
         0.29078E+01
         0.38785E+02
         0.62664E+02
         0.10723E+03
         0.88277E+02
         0.56052E+02
         0.42309E+02
         0.46220E+01
         0.10827E+02
         0.87379E+01
         0.10826E+02
         0.16955E+02
         0.22316E+02
         0.56898E+02
         0.35725E+02
         0.63999E+02
        -0.15507E+02
        -0.10131E+02
        -0.13700E+02
        -0.10101E+02
         0.52618E+01
         0.61970E+01
         0.61474E+02
         0.12411E+03
         0.18209E+03
         0.23481E+03
         0.19290E+03
         0.13473E+03
         0.11744E+03
         0.78237E+02
         0.23465E+02
        -0.10178E+02
        -0.13714E+02
        -0.60512E+01
         0.71874E+01
         0.21404E+02
         0.50811E+02
         0.62059E+02
         0.87473E+02
         0.76267E+02
         0.41970E+02
         0.62817E+01
        -0.36762E+01
         0.17800E+01
         0.15458E+01
        -0.17970E+00
         0.90348E+00
         0.35018E+01
         0.33779E+00
        -0.19764E+01
        -0.65277E+01
        -0.12797E+02
         0.56294E+00
         0.51536E+01
         0.42086E+01
        -0.52050E+00
         0.60697E+01
        -0.23656E+01
        -0.31278E+01
        -0.51198E+01
        -0.95970E+00
        -0.20963E+01
         0.29860E+01
         0.11882E+02
         0.55253E+01
         0.11444E+01
        -0.41535E+01
         0.21620E+01
         0.24903E+01
         0.61420E+01
         0.11693E+02
         0.17210E+01
         0.18120E+01
         0.20484E+01
        -0.46096E+00
        -0.83830E-01
        -0.21650E+00
         0.21197E+01
         0.29183E+01
         0.20430E+02
         0.33354E+02
         0.73130E+02
         0.49245E+02
         0.22532E+02
         0.26429E+02
         0.20879E+01
         0.11173E+01
        -0.15591E+01
         0.37199E+00
         0.98449E+00
         0.28486E+01
         0.73396E+01
         0.44123E+01
         0.84700E+01
        -0.18395E+02
        -0.15053E+02
        -0.22639E+02
        -0.17079E+02
        -0.82438E+01
        -0.17899E+01
         0.21110E+02
         0.92970E+02
         0.11670E+03
         0.19749E+03
         0.16171E+03
         0.94633E+02
         0.63997E+02
         0.24619E+02
        -0.13018E+02
        -0.30685E+02
        -0.39765E+02
        -0.32201E+02
        -0.20179E+02
        -0.15167E+02
        -0.83010E+01
        -0.64714E+01
        -0.39438E+01
        -0.11003E+01
         0.55499E+01
        -0.86099E-02
         0.70117E+00
         0.30786E+01
         0.25618E+01
         0.72454E+00
         0.44219E+00
         0.39993E+00
         0.22163E+01
        -0.78992E+00
        -0.31949E+01
        -0.79252E+01
         0.23373E+01
         0.46563E+01
         0.42797E+01
         0.66998E+00
         0.38526E+01
         0.34761E+00
        -0.15918E+01
        -0.24166E+01
         0.51675E+00
        -0.16446E+01
         0.32575E+01
         0.51476E+01
         0.52317E+01
         0.16870E+01
        -0.40741E+01
         0.29772E+01
        -0.85789E+00
        -0.23091E+01
         0.10300E+01
        -0.99620E+00
         0.25067E+01
         0.33077E+01
        -0.21776E+00
        -0.33380E+01
         0.33306E+01
         0.30323E+01
         0.39846E+01
         0.79465E+01
         0.13817E+02
         0.34706E+02
         0.25644E+02
         0.94875E+01
         0.58280E+01
         0.17614E+01
         0.45314E+01
         0.81896E+00
         0.17784E+01
         0.55876E+00
        -0.81167E-01
        -0.11892E+01
         0.67715E+00
         0.33019E+01
        -0.16249E+02
        -0.10926E+02
        -0.15880E+02
        -0.20812E+02
        -0.14271E+02
        -0.13314E+02
        -0.27195E+01
         0.30203E+02
         0.90416E+02
         0.12340E+03
         0.68310E+02
         0.35412E+02
         0.34499E+02
         0.11861E+02
        -0.83491E+01
        -0.23760E+02
        -0.24009E+02
        -0.27472E+02
        -0.18204E+02
        -0.15628E+02
        -0.20567E+02
        -0.16434E+02
        -0.94541E+01
        -0.20806E+01
         0.63801E+00
        -0.10542E+01
         0.77634E+00
         0.34040E+01
         0.28333E+01
         0.55279E+00
         0.99906E+00
        -0.10661E+01
         0.31293E+01
        -0.42814E-02
        -0.21023E+01
        -0.64271E+01
         0.33190E+01
         0.47323E+01
         0.64697E+01
         0.74395E+00
         0.30482E+01
         0.44667E+00
        -0.14673E+01
        -0.13222E+01
         0.66651E+00
        -0.25055E+01
         0.35457E+01
         0.92572E+00
         0.87238E+01
         0.32065E+01
        -0.51889E+01
         0.36402E+01
        -0.27852E+01
        -0.55773E+01
        -0.26843E+01
        -0.39143E+01
         0.27888E+01
         0.27258E+01
        -0.70518E-02
        -0.70899E+00
         0.20060E+01
         0.28318E+01
         0.37366E+01
         0.39893E+01
         0.71193E+01
         0.17557E+02
         0.14253E+02
         0.17620E+01
         0.87772E+00
         0.47771E+01
         0.62809E+01
         0.24799E+01
         0.28858E+01
         0.16688E+01
         0.36568E+00
         0.37501E+00
        -0.61353E-01
        -0.16084E+01
        -0.13195E+02
        -0.17700E+02
        -0.16479E+02
        -0.15803E+02
        -0.12423E+02
        -0.14732E+02
        -0.33775E+01
         0.24532E+02
         0.64204E+02
         0.97982E+02
         0.63404E+02
         0.19777E+02
         0.64101E+01
        -0.84534E+01
        -0.14681E+02
        -0.16386E+02
        -0.19404E+02
        -0.15682E+02
        -0.58701E+01
        -0.47188E+01
        -0.95215E+01
        -0.49166E+01
        -0.93503E+01
        -0.94725E+01
        -0.12781E+02
        -0.65761E+01
         0.14030E+01
         0.38473E+01
         0.28346E+01
         0.10021E+01
         0.46821E+00
        -0.98512E+00
         0.35747E+01
         0.16740E+00
        -0.31154E+01
        -0.64559E+01
         0.35822E+01
         0.54520E+01
         0.79000E+01
         0.36859E+00
         0.26808E+01
         0.72452E+00
        -0.20341E+01
        -0.31266E+01
         0.94284E+00
        -0.26586E+01
         0.27758E+01
        -0.14130E+01
         0.59470E+01
         0.27867E+01
        -0.61740E+01
         0.49474E+01
        -0.27958E+01
        -0.64847E+01
        -0.46007E+01
        -0.52698E+01
         0.28174E+01
         0.35893E+01
         0.58102E+00
         0.25618E+01
         0.40178E+01
         0.46985E+01
         0.44587E+01
         0.22804E+01
        -0.41375E+00
         0.26193E+01
         0.59546E+01
        -0.29273E+01
        -0.46731E+01
         0.53391E+01
         0.58438E+01
         0.23359E+01
         0.36417E+01
         0.33132E+01
         0.31919E+01
         0.55590E+01
         0.46436E+01
         0.72713E+01
        -0.17936E+02
        -0.28308E+02
        -0.21242E+02
        -0.23126E+02
        -0.21191E+02
        -0.19905E+02
        -0.52351E+01
         0.20607E+02
         0.46781E+02
         0.62334E+02
         0.32780E+02
        -0.25476E+00
         0.41170E+01
        -0.10284E+02
        -0.27855E+02
        -0.30239E+02
        -0.38048E+02
        -0.39294E+02
        -0.17465E+02
        -0.10323E+02
        -0.74252E+01
         0.90272E+01
         0.21639E+02
         0.20866E+02
         0.61926E+01
        -0.33291E+01
         0.60280E+00
         0.37296E+01
         0.30540E+01
        -0.34612E+00
         0.75910E+00
        -0.76942E+00
         0.43994E+01
        -0.43717E-01
        -0.33332E+01
        -0.91354E+01
         0.45470E+01
         0.57112E+01
         0.85458E+01
         0.99695E+00
         0.24078E+01
        -0.26982E-02
        -0.27355E+01
        -0.30894E+01
         0.45171E+00
        -0.37435E+01
         0.19831E+01
         0.36100E+00
         0.60694E+01
         0.25815E+01
        -0.68903E+01
         0.41486E+01
        -0.29359E+01
        -0.76429E+01
        -0.50749E+01
        -0.44999E+01
         0.25213E+01
         0.26788E+01
        -0.16118E+00
        -0.23376E+01
         0.36128E+00
         0.29499E+01
         0.49488E+01
         0.14235E+01
         0.16528E+01
         0.16271E+02
         0.15534E+02
         0.35516E+01
         0.18134E+01
         0.33876E+01
         0.32049E+01
         0.93033E+00
         0.31718E+01
         0.33826E+01
         0.19903E+01
         0.30665E+01
         0.33396E+01
         0.48952E+01
        -0.19034E+02
        -0.18664E+02
        -0.24764E+02
        -0.26385E+02
        -0.23918E+02
        -0.13430E+02
        -0.12091E+02
         0.12575E+02
         0.45926E+02
         0.97450E+02
         0.72540E+02
         0.11590E+02
         0.95014E+01
        -0.60130E+01
        -0.20493E+02
        -0.26349E+02
        -0.32606E+02
        -0.36580E+02
        -0.18372E+02
        -0.11816E+02
        -0.68077E+01
         0.82043E+01
         0.21858E+02
         0.14203E+02
         0.33669E+01
        -0.67874E+01
         0.16174E+01
         0.47820E+01
         0.27489E+01
        -0.10266E+01
        -0.11160E+01
        -0.37398E+01
         0.36986E+01
         0.30307E+00
        -0.36032E+01
        -0.67081E+01
         0.47206E+01
         0.55874E+01
         0.80910E+01
         0.17945E+01
         0.25054E+01
        -0.16303E+00
        -0.23256E+01
        -0.39176E+01
         0.77909E+00
        -0.31257E+01
         0.31110E+01
         0.23730E+01
         0.74609E+01
         0.26883E+01
        -0.62722E+01
         0.46888E+01
        -0.15630E+01
        -0.59148E+01
        -0.65197E+01
        -0.55508E+01
         0.25691E+01
         0.31040E+01
        -0.14720E+01
        -0.34779E+01
         0.10429E+01
         0.39673E+01
         0.44305E+01
         0.23953E+01
         0.29726E+01
         0.60131E+01
         0.96930E+01
         0.11192E+00
        -0.64811E+00
         0.42082E+01
         0.42042E+01
         0.72661E+00
         0.27292E+01
         0.26005E+01
         0.23949E+01
         0.47805E+01
         0.27858E+01
         0.28092E+01
        -0.22120E+02
        -0.20382E+02
        -0.26251E+02
        -0.21396E+02
        -0.16557E+02
        -0.17987E+02
        -0.27281E+01
         0.23250E+02
         0.60149E+02
         0.79597E+02
         0.66929E+02
         0.38642E+02
         0.10869E+02
        -0.13763E+02
        -0.19592E+02
        -0.23284E+02
        -0.34231E+02
        -0.41330E+02
        -0.22973E+02
        -0.15861E+02
        -0.11875E+02
         0.28196E+01
         0.89588E+01
         0.54044E+01
         0.85652E-01
        -0.41438E+01
         0.24872E+01
         0.49858E+01
         0.26906E+01
        -0.46191E+00
         0.20283E+00
         0.13945E+01
         0.34340E+01
         0.63972E+00
        -0.29042E+01
        -0.69334E+01
         0.53484E+01
         0.48844E+01
         0.80633E+01
         0.12685E+01
         0.26198E+01
        -0.32104E-01
        -0.21320E+01
        -0.34076E+01
         0.85749E+00
        -0.23405E+01
         0.32906E+01
         0.12936E+01
         0.66623E+01
         0.21521E+01
        -0.67716E+01
         0.35793E+01
        -0.18984E+01
        -0.64603E+01
        -0.32082E+01
        -0.59361E+01
         0.17840E+01
         0.31716E+01
        -0.16631E+01
        -0.22927E+01
         0.19978E+01
         0.47009E+01
         0.56739E+01
         0.60286E+00
         0.19039E+01
         0.68605E+01
         0.92196E+01
        -0.79517E+00
        -0.32398E+01
         0.39574E+01
         0.40384E+01
         0.11024E+01
         0.27162E+01
         0.21775E+01
         0.30281E+01
         0.64938E+01
         0.57952E+01
         0.11040E+02
        -0.24229E+02
        -0.23185E+02
        -0.23715E+02
        -0.19461E+02
        -0.16425E+02
        -0.18363E+02
        -0.62485E+01
         0.24854E+02
         0.43154E+02
         0.30817E+02
        -0.20803E+01
        -0.28354E+02
         0.14673E+01
        -0.11012E+02
        -0.24305E+02
        -0.28317E+02
        -0.34361E+02
        -0.39114E+02
        -0.19331E+02
        -0.13495E+02
        -0.11981E+02
         0.76446E+01
         0.14993E+02
         0.98711E+01
        -0.94525E+00
        -0.50643E+01
         0.97867E+00
         0.25026E+01
         0.36547E+01
         0.17199E+01
         0.29010E+01
         0.65821E+01
         0.27017E+01
         0.46360E+00
        -0.27923E+01
        -0.63830E+01
         0.54161E+01
         0.26400E+01
         0.53275E+01
         0.20427E+01
         0.30728E+01
        -0.55107E-01
        -0.18003E+01
        -0.38815E+01
         0.10628E+01
        -0.13238E+01
         0.10569E+01
        -0.81555E+00
         0.42635E+01
         0.19492E+01
        -0.59897E+01
         0.42513E+01
        -0.22981E+01
        -0.59923E+01
        -0.49279E+01
        -0.38295E+01
         0.21097E+01
         0.30767E+01
        -0.91205E+00
        -0.92171E+00
         0.22753E+01
         0.35352E+01
         0.40751E+01
        -0.12504E+01
        -0.73313E+01
        -0.11570E+02
        -0.11270E+02
        -0.90182E+01
        -0.24382E+01
         0.45150E+01
         0.59971E+01
         0.28655E+01
         0.40575E+01
         0.40448E+01
         0.24454E+01
         0.98296E+01
         0.68988E+01
         0.15417E+02
        -0.18009E+02
        -0.88216E+01
        -0.14984E+02
        -0.15634E+02
        -0.14730E+02
        -0.14453E+02
        -0.86791E+01
        -0.15057E+00
         0.53405E+01
        -0.19845E+02
        -0.29542E+02
        -0.34630E+02
        -0.25057E+02
        -0.27120E+02
        -0.29914E+02
        -0.26374E+02
        -0.24071E+02
        -0.28335E+02
        -0.14311E+02
        -0.10292E+02
        -0.80066E+01
        -0.43186E+00
         0.86514E+01
         0.12309E+02
         0.76990E+01
        -0.31794E+01
         0.10871E+01
         0.19020E+01
         0.26838E+01
        -0.75143E-02
         0.11991E+01
         0.39806E+01
         0.28587E+01
         0.41973E+00
        -0.29174E+01
        -0.50474E+01
         0.44535E+01
         0.36182E+01
         0.40972E+01
         0.12011E+01
         0.21373E+01
        -0.11432E+00
        -0.19376E+01
        -0.39755E+01
         0.12201E+01
        -0.16561E+01
         0.27488E+01
         0.10990E+01
         0.67909E+01
         0.28293E+01
        -0.49165E+01
         0.42112E+01
        -0.38057E+01
        -0.64228E+01
        -0.68698E+01
        -0.33489E+01
         0.31879E+01
         0.44360E+01
        -0.35596E+00
        -0.21573E+01
         0.31325E+01
         0.30919E+01
         0.30988E+01
         0.60405E+00
        -0.12306E+01
         0.21499E+01
         0.56913E+01
         0.16009E+01
         0.37510E+00
         0.61042E+01
         0.77113E+01
         0.41370E+01
         0.43725E+01
         0.37448E+01
         0.30302E+01
         0.73755E+01
         0.61884E+01
         0.12846E+02
        -0.16945E+02
        -0.57814E+01
        -0.19514E+02
        -0.19852E+02
        -0.19679E+02
        -0.16731E+02
        -0.13431E+02
        -0.59245E+01
         0.12485E+02
         0.39701E+02
         0.36513E+02
        -0.17252E+02
         0.12142E+02
        -0.17766E+01
        -0.14239E+02
        -0.17587E+02
        -0.23015E+02
        -0.30498E+02
        -0.13469E+02
        -0.92730E+01
        -0.73410E+01
         0.54550E+01
         0.12574E+02
         0.12900E+02
         0.96606E+01
        -0.15711E+01
         0.22207E+00
         0.30357E+01
         0.23974E+01
         0.31355E+00
         0.27557E+01
         0.38285E+01
         0.37669E+01
         0.34036E+00
        -0.28914E+01
        -0.57900E+01
         0.47531E+01
         0.35686E+01
         0.57134E+01
         0.13716E+01
         0.28864E+01
         0.10430E+01
        -0.15565E+01
        -0.30172E+01
         0.19542E+01
        -0.11633E+01
         0.41452E+01
         0.23460E+01
         0.69572E+01
         0.36647E+01
        -0.59417E+01
         0.62788E+01
        -0.18447E+01
        -0.43266E+01
        -0.45510E+01
        -0.44861E+01
         0.36444E+01
         0.45747E+01
         0.60842E+00
         0.35695E+00
         0.15546E+01
         0.31756E+01
         0.37602E+01
         0.41355E+01
         0.85307E+01
         0.15191E+01
         0.17546E+01
        -0.55894E+01
         0.23565E+01
         0.65269E+01
         0.80060E+01
         0.35156E+01
         0.48486E+01
         0.39207E+01
         0.58977E+01
         0.88441E+01
         0.49376E+01
         0.12579E+02
        -0.18779E+02
        -0.10882E+02
        -0.14691E+02
        -0.19607E+02
        -0.18023E+02
        -0.20054E+02
        -0.16137E+02
         0.14871E+02
         0.62391E+02
         0.11598E+03
         0.67676E+02
         0.17256E+02
         0.10562E+02
        -0.51771E+00
        -0.10556E+02
        -0.20187E+02
        -0.29965E+02
        -0.32536E+02
        -0.15711E+02
        -0.93981E+01
        -0.62134E+01
         0.70014E+01
         0.17207E+02
         0.13665E+02
         0.38543E+01
        -0.13017E+01
         0.21052E+01
         0.48018E+01
         0.44171E+01
         0.20832E+01
         0.43647E+01
         0.99506E+01
         0.36558E+01
         0.58344E+00
        -0.22714E+01
        -0.55707E+01
         0.53221E+01
         0.52774E+01
         0.91772E+01
         0.12356E+01
         0.18771E+01
         0.52665E+00
        -0.12636E+01
        -0.20997E+01
         0.79591E+00
        -0.15209E+01
         0.13256E+01
        -0.45845E+00
         0.43763E+01
         0.17518E+01
        -0.43502E+01
         0.37084E+01
        -0.25423E+01
        -0.53928E+01
        -0.28282E+01
        -0.29190E+01
         0.27602E+01
         0.24503E+01
         0.93911E+00
         0.44710E+01
         0.58496E+01
         0.58143E+01
         0.62721E+01
        -0.29254E+01
        -0.82163E+01
        -0.13687E+02
        -0.56664E+01
        -0.82814E+01
        -0.76844E+00
         0.43238E+01
         0.52436E+01
         0.17392E+01
         0.31545E+01
         0.39245E+01
         0.46029E+01
         0.11060E+02
         0.81282E+01
         0.20298E+02
        -0.16039E+02
        -0.69026E+01
        -0.19597E+02
        -0.15659E+02
        -0.12188E+02
        -0.13111E+02
        -0.82599E+01
         0.58226E+01
         0.12054E+02
         0.53911E+02
         0.59385E+02
        -0.24312E+01
         0.11297E+02
        -0.82373E+01
        -0.25505E+02
        -0.27351E+02
        -0.29638E+02
        -0.28580E+02
        -0.15137E+02
        -0.88282E+01
        -0.66508E+01
         0.29195E+01
         0.15700E+02
         0.14761E+02
         0.68561E+01
        -0.41270E+01
         0.13246E+01
         0.37466E+01
         0.34608E+01
         0.17298E+01
         0.43684E+01
         0.67516E+01
         0.34975E+01
         0.47868E+00
        -0.22588E+01
        -0.75078E+01
         0.44029E+01
         0.39860E+01
         0.64336E+01
         0.14692E+01
         0.14615E+01
        -0.23736E+00
        -0.16879E+01
        -0.18574E+01
         0.80563E-01
        -0.28591E+01
         0.82526E+00
        -0.39289E+01
         0.27841E+01
         0.16027E+01
        -0.58468E+01
         0.27502E+01
        -0.18061E+01
        -0.55374E+01
        -0.36304E+01
        -0.44774E+01
         0.38023E+01
         0.31790E+01
         0.15393E+01
         0.50786E+01
         0.52848E+01
         0.67403E+01
         0.59575E+01
        -0.47448E+01
        -0.98910E+01
        -0.16386E+02
        -0.54275E+01
        -0.77231E+01
        -0.80548E+01
         0.39583E+01
         0.63849E+01
         0.33131E+01
         0.47869E+01
         0.53051E+01
         0.54096E+01
         0.10783E+02
         0.61193E+01
         0.15101E+02
        -0.12650E+02
        -0.57912E+01
        -0.32998E+01
        -0.44653E+01
        -0.67742E+01
        -0.11382E+02
        -0.13352E+02
        -0.21370E+02
        -0.30938E+02
        -0.49425E+02
        -0.36993E+02
        -0.36943E+02
        -0.17711E+02
        -0.33271E+02
        -0.38291E+02
        -0.28733E+02
        -0.26791E+02
        -0.30138E+02
        -0.15568E+02
        -0.96240E+01
        -0.85496E+01
         0.22050E+01
         0.10637E+02
         0.10089E+02
         0.47057E+01
        -0.16800E+01
         0.18787E+01
         0.47129E+01
         0.41968E+01
         0.49907E+01
         0.49838E+01
         0.97338E+01
         0.37627E+01
         0.45572E+00
        -0.14686E+01
        -0.54637E+01
         0.42732E+01
         0.53376E+01
         0.81227E+01
         0.12885E+01
         0.15752E+01
         0.38004E+00
        -0.13207E+01
        -0.74639E-01
         0.85676E+00
        -0.17684E+01
         0.76544E+00
        -0.19894E+01
         0.47195E+01
         0.15716E+01
        -0.37429E+01
         0.31767E+01
        -0.37568E+01
        -0.84109E+01
        -0.57213E+01
        -0.38376E+01
         0.54273E+01
         0.32432E+01
         0.36532E+01
         0.89702E+01
         0.72669E+01
         0.72611E+01
         0.67579E+01
        -0.23223E+00
        -0.63553E+01
        -0.18961E+02
        -0.45343E+01
        -0.79085E+01
        -0.63623E+01
         0.33558E+01
         0.68808E+01
         0.58582E+01
         0.55721E+01
         0.68372E+01
         0.69710E+01
         0.15048E+02
         0.85715E+01
         0.22998E+02
        -0.54003E+01
        -0.73442E+01
        -0.10731E+02
        -0.69368E+01
        -0.96709E+01
        -0.11292E+02
         0.11806E+01
         0.74810E+01
         0.68096E+00
         0.52257E+02
         0.43838E+02
         0.16561E+02
        -0.19786E+02
        -0.27370E+02
        -0.24433E+02
        -0.25073E+02
        -0.26980E+02
        -0.24269E+02
        -0.79062E+01
        -0.55611E+01
        -0.68318E+01
         0.10679E+02
         0.99425E+01
         0.93026E+01
         0.32031E+01
        -0.29325E+01
         0.37101E+01
         0.47868E+01
         0.57519E+01
         0.96696E+01
         0.83604E+01
         0.20361E+02
         0.30527E+01
         0.85397E+00
        -0.65165E+00
        -0.24111E+01
         0.33531E+01
         0.44562E+01
         0.73927E+01
         0.17734E+01
         0.21484E+01
         0.14510E+01
        -0.97437E+00
         0.16443E+01
         0.12772E+01
        -0.96420E+00
         0.21837E+01
        -0.52158E+00
         0.71459E+01
         0.24677E+01
        -0.37649E+01
         0.69783E+01
        -0.22697E+01
        -0.52417E+01
        -0.54475E+01
        -0.34498E+01
         0.12267E+02
         0.66299E+01
         0.10086E+02
         0.21971E+02
         0.90810E+01
         0.78773E+01
         0.64002E+01
        -0.22911E+01
        -0.48145E+01
        -0.17085E+02
        -0.10887E+02
        -0.60097E+01
        -0.46608E+01
         0.84206E+01
         0.17319E+02
         0.13280E+02
         0.13610E+02
         0.15906E+02
         0.16882E+02
         0.33708E+02
         0.20648E+02
         0.49114E+02
        -0.42720E+01
        -0.27342E-01
        -0.92766E+01
        -0.11265E+02
        -0.14595E+02
        -0.24472E+02
        -0.24805E+02
        -0.21509E+02
        -0.25488E+02
        -0.32770E+02
        -0.22483E+02
        -0.11518E+02
        -0.12610E+02
        -0.11664E+02
        -0.17091E+02
        -0.15507E+02
        -0.12301E+02
        -0.33407E+01
         0.11469E+02
         0.16376E+02
         0.26848E+02
         0.33202E+02
         0.39666E+02
         0.30033E+02
         0.18409E+02
         0.27422E+01
         0.28809E+01
         0.44345E+01
         0.56128E+01
         0.10504E+02
         0.11360E+02
         0.33971E+02
         0.17859E+01
         0.61891E+00
        -0.13674E+00
        -0.90333E+00
         0.14267E+01
        -0.47218E+01
         0.12299E+01
        -0.10185E+01
        -0.39293E+01
         0.11502E+01
        -0.16656E+01
         0.37485E+01
        -0.11013E+01
        -0.48290E+01
         0.76344E+01
         0.10555E+02
         0.13258E+02
         0.20685E+01
        -0.52183E+01
         0.59766E+01
        -0.58013E+01
        -0.87456E+01
        -0.84661E+01
        -0.30710E+01
         0.19315E+02
         0.10161E+02
         0.14525E+02
         0.35051E+02
         0.72887E+01
         0.57122E+01
         0.31941E+01
        -0.15541E+02
        -0.26223E+02
        -0.41019E+02
        -0.23742E+02
         0.24442E+01
         0.58060E+01
         0.12670E+02
         0.27257E+02
         0.20351E+02
         0.20452E+02
         0.24338E+02
         0.35565E+02
         0.57315E+02
         0.31072E+02
         0.79700E+02
         0.45740E+01
         0.30136E+02
        -0.11648E+02
        -0.23035E+02
        -0.31050E+02
        -0.50799E+02
        -0.57710E+02
        -0.80246E+02
        -0.12416E+03
        -0.14454E+03
        -0.81518E+02
        -0.76194E+01
         0.27737E+02
         0.55160E+02
         0.50577E+02
         0.25292E+02
         0.45563E+01
         0.15221E+02
         0.29956E+02
         0.39441E+02
         0.44543E+02
         0.57718E+02
         0.69876E+02
         0.54005E+02
         0.47025E+02
         0.19267E+02
         0.97746E+01
         0.22044E+01
         0.27892E+00
         0.75924E+01
         0.11180E+02
         0.30857E+02
         0.60427E+01
         0.53809E+01
         0.14716E+02
         0.45532E+02
         0.29775E+01
         0.21859E+01
         0.36679E+01
         0.38613E+01
        -0.84582E+00
         0.19845E+02
         0.10763E+02
         0.12202E+02
         0.21013E+02
         0.19574E+02
         0.51706E+02
         0.92040E+02
         0.75950E+02
         0.21975E+02
         0.69687E+01
         0.32021E+02
         0.97029E+01
         0.28169E+02
         0.38896E+02
         0.19298E+02
         0.29942E+02
         0.19339E+02
         0.14252E+02
         0.28481E+02
         0.44261E+01
        -0.23160E+01
        -0.18406E+01
        -0.28921E+01
         0.92748E+01
         0.60313E+02
         0.54725E+02
         0.78105E+02
         0.10478E+03
         0.45641E+02
         0.54173E+02
         0.22295E+02
         0.21266E+02
         0.23315E+02
         0.30421E+02
         0.35253E+02
         0.17203E+02
         0.63071E+02
         0.19895E+02
         0.63954E+02
        -0.12998E+02
        -0.23523E+02
        -0.21313E+02
        -0.27153E+02
        -0.42086E+02
        -0.44297E+02
        -0.35656E+02
         0.13955E+02
         0.74058E+02
         0.14761E+03
         0.20640E+03
         0.20935E+03
         0.15410E+03
         0.80335E+02
         0.28303E+02
         0.33613E+02
         0.29755E+02
         0.19269E+02
         0.65688E+01
        -0.22913E+02
         0.15328E+01
         0.28904E+02
         0.52964E+02
         0.57802E+02
        -0.41730E+02
        -0.77512E+00
        -0.22736E+01
        -0.39660E+02
        -0.11396E+02
        -0.73449E+02
        -0.12498E+00
        -0.19746E+02
        -0.57185E+02
        -0.17095E+03
         0.11577E+02
         0.20149E+02
         0.25680E+02
        -0.13832E+02
         0.10729E+02
        -0.35407E+02
        -0.48259E+02
        -0.40241E+02
        -0.59882E+02
        -0.79867E+02
        -0.13946E+03
        -0.24995E+03
        -0.22133E+03
        -0.59261E+02
        -0.91068E+02
        -0.65485E+02
        -0.56386E+02
        -0.10779E+03
        -0.10664E+03
        -0.75708E+02
        -0.67205E+02
        -0.50971E+02
        -0.42502E+02
        -0.10336E+03
         0.17021E+02
         0.15798E+02
         0.16398E+02
        -0.11032E+01
        -0.31646E+02
        -0.14134E+03
        -0.12780E+03
        -0.20758E+03
        -0.29037E+03
        -0.13324E+03
        -0.21082E+03
        -0.14064E+03
        -0.11158E+03
        -0.11045E+03
        -0.12600E+03
        -0.17641E+03
        -0.90700E+02
        -0.18919E+03
         0.46555E+02
         0.13243E+01
         0.54272E+02
         0.38336E+02
         0.32406E+02
         0.41782E+02
         0.81948E+02
         0.14615E+03
         0.20668E+03
         0.11380E+03
        -0.12705E+03
        -0.43182E+03
        -0.69751E+03
        -0.79590E+03
        -0.71053E+03
        -0.53941E+03
        -0.46145E+03
        -0.47090E+03
        -0.35284E+03
        -0.35011E+03
        -0.39599E+03
        -0.44901E+03
        -0.36967E+03
        -0.19152E+03
        -0.10281E+03
  
SCALARS                     velocity_y  double 1
LOOKUP_TABLE default
        -0.16648E+03
         0.72123E+02
        -0.13587E+02
        -0.10362E+03
        -0.32849E+03
         0.37143E+02
        -0.24956E+03
        -0.31674E+03
         0.29431E+03
         0.21799E+03
         0.98021E+02
         0.23333E+03
         0.18040E+03
         0.16547E+03
         0.14349E+03
         0.24458E+03
         0.43941E+02
        -0.23517E+01
         0.10516E+03
        -0.99616E+01
         0.39305E+03
         0.26225E+03
         0.20266E+03
         0.51601E+03
         0.46789E+03
         0.34855E+03
         0.95626E+02
         0.15126E+03
         0.77335E+02
         0.21027E+03
        -0.13272E+02
        -0.45517E+02
         0.23701E+02
        -0.19400E+02
        -0.12979E+03
         0.70967E+02
        -0.10699E+02
        -0.42724E+02
        -0.36500E+02
        -0.10647E+03
         0.16434E+03
         0.29018E+03
         0.19724E+03
         0.42491E+03
         0.11804E+02
        -0.45565E+02
         0.11025E+01
        -0.41569E+02
        -0.54593E+02
        -0.82440E+02
        -0.30359E+00
         0.76407E+02
        -0.41087E+02
        -0.84865E+02
        -0.39533E+02
        -0.13182E+03
         0.22418E+02
         0.10894E+03
         0.35829E+01
         0.14287E+03
        -0.31101E+02
         0.13873E+03
         0.49539E+02
         0.39553E+03
        -0.14096E+03
        -0.35346E+03
         0.18077E+03
         0.46441E+02
         0.43505E+03
         0.22620E+03
         0.62285E+03
         0.26311E+03
         0.13828E+03
         0.17142E+03
        -0.27748E+03
        -0.51240E+03
        -0.43866E+03
        -0.10528E+04
        -0.35417E+03
        -0.68658E+03
        -0.66627E+03
        -0.75638E+02
        -0.74818E+03
        -0.22714E+01
         0.28069E+03
         0.42631E+03
        -0.13201E+03
        -0.20353E+03
        -0.64062E+02
        -0.66245E+01
         0.15510E+03
         0.13839E+03
         0.43888E+03
         0.35052E+03
         0.41537E+02
        -0.13264E+03
         0.21185E+03
        -0.76907E+02
         0.32248E+03
         0.17550E+03
         0.49101E+03
         0.33253E+03
         0.72766E+03
         0.39028E+03
         0.12718E+04
         0.12968E+04
         0.25926E+04
         0.24021E+04
         0.53504E+03
         0.87132E+03
         0.54289E+02
        -0.13783E+02
        -0.87083E+02
        -0.31985E+03
         0.10231E+03
         0.85586E+02
         0.19137E+03
         0.73302E+03
         0.21498E+03
         0.14395E+04
         0.91248E+03
         0.43562E+04
        -0.19782E+03
         0.14456E+04
        -0.30765E+04
        -0.50396E+04
        -0.28497E+04
        -0.41964E+04
        -0.15611E+04
        -0.24791E+04
        -0.10829E+04
        -0.14944E+04
        -0.79132E+03
        -0.11684E+04
        -0.70524E+03
        -0.11566E+04
        -0.76010E+03
        -0.15044E+04
        -0.87264E+03
        -0.20241E+04
        -0.29502E+03
        -0.71206E+03
         0.23483E+03
        -0.30278E+02
         0.22491E+03
         0.15124E+03
         0.60725E+03
         0.11345E+04
         0.44716E+03
         0.16147E+04
         0.56299E+03
         0.26791E+04
         0.10583E+04
         0.28586E+04
         0.12865E+04
         0.26071E+04
        -0.17190E+02
         0.56567E+02
         0.15055E+03
         0.98799E+02
         0.26628E+03
         0.26719E+03
         0.12028E+03
         0.69021E+02
        -0.44465E+02
         0.32290E+01
         0.19342E+03
         0.24179E+03
         0.20212E+03
         0.58877E+02
         0.40767E+02
        -0.68250E+02
        -0.73640E+02
        -0.14434E+02
        -0.31591E+02
         0.45337E+02
         0.16577E+03
         0.32422E+03
        -0.10166E+03
        -0.22416E+03
        -0.59860E+02
        -0.19749E+03
         0.49767E+02
         0.12924E+03
         0.22542E+03
         0.13545E+03
         0.80823E+02
        -0.99595E+02
         0.32196E+03
         0.47534E+03
         0.28648E+03
         0.19312E+03
         0.15168E+03
        -0.90177E+02
        -0.12916E+03
        -0.18530E+03
        -0.70002E+03
        -0.60808E+02
         0.31988E+03
        -0.16116E+03
        -0.17321E+03
        -0.12988E+03
         0.11009E+03
         0.34454E+03
         0.47214E+03
         0.49277E+03
         0.29435E+03
         0.31604E+03
         0.47920E+03
         0.39940E+03
         0.15277E+03
         0.47401E+02
         0.15209E+03
         0.30356E+03
         0.16466E+03
        -0.29100E+03
        -0.58811E+03
        -0.16742E+04
        -0.37373E+04
        -0.33112E+04
        -0.20197E+04
        -0.14287E+04
        -0.94005E+03
        -0.65541E+03
        -0.42773E+03
        -0.39448E+02
         0.16995E+03
         0.60161E+03
         0.84511E+03
         0.40019E+03
        -0.12976E+04
        -0.25428E+04
        -0.13295E+04
        -0.13935E+03
         0.58713E+02
         0.84856E+02
         0.22023E+03
         0.21963E+03
         0.12503E+03
         0.16519E+03
         0.34224E+02
         0.18581E+02
         0.29286E+02
         0.36668E+02
         0.39600E+02
         0.14738E+03
         0.10402E+03
         0.99471E+02
         0.14032E+03
         0.36945E+01
         0.48841E+02
         0.86247E+02
         0.39011E+02
         0.13088E+03
         0.18959E+03
         0.34185E+03
         0.43771E+02
        -0.54541E+02
         0.96712E+02
        -0.10450E+03
         0.13378E+03
         0.22268E+03
         0.21732E+03
         0.18562E+03
         0.13265E+03
        -0.50113E+02
         0.37184E+03
         0.39534E+03
        -0.26090E+02
         0.10149E+03
         0.10140E+03
         0.14161E+03
         0.76414E+02
         0.15895E+02
        -0.41479E+03
         0.10431E+03
         0.35088E+03
        -0.20403E+02
         0.10573E+00
         0.34317E+02
         0.12174E+03
         0.30611E+03
         0.32429E+03
         0.44804E+03
        -0.14801E+03
         0.12664E+03
        -0.79002E+03
        -0.10643E+04
        -0.30842E+03
         0.54615E+02
         0.32913E+03
         0.48173E+03
         0.79189E+02
        -0.76352E+02
        -0.59018E+03
        -0.17454E+04
        -0.26608E+04
        -0.22464E+04
        -0.15945E+04
        -0.11252E+04
        -0.54302E+03
         0.12502E+02
         0.41433E+03
         0.56937E+03
         0.35828E+03
         0.60625E+03
         0.61289E+03
        -0.76913E+02
        -0.18635E+04
        -0.35061E+04
        -0.24991E+04
        -0.13295E+04
         0.30663E+02
         0.21016E+02
         0.55282E+02
         0.75359E+02
         0.12304E+02
         0.61633E+02
         0.15680E+02
         0.31700E+02
         0.45708E+02
         0.80051E+02
         0.39381E+02
         0.83299E+02
         0.27616E+02
         0.98166E+02
         0.13297E+03
         0.26948E+02
         0.56799E+02
         0.58120E+02
         0.68421E+02
         0.13278E+03
         0.19518E+03
         0.30261E+03
         0.89338E+02
         0.50511E+02
         0.10992E+03
         0.96382E+01
         0.14500E+03
         0.22143E+03
         0.17685E+03
         0.22155E+03
         0.88230E+02
         0.22114E+02
         0.18128E+03
         0.18864E+03
        -0.20570E+02
         0.27643E+02
         0.28843E+02
         0.18474E+03
         0.20264E+03
         0.84266E+02
        -0.24380E+03
         0.57885E+02
         0.35815E+03
         0.40240E+02
         0.34058E+02
         0.40991E+02
         0.84114E+02
         0.13146E+03
         0.17623E+03
         0.21023E+03
        -0.29792E+02
         0.23958E+02
        -0.39605E+03
        -0.57431E+03
        -0.16907E+03
         0.38442E+02
         0.17097E+03
         0.16560E+03
         0.17793E+03
         0.13744E+02
        -0.40822E+03
        -0.14376E+04
        -0.17585E+04
        -0.13218E+04
        -0.13332E+04
        -0.78621E+03
        -0.36862E+03
        -0.56593E+02
         0.20256E+03
         0.26013E+03
         0.95452E+02
         0.12287E+03
         0.22699E+03
         0.10477E+03
        -0.74696E+03
        -0.15273E+04
        -0.12885E+04
        -0.82607E+03
         0.17850E+02
         0.52708E+01
         0.14693E+02
         0.29699E+01
         0.13076E+02
         0.84590E+01
         0.55208E+00
         0.40031E+02
         0.27784E+02
         0.74763E+02
         0.50172E+02
         0.51983E+02
         0.11906E+02
         0.90274E+02
         0.10895E+03
         0.17734E+02
         0.44731E+02
         0.27373E+00
         0.49448E+02
         0.80661E+02
         0.12624E+03
         0.20556E+03
         0.60105E+02
         0.48689E+02
         0.10580E+03
         0.25148E+02
         0.13670E+03
         0.22530E+03
         0.26006E+03
         0.13729E+03
        -0.62976E+01
         0.11375E+02
        -0.20165E+02
        -0.66900E+01
         0.28191E+02
         0.10418E+02
         0.18727E+01
         0.20270E+03
         0.23847E+03
         0.21411E+03
        -0.11016E+03
         0.13182E+03
         0.26397E+03
         0.34711E+02
         0.16009E+02
         0.52130E+01
        -0.41101E+01
        -0.15054E+02
        -0.80097E+01
         0.13706E+02
         0.80886E+02
         0.28576E+02
         0.38714E+02
         0.28099E+02
         0.45078E+02
         0.58833E+02
         0.10249E+03
         0.18125E+03
         0.16500E+03
         0.14927E+03
        -0.17213E+03
        -0.91573E+03
        -0.16172E+04
        -0.13763E+04
        -0.82902E+03
        -0.47984E+03
        -0.21669E+03
        -0.86241E+02
        -0.16808E+02
         0.62855E+01
        -0.16463E+02
        -0.14524E+02
        -0.10195E+02
         0.71718E+02
         0.20403E+03
         0.24505E+03
         0.17495E+03
         0.78347E+02
        -0.27556E+01
        -0.76173E+01
        -0.15773E+02
        -0.16818E+02
        -0.24433E+01
        -0.88603E+01
         0.17569E+01
         0.19364E+02
         0.10169E+02
         0.33783E+02
         0.20128E+02
         0.17786E+02
        -0.32983E+00
         0.45121E+02
         0.62933E+02
         0.40478E+01
         0.23466E+02
        -0.12878E+02
         0.22740E+02
         0.34286E+02
         0.45380E+02
         0.91007E+02
         0.19298E+02
         0.18723E+02
         0.55637E+02
         0.58289E+01
         0.66520E+02
         0.96729E+02
         0.12648E+03
         0.61400E+02
        -0.28877E+02
        -0.99684E+01
        -0.43537E+02
        -0.34960E+02
         0.15727E+02
        -0.28874E+01
        -0.43869E+01
         0.12442E+03
         0.14328E+03
         0.14981E+03
         0.37373E+02
         0.10504E+03
         0.12913E+03
         0.70865E+01
         0.23164E+00
        -0.42237E+01
        -0.21504E+02
        -0.33225E+02
        -0.29953E+02
        -0.24322E+02
         0.37435E+02
         0.19135E+01
         0.94731E+02
         0.12384E+03
         0.53951E+02
         0.31660E+02
         0.33847E+02
         0.72282E+02
         0.17487E+03
         0.15895E+03
        -0.15951E+03
        -0.72894E+03
        -0.10904E+04
        -0.76474E+03
        -0.37802E+03
        -0.19689E+03
        -0.70898E+02
        -0.18427E+02
        -0.13340E+01
         0.10849E+02
         0.10832E+02
        -0.31324E+02
        -0.25821E+02
         0.38095E+02
         0.20850E+03
         0.33598E+03
         0.26286E+03
         0.15956E+03
        -0.43604E+01
        -0.82731E+01
        -0.14452E+02
        -0.12685E+02
        -0.84077E+01
        -0.12182E+02
        -0.23136E+01
         0.44884E+01
         0.32467E+01
         0.13284E+02
        -0.11109E+01
         0.75772E+01
        -0.34947E+01
         0.10638E+02
         0.25367E+02
        -0.19006E+01
         0.73084E+01
        -0.69395E+01
         0.28701E+01
         0.85769E+01
         0.45880E+01
         0.18171E+02
        -0.29608E+01
        -0.41011E+01
         0.19468E+02
        -0.72618E+01
         0.23181E+02
         0.37278E+02
         0.48323E+02
         0.18323E+02
        -0.16658E+02
        -0.13384E+02
        -0.22766E+02
        -0.18123E+02
        -0.63910E+01
        -0.86280E+01
        -0.57409E+01
         0.55317E+02
         0.73107E+02
         0.59937E+02
        -0.61013E+01
         0.30072E+02
         0.41816E+02
        -0.77283E+01
        -0.88467E+01
        -0.13137E+02
        -0.16564E+02
        -0.19666E+02
        -0.16713E+02
        -0.18925E+02
        -0.20090E+01
        -0.14639E+02
         0.29603E+02
         0.61403E+02
         0.15707E+02
         0.13787E+02
         0.11417E+02
         0.27096E+02
         0.10148E+03
         0.10539E+03
        -0.35837E+02
        -0.29515E+03
        -0.41790E+03
        -0.29152E+03
        -0.13650E+03
        -0.32730E+02
         0.15519E+02
         0.27881E+02
         0.24328E+02
         0.28529E+02
         0.15269E+02
        -0.11451E+02
        -0.16212E+02
         0.72286E+01
         0.44814E+02
         0.83337E+02
         0.83528E+02
         0.63511E+02
        -0.62485E+01
        -0.74902E+01
        -0.14645E+02
        -0.10063E+02
        -0.78245E+01
        -0.95160E+01
        -0.42753E+01
        -0.15413E+01
         0.10771E+00
         0.26192E+01
        -0.74479E+01
        -0.55980E+00
        -0.47447E+01
        -0.12749E+01
         0.23858E+01
        -0.29454E+01
         0.53855E+00
        -0.45847E+01
        -0.24548E+01
        -0.12728E+01
        -0.67045E+01
        -0.17075E+02
        -0.73399E+01
        -0.10540E+02
         0.57093E+01
        -0.86244E+01
         0.53662E+01
         0.72280E+01
         0.27759E+01
         0.19680E+01
        -0.10932E+02
        -0.11564E+02
        -0.11342E+02
        -0.11199E+02
        -0.49621E+01
        -0.82967E+01
        -0.62717E+01
         0.14745E+02
         0.13508E+02
         0.67944E+01
        -0.22217E+01
        -0.27736E+01
        -0.13342E+02
        -0.63198E+01
        -0.62101E+01
        -0.95724E+01
        -0.10877E+02
        -0.10088E+02
        -0.73064E+01
        -0.80445E+01
        -0.26570E+01
        -0.64942E+01
         0.28461E+02
         0.56870E+02
         0.18772E+02
         0.13772E+02
         0.89406E+01
         0.15081E+02
         0.31246E+02
         0.57127E+02
         0.32795E+02
        -0.27927E+02
        -0.46248E+02
        -0.28741E+02
         0.21707E+02
         0.38569E+02
         0.34235E+02
         0.33584E+02
         0.37491E+02
         0.25183E+02
         0.92469E+01
        -0.29049E+01
        -0.51705E+01
         0.36869E+01
         0.17539E+02
         0.49687E+02
         0.66210E+02
         0.61681E+02
        -0.67579E+01
        -0.70619E+01
        -0.15398E+02
        -0.10775E+02
        -0.58907E+01
        -0.90431E+01
        -0.43171E+01
        -0.27231E+01
        -0.18431E+01
        -0.17028E+01
        -0.11345E+02
        -0.72588E+01
        -0.58569E+01
        -0.66103E+01
        -0.88007E+01
        -0.36691E+01
        -0.24848E+01
        -0.38643E+01
        -0.60117E+01
        -0.81333E+01
        -0.17356E+02
        -0.29890E+02
        -0.60893E+01
        -0.69599E+01
        -0.41578E+01
        -0.54107E+01
        -0.50151E+01
        -0.82079E+01
        -0.14915E+02
        -0.14491E+02
        -0.92970E+01
        -0.95892E+01
        -0.10017E+02
        -0.11019E+02
        -0.43312E+01
        -0.67902E+01
        -0.56173E+01
        -0.72003E+01
        -0.10096E+02
        -0.15161E+02
        -0.81342E+01
        -0.19290E+02
        -0.35056E+02
        -0.37603E+01
        -0.35984E+01
        -0.10168E+02
        -0.10924E+02
        -0.10412E+02
        -0.46039E+01
        -0.28216E+01
         0.37971E+01
        -0.40444E+01
         0.31508E+02
         0.56592E+02
         0.17728E+02
         0.18388E+02
         0.68836E+01
         0.74613E+01
         0.12105E+02
         0.29873E+02
         0.35958E+02
         0.44050E+02
         0.63378E+02
         0.90771E+02
         0.11411E+03
         0.70520E+02
         0.20441E+02
         0.29604E+02
         0.25685E+02
         0.23243E+02
         0.10600E+02
        -0.38288E+01
         0.35511E-01
         0.13251E+02
         0.39148E+02
         0.57678E+02
         0.59002E+02
         0.59978E+02
        -0.61095E+01
        -0.65027E+01
        -0.14800E+02
        -0.98504E+01
        -0.48165E+01
        -0.75824E+01
        -0.51098E+01
        -0.39689E+01
        -0.23179E+01
        -0.33663E+01
        -0.11473E+02
        -0.90196E+01
        -0.63069E+01
        -0.91962E+01
        -0.12027E+02
        -0.29751E+01
        -0.27526E+01
        -0.25418E+01
        -0.50342E+01
        -0.79730E+01
        -0.23529E+02
        -0.38850E+02
        -0.11767E+02
        -0.12909E+02
        -0.84979E+01
        -0.66956E+01
        -0.96878E+01
        -0.16346E+02
        -0.25773E+02
        -0.16329E+02
        -0.93610E+01
        -0.82127E+01
        -0.10740E+02
        -0.11158E+02
        -0.41191E+01
        -0.57427E+01
        -0.46566E+01
        -0.12913E+02
        -0.17207E+02
        -0.22692E+02
        -0.10154E+02
        -0.25445E+02
        -0.32527E+02
        -0.49604E+01
        -0.43995E+01
        -0.72744E+01
        -0.88624E+01
        -0.73891E+01
        -0.76208E+01
        -0.40489E+01
         0.58532E+01
        -0.38960E+01
         0.24277E+02
         0.39649E+02
         0.20141E+02
         0.12986E+02
         0.28925E+01
         0.16472E+01
         0.63818E+01
         0.10398E+02
         0.45031E+02
         0.95746E+02
         0.13912E+03
         0.16560E+03
         0.12044E+03
         0.71675E+02
         0.43773E+02
         0.31357E+02
         0.24978E+02
         0.18546E+02
         0.66768E+01
        -0.51093E+01
        -0.15981E+01
         0.17619E+02
         0.39668E+02
         0.65848E+02
         0.70008E+02
         0.67359E+02
        -0.73383E+01
        -0.77351E+01
        -0.16242E+02
        -0.11934E+02
        -0.87584E+01
        -0.11727E+02
        -0.54099E+01
        -0.47538E+01
        -0.25406E+01
        -0.40452E+01
        -0.15375E+02
        -0.10287E+02
        -0.79045E+01
        -0.10936E+02
        -0.17544E+02
        -0.50784E+01
        -0.39733E+01
        -0.55928E+01
        -0.10158E+02
        -0.13433E+02
        -0.27724E+02
        -0.42403E+02
        -0.13285E+02
        -0.15431E+02
        -0.90252E+01
        -0.12388E+02
        -0.99048E+01
        -0.18667E+02
        -0.28877E+02
        -0.21995E+02
        -0.13303E+02
        -0.12453E+02
        -0.16067E+02
        -0.15870E+02
        -0.78689E+01
        -0.93970E+01
        -0.68304E+01
        -0.24352E+02
        -0.34989E+02
        -0.39912E+02
        -0.13604E+02
        -0.32431E+02
        -0.57245E+02
        -0.11027E+02
        -0.85343E+01
        -0.12540E+02
        -0.14352E+02
        -0.14083E+02
        -0.14711E+02
        -0.13500E+02
        -0.12750E+01
        -0.10805E+02
         0.36306E+02
         0.64456E+02
         0.24220E+02
         0.19397E+02
         0.97666E+01
         0.19319E+01
        -0.60382E+01
         0.10051E+02
         0.56090E+02
         0.14626E+03
         0.21386E+03
         0.13426E+03
         0.17008E+03
         0.11148E+03
         0.83061E+02
         0.64067E+02
         0.47949E+02
         0.37851E+02
         0.12014E+02
        -0.67170E+01
        -0.37159E+01
         0.21449E+02
         0.68322E+02
         0.11014E+03
         0.96058E+02
         0.82868E+02
        -0.69892E+01
        -0.88149E+01
        -0.13384E+02
        -0.95039E+01
        -0.72211E+01
        -0.10062E+02
        -0.49022E+01
        -0.54225E+01
        -0.21926E+01
        -0.53935E+01
        -0.18146E+02
        -0.11002E+02
        -0.85469E+01
        -0.12516E+02
        -0.19327E+02
        -0.47834E+01
        -0.50800E+01
        -0.45590E+01
        -0.93104E+01
        -0.12861E+02
        -0.27726E+02
        -0.45512E+02
        -0.12006E+02
        -0.14021E+02
        -0.10674E+02
        -0.10514E+02
        -0.13516E+02
        -0.20908E+02
        -0.30902E+02
        -0.16786E+02
        -0.11158E+02
        -0.98397E+01
        -0.13900E+02
        -0.16447E+02
        -0.16831E+01
        -0.64142E+01
        -0.49900E+01
        -0.25194E+02
        -0.34740E+02
        -0.36059E+02
        -0.49378E+01
        -0.25174E+02
        -0.47149E+02
        -0.85731E+01
        -0.71268E+01
        -0.11148E+02
        -0.14710E+02
        -0.13781E+02
        -0.13127E+02
        -0.12643E+02
        -0.19270E+01
        -0.10545E+02
         0.34655E+02
         0.60301E+02
         0.29609E+02
         0.25364E+02
         0.11283E+02
        -0.16790E+01
        -0.31001E+00
         0.45085E+01
         0.36641E+02
         0.15868E+03
         0.23814E+03
         0.21804E+03
         0.17053E+03
         0.98692E+02
         0.69464E+02
         0.54085E+02
         0.36488E+02
         0.29170E+02
         0.12509E+02
        -0.12905E+01
        -0.13937E+01
         0.27750E+02
         0.59011E+02
         0.89019E+02
         0.83595E+02
         0.74505E+02
        -0.83761E+01
        -0.94101E+01
        -0.17910E+02
        -0.12686E+02
        -0.66269E+01
        -0.12679E+02
        -0.58709E+01
        -0.57827E+01
        -0.22376E+01
        -0.50027E+01
        -0.18239E+02
        -0.12106E+02
        -0.98296E+01
        -0.12155E+02
        -0.19336E+02
        -0.44386E+01
        -0.47549E+01
        -0.50656E+01
        -0.90733E+01
        -0.13574E+02
        -0.26046E+02
        -0.46901E+02
        -0.13845E+02
        -0.11807E+02
        -0.10868E+02
        -0.10838E+02
        -0.12759E+02
        -0.23754E+02
        -0.38887E+02
        -0.23641E+02
        -0.11545E+02
        -0.12994E+02
        -0.15646E+02
        -0.16758E+02
        -0.48794E+01
        -0.90693E+01
        -0.80669E+01
        -0.23608E+02
        -0.41068E+02
        -0.47925E+02
        -0.49043E+01
        -0.29519E+02
        -0.63520E+02
        -0.11957E+02
        -0.89535E+01
        -0.10384E+02
        -0.11864E+02
        -0.12877E+02
        -0.11839E+02
        -0.10080E+02
         0.39973E+01
        -0.80694E+01
         0.40724E+02
         0.68095E+02
         0.29493E+02
         0.20402E+02
         0.40358E+01
        -0.54889E+01
        -0.11384E+02
        -0.48244E+01
         0.47685E+02
         0.16280E+03
         0.31050E+03
         0.25478E+03
         0.19884E+03
         0.11177E+03
         0.71669E+02
         0.52753E+02
         0.35234E+02
         0.29696E+02
         0.16484E+02
         0.36482E+01
         0.86999E+01
         0.29328E+02
         0.58841E+02
         0.79028E+02
         0.71142E+02
         0.66764E+02
        -0.88194E+01
        -0.94152E+01
        -0.20802E+02
        -0.14413E+02
        -0.89592E+01
        -0.12718E+02
        -0.55505E+01
        -0.50917E+01
        -0.29625E+01
        -0.57949E+01
        -0.16164E+02
        -0.13245E+02
        -0.10236E+02
        -0.13127E+02
        -0.21815E+02
        -0.46914E+01
        -0.45926E+01
        -0.42263E+01
        -0.84124E+01
        -0.11762E+02
        -0.30125E+02
        -0.47287E+02
        -0.13569E+02
        -0.12374E+02
        -0.10990E+02
        -0.10224E+02
        -0.13281E+02
        -0.22668E+02
        -0.37886E+02
        -0.24752E+02
        -0.13435E+02
        -0.12298E+02
        -0.16371E+02
        -0.17980E+02
        -0.49991E+01
        -0.10112E+02
        -0.80913E+01
        -0.29116E+02
        -0.42224E+02
        -0.48410E+02
        -0.17545E+02
        -0.51307E+02
        -0.62253E+02
        -0.10225E+02
        -0.82101E+01
        -0.96368E+01
        -0.12155E+02
        -0.12001E+02
        -0.93229E+01
        -0.91071E+01
         0.60647E+01
        -0.71867E+01
         0.44988E+02
         0.74138E+02
         0.23108E+02
         0.14597E+02
         0.31351E+01
        -0.62732E+01
        -0.17422E+02
         0.94548E+01
         0.62633E+02
         0.14288E+03
         0.27389E+03
         0.21724E+03
         0.20310E+03
         0.12462E+03
         0.77114E+02
         0.49721E+02
         0.33775E+02
         0.29622E+02
         0.14923E+02
         0.32347E+01
         0.10345E+02
         0.26284E+02
         0.57156E+02
         0.85027E+02
         0.99521E+02
         0.86616E+02
        -0.59408E+01
        -0.70914E+01
        -0.15466E+02
        -0.10542E+02
        -0.94078E+01
        -0.11504E+02
        -0.44825E+01
        -0.49383E+01
        -0.27997E+01
        -0.53422E+01
        -0.19211E+02
        -0.10252E+02
        -0.66719E+01
        -0.13995E+02
        -0.21063E+02
        -0.40748E+01
        -0.47904E+01
        -0.52749E+01
        -0.72844E+01
        -0.11911E+02
        -0.18721E+02
        -0.36004E+02
        -0.12210E+02
        -0.94411E+01
        -0.10681E+02
        -0.10488E+02
        -0.11140E+02
        -0.20198E+02
        -0.33243E+02
        -0.23855E+02
        -0.12983E+02
        -0.10863E+02
        -0.16393E+02
        -0.13618E+02
        -0.89432E+01
        -0.83122E+01
        -0.62195E+01
        -0.25061E+02
        -0.35614E+02
        -0.42958E+02
        -0.23240E+02
        -0.27121E+02
        -0.58692E+02
        -0.10798E+02
        -0.85509E+01
        -0.97165E+01
        -0.12977E+02
        -0.12533E+02
        -0.84767E+01
        -0.92219E+01
        -0.28676E+00
        -0.10357E+02
         0.37578E+02
         0.67251E+02
         0.15070E+02
         0.13564E+02
         0.26547E+01
        -0.92966E+01
        -0.12498E+02
         0.54214E+01
         0.51686E+02
         0.15110E+03
         0.25084E+03
         0.20613E+03
         0.19313E+03
         0.91874E+02
         0.64041E+02
         0.38626E+02
         0.23502E+02
         0.19781E+02
         0.15267E+02
         0.36122E+01
         0.65488E+01
         0.22718E+02
         0.53905E+02
         0.92342E+02
         0.96937E+02
         0.91207E+02
        -0.65000E+01
        -0.60116E+01
        -0.15252E+02
        -0.10716E+02
        -0.72590E+01
        -0.93670E+01
        -0.49474E+01
        -0.46891E+01
        -0.21512E+01
        -0.48495E+01
        -0.17483E+02
        -0.10357E+02
        -0.56080E+01
        -0.11815E+02
        -0.18860E+02
        -0.48592E+01
        -0.37509E+01
        -0.58522E+01
        -0.72544E+01
        -0.11095E+02
        -0.21572E+02
        -0.35976E+02
        -0.11607E+02
        -0.12710E+02
        -0.99326E+01
        -0.10594E+02
        -0.12467E+02
        -0.21428E+02
        -0.38930E+02
        -0.24038E+02
        -0.14664E+02
        -0.14646E+02
        -0.16235E+02
        -0.16398E+02
        -0.62321E+01
        -0.84689E+01
        -0.61531E+01
        -0.23291E+02
        -0.30961E+02
        -0.34925E+02
        -0.17961E+02
        -0.36122E+02
        -0.55402E+02
        -0.10161E+02
        -0.92127E+01
        -0.11011E+02
        -0.12952E+02
        -0.12655E+02
        -0.11114E+02
        -0.12540E+02
        -0.11031E+01
        -0.97770E+01
         0.37030E+02
         0.63774E+02
         0.17981E+02
         0.16431E+02
         0.59368E+01
        -0.46028E+01
        -0.14544E+02
         0.11821E+02
         0.55417E+02
         0.11806E+03
         0.20115E+03
         0.22675E+03
         0.17452E+03
         0.95736E+02
         0.45923E+02
         0.34712E+02
         0.25903E+02
         0.24067E+02
         0.15525E+02
         0.45516E+01
         0.11619E+02
         0.27339E+02
         0.55077E+02
         0.74641E+02
         0.66979E+02
         0.71577E+02
        -0.65110E+01
        -0.77690E+01
        -0.10118E+02
        -0.74932E+01
        -0.33597E+01
        -0.55373E+01
        -0.58473E+01
        -0.61627E+01
        -0.29044E+01
        -0.55359E+01
        -0.18696E+02
        -0.12111E+02
        -0.63315E+01
        -0.13951E+02
        -0.22054E+02
        -0.62677E+01
        -0.54276E+01
        -0.53162E+01
        -0.94400E+01
        -0.12445E+02
        -0.27746E+02
        -0.44582E+02
        -0.13476E+02
        -0.16248E+02
        -0.11079E+02
        -0.13865E+02
        -0.12977E+02
        -0.20249E+02
        -0.32601E+02
        -0.23770E+02
        -0.13305E+02
        -0.13721E+02
        -0.15035E+02
        -0.10336E+02
        -0.15128E+01
        -0.68905E+01
        -0.47971E+01
        -0.17301E+02
        -0.26397E+02
        -0.44900E+02
        -0.18731E+02
        -0.36249E+02
        -0.52762E+02
        -0.11723E+02
        -0.84231E+01
        -0.10070E+02
        -0.11919E+02
        -0.87837E+01
        -0.78036E+01
        -0.43499E+01
         0.27148E+01
        -0.34433E+01
         0.40057E+02
         0.63366E+02
         0.17056E+02
         0.15704E+02
         0.39170E+01
        -0.94919E+01
        -0.62160E+01
         0.18819E+01
         0.56877E+02
         0.14452E+03
         0.27647E+03
         0.23690E+03
         0.16048E+03
         0.10280E+03
         0.66867E+02
         0.53596E+02
         0.36245E+02
         0.27892E+02
         0.19301E+02
         0.40132E+01
         0.57556E+01
         0.26346E+02
         0.56502E+02
         0.88478E+02
         0.91988E+02
         0.71163E+02
        -0.79900E+01
        -0.76908E+01
        -0.16588E+02
        -0.96583E+01
        -0.51851E+01
        -0.50173E+01
        -0.59854E+01
        -0.48654E+01
        -0.30379E+01
        -0.51334E+01
        -0.16957E+02
        -0.11160E+02
        -0.83544E+01
        -0.12830E+02
        -0.20055E+02
        -0.38621E+01
        -0.51195E+01
        -0.36663E+01
        -0.76058E+01
        -0.12898E+02
        -0.23218E+02
        -0.38328E+02
        -0.10527E+02
        -0.14048E+02
        -0.10176E+02
        -0.92457E+01
        -0.10865E+02
        -0.19532E+02
        -0.30721E+02
        -0.22289E+02
        -0.97115E+01
        -0.83099E+01
        -0.11282E+02
        -0.93589E+01
        -0.44902E+01
        -0.77162E+01
        -0.76608E+01
        -0.29376E+02
        -0.40856E+02
        -0.50498E+02
        -0.29940E+02
        -0.38699E+02
        -0.52745E+02
        -0.88225E+01
        -0.79329E+01
        -0.67590E+01
        -0.80770E+01
        -0.92652E+01
        -0.70074E+01
        -0.64800E+01
         0.37885E+01
        -0.63328E+01
         0.37817E+02
         0.55369E+02
         0.22427E+02
         0.13307E+02
         0.84838E+00
        -0.83683E+01
        -0.18965E+02
        -0.43719E+01
         0.57722E+02
         0.20064E+03
         0.34228E+03
         0.29546E+03
         0.19472E+03
         0.12673E+03
         0.78794E+02
         0.52781E+02
         0.32858E+02
         0.23944E+02
         0.15741E+02
         0.33665E+01
         0.72595E+01
         0.25830E+02
         0.52238E+02
         0.82597E+02
         0.78534E+02
         0.66263E+02
        -0.54354E+01
        -0.47591E+01
        -0.11993E+02
        -0.76174E+01
        -0.54109E+01
        -0.60447E+01
        -0.35273E+01
        -0.41518E+01
        -0.22422E+01
        -0.51003E+01
        -0.13096E+02
        -0.89696E+01
        -0.58673E+01
        -0.91530E+01
        -0.16266E+02
        -0.39419E+01
        -0.51771E+01
        -0.22012E+01
        -0.77300E+01
        -0.11792E+02
        -0.23365E+02
        -0.37481E+02
        -0.72737E+01
        -0.96671E+01
        -0.11128E+02
        -0.80706E+01
        -0.10486E+02
        -0.22098E+02
        -0.35836E+02
        -0.22735E+02
        -0.88209E+01
        -0.86275E+01
        -0.95615E+01
        -0.89253E+01
        -0.56390E+01
        -0.70958E+01
        -0.59393E+01
        -0.21700E+02
        -0.36048E+02
        -0.49247E+02
        -0.28211E+02
        -0.44519E+02
        -0.51790E+02
        -0.73818E+01
        -0.52738E+01
        -0.56623E+01
        -0.84387E+01
        -0.70905E+01
        -0.45493E+01
        -0.54119E+01
         0.34841E+01
        -0.47821E+01
         0.26306E+02
         0.43717E+02
         0.37947E+01
         0.60865E+01
        -0.18567E+00
        -0.63364E+01
        -0.95077E+01
        -0.27184E+01
         0.24760E+02
         0.10510E+03
         0.24060E+03
         0.20860E+03
         0.16416E+03
         0.11267E+03
         0.60541E+02
         0.42292E+02
         0.28320E+02
         0.27174E+02
         0.19331E+02
         0.83243E+01
         0.76258E+01
         0.15126E+02
         0.31625E+02
         0.54148E+02
         0.54214E+02
         0.51260E+02
        -0.26551E+01
        -0.35268E+01
        -0.61093E+01
        -0.39461E+01
        -0.34136E+01
        -0.36567E+01
        -0.26652E+01
        -0.40601E+01
        -0.50930E+00
        -0.51426E+01
        -0.10959E+02
        -0.88943E+01
        -0.42253E+01
        -0.12627E+02
        -0.14863E+02
        -0.20789E+01
        -0.28946E+01
        -0.84205E+00
        -0.48444E+01
        -0.92809E+01
        -0.12707E+02
        -0.27740E+02
        -0.47387E+01
        -0.77062E+01
        -0.53535E+01
        -0.55966E+01
        -0.11643E+02
        -0.19775E+02
        -0.26883E+02
        -0.17199E+02
        -0.50757E+01
        -0.61166E+01
        -0.48278E+01
        -0.36619E+01
        -0.33767E+01
        -0.35725E+01
        -0.30826E+01
        -0.22433E+02
        -0.32424E+02
        -0.47374E+02
        -0.10483E+02
        -0.26242E+02
        -0.35414E+02
        -0.42837E+01
        -0.30660E+01
        -0.24976E+01
        -0.37516E+01
        -0.34477E+01
        -0.23213E+01
        -0.22514E+01
         0.16503E+01
        -0.27399E+01
         0.10005E+02
         0.28324E+02
         0.10261E+02
         0.13013E+02
         0.52487E+01
        -0.67130E+01
        -0.97930E+01
        -0.19664E+01
         0.42946E+02
         0.17703E+03
         0.30513E+03
         0.27122E+03
         0.13644E+03
         0.68467E+02
         0.43399E+02
         0.49156E+02
         0.36697E+02
         0.30305E+02
         0.17294E+02
         0.65349E+01
         0.59507E+01
         0.96887E+01
         0.17735E+02
         0.32379E+02
         0.35720E+02
         0.38645E+02
        -0.14431E+01
        -0.57165E+00
        -0.29627E+01
        -0.67083E+00
        -0.43294E+01
        -0.39955E+01
        -0.42103E+01
        -0.46279E+01
         0.92646E+00
        -0.51105E+01
        -0.16469E+02
        -0.12035E+02
        -0.46140E+01
        -0.12563E+02
        -0.16377E+02
        -0.10487E+01
        -0.17225E+01
         0.21451E+01
        -0.55937E+01
        -0.83474E+01
        -0.17672E+02
        -0.37934E+02
        -0.98798E+01
        -0.81397E+01
        -0.75856E+01
        -0.77401E+01
        -0.13499E+02
        -0.18556E+02
        -0.29282E+02
        -0.20378E+02
        -0.29418E+01
        -0.85662E+01
         0.87861E-01
        -0.16116E+01
        -0.59522E+01
        -0.28612E+01
        -0.12891E+01
        -0.27551E+02
        -0.35298E+02
        -0.44902E+02
        -0.14626E+02
        -0.45752E+02
        -0.55395E+02
        -0.99248E+01
        -0.63813E+01
        -0.70904E+01
        -0.57441E+01
        -0.10799E+01
        -0.25277E+01
        -0.41299E+01
        -0.11673E+02
        -0.57631E+01
        -0.28664E+02
         0.37068E+01
        -0.46679E+01
         0.10493E+02
         0.36451E+01
        -0.29263E+01
         0.52500E+01
         0.60208E+01
         0.51276E+02
         0.15954E+03
         0.30725E+03
         0.30160E+03
         0.14960E+03
         0.96427E+02
         0.55289E+02
         0.44341E+02
         0.32114E+02
         0.29309E+02
         0.20563E+02
         0.28934E+01
        -0.39295E+01
        -0.79335E+01
        -0.28536E+02
        -0.27285E+02
        -0.82493E+01
         0.10204E+02
        -0.84311E+01
        -0.47096E+01
        -0.37914E+01
         0.38902E+00
        -0.13057E+02
        -0.91724E+01
        -0.12612E+02
        -0.12978E+02
        -0.42516E+01
        -0.13756E+02
        -0.27897E+02
        -0.15972E+02
        -0.88380E+01
        -0.19435E+02
        -0.14329E+02
        -0.69918E+01
        -0.76587E+01
        -0.16701E+01
        -0.12176E+02
        -0.12359E+02
        -0.33675E+02
        -0.46925E+02
        -0.20131E+02
        -0.22108E+02
        -0.13559E+02
        -0.15586E+02
        -0.17913E+02
        -0.18131E+02
        -0.24558E+02
        -0.22103E+02
        -0.42302E+01
        -0.13042E+02
         0.20660E+01
        -0.91842E+00
        -0.25646E+02
        -0.85692E+01
        -0.28014E+01
        -0.20326E+02
        -0.25144E+02
        -0.12623E+02
        -0.59463E+01
        -0.31304E+02
        -0.60557E+02
        -0.16310E+02
        -0.98415E+01
        -0.59878E+01
        -0.77833E+01
        -0.48265E+01
        -0.87864E+01
        -0.14282E+02
        -0.39731E+02
        -0.16324E+02
        -0.82266E+02
        -0.58473E+02
        -0.34882E+02
        -0.62542E+01
        -0.19176E+01
         0.10281E+01
         0.44734E+01
         0.21199E+02
         0.53746E+02
         0.12590E+03
         0.16370E+03
         0.18937E+03
         0.15161E+03
         0.10256E+03
         0.60673E+02
         0.33996E+02
         0.20707E+02
         0.39661E+02
         0.36576E+02
         0.93762E+01
        -0.24638E+02
        -0.47733E+02
        -0.99122E+02
        -0.12807E+03
        -0.10213E+03
        -0.65104E+02
        -0.17847E+02
        -0.13226E+02
        -0.86649E+01
        -0.26493E+01
        -0.14031E+02
        -0.78175E+01
        -0.18855E+02
        -0.21470E+02
        -0.10862E+02
        -0.23348E+02
        -0.31776E+02
        -0.17529E+02
        -0.14298E+02
        -0.23406E+02
        -0.18737E+02
        -0.13336E+02
        -0.95618E+01
        -0.66997E+01
        -0.25001E+02
        -0.16837E+02
        -0.78866E+02
        -0.10467E+03
        -0.48932E+02
        -0.43422E+02
        -0.14716E+02
        -0.30790E+02
        -0.23034E+02
        -0.24933E+02
        -0.34238E+02
        -0.26663E+02
        -0.92194E+01
        -0.19645E+02
        -0.93522E+00
         0.36599E+00
        -0.27410E+02
        -0.11518E+02
        -0.94760E+01
        -0.16784E+02
        -0.15130E+02
        -0.25122E+02
        -0.32087E+02
        -0.70171E+02
        -0.10863E+03
        -0.33271E+02
        -0.14172E+02
        -0.38704E+01
        -0.67611E+01
        -0.25027E+01
        -0.37877E+01
        -0.66546E+01
        -0.33204E+02
        -0.11713E+02
        -0.79063E+02
        -0.10437E+03
        -0.37032E+02
        -0.12448E+02
        -0.76672E+01
         0.28495E+01
         0.91070E+01
         0.22477E+02
         0.29060E+02
         0.32332E+02
         0.96727E+02
         0.20602E+03
         0.23932E+03
         0.22493E+03
         0.17170E+03
         0.10730E+03
         0.64922E+02
         0.83745E+02
         0.84845E+02
         0.32377E+02
        -0.15072E+02
        -0.34325E+02
        -0.81110E+02
        -0.13808E+03
        -0.13346E+03
        -0.11220E+03
         0.19424E+02
         0.28085E+02
         0.68308E+02
         0.46068E+02
         0.77922E+02
         0.72141E+02
         0.24100E+02
         0.18236E+02
         0.12917E+02
         0.39315E+01
         0.37351E+02
         0.13869E+02
         0.11826E+02
         0.81347E+01
         0.34956E+00
        -0.10440E+02
         0.38362E+01
         0.16312E+02
        -0.42623E+02
        -0.53002E+02
        -0.15097E+03
        -0.23091E+03
        -0.42345E+02
        -0.35402E+02
        -0.74755E+01
        -0.13926E+02
        -0.13727E+02
        -0.37598E+02
        -0.77241E+02
        -0.92496E+02
         0.21716E+02
         0.13932E+02
         0.44465E+02
         0.76766E+02
         0.11927E+03
         0.58426E+02
         0.20675E+02
        -0.21485E+02
        -0.40289E+02
        -0.60207E+02
        -0.34865E+02
        -0.10699E+03
        -0.22303E+03
        -0.10223E+01
         0.53723E+02
         0.11114E+03
         0.40404E+02
         0.31362E+02
         0.40577E+02
         0.79676E+02
         0.10921E+03
         0.81037E+02
         0.13091E+03
         0.98617E+01
         0.13252E+03
         0.50214E+02
         0.13306E+02
         0.16221E+02
         0.18996E+02
        -0.53960E+01
        -0.36399E+02
        -0.19398E+01
         0.32319E+03
         0.77428E+03
         0.96357E+03
         0.88894E+03
         0.69331E+03
         0.50293E+03
         0.35936E+03
         0.35307E+03
         0.32335E+03
         0.13243E+03
         0.23257E+01
        -0.27583E+02
        -0.19843E+02
        -0.40760E+02
        -0.70976E+02
        -0.47426E+02
  
SCALARS                     velocity_z  double 1
LOOKUP_TABLE default
        -0.45239E+03
        -0.19454E+03
        -0.32294E+03
        -0.39796E+03
         0.00000E+00
         0.00000E+00
         0.00000E+00
         0.00000E+00
        -0.41762E+03
        -0.53976E+03
         0.00000E+00
         0.00000E+00
        -0.15875E+03
        -0.32722E+03
         0.00000E+00
         0.00000E+00
        -0.41471E+03
        -0.39209E+03
         0.00000E+00
         0.00000E+00
         0.12498E+03
         0.24021E+03
         0.73259E+02
         0.00000E+00
         0.00000E+00
         0.00000E+00
        -0.17740E+03
         0.17352E+03
         0.00000E+00
         0.00000E+00
        -0.43779E+03
        -0.45824E+03
        -0.41883E+03
         0.00000E+00
         0.00000E+00
         0.00000E+00
        -0.41669E+03
        -0.44499E+03
         0.00000E+00
         0.00000E+00
        -0.44922E+03
        -0.49196E+03
         0.00000E+00
         0.00000E+00
        -0.38350E+03
        -0.33757E+03
         0.00000E+00
         0.00000E+00
        -0.54531E+03
         0.00000E+00
        -0.23439E+03
         0.00000E+00
        -0.27931E+03
         0.00000E+00
        -0.26026E+03
         0.00000E+00
        -0.24382E+03
        -0.68963E+03
         0.00000E+00
         0.00000E+00
        -0.28410E+03
        -0.29733E+03
         0.00000E+00
         0.00000E+00
        -0.30870E+03
         0.00000E+00
        -0.55418E+03
         0.00000E+00
        -0.34941E+03
        -0.97024E+02
         0.00000E+00
         0.00000E+00
        -0.57144E+02
         0.00000E+00
         0.39584E+03
         0.00000E+00
         0.45910E+03
         0.00000E+00
         0.52254E+03
         0.00000E+00
         0.67319E+03
        -0.36675E+03
         0.00000E+00
         0.00000E+00
        -0.78125E+03
         0.00000E+00
        -0.25913E+03
         0.00000E+00
        -0.55375E+03
         0.00000E+00
        -0.93892E+03
        -0.55000E+03
         0.00000E+00
         0.00000E+00
        -0.46002E+03
         0.00000E+00
        -0.73436E+03
         0.00000E+00
        -0.84241E+03
         0.00000E+00
        -0.94355E+03
        -0.64561E+03
         0.00000E+00
         0.00000E+00
        -0.49776E+02
        -0.45331E+03
         0.00000E+00
         0.00000E+00
         0.28557E+03
         0.00000E+00
         0.12765E+03
         0.00000E+00
        -0.11463E+03
         0.00000E+00
        -0.19565E+03
         0.00000E+00
        -0.17527E+03
         0.00000E+00
        -0.46370E+03
         0.00000E+00
         0.80381E+02
         0.00000E+00
         0.21899E+04
         0.00000E+00
         0.28713E+04
         0.00000E+00
         0.10323E+04
         0.00000E+00
        -0.18537E+03
         0.00000E+00
        -0.64270E+03
         0.00000E+00
        -0.90010E+03
         0.00000E+00
        -0.91674E+03
         0.00000E+00
        -0.93408E+03
         0.00000E+00
        -0.13786E+04
         0.00000E+00
        -0.18475E+04
         0.00000E+00
        -0.13630E+04
         0.00000E+00
        -0.13293E+04
         0.00000E+00
        -0.11260E+04
         0.00000E+00
        -0.82848E+03
         0.00000E+00
        -0.13857E+04
         0.00000E+00
        -0.13744E+04
         0.00000E+00
        -0.83820E+03
         0.00000E+00
        -0.44720E+03
        -0.25875E+03
        -0.39978E+03
        -0.48637E+03
        -0.50503E+03
        -0.63530E+03
        -0.27378E+03
        -0.41528E+03
        -0.45691E+03
        -0.48181E+03
        -0.98948E+02
        -0.78271E+02
        -0.13041E+03
        -0.31524E+03
         0.93912E+02
        -0.32980E+03
        -0.51992E+03
        -0.35914E+03
        -0.34084E+03
        -0.58722E+03
        -0.45563E+03
        -0.61444E+03
        -0.44640E+03
        -0.23958E+03
        -0.67575E+03
        -0.40245E+03
        -0.43247E+03
        -0.58737E+03
        -0.71557E+03
        -0.79051E+03
        -0.75880E+03
        -0.72279E+03
        -0.84872E+03
        -0.88350E+03
        -0.50859E+03
        -0.21532E+03
        -0.17493E+03
         0.13642E+03
         0.15225E+03
         0.18813E+03
         0.36442E+03
        -0.56586E+03
        -0.74677E+03
        -0.57109E+03
        -0.72610E+03
        -0.92954E+03
        -0.85853E+03
        -0.93988E+03
        -0.10696E+04
        -0.11973E+04
        -0.12521E+04
        -0.83594E+03
        -0.54847E+03
        -0.79633E+03
        -0.15685E+03
        -0.19378E+03
        -0.13883E+03
         0.12741E+03
         0.66739E+03
         0.11075E+04
         0.17588E+04
         0.32200E+04
         0.32287E+04
         0.11586E+04
        -0.11024E+03
        -0.83183E+03
        -0.11146E+04
        -0.10527E+04
        -0.96316E+03
        -0.82707E+03
        -0.57231E+03
        -0.11002E+03
         0.78800E+03
         0.16978E+04
         0.17509E+04
         0.31804E+03
        -0.11105E+04
        -0.11566E+04
        -0.42839E+03
        -0.39536E+03
        -0.41946E+03
        -0.51254E+03
        -0.48503E+03
        -0.61663E+03
        -0.39619E+03
        -0.46130E+03
        -0.43961E+03
        -0.48707E+03
        -0.55499E+03
        -0.46748E+03
        -0.42477E+03
        -0.53260E+03
        -0.44975E+03
        -0.39552E+03
        -0.45387E+03
        -0.42525E+03
        -0.40930E+03
        -0.52105E+03
        -0.51079E+03
        -0.59397E+03
        -0.51859E+03
        -0.44745E+03
        -0.60805E+03
        -0.56512E+03
        -0.61825E+03
        -0.72241E+03
        -0.78640E+03
        -0.66462E+03
        -0.77597E+03
        -0.70013E+03
        -0.85278E+03
        -0.78488E+03
        -0.51426E+03
        -0.45118E+03
        -0.40636E+03
        -0.49088E+03
        -0.38918E+03
        -0.42612E+03
        -0.11203E+03
        -0.60659E+03
        -0.73692E+03
        -0.54328E+03
        -0.59569E+03
        -0.50423E+03
        -0.65118E+03
        -0.76634E+03
        -0.87281E+03
        -0.86670E+03
        -0.77254E+03
        -0.86806E+03
        -0.75037E+03
        -0.79548E+03
        -0.74655E+03
        -0.55906E+03
        -0.32343E+03
         0.56212E+02
         0.47897E+03
         0.80708E+03
         0.14483E+04
         0.19576E+04
         0.17200E+04
         0.64699E+03
        -0.14092E+03
        -0.82338E+03
        -0.10779E+04
        -0.85872E+03
        -0.41730E+03
         0.20967E+03
         0.59233E+03
         0.72496E+03
         0.15932E+04
         0.23109E+04
         0.23480E+04
         0.14512E+04
        -0.49289E+02
        -0.62262E+03
        -0.40706E+03
        -0.40508E+03
        -0.40200E+03
        -0.40758E+03
        -0.39298E+03
        -0.41685E+03
        -0.41548E+03
        -0.43603E+03
        -0.41789E+03
        -0.46527E+03
        -0.55143E+03
        -0.51376E+03
        -0.43780E+03
        -0.54597E+03
        -0.52879E+03
        -0.38667E+03
        -0.42857E+03
        -0.39934E+03
        -0.39987E+03
        -0.48832E+03
        -0.46356E+03
        -0.56307E+03
        -0.44214E+03
        -0.39899E+03
        -0.51559E+03
        -0.42998E+03
        -0.57039E+03
        -0.64593E+03
        -0.68783E+03
        -0.63374E+03
        -0.51334E+03
        -0.46362E+03
        -0.55096E+03
        -0.54800E+03
        -0.44714E+03
        -0.40138E+03
        -0.40019E+03
        -0.52391E+03
        -0.54953E+03
        -0.51535E+03
        -0.44815E+03
        -0.59953E+03
        -0.68177E+03
        -0.44547E+03
        -0.43376E+03
        -0.37697E+03
        -0.40190E+03
        -0.42956E+03
        -0.50570E+03
        -0.55023E+03
        -0.42390E+03
        -0.54323E+03
        -0.55568E+03
        -0.48266E+03
        -0.60492E+03
        -0.51829E+03
        -0.39392E+03
        -0.25799E+03
         0.14989E+03
         0.42577E+03
         0.77847E+03
         0.13197E+04
         0.90229E+03
         0.74820E+02
        -0.22325E+03
        -0.73399E+03
        -0.81764E+03
        -0.70642E+03
        -0.46315E+03
        -0.15814E+03
        -0.54354E+02
        -0.13932E+03
        -0.30905E+02
         0.77305E+03
         0.11198E+04
         0.60621E+03
        -0.92394E+02
        -0.46283E+03
        -0.39212E+03
        -0.37762E+03
        -0.37144E+03
        -0.36691E+03
        -0.36751E+03
        -0.36052E+03
        -0.39388E+03
        -0.40663E+03
        -0.39660E+03
        -0.43277E+03
        -0.45015E+03
        -0.45225E+03
        -0.40917E+03
        -0.46153E+03
        -0.47459E+03
        -0.36929E+03
        -0.41699E+03
        -0.36705E+03
        -0.38329E+03
        -0.44263E+03
        -0.42178E+03
        -0.48936E+03
        -0.38362E+03
        -0.35723E+03
        -0.49330E+03
        -0.34903E+03
        -0.51147E+03
        -0.59621E+03
        -0.63834E+03
        -0.54038E+03
        -0.33454E+03
        -0.33156E+03
        -0.33363E+03
        -0.34383E+03
        -0.36724E+03
        -0.37376E+03
        -0.38172E+03
        -0.55061E+03
        -0.57725E+03
        -0.59746E+03
        -0.45138E+03
        -0.63189E+03
        -0.59824E+03
        -0.36680E+03
        -0.35762E+03
        -0.36950E+03
        -0.34652E+03
        -0.33027E+03
        -0.34642E+03
        -0.34336E+03
        -0.34816E+03
        -0.35348E+03
        -0.38061E+03
        -0.35346E+03
        -0.37926E+03
        -0.38479E+03
        -0.36895E+03
        -0.29225E+03
        -0.11921E+03
         0.15600E+03
         0.62159E+03
         0.10070E+04
         0.97280E+03
         0.20977E+03
        -0.31326E+03
        -0.60854E+03
        -0.61487E+03
        -0.52041E+03
        -0.45985E+03
        -0.46238E+03
        -0.51289E+03
        -0.51420E+03
        -0.52507E+03
        -0.52967E+03
        -0.45258E+03
        -0.43096E+03
        -0.37567E+03
        -0.36535E+03
        -0.36892E+03
        -0.36679E+03
        -0.35840E+03
        -0.35536E+03
        -0.35873E+03
        -0.35175E+03
        -0.37813E+03
        -0.38274E+03
        -0.37480E+03
        -0.39877E+03
        -0.40424E+03
        -0.40157E+03
        -0.38444E+03
        -0.41353E+03
        -0.44844E+03
        -0.36146E+03
        -0.38756E+03
        -0.35412E+03
        -0.37179E+03
        -0.39651E+03
        -0.38869E+03
        -0.41816E+03
        -0.36976E+03
        -0.35482E+03
        -0.43352E+03
        -0.34557E+03
        -0.44015E+03
        -0.48342E+03
        -0.52330E+03
        -0.45289E+03
        -0.32121E+03
        -0.33377E+03
        -0.31822E+03
        -0.33142E+03
        -0.35812E+03
        -0.36678E+03
        -0.37292E+03
        -0.51012E+03
        -0.55702E+03
        -0.55421E+03
        -0.50197E+03
        -0.50196E+03
        -0.47889E+03
        -0.35881E+03
        -0.35649E+03
        -0.37075E+03
        -0.35403E+03
        -0.34107E+03
        -0.34292E+03
        -0.35207E+03
        -0.36729E+03
        -0.34633E+03
        -0.35172E+03
        -0.36441E+03
        -0.36424E+03
        -0.37729E+03
        -0.38454E+03
        -0.36999E+03
        -0.26684E+03
         0.83989E+01
         0.36342E+03
         0.64708E+03
         0.39783E+03
        -0.14551E+03
        -0.39086E+03
        -0.48477E+03
        -0.46515E+03
        -0.40952E+03
        -0.38557E+03
        -0.41606E+03
        -0.44984E+03
        -0.46466E+03
        -0.50802E+03
        -0.58177E+03
        -0.63612E+03
        -0.58187E+03
        -0.45077E+03
        -0.38940E+03
        -0.36683E+03
        -0.36573E+03
        -0.36106E+03
        -0.36105E+03
        -0.36049E+03
        -0.36043E+03
        -0.37049E+03
        -0.37138E+03
        -0.36982E+03
        -0.37978E+03
        -0.37475E+03
        -0.38172E+03
        -0.37372E+03
        -0.38110E+03
        -0.40525E+03
        -0.36533E+03
        -0.37337E+03
        -0.36167E+03
        -0.36864E+03
        -0.37780E+03
        -0.37564E+03
        -0.38787E+03
        -0.36852E+03
        -0.36330E+03
        -0.38521E+03
        -0.36217E+03
        -0.39476E+03
        -0.41530E+03
        -0.42883E+03
        -0.39502E+03
        -0.35339E+03
        -0.35960E+03
        -0.34796E+03
        -0.35522E+03
        -0.35912E+03
        -0.36629E+03
        -0.37015E+03
        -0.43804E+03
        -0.45936E+03
        -0.45742E+03
        -0.44328E+03
        -0.43549E+03
        -0.41313E+03
        -0.36524E+03
        -0.36501E+03
        -0.37020E+03
        -0.36607E+03
        -0.36146E+03
        -0.36309E+03
        -0.36610E+03
        -0.37925E+03
        -0.35933E+03
        -0.36396E+03
        -0.37328E+03
        -0.37150E+03
        -0.37340E+03
        -0.37885E+03
        -0.38300E+03
        -0.35199E+03
        -0.23387E+03
        -0.60378E+02
        -0.36820E+01
        -0.12922E+03
        -0.30106E+03
        -0.43038E+03
        -0.43781E+03
        -0.40702E+03
        -0.37297E+03
        -0.36301E+03
        -0.36981E+03
        -0.38291E+03
        -0.39049E+03
        -0.41623E+03
        -0.42796E+03
        -0.46502E+03
        -0.47342E+03
        -0.42551E+03
        -0.39648E+03
        -0.36663E+03
        -0.36891E+03
        -0.36251E+03
        -0.36373E+03
        -0.36307E+03
        -0.36433E+03
        -0.36981E+03
        -0.36773E+03
        -0.36819E+03
        -0.36994E+03
        -0.36433E+03
        -0.37187E+03
        -0.36882E+03
        -0.36890E+03
        -0.37634E+03
        -0.36904E+03
        -0.36982E+03
        -0.36644E+03
        -0.36936E+03
        -0.37022E+03
        -0.36882E+03
        -0.36496E+03
        -0.36721E+03
        -0.36782E+03
        -0.37258E+03
        -0.36846E+03
        -0.37363E+03
        -0.37670E+03
        -0.37659E+03
        -0.37160E+03
        -0.36456E+03
        -0.36777E+03
        -0.36183E+03
        -0.36248E+03
        -0.36122E+03
        -0.36549E+03
        -0.36917E+03
        -0.38109E+03
        -0.39299E+03
        -0.39025E+03
        -0.40220E+03
        -0.38682E+03
        -0.37528E+03
        -0.36896E+03
        -0.36941E+03
        -0.36986E+03
        -0.37008E+03
        -0.36918E+03
        -0.37036E+03
        -0.37042E+03
        -0.37667E+03
        -0.36788E+03
        -0.36596E+03
        -0.38673E+03
        -0.36317E+03
        -0.36586E+03
        -0.36918E+03
        -0.37408E+03
        -0.38885E+03
        -0.36439E+03
        -0.35996E+03
        -0.35190E+03
        -0.38307E+03
        -0.42844E+03
        -0.42606E+03
        -0.38842E+03
        -0.36520E+03
        -0.36092E+03
        -0.36135E+03
        -0.36306E+03
        -0.36749E+03
        -0.37317E+03
        -0.37972E+03
        -0.39204E+03
        -0.41627E+03
        -0.44181E+03
        -0.43023E+03
        -0.40134E+03
        -0.36804E+03
        -0.36977E+03
        -0.36460E+03
        -0.36526E+03
        -0.36439E+03
        -0.36456E+03
        -0.37023E+03
        -0.36869E+03
        -0.36888E+03
        -0.36760E+03
        -0.36469E+03
        -0.36691E+03
        -0.36968E+03
        -0.36518E+03
        -0.36551E+03
        -0.37067E+03
        -0.36859E+03
        -0.36897E+03
        -0.36904E+03
        -0.36482E+03
        -0.36161E+03
        -0.35409E+03
        -0.36799E+03
        -0.36967E+03
        -0.36456E+03
        -0.37036E+03
        -0.36463E+03
        -0.36089E+03
        -0.35464E+03
        -0.35700E+03
        -0.36636E+03
        -0.36929E+03
        -0.36324E+03
        -0.36303E+03
        -0.36161E+03
        -0.36615E+03
        -0.36967E+03
        -0.36688E+03
        -0.36661E+03
        -0.36736E+03
        -0.38335E+03
        -0.35950E+03
        -0.34896E+03
        -0.37018E+03
        -0.37082E+03
        -0.37183E+03
        -0.37071E+03
        -0.36875E+03
        -0.37143E+03
        -0.37353E+03
        -0.37918E+03
        -0.36956E+03
        -0.36430E+03
        -0.38607E+03
        -0.36482E+03
        -0.36337E+03
        -0.36493E+03
        -0.37338E+03
        -0.39610E+03
        -0.42986E+03
        -0.43820E+03
        -0.47962E+03
        -0.49369E+03
        -0.45220E+03
        -0.42335E+03
        -0.36198E+03
        -0.34919E+03
        -0.35911E+03
        -0.36441E+03
        -0.36569E+03
        -0.36833E+03
        -0.37856E+03
        -0.38968E+03
        -0.40204E+03
        -0.42868E+03
        -0.43102E+03
        -0.41382E+03
        -0.40383E+03
        -0.36820E+03
        -0.37069E+03
        -0.36506E+03
        -0.36596E+03
        -0.36638E+03
        -0.36515E+03
        -0.37105E+03
        -0.36950E+03
        -0.36936E+03
        -0.36603E+03
        -0.36597E+03
        -0.36598E+03
        -0.36963E+03
        -0.36326E+03
        -0.36403E+03
        -0.37142E+03
        -0.36878E+03
        -0.37044E+03
        -0.36990E+03
        -0.36489E+03
        -0.36011E+03
        -0.34841E+03
        -0.36556E+03
        -0.36773E+03
        -0.35998E+03
        -0.37057E+03
        -0.35851E+03
        -0.34829E+03
        -0.34213E+03
        -0.35297E+03
        -0.36657E+03
        -0.36982E+03
        -0.36305E+03
        -0.36255E+03
        -0.36270E+03
        -0.36775E+03
        -0.37091E+03
        -0.36224E+03
        -0.35461E+03
        -0.35046E+03
        -0.37232E+03
        -0.35278E+03
        -0.34389E+03
        -0.37124E+03
        -0.37194E+03
        -0.37288E+03
        -0.37101E+03
        -0.36991E+03
        -0.36934E+03
        -0.37151E+03
        -0.38062E+03
        -0.36893E+03
        -0.36504E+03
        -0.37934E+03
        -0.36243E+03
        -0.36698E+03
        -0.36860E+03
        -0.37754E+03
        -0.40466E+03
        -0.43368E+03
        -0.49233E+03
        -0.53151E+03
        -0.58145E+03
        -0.49954E+03
        -0.40806E+03
        -0.36480E+03
        -0.34668E+03
        -0.35773E+03
        -0.36390E+03
        -0.37027E+03
        -0.37239E+03
        -0.37596E+03
        -0.38843E+03
        -0.41186E+03
        -0.43569E+03
        -0.44276E+03
        -0.42053E+03
        -0.40154E+03
        -0.36863E+03
        -0.37011E+03
        -0.36414E+03
        -0.36466E+03
        -0.36263E+03
        -0.36199E+03
        -0.37110E+03
        -0.36973E+03
        -0.36910E+03
        -0.36704E+03
        -0.36422E+03
        -0.36550E+03
        -0.36998E+03
        -0.36338E+03
        -0.35758E+03
        -0.37114E+03
        -0.36668E+03
        -0.36776E+03
        -0.36763E+03
        -0.36084E+03
        -0.35794E+03
        -0.34755E+03
        -0.36516E+03
        -0.36717E+03
        -0.36000E+03
        -0.36978E+03
        -0.35819E+03
        -0.34711E+03
        -0.33882E+03
        -0.35035E+03
        -0.36250E+03
        -0.36818E+03
        -0.35803E+03
        -0.36106E+03
        -0.36026E+03
        -0.36582E+03
        -0.37117E+03
        -0.34348E+03
        -0.33065E+03
        -0.32627E+03
        -0.35090E+03
        -0.33924E+03
        -0.33031E+03
        -0.36900E+03
        -0.37028E+03
        -0.37269E+03
        -0.36971E+03
        -0.36583E+03
        -0.36297E+03
        -0.36421E+03
        -0.37758E+03
        -0.36445E+03
        -0.36107E+03
        -0.37745E+03
        -0.36334E+03
        -0.36643E+03
        -0.36316E+03
        -0.37213E+03
        -0.41108E+03
        -0.47230E+03
        -0.55242E+03
        -0.61079E+03
        -0.56051E+03
        -0.43899E+03
        -0.42890E+03
        -0.36879E+03
        -0.35234E+03
        -0.35661E+03
        -0.36097E+03
        -0.36491E+03
        -0.37183E+03
        -0.38170E+03
        -0.40677E+03
        -0.43460E+03
        -0.48256E+03
        -0.49016E+03
        -0.44720E+03
        -0.40512E+03
        -0.36873E+03
        -0.36947E+03
        -0.36402E+03
        -0.36578E+03
        -0.36379E+03
        -0.36357E+03
        -0.37119E+03
        -0.36878E+03
        -0.36943E+03
        -0.36567E+03
        -0.36533E+03
        -0.36469E+03
        -0.36913E+03
        -0.36200E+03
        -0.35780E+03
        -0.37091E+03
        -0.36672E+03
        -0.36879E+03
        -0.36819E+03
        -0.36095E+03
        -0.35852E+03
        -0.34652E+03
        -0.36523E+03
        -0.36817E+03
        -0.35849E+03
        -0.36957E+03
        -0.35609E+03
        -0.34390E+03
        -0.33349E+03
        -0.35274E+03
        -0.36299E+03
        -0.36839E+03
        -0.35896E+03
        -0.35836E+03
        -0.36053E+03
        -0.36717E+03
        -0.37061E+03
        -0.34411E+03
        -0.32937E+03
        -0.32821E+03
        -0.35937E+03
        -0.34409E+03
        -0.33406E+03
        -0.36880E+03
        -0.37023E+03
        -0.37189E+03
        -0.36931E+03
        -0.36618E+03
        -0.36380E+03
        -0.36538E+03
        -0.37946E+03
        -0.36580E+03
        -0.36055E+03
        -0.37701E+03
        -0.36398E+03
        -0.36494E+03
        -0.36319E+03
        -0.37345E+03
        -0.41001E+03
        -0.46024E+03
        -0.53396E+03
        -0.63536E+03
        -0.64245E+03
        -0.50421E+03
        -0.41552E+03
        -0.35421E+03
        -0.34777E+03
        -0.35831E+03
        -0.36297E+03
        -0.36627E+03
        -0.37415E+03
        -0.38584E+03
        -0.40392E+03
        -0.44096E+03
        -0.46765E+03
        -0.47034E+03
        -0.43474E+03
        -0.40168E+03
        -0.36781E+03
        -0.36935E+03
        -0.36318E+03
        -0.36345E+03
        -0.36092E+03
        -0.36024E+03
        -0.37050E+03
        -0.36947E+03
        -0.36920E+03
        -0.36659E+03
        -0.36428E+03
        -0.36297E+03
        -0.37064E+03
        -0.36317E+03
        -0.35728E+03
        -0.37091E+03
        -0.36714E+03
        -0.36797E+03
        -0.36833E+03
        -0.36055E+03
        -0.35811E+03
        -0.34611E+03
        -0.36512E+03
        -0.36824E+03
        -0.35713E+03
        -0.36890E+03
        -0.35619E+03
        -0.34074E+03
        -0.32285E+03
        -0.34876E+03
        -0.36220E+03
        -0.36557E+03
        -0.35789E+03
        -0.35820E+03
        -0.36038E+03
        -0.36674E+03
        -0.37148E+03
        -0.35141E+03
        -0.33824E+03
        -0.33096E+03
        -0.35723E+03
        -0.32519E+03
        -0.32557E+03
        -0.36763E+03
        -0.36818E+03
        -0.37019E+03
        -0.36848E+03
        -0.36527E+03
        -0.36571E+03
        -0.36941E+03
        -0.38382E+03
        -0.36632E+03
        -0.36081E+03
        -0.38293E+03
        -0.36061E+03
        -0.36556E+03
        -0.36485E+03
        -0.37437E+03
        -0.40843E+03
        -0.48477E+03
        -0.59029E+03
        -0.68374E+03
        -0.67197E+03
        -0.47860E+03
        -0.41742E+03
        -0.35038E+03
        -0.34393E+03
        -0.35707E+03
        -0.35886E+03
        -0.36589E+03
        -0.37948E+03
        -0.39098E+03
        -0.40962E+03
        -0.43718E+03
        -0.46031E+03
        -0.46066E+03
        -0.42601E+03
        -0.40178E+03
        -0.36806E+03
        -0.36942E+03
        -0.36168E+03
        -0.36250E+03
        -0.36149E+03
        -0.36165E+03
        -0.36895E+03
        -0.36968E+03
        -0.36867E+03
        -0.36659E+03
        -0.36431E+03
        -0.36172E+03
        -0.36769E+03
        -0.36094E+03
        -0.35359E+03
        -0.37087E+03
        -0.36745E+03
        -0.36862E+03
        -0.37002E+03
        -0.36259E+03
        -0.35936E+03
        -0.34621E+03
        -0.36488E+03
        -0.36804E+03
        -0.35614E+03
        -0.36721E+03
        -0.35416E+03
        -0.34297E+03
        -0.32697E+03
        -0.34243E+03
        -0.36010E+03
        -0.36495E+03
        -0.35624E+03
        -0.35664E+03
        -0.35767E+03
        -0.36672E+03
        -0.37051E+03
        -0.33843E+03
        -0.32434E+03
        -0.32446E+03
        -0.35458E+03
        -0.32743E+03
        -0.32365E+03
        -0.36681E+03
        -0.36732E+03
        -0.37105E+03
        -0.36856E+03
        -0.36577E+03
        -0.36705E+03
        -0.37121E+03
        -0.38824E+03
        -0.36695E+03
        -0.36320E+03
        -0.38531E+03
        -0.35874E+03
        -0.36189E+03
        -0.36176E+03
        -0.37387E+03
        -0.42263E+03
        -0.49159E+03
        -0.54499E+03
        -0.62825E+03
        -0.65133E+03
        -0.50088E+03
        -0.41476E+03
        -0.35015E+03
        -0.34041E+03
        -0.34926E+03
        -0.35421E+03
        -0.36624E+03
        -0.38703E+03
        -0.39988E+03
        -0.41557E+03
        -0.42937E+03
        -0.46664E+03
        -0.46933E+03
        -0.44647E+03
        -0.41402E+03
        -0.36904E+03
        -0.36955E+03
        -0.36599E+03
        -0.36575E+03
        -0.36264E+03
        -0.36417E+03
        -0.37042E+03
        -0.36985E+03
        -0.36879E+03
        -0.36623E+03
        -0.36322E+03
        -0.36471E+03
        -0.36930E+03
        -0.36077E+03
        -0.35483E+03
        -0.37095E+03
        -0.36833E+03
        -0.36728E+03
        -0.37035E+03
        -0.36244E+03
        -0.36222E+03
        -0.34892E+03
        -0.36572E+03
        -0.37017E+03
        -0.35814E+03
        -0.36880E+03
        -0.35741E+03
        -0.34540E+03
        -0.33580E+03
        -0.34805E+03
        -0.36088E+03
        -0.36494E+03
        -0.35553E+03
        -0.36081E+03
        -0.35890E+03
        -0.36789E+03
        -0.37102E+03
        -0.34242E+03
        -0.32529E+03
        -0.32772E+03
        -0.35366E+03
        -0.33724E+03
        -0.32966E+03
        -0.36682E+03
        -0.36633E+03
        -0.37043E+03
        -0.36890E+03
        -0.36492E+03
        -0.36666E+03
        -0.36880E+03
        -0.38245E+03
        -0.36662E+03
        -0.36062E+03
        -0.38522E+03
        -0.35964E+03
        -0.36252E+03
        -0.36437E+03
        -0.37524E+03
        -0.42639E+03
        -0.49062E+03
        -0.57345E+03
        -0.62349E+03
        -0.60567E+03
        -0.49174E+03
        -0.40037E+03
        -0.34826E+03
        -0.34938E+03
        -0.35510E+03
        -0.35927E+03
        -0.36688E+03
        -0.38606E+03
        -0.39893E+03
        -0.41390E+03
        -0.42680E+03
        -0.45988E+03
        -0.48119E+03
        -0.45582E+03
        -0.41674E+03
        -0.36903E+03
        -0.37029E+03
        -0.36532E+03
        -0.36515E+03
        -0.36447E+03
        -0.36522E+03
        -0.37097E+03
        -0.36901E+03
        -0.36969E+03
        -0.36702E+03
        -0.36314E+03
        -0.36371E+03
        -0.36731E+03
        -0.36129E+03
        -0.35602E+03
        -0.37008E+03
        -0.36836E+03
        -0.36735E+03
        -0.36936E+03
        -0.36319E+03
        -0.36050E+03
        -0.34892E+03
        -0.36584E+03
        -0.36785E+03
        -0.35937E+03
        -0.36762E+03
        -0.35376E+03
        -0.34464E+03
        -0.32555E+03
        -0.34978E+03
        -0.35941E+03
        -0.36487E+03
        -0.35682E+03
        -0.35801E+03
        -0.35930E+03
        -0.36716E+03
        -0.37004E+03
        -0.34431E+03
        -0.33323E+03
        -0.33651E+03
        -0.35176E+03
        -0.34390E+03
        -0.33365E+03
        -0.36766E+03
        -0.36833E+03
        -0.37549E+03
        -0.37030E+03
        -0.36613E+03
        -0.36459E+03
        -0.36505E+03
        -0.37928E+03
        -0.36525E+03
        -0.36469E+03
        -0.38929E+03
        -0.35793E+03
        -0.36165E+03
        -0.36196E+03
        -0.37520E+03
        -0.42093E+03
        -0.47672E+03
        -0.51192E+03
        -0.59470E+03
        -0.61437E+03
        -0.50135E+03
        -0.40461E+03
        -0.34928E+03
        -0.35068E+03
        -0.35704E+03
        -0.36117E+03
        -0.37068E+03
        -0.38985E+03
        -0.39977E+03
        -0.41843E+03
        -0.43057E+03
        -0.45849E+03
        -0.44884E+03
        -0.42776E+03
        -0.41353E+03
        -0.36846E+03
        -0.36838E+03
        -0.36846E+03
        -0.36797E+03
        -0.36869E+03
        -0.36965E+03
        -0.37020E+03
        -0.36935E+03
        -0.36871E+03
        -0.36800E+03
        -0.36394E+03
        -0.36145E+03
        -0.36798E+03
        -0.36131E+03
        -0.35393E+03
        -0.37031E+03
        -0.36676E+03
        -0.36808E+03
        -0.36858E+03
        -0.36215E+03
        -0.35806E+03
        -0.34707E+03
        -0.36467E+03
        -0.36743E+03
        -0.35702E+03
        -0.36761E+03
        -0.35813E+03
        -0.34747E+03
        -0.33647E+03
        -0.34858E+03
        -0.36211E+03
        -0.36651E+03
        -0.35864E+03
        -0.36393E+03
        -0.36389E+03
        -0.36613E+03
        -0.36964E+03
        -0.35441E+03
        -0.34270E+03
        -0.32780E+03
        -0.35232E+03
        -0.32918E+03
        -0.33401E+03
        -0.36789E+03
        -0.36942E+03
        -0.37428E+03
        -0.37121E+03
        -0.36970E+03
        -0.36843E+03
        -0.37067E+03
        -0.37945E+03
        -0.37143E+03
        -0.36826E+03
        -0.39232E+03
        -0.36214E+03
        -0.36146E+03
        -0.36289E+03
        -0.37556E+03
        -0.41733E+03
        -0.47006E+03
        -0.56520E+03
        -0.64577E+03
        -0.65594E+03
        -0.50093E+03
        -0.41364E+03
        -0.35485E+03
        -0.34475E+03
        -0.35529E+03
        -0.36125E+03
        -0.36907E+03
        -0.38371E+03
        -0.38639E+03
        -0.40412E+03
        -0.42651E+03
        -0.45357E+03
        -0.47532E+03
        -0.43211E+03
        -0.40887E+03
        -0.36843E+03
        -0.37043E+03
        -0.36543E+03
        -0.36672E+03
        -0.36869E+03
        -0.36859E+03
        -0.37142E+03
        -0.36849E+03
        -0.36858E+03
        -0.36589E+03
        -0.36486E+03
        -0.36586E+03
        -0.36970E+03
        -0.36189E+03
        -0.36268E+03
        -0.37141E+03
        -0.36745E+03
        -0.36942E+03
        -0.36867E+03
        -0.36105E+03
        -0.36006E+03
        -0.34744E+03
        -0.36440E+03
        -0.36727E+03
        -0.35884E+03
        -0.36950E+03
        -0.35584E+03
        -0.34625E+03
        -0.33653E+03
        -0.35136E+03
        -0.36585E+03
        -0.36927E+03
        -0.36272E+03
        -0.36524E+03
        -0.36556E+03
        -0.36885E+03
        -0.37091E+03
        -0.34081E+03
        -0.32285E+03
        -0.31858E+03
        -0.33496E+03
        -0.33466E+03
        -0.33011E+03
        -0.36845E+03
        -0.36930E+03
        -0.37216E+03
        -0.37075E+03
        -0.36834E+03
        -0.36904E+03
        -0.37152E+03
        -0.38381E+03
        -0.36929E+03
        -0.36734E+03
        -0.39211E+03
        -0.35920E+03
        -0.36217E+03
        -0.36389E+03
        -0.37517E+03
        -0.41283E+03
        -0.49786E+03
        -0.57600E+03
        -0.71943E+03
        -0.72605E+03
        -0.52425E+03
        -0.41482E+03
        -0.35908E+03
        -0.34405E+03
        -0.35307E+03
        -0.35799E+03
        -0.36666E+03
        -0.37937E+03
        -0.38485E+03
        -0.39551E+03
        -0.41996E+03
        -0.45040E+03
        -0.46618E+03
        -0.43700E+03
        -0.41083E+03
        -0.36893E+03
        -0.37084E+03
        -0.36678E+03
        -0.36761E+03
        -0.36814E+03
        -0.36830E+03
        -0.37067E+03
        -0.36907E+03
        -0.36953E+03
        -0.36540E+03
        -0.36549E+03
        -0.36755E+03
        -0.36998E+03
        -0.36481E+03
        -0.36179E+03
        -0.37134E+03
        -0.36798E+03
        -0.37022E+03
        -0.36914E+03
        -0.36353E+03
        -0.36093E+03
        -0.35059E+03
        -0.36723E+03
        -0.36819E+03
        -0.35663E+03
        -0.36963E+03
        -0.36006E+03
        -0.34474E+03
        -0.33492E+03
        -0.34797E+03
        -0.36655E+03
        -0.36950E+03
        -0.36388E+03
        -0.36573E+03
        -0.36565E+03
        -0.36949E+03
        -0.37118E+03
        -0.35363E+03
        -0.33071E+03
        -0.31191E+03
        -0.34106E+03
        -0.32925E+03
        -0.33426E+03
        -0.36934E+03
        -0.37017E+03
        -0.37208E+03
        -0.37122E+03
        -0.36989E+03
        -0.37053E+03
        -0.37260E+03
        -0.38312E+03
        -0.37070E+03
        -0.36825E+03
        -0.38692E+03
        -0.36724E+03
        -0.36644E+03
        -0.36606E+03
        -0.37509E+03
        -0.40228E+03
        -0.43794E+03
        -0.50293E+03
        -0.55927E+03
        -0.60485E+03
        -0.48892E+03
        -0.40476E+03
        -0.34732E+03
        -0.34587E+03
        -0.35457E+03
        -0.35968E+03
        -0.36458E+03
        -0.37196E+03
        -0.37921E+03
        -0.39123E+03
        -0.39533E+03
        -0.41631E+03
        -0.43158E+03
        -0.41777E+03
        -0.40066E+03
        -0.37049E+03
        -0.37205E+03
        -0.37115E+03
        -0.37059E+03
        -0.37081E+03
        -0.37162E+03
        -0.37137E+03
        -0.36948E+03
        -0.37107E+03
        -0.36494E+03
        -0.36587E+03
        -0.36601E+03
        -0.37065E+03
        -0.36253E+03
        -0.36752E+03
        -0.37245E+03
        -0.36899E+03
        -0.37191E+03
        -0.36996E+03
        -0.36457E+03
        -0.36400E+03
        -0.35325E+03
        -0.36857E+03
        -0.37031E+03
        -0.36416E+03
        -0.37175E+03
        -0.35560E+03
        -0.34665E+03
        -0.33551E+03
        -0.35501E+03
        -0.37106E+03
        -0.37221E+03
        -0.36999E+03
        -0.37118E+03
        -0.36817E+03
        -0.37145E+03
        -0.37264E+03
        -0.34815E+03
        -0.33388E+03
        -0.32081E+03
        -0.35379E+03
        -0.34026E+03
        -0.34658E+03
        -0.37143E+03
        -0.37249E+03
        -0.37437E+03
        -0.37404E+03
        -0.37288E+03
        -0.37333E+03
        -0.37475E+03
        -0.38224E+03
        -0.37450E+03
        -0.36892E+03
        -0.38393E+03
        -0.36507E+03
        -0.36950E+03
        -0.37084E+03
        -0.38035E+03
        -0.40768E+03
        -0.46870E+03
        -0.54693E+03
        -0.67023E+03
        -0.68275E+03
        -0.52233E+03
        -0.39617E+03
        -0.34947E+03
        -0.34541E+03
        -0.35610E+03
        -0.36413E+03
        -0.36809E+03
        -0.37201E+03
        -0.37350E+03
        -0.37997E+03
        -0.38739E+03
        -0.40294E+03
        -0.41656E+03
        -0.40758E+03
        -0.39687E+03
        -0.37096E+03
        -0.37240E+03
        -0.37319E+03
        -0.37380E+03
        -0.37217E+03
        -0.37463E+03
        -0.37000E+03
        -0.36900E+03
        -0.37236E+03
        -0.36725E+03
        -0.36185E+03
        -0.36315E+03
        -0.36873E+03
        -0.36231E+03
        -0.35872E+03
        -0.37342E+03
        -0.36992E+03
        -0.37437E+03
        -0.37002E+03
        -0.36472E+03
        -0.35895E+03
        -0.34843E+03
        -0.36687E+03
        -0.37011E+03
        -0.36139E+03
        -0.37380E+03
        -0.35568E+03
        -0.34933E+03
        -0.33583E+03
        -0.35028E+03
        -0.37797E+03
        -0.37755E+03
        -0.37854E+03
        -0.37628E+03
        -0.36867E+03
        -0.37135E+03
        -0.37313E+03
        -0.34064E+03
        -0.33369E+03
        -0.32845E+03
        -0.35749E+03
        -0.32770E+03
        -0.33200E+03
        -0.37221E+03
        -0.37604E+03
        -0.37705E+03
        -0.37897E+03
        -0.37974E+03
        -0.37831E+03
        -0.37835E+03
        -0.38136E+03
        -0.37840E+03
        -0.36235E+03
        -0.38069E+03
        -0.36961E+03
        -0.37534E+03
        -0.37449E+03
        -0.38266E+03
        -0.41448E+03
        -0.45726E+03
        -0.53830E+03
        -0.61783E+03
        -0.66986E+03
        -0.54475E+03
        -0.41256E+03
        -0.34831E+03
        -0.33608E+03
        -0.35122E+03
        -0.36586E+03
        -0.36583E+03
        -0.35373E+03
        -0.34803E+03
        -0.35021E+03
        -0.36235E+03
        -0.35804E+03
        -0.37621E+03
        -0.39176E+03
        -0.39273E+03
        -0.36843E+03
        -0.37071E+03
        -0.37330E+03
        -0.37665E+03
        -0.37196E+03
        -0.37917E+03
        -0.36648E+03
        -0.36457E+03
        -0.36997E+03
        -0.36187E+03
        -0.35712E+03
        -0.36132E+03
        -0.36686E+03
        -0.36177E+03
        -0.36623E+03
        -0.37169E+03
        -0.36555E+03
        -0.37481E+03
        -0.36777E+03
        -0.36180E+03
        -0.35905E+03
        -0.34883E+03
        -0.36531E+03
        -0.36722E+03
        -0.35840E+03
        -0.37570E+03
        -0.35616E+03
        -0.35346E+03
        -0.34576E+03
        -0.35011E+03
        -0.39144E+03
        -0.38981E+03
        -0.39011E+03
        -0.38572E+03
        -0.36202E+03
        -0.37235E+03
        -0.37269E+03
        -0.35385E+03
        -0.35588E+03
        -0.36022E+03
        -0.38121E+03
        -0.35883E+03
        -0.33134E+03
        -0.37319E+03
        -0.38068E+03
        -0.37769E+03
        -0.38549E+03
        -0.39061E+03
        -0.38896E+03
        -0.38545E+03
        -0.37578E+03
        -0.38153E+03
        -0.36062E+03
        -0.36963E+03
        -0.37135E+03
        -0.37413E+03
        -0.36872E+03
        -0.37696E+03
        -0.40837E+03
        -0.43989E+03
        -0.48182E+03
        -0.54738E+03
        -0.59338E+03
        -0.53320E+03
        -0.42333E+03
        -0.34687E+03
        -0.32244E+03
        -0.33429E+03
        -0.35123E+03
        -0.34702E+03
        -0.30726E+03
        -0.27800E+03
        -0.27925E+03
        -0.29698E+03
        -0.28300E+03
        -0.30691E+03
        -0.35181E+03
        -0.37153E+03
        -0.36699E+03
        -0.36888E+03
        -0.37407E+03
        -0.37811E+03
        -0.37448E+03
        -0.38099E+03
        -0.36549E+03
        -0.36385E+03
        -0.36684E+03
        -0.36009E+03
        -0.36165E+03
        -0.36843E+03
        -0.36845E+03
        -0.36344E+03
        -0.37300E+03
        -0.37244E+03
        -0.36265E+03
        -0.37298E+03
        -0.36902E+03
        -0.36086E+03
        -0.35586E+03
        -0.34006E+03
        -0.36739E+03
        -0.37275E+03
        -0.35701E+03
        -0.38328E+03
        -0.36143E+03
        -0.35623E+03
        -0.34789E+03
        -0.34666E+03
        -0.40145E+03
        -0.40397E+03
        -0.39481E+03
        -0.39209E+03
        -0.37497E+03
        -0.37301E+03
        -0.37115E+03
        -0.37524E+03
        -0.37368E+03
        -0.37233E+03
        -0.39941E+03
        -0.35639E+03
        -0.32453E+03
        -0.37666E+03
        -0.38565E+03
        -0.37553E+03
        -0.38640E+03
        -0.39347E+03
        -0.39004E+03
        -0.38636E+03
        -0.37275E+03
        -0.38475E+03
        -0.38202E+03
        -0.36967E+03
        -0.38240E+03
        -0.37492E+03
        -0.36918E+03
        -0.37103E+03
        -0.39138E+03
        -0.40711E+03
        -0.42471E+03
        -0.48445E+03
        -0.60350E+03
        -0.63463E+03
        -0.49818E+03
        -0.36249E+03
        -0.28874E+03
        -0.28373E+03
        -0.31262E+03
        -0.30537E+03
        -0.24476E+03
        -0.21696E+03
        -0.23740E+03
        -0.26002E+03
        -0.24427E+03
        -0.26891E+03
        -0.32151E+03
        -0.35136E+03
        -0.38928E+03
        -0.38945E+03
        -0.41801E+03
        -0.40324E+03
        -0.42747E+03
        -0.41460E+03
        -0.38052E+03
        -0.37739E+03
        -0.37145E+03
        -0.36283E+03
        -0.38221E+03
        -0.38558E+03
        -0.38255E+03
        -0.36919E+03
        -0.38545E+03
        -0.38096E+03
        -0.35555E+03
        -0.38270E+03
        -0.36670E+03
        -0.32503E+03
        -0.31426E+03
        -0.28080E+03
        -0.34773E+03
        -0.39340E+03
        -0.33941E+03
        -0.41924E+03
        -0.35779E+03
        -0.34860E+03
        -0.36133E+03
        -0.29461E+03
        -0.43502E+03
        -0.44590E+03
        -0.42734E+03
        -0.42594E+03
        -0.45691E+03
        -0.40805E+03
        -0.38372E+03
        -0.39357E+03
        -0.41259E+03
        -0.46579E+03
        -0.64327E+03
        -0.42926E+03
        -0.28963E+03
        -0.37647E+03
        -0.39701E+03
        -0.36975E+03
        -0.40277E+03
        -0.42041E+03
        -0.41988E+03
        -0.40612E+03
        -0.37789E+03
        -0.40183E+03
        -0.49334E+03
        -0.39525E+03
        -0.42943E+03
        -0.37747E+03
        -0.38115E+03
        -0.39744E+03
        -0.38798E+03
        -0.38618E+03
        -0.45947E+03
        -0.73668E+03
        -0.11799E+04
        -0.12384E+04
        -0.84457E+03
        -0.35978E+03
        -0.11042E+03
        -0.94094E+02
        -0.14632E+03
        -0.12456E+03
        -0.30101E+02
         0.10890E+02
        -0.60734E+02
        -0.13040E+03
        -0.18697E+03
        -0.23636E+03
        -0.34188E+03
        -0.37638E+03
  
SCALARS                 acceleration_x  double 1
LOOKUP_TABLE default
         0.00000E+00
         0.19013E+09
         0.13536E+09
         0.10438E+09
        -0.30015E+08
        -0.19701E+10
        -0.22811E+10
        -0.12538E+10
        -0.12041E+10
         0.22353E+09
         0.52318E+09
        -0.14253E+10
        -0.14317E+10
         0.25352E+08
        -0.25035E+09
        -0.16813E+10
        -0.81452E+09
         0.42525E+08
        -0.36783E+08
        -0.11121E+10
        -0.32869E+10
        -0.13423E+09
         0.78039E+08
         0.49808E+09
        -0.18548E+10
         0.19217E+09
        -0.24725E+09
        -0.13307E+09
        -0.50289E+09
        -0.19628E+10
        -0.31033E+09
         0.15720E+08
         0.41848E+08
        -0.95251E+07
        -0.16938E+09
        -0.45872E+09
        -0.22227E+09
         0.45441E+07
         0.58706E+08
        -0.20082E+08
        -0.69414E+08
        -0.45297E+08
        -0.17794E+09
        -0.58301E+07
        -0.42312E+08
         0.20469E+08
        -0.52842E+07
        -0.61632E+08
        -0.19712E+08
         0.91692E+08
        -0.68231E+09
        -0.73226E+08
        -0.28640E+09
        -0.22435E+09
        -0.10658E+10
        -0.29926E+09
        -0.14402E+10
        -0.10273E+09
        -0.27043E+08
        -0.23244E+10
        -0.29675E+09
        -0.13673E+09
        -0.72875E+08
        -0.91064E+09
        -0.47071E+09
         0.35266E+09
        -0.15428E+09
        -0.20023E+09
        -0.21446E+10
         0.30506E+09
         0.58239E+09
        -0.15174E+10
        -0.72145E+09
         0.22264E+09
        -0.43899E+09
         0.12268E+10
        -0.58599E+09
         0.19390E+10
        -0.43039E+09
         0.16151E+10
        -0.77125E+09
         0.40460E+08
        -0.46222E+09
        -0.94894E+09
        -0.70542E+09
        -0.46094E+09
        -0.73497E+09
         0.29003E+09
        -0.94108E+09
         0.62641E+09
        -0.16533E+10
         0.40159E+09
         0.51065E+09
        -0.15733E+10
        -0.38316E+09
         0.40805E+09
        -0.29689E+09
         0.10919E+10
        -0.82191E+09
         0.35638E+10
        -0.75370E+09
         0.25673E+10
         0.34673E+10
        -0.62525E+08
        -0.11734E+10
         0.98039E+09
         0.52256E+10
        -0.28106E+10
        -0.12796E+10
         0.12606E+10
        -0.44185E+09
         0.22936E+09
         0.10214E+10
        -0.13438E+10
         0.45674E+10
        -0.34180E+10
         0.79668E+10
        -0.55913E+10
         0.10321E+11
        -0.84336E+10
         0.17254E+11
        -0.13089E+11
         0.28489E+11
        -0.10409E+11
         0.12575E+11
        -0.23623E+10
         0.23373E+09
        -0.21736E+09
        -0.63215E+09
        -0.59226E+09
        -0.89487E+09
        -0.69305E+09
        -0.16815E+10
        -0.71716E+08
        -0.21996E+10
         0.91328E+09
        -0.18882E+10
         0.17283E+10
        -0.13614E+10
         0.28946E+10
        -0.21786E+10
         0.39078E+10
        -0.15527E+10
         0.43812E+10
        -0.10420E+10
         0.55058E+10
        -0.67903E+09
         0.17431E+11
         0.15300E+08
         0.27665E+11
         0.23394E+10
         0.31656E+11
         0.84426E+09
         0.16790E+11
        -0.47008E+09
         0.72984E+10
        -0.62198E+09
         0.63238E+09
         0.94023E+09
         0.31412E+09
         0.32202E+09
         0.71423E+09
         0.19137E+10
         0.67990E+09
         0.62562E+09
         0.11200E+10
         0.23140E+10
         0.51793E+09
        -0.49001E+09
         0.27323E+08
         0.73224E+09
        -0.17086E+09
         0.62696E+09
         0.50967E+09
         0.10571E+10
         0.38294E+09
         0.34194E+09
         0.16940E+09
        -0.22106E+08
         0.93122E+09
         0.44010E+09
         0.95634E+09
         0.78902E+09
         0.11023E+10
         0.13387E+10
         0.76792E+09
         0.34173E+09
         0.70495E+08
         0.45191E+09
        -0.56541E+09
         0.96825E+08
         0.11236E+10
         0.79520E+09
         0.46623E+09
         0.23970E+09
         0.45108E+09
         0.43656E+09
         0.66101E+08
         0.40733E+09
         0.27003E+09
         0.85041E+09
         0.14335E+10
         0.70276E+09
         0.54361E+09
         0.28286E+09
         0.31756E+09
         0.10835E+10
         0.15921E+10
         0.25388E+10
         0.17262E+10
         0.31501E+10
         0.11812E+10
        -0.32438E+09
        -0.25319E+10
        -0.50413E+10
        -0.76539E+10
        -0.12817E+11
        -0.19648E+11
        -0.14262E+11
        -0.20625E+10
         0.38308E+09
         0.35723E+09
         0.64845E+09
         0.12071E+10
         0.16856E+10
         0.20653E+10
         0.25792E+10
         0.17147E+10
         0.14206E+10
         0.35777E+10
         0.92686E+10
         0.17147E+11
         0.12464E+11
         0.69448E+10
         0.18735E+10
         0.42910E+09
         0.23332E+09
         0.26723E+09
         0.64984E+09
         0.11718E+09
        -0.78455E+09
         0.21937E+09
         0.27961E+09
         0.43206E+09
         0.15566E+10
         0.24808E+09
        -0.79532E+08
         0.50363E+08
         0.33881E+09
         0.23622E+08
         0.34521E+09
         0.24359E+09
         0.34578E+09
         0.20137E+09
         0.33552E+09
         0.21033E+09
         0.30855E+09
         0.37402E+09
         0.20744E+09
         0.34487E+09
         0.40808E+09
         0.37566E+09
         0.49616E+09
         0.27599E+09
         0.21675E+09
         0.29581E+09
         0.23424E+09
         0.15992E+09
        -0.32691E+09
        -0.17899E+09
         0.18056E+09
         0.16671E+09
        -0.24309E+09
        -0.46956E+09
        -0.48756E+09
        -0.76376E+08
         0.20416E+09
         0.35491E+09
         0.13877E+09
         0.30577E+08
        -0.21168E+09
        -0.16013E+09
        -0.41259E+09
        -0.99507E+09
        -0.30993E+10
        -0.24567E+10
        -0.38693E+10
        -0.12162E+10
        -0.26229E+10
        -0.43934E+09
        -0.27814E+09
        -0.62131E+09
        -0.10976E+10
        -0.20737E+10
        -0.46385E+10
        -0.73597E+10
        -0.61537E+10
        -0.15794E+10
        -0.61000E+09
         0.76220E+09
         0.97829E+09
         0.55814E+09
         0.38096E+09
         0.22129E+09
        -0.87404E+09
        -0.99227E+09
        -0.13554E+10
        -0.21731E+10
        -0.44862E+10
        -0.74223E+10
        -0.50368E+10
        -0.28968E+10
        -0.87250E+09
         0.15636E+09
         0.30384E+08
        -0.87986E+08
         0.29420E+09
        -0.42986E+09
        -0.38150E+09
         0.34139E+08
         0.74089E+08
        -0.12027E+08
         0.15315E+09
         0.70153E+08
         0.19370E+09
         0.99205E+08
         0.11534E+09
         0.91316E+08
         0.24054E+08
         0.21220E+08
         0.11172E+09
         0.30670E+08
         0.99966E+08
         0.87372E+08
         0.22622E+09
         0.18133E+08
         0.10823E+08
         0.20102E+07
         0.21556E+08
         0.12321E+09
        -0.96336E+07
        -0.14585E+09
         0.52784E+08
        -0.29195E+08
        -0.39084E+08
        -0.13467E+09
         0.11551E+09
        -0.83755E+09
        -0.36764E+08
         0.28740E+07
         0.10202E+09
        -0.65875E+08
        -0.49572E+09
        -0.41263E+09
         0.12170E+09
         0.36064E+08
        -0.11008E+09
        -0.43889E+09
        -0.42441E+09
        -0.32912E+09
        -0.63907E+09
        -0.55917E+09
        -0.21512E+10
        -0.31181E+10
        -0.61212E+10
        -0.20053E+10
        -0.43409E+10
        -0.81158E+09
        -0.27983E+09
         0.20197E+09
         0.55610E+09
        -0.15690E+09
        -0.71578E+09
        -0.14566E+10
        -0.10488E+10
        -0.11008E+10
        -0.77807E+09
        -0.39693E+09
         0.18643E+09
         0.40723E+09
         0.92787E+08
        -0.47784E+09
        -0.12274E+10
        -0.12287E+10
        -0.12131E+10
        -0.25865E+10
        -0.68389E+10
        -0.11282E+11
        -0.97539E+10
        -0.76171E+10
        -0.27529E+10
        -0.16221E+08
        -0.14173E+08
        -0.36392E+08
        -0.43499E+08
        -0.13572E+09
        -0.19290E+09
         0.22362E+08
         0.16940E+07
        -0.24448E+08
         0.11398E+09
         0.93017E+08
         0.12335E+09
         0.54171E+08
         0.11905E+09
         0.14398E+09
        -0.51509E+08
        -0.55016E+07
        -0.54592E+08
        -0.15163E+08
         0.53806E+08
         0.90774E+08
         0.24921E+09
         0.10170E+09
         0.66363E+06
         0.10960E+09
        -0.19599E+08
         0.21137E+09
         0.38273E+09
         0.42153E+09
         0.15178E+09
        -0.36373E+08
         0.15565E+08
        -0.10802E+09
        -0.80349E+08
        -0.49112E+08
        -0.25861E+08
         0.18456E+08
         0.38554E+09
         0.41317E+09
         0.48714E+09
         0.10815E+09
         0.24832E+09
         0.37931E+09
         0.62091E+08
         0.69366E+08
         0.55556E+08
         0.20952E+08
         0.15263E+08
        -0.33624E+08
        -0.25846E+09
        -0.39328E+09
        -0.92077E+09
        -0.46396E+09
        -0.93236E+09
        -0.90412E+08
         0.39174E+08
         0.24671E+09
         0.38845E+09
         0.50962E+09
         0.50278E+08
        -0.93934E+09
        -0.15061E+10
        -0.10156E+10
        -0.54152E+09
         0.15213E+09
         0.49721E+09
         0.56583E+09
         0.40057E+09
         0.25265E+09
         0.17703E+09
         0.20946E+09
         0.32660E+09
         0.81247E+08
         0.20007E+09
        -0.97439E+09
        -0.10315E+10
        -0.10188E+10
        -0.35652E+09
        -0.54077E+08
        -0.19946E+08
         0.85844E+07
         0.17818E+08
         0.28027E+08
         0.12951E+09
        -0.33906E+08
        -0.61337E+05
        -0.35880E+08
         0.72397E+08
         0.30894E+08
         0.34850E+08
         0.16501E+08
         0.29951E+08
         0.43108E+08
        -0.50435E+08
        -0.15731E+08
        -0.34517E+08
        -0.21345E+08
         0.26831E+08
         0.56287E+08
         0.13660E+09
         0.74857E+08
        -0.14258E+08
         0.71920E+08
        -0.33740E+08
         0.78754E+08
         0.23911E+09
         0.29267E+09
         0.90353E+08
         0.14906E+08
         0.10639E+08
         0.55211E+08
         0.17344E+09
         0.32785E+08
         0.67548E+07
         0.71320E+06
         0.20445E+09
         0.42543E+09
         0.60156E+09
         0.11336E+09
         0.16347E+09
         0.26674E+09
         0.65384E+08
         0.14909E+09
         0.13434E+09
         0.12668E+09
         0.18802E+09
         0.13327E+09
         0.48167E+09
         0.29890E+09
         0.52715E+09
         0.52442E+08
         0.67603E+08
         0.17354E+08
         0.51295E+08
         0.95767E+08
         0.20700E+09
         0.24503E+09
         0.51596E+09
         0.44076E+09
        -0.52371E+07
        -0.86575E+08
         0.10258E+09
         0.17813E+09
         0.42712E+09
         0.46243E+09
         0.33381E+09
         0.32637E+09
         0.40534E+09
         0.36550E+09
         0.39662E+09
         0.78701E+09
         0.13062E+10
         0.13811E+10
         0.69487E+09
         0.31009E+09
         0.63974E+08
        -0.49484E+08
        -0.39080E+07
         0.20698E+07
        -0.99317E+07
         0.21895E+08
         0.79378E+08
        -0.26156E+08
        -0.88744E+07
        -0.37887E+08
        -0.84147E+08
        -0.51562E+08
        -0.63346E+07
        -0.17458E+08
        -0.29730E+08
         0.25198E+08
        -0.18229E+08
        -0.12726E+08
        -0.30778E+08
        -0.11141E+08
         0.44963E+07
         0.30023E+08
         0.88593E+08
         0.20790E+08
        -0.22963E+07
         0.27165E+08
        -0.10487E+08
         0.98852E+07
         0.68085E+08
         0.12707E+09
         0.39211E+08
        -0.56283E+07
         0.27486E+06
         0.15731E+08
         0.71937E+08
         0.16979E+08
         0.87024E+07
        -0.41361E+07
         0.89970E+08
         0.18135E+09
         0.35427E+09
         0.29941E+09
         0.23910E+09
         0.13313E+09
         0.71351E+07
         0.25442E+08
         0.24808E+08
         0.35280E+08
         0.72311E+08
         0.10712E+09
         0.28904E+09
         0.20368E+09
         0.33124E+09
         0.29642E+08
         0.94945E+08
         0.64189E+07
         0.92832E+07
         0.33627E+08
         0.11126E+08
         0.28200E+09
         0.55996E+09
         0.12782E+09
         0.74114E+09
         0.30018E+09
         0.40231E+09
         0.45449E+09
         0.39929E+09
         0.22371E+09
         0.91841E+08
         0.42655E+08
         0.70012E+08
         0.74647E+08
         0.13934E+09
         0.28173E+09
         0.23672E+09
         0.46444E+09
         0.43442E+09
         0.28342E+09
         0.68685E+08
        -0.36545E+08
        -0.10413E+08
        -0.86771E+07
        -0.24545E+08
        -0.70888E+07
         0.25025E+07
        -0.97777E+07
        -0.19761E+08
        -0.26901E+08
        -0.62460E+08
        -0.17056E+08
         0.80103E+07
        -0.32931E+07
        -0.22467E+08
         0.10942E+08
        -0.10481E+08
        -0.92602E+07
        -0.16636E+08
        -0.57904E+07
        -0.21974E+07
         0.13891E+08
         0.54085E+08
         0.92206E+07
         0.48327E+06
        -0.12817E+08
        -0.32345E+07
        -0.65087E+07
        -0.35908E+06
         0.56325E+08
         0.26767E+08
        -0.18552E+08
        -0.43287E+07
        -0.17269E+08
        -0.26993E+08
        -0.69241E+07
        -0.76135E+07
        -0.84953E+07
         0.70597E+08
         0.12720E+09
         0.33109E+09
         0.23180E+09
         0.11413E+09
         0.11646E+09
        -0.62785E+07
        -0.21991E+08
        -0.19532E+08
        -0.12770E+08
        -0.79417E+07
         0.27297E+07
         0.17757E+08
         0.19574E+08
         0.44535E+08
        -0.22543E+08
         0.34369E+08
        -0.37996E+08
        -0.29145E+08
        -0.48742E+07
         0.90573E+07
         0.47754E+08
         0.50180E+09
         0.14150E+09
         0.22807E+09
         0.42890E+09
         0.50129E+09
         0.37297E+09
         0.27269E+09
         0.63995E+08
        -0.28242E+08
        -0.71189E+08
        -0.30056E+08
        -0.10159E+08
        -0.84529E+07
         0.24775E+08
        -0.21310E+08
        -0.20211E+08
        -0.16835E+08
         0.12342E+09
         0.45702E+08
        -0.98026E+07
        -0.53431E+07
        -0.35260E+07
        -0.15023E+08
         0.88139E+06
        -0.20894E+08
        -0.58676E+07
        -0.81962E+07
        -0.16769E+08
        -0.31684E+08
        -0.14350E+08
         0.38379E+07
        -0.89196E+07
        -0.11731E+08
         0.46440E+07
        -0.22668E+07
        -0.82849E+07
        -0.15124E+08
        -0.13795E+07
        -0.52757E+07
         0.68308E+07
         0.10914E+08
         0.92663E+07
         0.60505E+06
        -0.14154E+08
         0.20258E+07
        -0.62722E+07
        -0.48810E+07
        -0.11101E+08
         0.34796E+07
        -0.10014E+08
         0.28115E+07
        -0.15794E+08
        -0.23017E+08
        -0.24398E+07
        -0.62045E+07
        -0.14702E+07
         0.24739E+08
         0.57324E+08
         0.13263E+09
         0.12010E+09
         0.35781E+08
         0.22116E+08
        -0.64013E+06
        -0.38871E+07
        -0.83042E+07
        -0.67951E+07
        -0.95106E+07
        -0.28029E+07
        -0.95953E+07
         0.10000E+08
        -0.30078E+07
        -0.41908E+08
         0.35101E+08
        -0.26739E+08
        -0.40245E+08
        -0.21474E+08
        -0.31815E+07
         0.66102E+08
         0.19151E+09
         0.52381E+09
         0.71617E+09
         0.48339E+09
         0.25565E+09
         0.10951E+09
         0.82795E+08
         0.14087E+08
        -0.47351E+08
        -0.22687E+08
        -0.44571E+08
        -0.46399E+08
        -0.57676E+08
        -0.72083E+08
        -0.28716E+08
         0.19650E+08
        -0.23839E+08
         0.58510E+08
         0.27729E+08
        -0.31809E+07
        -0.12013E+07
         0.14137E+07
        -0.43804E+07
        -0.18753E+07
        -0.22396E+08
         0.31385E+06
        -0.42382E+07
        -0.94383E+07
        -0.19023E+08
        -0.31422E+07
        -0.18763E+07
        -0.10529E+07
        -0.34158E+07
         0.86968E+06
        -0.60020E+06
        -0.43184E+07
        -0.17515E+07
         0.14718E+05
        -0.10284E+08
         0.16649E+07
        -0.83176E+07
         0.56128E+07
         0.28044E+07
        -0.19143E+08
         0.56488E+07
        -0.96625E+07
        -0.16189E+08
         0.94743E+06
        -0.76300E+07
         0.22375E+06
         0.11988E+07
        -0.51619E+07
        -0.17086E+08
        -0.12043E+07
         0.10039E+07
         0.12380E+07
         0.10956E+08
         0.16799E+08
         0.74223E+08
         0.64803E+08
         0.14065E+08
         0.53192E+07
         0.44810E+07
         0.68702E+07
         0.27337E+07
         0.73611E+06
        -0.52094E+07
        -0.19287E+07
         0.29333E+07
        -0.33777E+07
        -0.74347E+07
        -0.93502E+07
        -0.20686E+08
        -0.20374E+08
        -0.18857E+08
        -0.10493E+08
        -0.10709E+07
         0.56102E+08
         0.14778E+09
         0.33546E+09
         0.47697E+09
         0.29506E+09
         0.18648E+09
         0.10803E+09
         0.51915E+08
         0.24874E+08
        -0.21268E+08
        -0.30207E+08
        -0.15593E+08
        -0.39286E+07
         0.98826E+05
        -0.23803E+08
        -0.24128E+07
        -0.33096E+08
        -0.32433E+08
        -0.36892E+08
        -0.17087E+08
        -0.25746E+07
         0.33598E+06
        -0.66260E+06
        -0.62116E+07
        -0.12060E+08
        -0.12643E+08
         0.35912E+07
        -0.36718E+07
        -0.10296E+08
        -0.25817E+08
        -0.36987E+07
         0.93069E+05
         0.21338E+07
        -0.69912E+07
         0.18236E+07
        -0.12148E+07
        -0.71496E+07
        -0.98531E+07
        -0.28452E+07
        -0.13492E+08
        -0.44017E+07
        -0.22580E+08
        -0.92775E+06
        -0.42644E+06
        -0.14980E+08
         0.23666E+07
        -0.18707E+08
        -0.22598E+08
        -0.20500E+08
        -0.20317E+08
        -0.81400E+07
         0.21460E+07
        -0.38002E+07
        -0.17957E+07
         0.62505E+07
        -0.13370E+06
         0.56715E+06
         0.57228E+07
         0.19658E+07
         0.28582E+08
         0.47996E+08
        -0.77764E+07
        -0.31281E+08
         0.16217E+07
         0.17027E+07
         0.49491E+06
         0.41330E+07
         0.35197E+07
        -0.62799E+07
        -0.25732E+08
        -0.82068E+07
         0.34536E+08
        -0.29992E+06
        -0.79730E+08
        -0.22139E+08
        -0.36898E+08
        -0.37073E+08
        -0.20175E+08
         0.68447E+08
         0.70130E+08
         0.89164E+08
         0.94536E+08
         0.19730E+09
         0.25380E+08
         0.63686E+08
         0.17678E+08
        -0.14635E+08
        -0.27922E+08
        -0.41539E+08
        -0.45022E+08
        -0.20412E+08
        -0.10444E+08
         0.18762E+08
         0.85595E+08
         0.12426E+09
         0.77597E+08
         0.34568E+08
         0.89174E+07
        -0.43480E+07
         0.50637E+06
        -0.87879E+06
        -0.79533E+07
        -0.36888E+07
        -0.14166E+08
         0.19193E+07
        -0.46905E+07
        -0.77232E+07
        -0.40290E+08
        -0.33135E+07
        -0.11257E+07
         0.24063E+07
        -0.49000E+07
        -0.15990E+06
        -0.35852E+07
        -0.88587E+07
        -0.99340E+07
        -0.29943E+07
        -0.14619E+08
        -0.41046E+07
        -0.17480E+08
        -0.12845E+06
         0.34375E+06
        -0.24868E+08
        -0.16847E+07
        -0.12752E+08
        -0.17998E+08
        -0.27528E+08
        -0.14216E+08
        -0.44761E+07
         0.52777E+06
        -0.71200E+07
        -0.10244E+08
        -0.98612E+07
        -0.55417E+06
         0.12816E+07
         0.10958E+08
         0.32099E+08
         0.48920E+08
         0.32412E+08
        -0.11974E+08
        -0.82354E+07
        -0.26509E+07
        -0.62993E+07
        -0.55905E+07
        -0.22642E+07
        -0.29591E+07
        -0.89092E+07
        -0.14717E+08
        -0.13141E+08
        -0.37976E+08
        -0.21633E+08
        -0.54750E+08
        -0.43351E+08
        -0.23680E+08
        -0.16584E+08
        -0.10432E+08
         0.26030E+08
         0.90175E+08
         0.20465E+09
         0.22710E+09
         0.19909E+09
        -0.39347E+08
         0.57624E+08
         0.39795E+08
        -0.11374E+08
        -0.27996E+08
        -0.34540E+08
        -0.45564E+08
        -0.25353E+08
        -0.62179E+07
         0.18916E+08
         0.12137E+09
         0.17401E+09
         0.11974E+09
         0.79138E+08
        -0.11268E+08
        -0.27382E+07
         0.24626E+07
        -0.46331E+06
        -0.10401E+08
        -0.13113E+07
        -0.11105E+08
         0.31075E+07
        -0.30670E+07
        -0.88407E+07
        -0.23645E+08
        -0.38275E+07
        -0.28529E+07
         0.21699E+07
        -0.53559E+07
        -0.67024E+07
        -0.31402E+07
        -0.50101E+07
        -0.15023E+08
        -0.11077E+07
        -0.10015E+08
        -0.26837E+07
        -0.19819E+08
         0.58293E+06
         0.12097E+07
        -0.27446E+08
         0.12807E+07
        -0.18699E+08
        -0.39249E+08
        -0.46189E+08
        -0.12849E+08
        -0.85244E+07
        -0.22649E+07
        -0.18191E+08
        -0.32241E+08
        -0.89810E+06
        -0.64693E+07
         0.49527E+07
         0.88287E+07
         0.54755E+07
         0.17796E+08
         0.30906E+08
        -0.21676E+08
         0.13368E+08
        -0.46797E+07
        -0.10670E+08
        -0.54735E+07
        -0.27220E+07
        -0.58443E+06
        -0.34604E+07
        -0.21806E+07
         0.69472E+07
        -0.23857E+08
        -0.33230E+08
        -0.33670E+08
        -0.46413E+08
        -0.31982E+08
        -0.20616E+08
         0.18875E+07
         0.72543E+08
         0.20370E+09
         0.39963E+09
         0.54748E+09
         0.34060E+09
         0.18116E+08
         0.10113E+09
        -0.36642E+08
        -0.34252E+08
        -0.27146E+08
        -0.59187E+08
        -0.56275E+08
        -0.16746E+08
         0.92084E+07
         0.16697E+08
         0.73271E+08
         0.33533E+08
         0.46129E+07
         0.52466E+07
         0.57228E+06
        -0.28309E+07
         0.24154E+06
        -0.11542E+05
        -0.13007E+08
        -0.95444E+07
        -0.73838E+07
         0.15855E+07
        -0.10309E+07
        -0.40845E+07
        -0.29981E+08
         0.29527E+07
        -0.41005E+07
         0.61667E+06
        -0.10405E+08
        -0.13386E+07
        -0.11148E+07
        -0.52345E+07
        -0.68998E+07
        -0.11832E+07
        -0.13713E+08
        -0.27584E+07
        -0.19158E+08
        -0.33774E+07
        -0.88422E+06
        -0.24742E+08
        -0.37109E+07
        -0.15015E+08
        -0.38283E+08
        -0.29577E+08
        -0.13275E+08
        -0.11521E+08
        -0.15021E+07
        -0.14569E+08
        -0.19590E+08
        -0.69529E+07
         0.57219E+06
         0.58394E+07
         0.83400E+07
        -0.28040E+08
         0.42036E+08
         0.42948E+08
        -0.95050E+07
         0.27107E+07
        -0.39351E+07
        -0.65581E+07
        -0.19611E+07
        -0.28211E+07
        -0.65523E+07
         0.29134E+07
        -0.30454E+07
         0.16856E+08
         0.43630E+07
        -0.40322E+08
        -0.55020E+08
        -0.53865E+08
        -0.37804E+08
        -0.28283E+08
         0.25914E+07
         0.71375E+08
         0.14603E+09
         0.21107E+09
        -0.31377E+08
        -0.16572E+09
        -0.14800E+09
         0.11686E+09
         0.28394E+08
        -0.73103E+07
        -0.33133E+08
        -0.43615E+08
        -0.50634E+08
        -0.15219E+08
         0.13050E+07
         0.13787E+08
         0.53948E+08
         0.71891E+08
         0.26019E+08
        -0.43176E+06
        -0.64454E+07
         0.60148E+06
        -0.42224E+07
         0.15624E+07
        -0.93556E+07
        -0.15761E+06
        -0.88655E+07
         0.19593E+07
        -0.92439E+06
        -0.75511E+07
        -0.19121E+08
         0.18134E+07
        -0.19682E+07
         0.38462E+06
        -0.26926E+07
        -0.94329E+06
        -0.10646E+06
        -0.34747E+07
        -0.90510E+07
         0.11972E+07
        -0.38825E+07
        -0.69428E+07
        -0.10431E+08
        -0.77115E+07
         0.70309E+06
        -0.24167E+08
         0.18024E+07
        -0.18513E+07
        -0.10258E+08
        -0.73962E+07
        -0.65312E+07
        -0.81008E+07
        -0.33836E+06
        -0.12823E+08
        -0.28756E+08
        -0.59568E+07
        -0.34765E+07
         0.30871E+07
        -0.35052E+08
        -0.70156E+08
        -0.13608E+09
        -0.98278E+08
        -0.52941E+08
        -0.15511E+08
         0.24692E+06
        -0.18256E+07
         0.37534E+07
         0.35009E+07
         0.75858E+06
        -0.11371E+08
         0.10504E+08
         0.78792E+07
         0.10768E+07
        -0.80931E+07
         0.42322E+08
        -0.10773E+08
        -0.30605E+08
        -0.28928E+08
        -0.11972E+08
         0.48599E+08
        -0.49247E+08
         0.57587E+07
        -0.33974E+09
        -0.28587E+09
        -0.23151E+09
        -0.18738E+09
        -0.14731E+09
        -0.11144E+09
        -0.77308E+08
        -0.57852E+08
        -0.24865E+08
         0.57488E+07
         0.14886E+08
         0.26011E+08
         0.56641E+08
         0.69180E+08
         0.44097E+08
         0.55736E+08
         0.31571E+08
         0.12796E+07
         0.30986E+07
         0.34735E+07
        -0.11249E+08
        -0.22797E+06
         0.12185E+08
         0.46630E+07
         0.22775E+07
        -0.80386E+07
        -0.13653E+08
         0.15551E+07
         0.11081E+07
         0.10432E+06
        -0.31624E+07
        -0.93225E+06
        -0.18473E+07
        -0.27542E+07
        -0.13574E+08
         0.58866E+06
        -0.44084E+07
        -0.80308E+07
        -0.21851E+08
        -0.98357E+07
         0.12536E+07
        -0.20919E+08
         0.12181E+07
        -0.24441E+08
        -0.39037E+08
        -0.27969E+08
        -0.11284E+08
        -0.90666E+07
        -0.89274E+06
        -0.14463E+08
        -0.22971E+08
         0.11015E+06
         0.37812E+07
         0.30174E+07
        -0.81781E+07
         0.20780E+07
         0.87164E+07
         0.10199E+07
         0.31305E+08
        -0.98091E+07
        -0.13763E+07
         0.27926E+07
         0.81191E+07
         0.47782E+07
        -0.75614E+04
        -0.79990E+07
        -0.49719E+07
         0.94722E+07
        -0.23144E+07
        -0.19862E+08
         0.67320E+08
        -0.44045E+08
        -0.46612E+08
        -0.40397E+08
        -0.19076E+08
         0.20075E+08
        -0.58868E+08
         0.39422E+08
         0.91510E+08
        -0.12624E+09
         0.61931E+08
        -0.26129E+08
        -0.38526E+08
        -0.65949E+08
        -0.36694E+08
        -0.31186E+08
        -0.12518E+08
         0.16901E+08
         0.22841E+08
         0.37007E+08
         0.68844E+08
         0.10531E+09
         0.80459E+08
         0.74964E+08
         0.12234E+08
        -0.35406E+07
         0.21529E+07
         0.93930E+06
        -0.28522E+07
         0.58472E+07
         0.64439E+07
         0.37983E+07
        -0.35585E+07
        -0.56074E+07
        -0.18146E+08
         0.27111E+06
        -0.15181E+07
        -0.18374E+07
        -0.68444E+07
        -0.12464E+07
        -0.10716E+07
        -0.29223E+07
        -0.10072E+08
         0.14289E+07
        -0.61003E+07
         0.57665E+07
        -0.52355E+07
         0.11029E+07
         0.25133E+07
        -0.21311E+08
         0.31564E+07
        -0.55303E+07
        -0.14945E+08
        -0.35891E+08
        -0.17389E+08
        -0.87403E+07
         0.31116E+07
        -0.79272E+07
        -0.15893E+08
         0.23386E+07
        -0.83846E+05
         0.15417E+07
        -0.10111E+08
         0.10470E+08
        -0.66650E+08
        -0.30761E+08
        -0.25972E+08
        -0.75052E+07
         0.37375E+07
         0.84860E+07
         0.78960E+07
         0.72639E+07
        -0.16043E+07
         0.14434E+08
         0.28928E+08
         0.20764E+08
         0.40977E+08
        -0.11317E+08
         0.90821E+07
        -0.15412E+08
        -0.41049E+08
        -0.35774E+08
        -0.15771E+08
         0.24949E+08
         0.11116E+09
         0.21041E+09
         0.38015E+09
         0.29411E+09
         0.14709E+09
         0.85474E+08
         0.12158E+09
         0.54786E+08
         0.90188E+07
        -0.11904E+08
        -0.10618E+07
         0.57713E+07
         0.50545E+07
         0.33877E+08
         0.10025E+09
         0.12826E+09
         0.92322E+08
         0.45574E+08
         0.18764E+08
        -0.42420E+07
         0.90270E+07
         0.30988E+07
        -0.35646E+07
         0.34736E+07
         0.23616E+08
         0.42033E+07
         0.16727E+07
        -0.33981E+07
        -0.57695E+07
         0.61786E+07
         0.16539E+07
         0.68831E+07
        -0.51505E+06
        -0.36509E+07
        -0.68164E+06
        -0.21036E+07
        -0.36950E+07
        -0.18756E+07
        -0.91310E+07
         0.56428E+07
         0.18999E+07
         0.45061E+07
         0.11783E+07
        -0.22534E+08
         0.21564E+07
        -0.13611E+08
        -0.11584E+08
        -0.11597E+07
        -0.21733E+08
        -0.18935E+07
         0.91460E+06
        -0.54977E+07
        -0.53032E+07
         0.13886E+08
         0.49678E+07
         0.52758E+07
        -0.13424E+08
        -0.20331E+08
        -0.75723E+08
        -0.14940E+07
        -0.18749E+08
        -0.71236E+07
         0.33562E+07
         0.47955E+07
         0.47041E+07
         0.27374E+07
         0.15472E+07
         0.80121E+07
         0.30837E+08
         0.26732E+08
         0.58073E+08
        -0.14694E+08
         0.63707E+08
        -0.27142E+08
        -0.31423E+08
        -0.24915E+08
        -0.38967E+07
         0.52835E+08
         0.11331E+09
         0.17228E+09
         0.21947E+09
         0.43705E+09
         0.56357E+08
         0.79183E+08
         0.27052E+08
         0.25182E+08
         0.11331E+08
        -0.78146E+06
         0.36443E+06
         0.36130E+07
         0.13548E+07
         0.32640E+08
         0.90805E+08
         0.13054E+09
         0.90273E+08
         0.47380E+08
         0.61117E+07
        -0.14683E+07
         0.58541E+07
         0.31043E+07
        -0.49614E+07
         0.72394E+07
         0.89795E+07
         0.35275E+07
        -0.80887E+06
        -0.81326E+07
        -0.32375E+08
         0.54168E+07
         0.82594E+06
         0.81871E+07
        -0.36436E+07
        -0.27064E+07
        -0.29035E+07
        -0.56513E+07
        -0.27074E+07
        -0.36055E+07
        -0.13168E+08
        -0.64657E+07
        -0.30556E+08
        -0.11877E+07
         0.70133E+06
        -0.17685E+08
         0.30323E+07
        -0.11325E+08
        -0.13696E+08
        -0.38416E+06
        -0.19296E+08
        -0.11262E+07
         0.26197E+07
        -0.35171E+07
         0.12135E+08
         0.79362E+07
         0.13120E+08
         0.10543E+08
        -0.20349E+08
        -0.42939E+08
        -0.73194E+08
        -0.11904E+08
        -0.41955E+08
        -0.36314E+08
         0.18661E+07
         0.89342E+07
         0.77235E+07
         0.98082E+07
         0.11420E+08
         0.13895E+08
         0.36066E+08
         0.28268E+08
         0.44009E+08
         0.39238E+07
         0.43520E+08
        -0.16159E+08
        -0.11074E+08
        -0.16634E+08
        -0.28902E+08
        -0.59614E+07
        -0.45737E+08
        -0.15716E+09
        -0.30097E+09
        -0.25548E+09
        -0.19834E+09
        -0.97263E+06
        -0.32236E+08
        -0.69989E+08
        -0.42360E+08
        -0.49070E+08
        -0.32727E+08
         0.39315E+07
         0.20981E+08
         0.28399E+08
         0.69917E+08
         0.11237E+09
         0.10100E+09
         0.82819E+08
         0.29874E+08
         0.47608E+07
         0.77730E+07
         0.80349E+07
         0.10909E+08
         0.15910E+08
         0.33421E+08
         0.68032E+07
        -0.18150E+06
        -0.15616E+07
        -0.16800E+08
         0.35237E+07
         0.42917E+07
         0.10041E+08
        -0.48542E+07
         0.90936E+07
         0.13161E+07
        -0.18363E+07
         0.56809E+07
        -0.38090E+07
        -0.11211E+08
         0.35328E+06
        -0.39833E+07
         0.53934E+07
         0.19691E+07
        -0.64970E+07
         0.45326E+07
        -0.18337E+08
        -0.16592E+08
        -0.10876E+08
        -0.10470E+08
         0.97158E+07
         0.75524E+07
         0.72852E+07
         0.50875E+08
         0.22946E+08
         0.15187E+08
         0.10439E+08
        -0.50998E+07
        -0.32608E+08
        -0.26807E+08
        -0.68960E+06
        -0.43185E+08
        -0.42293E+08
         0.12473E+07
         0.95250E+07
         0.21591E+08
         0.19356E+08
         0.23419E+08
         0.22626E+08
         0.76778E+08
         0.41494E+08
         0.97558E+08
         0.19025E+08
         0.52193E+08
        -0.19422E+07
         0.15897E+08
        -0.54472E+07
         0.13504E+07
         0.72749E+08
         0.10070E+09
        -0.12352E+09
         0.17389E+09
         0.97857E+08
         0.34647E+08
         0.72963E+08
         0.26343E+08
        -0.23751E+08
        -0.31978E+08
        -0.35678E+08
        -0.14169E+07
         0.41298E+08
         0.46416E+08
         0.74127E+08
         0.11650E+09
         0.14838E+09
         0.11925E+09
         0.81092E+08
         0.21144E+08
         0.47045E+07
         0.45597E+07
         0.88543E+07
         0.20313E+08
         0.25305E+08
         0.47979E+08
         0.15291E+07
        -0.44126E+05
         0.10238E+07
        -0.73794E+06
         0.18114E+07
         0.70361E+07
         0.64337E+07
         0.52488E+06
         0.49718E+07
         0.43960E+07
        -0.26626E+07
         0.73450E+07
         0.14607E+07
        -0.72721E+07
         0.29084E+07
        -0.12328E+06
         0.69869E+07
         0.12348E+07
        -0.14043E+08
         0.12367E+08
        -0.12648E+07
        -0.12469E+08
        -0.18342E+08
        -0.11430E+08
         0.25392E+08
         0.12258E+08
         0.31166E+08
         0.64335E+08
         0.27386E+08
         0.18034E+08
         0.60405E+07
        -0.19873E+08
        -0.19574E+08
        -0.13130E+09
        -0.73223E+08
        -0.25194E+08
        -0.25485E+08
         0.85271E+07
         0.30252E+08
         0.33000E+08
         0.33411E+08
         0.45586E+08
         0.23496E+08
         0.62040E+08
         0.47174E+08
         0.13687E+09
         0.33195E+08
         0.60238E+08
         0.20167E+08
         0.94156E+07
        -0.38473E+07
         0.15979E+08
         0.16917E+08
         0.65584E+08
         0.80090E+08
        -0.39803E+08
        -0.23242E+09
        -0.77590E+08
        -0.56762E+08
        -0.61912E+07
        -0.25376E+08
         0.92616E+07
         0.25254E+08
         0.48302E+08
         0.76483E+08
         0.49179E+07
         0.50194E+08
         0.20861E+07
         0.34084E+08
         0.26870E+08
         0.70196E+08
         0.32806E+08
        -0.16922E+08
        -0.11743E+08
        -0.31103E+07
        -0.20310E+07
         0.81101E+07
         0.50821E+08
        -0.12191E+08
        -0.89544E+07
        -0.70319E+07
        -0.37705E+08
        -0.12706E+08
        -0.27518E+08
        -0.21016E+08
        -0.17588E+08
        -0.19415E+08
        -0.69166E+07
        -0.80604E+07
        -0.23579E+07
        -0.80184E+07
        -0.15282E+08
         0.20774E+08
         0.14727E+08
         0.32465E+08
        -0.33176E+06
        -0.22416E+08
         0.38490E+07
        -0.24070E+08
        -0.39948E+08
        -0.46168E+08
        -0.14045E+08
         0.27096E+08
         0.13676E+08
         0.21092E+08
         0.44955E+08
        -0.74424E+07
        -0.92725E+07
        -0.74155E+07
        -0.64311E+08
        -0.12915E+09
        -0.25579E+09
        -0.17817E+09
        -0.54788E+08
        -0.24335E+08
         0.24958E+08
         0.49586E+08
         0.41436E+08
         0.36883E+08
         0.40698E+08
         0.65068E+08
         0.87716E+08
         0.49590E+08
         0.12284E+09
        -0.11160E+08
         0.84676E+08
        -0.36625E+08
        -0.51781E+08
        -0.65065E+08
        -0.92163E+08
        -0.10056E+09
        -0.17058E+09
        -0.37853E+09
        -0.78117E+09
        -0.53714E+09
        -0.18348E+09
        -0.18034E+08
         0.30474E+09
         0.32874E+09
         0.20122E+09
         0.71009E+08
         0.73247E+08
         0.10098E+09
         0.11397E+09
         0.11400E+09
         0.11382E+09
         0.11463E+09
         0.94021E+08
         0.11250E+09
         0.57104E+08
        -0.43198E+08
        -0.53930E+08
        -0.44559E+08
        -0.66950E+08
        -0.36660E+08
        -0.35240E+08
        -0.26634E+08
        -0.10359E+08
         0.56498E+07
         0.52676E+08
        -0.25189E+08
        -0.36885E+08
        -0.52799E+08
        -0.27665E+08
        -0.33082E+08
         0.53145E+08
         0.28004E+08
        -0.12133E+08
         0.80140E+08
         0.79325E+08
         0.22467E+09
         0.36946E+09
         0.31907E+09
         0.81761E+08
        -0.91076E+07
         0.91847E+08
        -0.14536E+08
         0.32523E+08
         0.50570E+08
         0.61718E+08
         0.36598E+08
         0.37993E+08
        -0.11488E+08
        -0.60101E+08
        -0.78003E+08
        -0.81334E+08
        -0.58629E+08
        -0.85166E+08
        -0.10971E+09
        -0.55979E+08
         0.47888E+08
         0.21794E+09
         0.36754E+09
         0.16031E+09
         0.14684E+09
         0.50356E+08
         0.37493E+08
         0.20758E+08
        -0.42129E+07
        -0.61540E+08
        -0.45131E+08
        -0.87646E+08
        -0.90210E+08
         0.19551E+08
        -0.15883E+09
        -0.14455E+09
        -0.10826E+09
        -0.95340E+08
        -0.16982E+09
        -0.29026E+09
        -0.44986E+09
        -0.45868E+09
        -0.50089E+08
         0.51875E+09
         0.10209E+10
         0.12403E+10
         0.10121E+10
         0.56903E+09
         0.24031E+09
         0.14377E+09
         0.72859E+08
         0.45949E+08
        -0.31926E+08
        -0.19818E+09
        -0.20654E+09
        -0.88723E+08
         0.58421E+07
         0.44687E+08
         0.10301E+09
         0.13383E+09
         0.10344E+09
         0.15983E+09
         0.81232E+08
         0.82663E+07
         0.80496E+08
         0.13981E+08
        -0.18317E+08
        -0.18519E+09
         0.60289E+08
         0.62222E+08
         0.12153E+09
         0.12626E+08
         0.36358E+08
        -0.56444E+08
        -0.92754E+08
         0.46776E+08
        -0.21878E+09
        -0.26800E+09
        -0.69530E+09
        -0.12106E+10
        -0.92657E+09
        -0.19531E+09
        -0.18304E+09
        -0.13890E+09
        -0.71977E+08
        -0.19980E+09
        -0.26778E+09
        -0.23008E+09
        -0.39853E+07
        -0.74915E+08
         0.58502E+08
         0.11323E+09
         0.14430E+09
         0.16208E+09
         0.12529E+09
         0.63325E+08
         0.10002E+09
         0.18686E+08
        -0.10325E+09
        -0.60351E+09
        -0.11703E+10
        -0.49580E+09
        -0.57136E+09
        -0.34453E+09
        -0.26708E+09
        -0.24013E+09
        -0.22002E+09
        -0.29630E+09
        -0.19257E+09
        -0.18090E+09
         0.20673E+09
         0.67522E+08
         0.27046E+09
         0.18184E+09
         0.96033E+08
         0.80837E+08
         0.18372E+09
         0.44113E+09
         0.94226E+09
         0.11225E+10
         0.28563E+09
        -0.10228E+10
        -0.24284E+10
        -0.33098E+10
        -0.31036E+10
        -0.21982E+10
        -0.15836E+10
        -0.13287E+10
        -0.93895E+09
        -0.98950E+09
        -0.10914E+10
        -0.12006E+10
        -0.10283E+10
        -0.56981E+09
        -0.32252E+09
  
SCALARS                 acceleration_y  double 1
LOOKUP_TABLE default
        -0.74934E+08
         0.49942E+09
         0.96600E+08
         0.16877E+09
        -0.31852E+09
         0.48106E+09
        -0.20818E+09
        -0.23481E+09
         0.46685E+09
         0.53440E+09
         0.17871E+09
         0.18850E+09
         0.48294E+09
         0.23370E+09
         0.50433E+09
         0.32754E+09
         0.43457E+08
        -0.69141E+08
         0.11513E+09
        -0.73627E+08
         0.58973E+09
        -0.31244E+09
        -0.20916E+08
         0.83505E+09
         0.17582E+09
         0.31703E+09
         0.58223E+08
         0.46709E+09
         0.10383E+08
         0.57935E+09
        -0.19365E+08
        -0.59721E+08
         0.32758E+08
        -0.26319E+08
        -0.14399E+09
         0.78557E+08
        -0.24844E+08
        -0.62183E+08
        -0.42481E+08
        -0.11568E+09
         0.15511E+09
         0.22047E+09
         0.13867E+09
         0.25089E+09
         0.15435E+07
        -0.81328E+08
        -0.27701E+08
        -0.71221E+08
        -0.12466E+09
        -0.14518E+09
        -0.78696E+08
         0.39934E+08
        -0.24324E+09
        -0.32454E+09
        -0.55924E+09
        -0.10897E+10
        -0.12513E+10
         0.13302E+09
        -0.19973E+10
         0.12774E+09
         0.22969E+09
         0.12673E+09
         0.10327E+09
         0.37365E+09
         0.16888E+09
        -0.19636E+09
         0.55258E+09
        -0.43768E+08
         0.51031E+09
         0.31790E+09
         0.67785E+09
         0.25796E+09
         0.13993E+09
         0.16698E+09
        -0.36695E+10
        -0.62790E+10
        -0.59363E+10
        -0.13444E+11
        -0.51903E+10
        -0.12060E+11
        -0.39884E+10
        -0.99453E+09
        -0.69416E+10
        -0.12737E+10
         0.18972E+09
         0.10194E+09
        -0.14948E+09
        -0.24052E+09
        -0.70808E+08
         0.24472E+08
         0.15719E+09
         0.11070E+09
         0.50071E+09
         0.37750E+09
         0.42944E+09
        -0.59974E+08
         0.11881E+10
         0.16262E+09
         0.14713E+10
         0.40389E+09
         0.67814E+09
         0.87467E+09
         0.49383E+09
         0.29105E+09
         0.54431E+09
        -0.42597E+08
         0.21871E+10
         0.20441E+10
        -0.19230E+09
        -0.17375E+08
        -0.15376E+10
        -0.27466E+10
        -0.31788E+10
        -0.59543E+10
        -0.36197E+10
        -0.51913E+10
        -0.30825E+10
        -0.80107E+09
         0.19472E+10
         0.15063E+11
         0.20274E+11
         0.73771E+11
         0.22865E+11
         0.69664E+11
         0.16465E+10
         0.13986E+10
        -0.24723E+10
        -0.34027E+10
        -0.11841E+10
        -0.17788E+10
        -0.89754E+09
        -0.11486E+10
        -0.67973E+09
        -0.79378E+09
        -0.51317E+09
        -0.82617E+09
        -0.32128E+09
        -0.12137E+10
        -0.13369E+09
        -0.14778E+10
         0.37195E+09
        -0.10106E+09
         0.13928E+10
         0.41684E+09
         0.89301E+09
         0.60123E+09
         0.10462E+10
         0.11728E+10
        -0.34717E+10
         0.94485E+09
        -0.69592E+10
         0.78938E+09
        -0.45193E+10
         0.12748E+10
        -0.14710E+10
         0.16563E+10
         0.46867E+09
         0.42937E+09
         0.14148E+10
         0.15468E+10
         0.85669E+09
         0.14712E+10
         0.37158E+09
         0.17983E+09
        -0.21126E+08
         0.92947E+08
         0.25343E+09
        -0.22856E+09
         0.61663E+08
         0.17550E+09
        -0.90148E+09
        -0.54280E+07
         0.62459E+08
         0.27131E+09
        -0.31575E+08
         0.20174E+09
         0.40480E+09
         0.56962E+09
         0.38162E+08
        -0.33801E+09
        -0.26640E+08
        -0.32106E+09
        -0.21217E+09
        -0.60472E+09
        -0.56965E+09
         0.24325E+09
         0.68589E+09
        -0.63292E+08
         0.17779E+10
         0.29246E+10
         0.46332E+09
         0.54791E+09
         0.13533E+09
        -0.27250E+10
        -0.38495E+10
        -0.34861E+10
        -0.30175E+10
        -0.70938E+09
         0.38576E+09
        -0.14047E+09
        -0.13432E+09
        -0.14696E+08
         0.62085E+09
         0.16392E+10
         0.28610E+10
         0.31351E+10
         0.12390E+10
         0.18257E+10
        -0.13368E+10
        -0.38257E+10
        -0.86163E+09
        -0.94679E+09
        -0.17244E+10
        -0.24269E+10
        -0.30076E+10
        -0.26042E+10
         0.54247E+10
         0.77545E+10
        -0.19444E+10
        -0.30969E+10
        -0.19882E+10
        -0.15399E+10
        -0.10359E+10
        -0.42467E+09
         0.30899E+09
         0.13400E+10
         0.13082E+10
         0.32158E+10
         0.49829E+10
         0.24139E+10
        -0.10161E+11
        -0.21557E+11
        -0.16453E+11
        -0.81730E+10
         0.17955E+09
         0.77074E+08
         0.10674E+10
         0.93610E+09
         0.78689E+09
         0.10835E+10
         0.12175E+08
         0.17413E+08
        -0.58175E+07
         0.76194E+08
         0.84045E+08
         0.89632E+08
         0.21570E+09
         0.11987E+09
        -0.15877E+08
        -0.45969E+08
         0.49564E+08
         0.31330E+09
         0.16613E+09
         0.33356E+09
         0.45064E+09
         0.56148E+09
         0.19458E+09
        -0.25973E+08
         0.19916E+09
        -0.19938E+09
         0.74337E+08
         0.13080E+09
         0.22916E+08
         0.24450E+09
         0.25288E+09
        -0.13757E+09
         0.17993E+10
         0.27474E+10
         0.21769E+09
         0.43610E+09
         0.23098E+09
        -0.59982E+08
        -0.70216E+09
        -0.12327E+10
        -0.20560E+10
        -0.20139E+09
         0.40386E+09
         0.60070E+08
        -0.15179E+07
         0.58708E+08
         0.49627E+09
         0.16130E+10
         0.19087E+10
         0.22910E+10
         0.14365E+09
         0.12394E+10
        -0.24800E+10
        -0.58072E+10
        -0.76188E+09
         0.90781E+08
         0.40370E+09
         0.42033E+09
        -0.56406E+09
        -0.19845E+10
        -0.27674E+10
        -0.31208E+10
        -0.30061E+10
        -0.26348E+10
        -0.19323E+10
        -0.16333E+10
        -0.10474E+10
        -0.11436E+09
         0.74650E+09
         0.12828E+10
         0.11430E+10
         0.26911E+10
         0.31682E+10
         0.22517E+10
        -0.80022E+10
        -0.17838E+11
        -0.10753E+11
        -0.71242E+10
         0.23696E+07
        -0.15691E+08
         0.35286E+09
         0.44485E+09
        -0.46443E+08
         0.57319E+08
         0.27030E+08
         0.71865E+08
         0.70320E+08
         0.21916E+09
         0.73696E+08
         0.18203E+09
         0.93834E+08
         0.23527E+09
         0.36036E+09
         0.43230E+08
         0.13457E+09
         0.18788E+09
         0.23621E+09
         0.36766E+09
         0.60510E+09
         0.78888E+09
         0.32506E+09
         0.24869E+09
         0.33751E+09
         0.88987E+08
         0.37345E+09
         0.47330E+09
         0.22496E+09
         0.46577E+09
         0.25529E+09
         0.96298E+08
         0.63931E+09
         0.51063E+09
        -0.46995E+08
         0.37596E+08
        -0.25576E+08
         0.40172E+09
         0.31093E+09
        -0.29619E+09
        -0.89756E+09
        -0.24516E+09
         0.68044E+09
         0.16839E+09
         0.76980E+08
         0.45331E+08
         0.22015E+09
         0.53925E+09
         0.33245E+09
         0.68552E+09
         0.70204E+09
         0.36865E+09
        -0.89087E+09
        -0.28223E+10
        -0.24707E+09
         0.13067E+09
         0.37963E+09
         0.46105E+09
         0.14785E+09
        -0.43923E+09
        -0.15289E+10
        -0.26867E+10
        -0.32066E+10
        -0.22207E+10
        -0.25877E+10
        -0.18385E+10
        -0.11689E+10
        -0.57017E+09
        -0.61886E+08
         0.17038E+08
        -0.86217E+08
         0.49863E+09
         0.13336E+10
         0.82181E+09
        -0.16221E+10
        -0.48304E+10
        -0.50532E+10
        -0.36302E+10
         0.21760E+08
         0.12291E+07
         0.10216E+08
        -0.43861E+08
         0.54095E+07
         0.38490E+06
        -0.19521E+07
         0.97724E+08
         0.60221E+08
         0.22372E+09
         0.13279E+09
         0.16792E+09
         0.19169E+08
         0.26995E+09
         0.38957E+09
         0.38531E+08
         0.12684E+09
        -0.72898E+08
         0.17192E+09
         0.24806E+09
         0.45848E+09
         0.66908E+09
         0.22545E+09
         0.19020E+09
         0.31873E+09
         0.10413E+09
         0.46229E+09
         0.70130E+09
         0.68560E+09
         0.38632E+09
        -0.10805E+09
         0.11281E+08
        -0.20935E+09
        -0.16791E+09
         0.69970E+08
        -0.12601E+08
        -0.31077E+08
         0.59222E+09
         0.64188E+09
         0.41599E+09
        -0.45828E+09
         0.37011E+09
         0.70933E+09
         0.11273E+09
        -0.12164E+07
        -0.96858E+08
        -0.12294E+09
        -0.18903E+09
        -0.13000E+09
         0.53711E+08
         0.41077E+09
         0.91621E+08
         0.43881E+09
         0.13522E+09
         0.90545E+08
         0.17164E+09
         0.28947E+09
         0.56073E+09
         0.60469E+09
         0.24237E+09
        -0.97335E+09
        -0.32470E+10
        -0.43842E+10
        -0.36198E+10
        -0.23624E+10
        -0.15491E+10
        -0.92967E+09
        -0.59663E+09
        -0.44591E+09
        -0.46445E+09
        -0.44104E+09
        -0.46839E+09
        -0.25921E+09
         0.18286E+09
         0.12648E+10
         0.19695E+10
         0.12906E+10
         0.65004E+09
        -0.43521E+08
        -0.69818E+08
        -0.83304E+08
        -0.96513E+08
        -0.16848E+08
        -0.32213E+08
        -0.42318E+07
         0.58691E+08
         0.22561E+08
         0.12299E+09
         0.47477E+08
         0.70509E+08
        -0.26067E+08
         0.17827E+09
         0.28417E+09
         0.89350E+07
         0.85565E+08
        -0.78979E+08
         0.10338E+09
         0.14048E+09
         0.27308E+09
         0.45460E+09
         0.11162E+09
         0.90468E+08
         0.22682E+09
         0.25804E+08
         0.24279E+09
         0.40441E+09
         0.57582E+09
         0.24490E+09
        -0.12861E+09
        -0.46261E+08
        -0.20385E+09
        -0.19846E+09
        -0.12154E+07
        -0.32176E+08
        -0.42523E+08
         0.41018E+09
         0.49539E+09
         0.59328E+09
         0.20836E+09
         0.46437E+09
         0.59611E+09
         0.33835E+08
        -0.21037E+08
        -0.66984E+08
        -0.11853E+09
        -0.17541E+09
        -0.15200E+09
        -0.13435E+09
         0.14167E+09
        -0.32997E+08
         0.33254E+09
         0.55813E+09
         0.72312E+08
         0.33113E+08
         0.61224E+08
         0.28999E+09
         0.64748E+09
         0.57647E+09
        -0.80201E+09
        -0.27220E+10
        -0.31213E+10
        -0.21883E+10
        -0.15101E+10
        -0.94533E+09
        -0.51696E+09
        -0.26766E+09
        -0.17717E+09
        -0.11445E+09
        -0.11544E+09
        -0.30862E+09
        -0.33017E+09
         0.57590E+08
         0.73264E+09
         0.13466E+10
         0.12475E+10
         0.71073E+09
        -0.15252E+08
        -0.27487E+08
        -0.46838E+08
        -0.40834E+08
        -0.40755E+08
        -0.51003E+08
        -0.91345E+07
         0.18299E+08
         0.10392E+08
         0.62819E+08
         0.11959E+08
         0.37766E+08
        -0.81330E+07
         0.59811E+08
         0.10670E+09
         0.25852E+07
         0.32166E+08
        -0.25631E+08
         0.31900E+08
         0.55897E+08
         0.10381E+09
         0.20783E+09
         0.31625E+08
         0.19777E+08
         0.10461E+09
        -0.17922E+07
         0.99250E+08
         0.18567E+09
         0.21056E+09
         0.11194E+09
        -0.52517E+08
        -0.38953E+08
        -0.68740E+08
        -0.43638E+08
        -0.22620E+08
        -0.26674E+08
        -0.20267E+08
         0.26294E+09
         0.37451E+09
         0.31691E+09
         0.10539E+08
         0.20950E+09
         0.24831E+09
        -0.23607E+07
        -0.16913E+08
        -0.43239E+08
        -0.42969E+08
        -0.59669E+08
        -0.72520E+08
        -0.89195E+08
        -0.14963E+08
        -0.65124E+08
         0.67275E+08
         0.21442E+09
         0.78150E+07
        -0.34716E+07
         0.33885E+08
         0.98571E+08
         0.29523E+09
         0.33646E+09
        -0.68501E+08
        -0.13409E+10
        -0.21427E+10
        -0.16685E+10
        -0.88780E+09
        -0.47338E+09
        -0.17400E+09
        -0.33175E+08
         0.23200E+08
         0.65346E+08
         0.48509E+08
        -0.42038E+08
        -0.99467E+08
        -0.31872E+08
         0.18514E+09
         0.32491E+09
         0.38149E+09
         0.31676E+09
        -0.22645E+08
        -0.18182E+08
        -0.50007E+08
        -0.36969E+08
        -0.24502E+08
        -0.31856E+08
        -0.15749E+08
        -0.30670E+07
         0.58204E+07
         0.19422E+08
        -0.19721E+08
         0.15739E+08
        -0.77589E+07
         0.48338E+07
         0.33734E+08
        -0.21458E+07
         0.19129E+08
        -0.86105E+07
         0.60940E+07
         0.20464E+08
         0.12667E+08
         0.28311E+08
        -0.92020E+07
        -0.85936E+07
         0.36347E+08
        -0.19103E+08
         0.46689E+08
         0.98668E+08
         0.10376E+09
         0.64568E+08
        -0.24173E+08
        -0.15694E+08
        -0.30765E+08
        -0.32142E+08
        -0.23108E+08
        -0.31305E+08
        -0.25508E+08
         0.11335E+09
         0.13839E+09
         0.14551E+09
         0.26916E+08
         0.55656E+07
         0.90188E+07
        -0.75050E+07
        -0.11812E+08
        -0.12522E+08
        -0.21839E+08
        -0.20456E+08
        -0.13171E+08
        -0.21547E+08
        -0.23923E+07
        -0.12850E+08
         0.46468E+08
         0.17868E+09
        -0.49351E+07
         0.14691E+08
         0.40947E+07
         0.19285E+08
         0.14355E+09
         0.20133E+09
        -0.34703E+08
        -0.44837E+09
        -0.99027E+09
        -0.85835E+09
        -0.34012E+09
        -0.72631E+08
         0.17227E+08
         0.57012E+08
         0.70584E+08
         0.19703E+08
        -0.16992E+07
        -0.11050E+08
        -0.52710E+07
        -0.30164E+07
         0.33940E+08
         0.12373E+09
         0.19023E+09
         0.19656E+09
        -0.17872E+08
        -0.22803E+08
        -0.45972E+08
        -0.30058E+08
        -0.32817E+07
        -0.16800E+08
        -0.13184E+08
        -0.58217E+07
        -0.60055E+07
        -0.88114E+05
        -0.29368E+08
        -0.56189E+07
        -0.11226E+08
        -0.91055E+07
        -0.49417E+07
        -0.59484E+07
         0.21306E+07
        -0.97245E+07
        -0.10699E+08
        -0.11948E+08
        -0.47113E+08
        -0.62516E+08
        -0.22361E+08
        -0.11034E+08
         0.11356E+08
        -0.11384E+08
        -0.28990E+07
         0.45660E+07
         0.10576E+08
        -0.12671E+08
        -0.30043E+08
        -0.26912E+08
        -0.37537E+08
        -0.35231E+08
        -0.39712E+07
        -0.16693E+08
        -0.12165E+08
         0.31871E+08
         0.33009E+08
        -0.15759E+07
        -0.39921E+08
        -0.97872E+07
        -0.34519E+08
        -0.58903E+07
        -0.43703E+07
        -0.22509E+08
        -0.24497E+08
        -0.23027E+08
        -0.54219E+07
         0.30060E+07
        -0.15831E+07
        -0.12144E+08
         0.11273E+09
         0.16801E+09
         0.33020E+08
         0.26675E+08
         0.94658E+07
         0.30797E+08
         0.63898E+08
         0.87505E+08
         0.25644E+08
        -0.17567E+09
        -0.32236E+09
         0.61244E+08
         0.11263E+09
         0.19743E+09
         0.28907E+08
         0.48889E+08
         0.46146E+08
         0.59825E+08
         0.29328E+08
        -0.49430E+07
        -0.10277E+08
         0.21136E+08
         0.80542E+08
         0.16668E+09
         0.19903E+09
         0.15148E+09
        -0.12135E+08
        -0.18441E+08
        -0.35517E+08
        -0.22269E+08
        -0.10707E+08
        -0.18251E+08
        -0.12366E+08
        -0.10312E+08
        -0.10034E+08
        -0.90967E+07
        -0.26461E+08
        -0.15844E+08
        -0.12824E+08
        -0.18777E+08
        -0.12973E+08
        -0.38885E+07
        -0.23190E+07
        -0.44267E+07
        -0.77545E+07
        -0.14105E+08
        -0.65668E+08
        -0.11362E+09
        -0.29185E+08
        -0.25519E+08
        -0.16680E+08
        -0.92166E+07
        -0.17705E+08
        -0.30989E+08
        -0.19879E+08
        -0.19069E+08
        -0.23239E+08
        -0.91438E+07
        -0.23893E+08
        -0.26972E+08
        -0.52629E+07
        -0.12731E+08
        -0.13187E+08
        -0.12054E+08
        -0.25678E+08
        -0.19832E+08
        -0.83210E+07
        -0.98662E+08
        -0.66933E+08
        -0.36850E+07
        -0.77466E+07
        -0.12782E+08
        -0.17776E+08
        -0.14289E+08
        -0.83030E+07
        -0.69298E+07
         0.26942E+08
        -0.17727E+07
         0.65834E+08
         0.11159E+09
         0.40299E+08
         0.13121E+08
        -0.59517E+07
        -0.76614E+07
         0.16538E+08
         0.12002E+08
         0.45534E+08
         0.10032E+09
         0.32709E+09
         0.52943E+09
         0.22882E+09
         0.14752E+09
         0.68708E+08
         0.49493E+08
         0.57304E+08
         0.37198E+08
         0.17974E+08
        -0.14541E+08
        -0.16565E+08
         0.25987E+08
         0.79429E+08
         0.13212E+09
         0.11798E+09
         0.10587E+09
        -0.89105E+07
        -0.24425E+08
        -0.46331E+08
        -0.32879E+08
        -0.24369E+08
        -0.34626E+08
        -0.12515E+08
        -0.10331E+08
        -0.59615E+07
        -0.13143E+08
        -0.27407E+08
        -0.19395E+08
        -0.15993E+08
        -0.21399E+08
        -0.34186E+08
        -0.93367E+07
        -0.79787E+07
        -0.16314E+08
        -0.22483E+08
        -0.34091E+08
        -0.69298E+08
        -0.13202E+09
        -0.23499E+08
        -0.22244E+08
        -0.13852E+08
        -0.20688E+08
        -0.22502E+08
        -0.29956E+08
        -0.68300E+08
        -0.56840E+08
        -0.33643E+08
        -0.26983E+08
        -0.38958E+08
        -0.51757E+08
        -0.67454E+07
        -0.26722E+08
        -0.15947E+08
        -0.59336E+08
        -0.82773E+08
        -0.10059E+09
        -0.21201E+08
        -0.89752E+08
        -0.17889E+09
        -0.19987E+08
        -0.15108E+08
        -0.27608E+08
        -0.33969E+08
        -0.36697E+08
        -0.37046E+08
        -0.32760E+08
         0.95825E+07
        -0.28497E+08
         0.10423E+09
         0.20900E+09
         0.72397E+08
         0.44393E+08
         0.19766E+08
         0.39921E+07
        -0.30858E+08
        -0.24456E+08
         0.26921E+08
         0.19440E+09
         0.36062E+09
         0.35498E+09
         0.58432E+09
         0.35850E+09
         0.20074E+09
         0.11729E+09
         0.82362E+08
         0.65570E+08
         0.11737E+08
        -0.40810E+08
        -0.36692E+08
         0.41516E+08
         0.18453E+09
         0.28067E+09
         0.17969E+09
         0.14090E+09
        -0.13715E+08
        -0.16877E+08
        -0.23119E+08
        -0.16274E+08
        -0.99180E+07
        -0.17097E+08
        -0.55675E+07
        -0.11179E+08
        -0.31252E+07
        -0.15959E+08
        -0.36553E+08
        -0.19177E+08
        -0.18596E+08
        -0.23243E+08
        -0.31739E+08
        -0.69867E+07
        -0.10185E+08
        -0.13716E+08
        -0.21936E+08
        -0.40142E+08
        -0.84801E+08
        -0.15176E+09
        -0.33392E+08
        -0.25425E+08
        -0.20481E+08
        -0.16274E+08
        -0.38750E+08
        -0.45727E+08
        -0.86553E+08
        -0.51208E+08
        -0.24897E+08
        -0.19487E+08
        -0.32939E+08
        -0.28871E+08
         0.45635E+07
        -0.35673E+07
        -0.10320E+08
        -0.37891E+08
        -0.57751E+08
        -0.75942E+08
        -0.12450E+08
        -0.86291E+08
        -0.20620E+09
        -0.24439E+08
        -0.12246E+08
        -0.32137E+08
        -0.39705E+08
        -0.39020E+08
        -0.31945E+08
        -0.31529E+08
        -0.12647E+08
        -0.34984E+08
         0.92112E+08
         0.16670E+09
         0.66347E+08
         0.51616E+08
        -0.33533E+07
        -0.12823E+08
        -0.44521E+08
        -0.84712E+08
         0.64267E+08
         0.24686E+09
         0.72733E+09
         0.70107E+09
         0.61730E+09
         0.35526E+09
         0.15381E+09
         0.90841E+08
         0.39789E+08
         0.37388E+08
         0.11535E+08
        -0.21672E+08
        -0.16187E+08
         0.79736E+08
         0.18346E+09
         0.26386E+09
         0.23870E+09
         0.18342E+09
        -0.17967E+08
        -0.17392E+08
        -0.45487E+08
        -0.18132E+08
        -0.40358E+07
        -0.23604E+08
        -0.81298E+07
        -0.10733E+08
        -0.51895E+07
        -0.11472E+08
        -0.45395E+08
        -0.22099E+08
        -0.21994E+08
        -0.25659E+08
        -0.41393E+08
        -0.10713E+08
        -0.12770E+08
        -0.16023E+08
        -0.21112E+08
        -0.40989E+08
        -0.73402E+08
        -0.11135E+09
        -0.16361E+08
        -0.17560E+08
        -0.42883E+08
        -0.18188E+08
        -0.32670E+08
        -0.60274E+08
        -0.96773E+08
        -0.71319E+08
        -0.24238E+08
        -0.23205E+08
        -0.44911E+08
        -0.40979E+08
         0.58420E+07
        -0.26282E+08
        -0.19104E+08
        -0.64546E+08
        -0.10182E+09
        -0.78765E+08
         0.54997E+07
        -0.12823E+09
        -0.24862E+09
        -0.14954E+08
        -0.17514E+08
        -0.25385E+08
        -0.28663E+08
        -0.29487E+08
        -0.28394E+08
        -0.35846E+08
        -0.13697E+08
        -0.37298E+08
         0.15942E+09
         0.20871E+09
         0.71571E+08
         0.28137E+08
        -0.36180E+07
        -0.34943E+08
        -0.61876E+08
        -0.12396E+09
        -0.27140E+08
         0.40644E+09
         0.97439E+09
         0.82160E+09
         0.76967E+09
         0.41198E+09
         0.13771E+09
         0.87712E+08
         0.48476E+08
         0.38547E+08
         0.12363E+08
        -0.72712E+07
         0.78458E+07
         0.59682E+08
         0.13845E+09
         0.22050E+09
         0.16979E+09
         0.14380E+09
        -0.17037E+08
        -0.25508E+08
        -0.54531E+08
        -0.39444E+08
        -0.27291E+08
        -0.36765E+08
        -0.10268E+08
        -0.12040E+08
        -0.74820E+07
        -0.16628E+08
        -0.30955E+08
        -0.16587E+08
        -0.21885E+08
        -0.46565E+08
        -0.63839E+08
        -0.78242E+07
        -0.11376E+08
        -0.99624E+07
        -0.14468E+08
        -0.28112E+08
        -0.51899E+08
        -0.92194E+08
        -0.16133E+08
        -0.16335E+08
        -0.31802E+08
        -0.12703E+08
        -0.36778E+08
        -0.70606E+08
        -0.95168E+08
        -0.71793E+08
        -0.30133E+08
        -0.23661E+08
        -0.36906E+08
        -0.42239E+08
        -0.99826E+07
        -0.28228E+08
        -0.26632E+08
        -0.90424E+08
        -0.14857E+09
        -0.15567E+09
        -0.36852E+08
        -0.17584E+09
        -0.24625E+09
        -0.14667E+08
        -0.15160E+08
        -0.20663E+08
        -0.24418E+08
        -0.23808E+08
        -0.14651E+08
        -0.43138E+08
         0.30747E+07
        -0.26100E+08
         0.13905E+09
         0.22749E+09
         0.55237E+08
         0.21434E+08
         0.11716E+08
        -0.26258E+08
        -0.10658E+09
        -0.15332E+08
         0.16617E+09
         0.50027E+09
         0.72336E+09
         0.82506E+09
         0.79941E+09
         0.45992E+09
         0.23582E+09
         0.10092E+09
         0.55434E+08
         0.32691E+08
        -0.64629E+07
        -0.16944E+08
         0.85755E+07
         0.46679E+08
         0.16625E+09
         0.25477E+09
         0.17072E+09
         0.20963E+09
        -0.13849E+08
        -0.24529E+08
        -0.43581E+08
        -0.29713E+08
        -0.23231E+08
        -0.21790E+08
        -0.10139E+08
        -0.15668E+08
        -0.73201E+07
        -0.95147E+07
        -0.30906E+08
        -0.24461E+08
        -0.19021E+08
        -0.29444E+08
        -0.55859E+08
        -0.92234E+07
        -0.90171E+07
        -0.11863E+08
        -0.26401E+08
        -0.43799E+08
        -0.79236E+08
        -0.16100E+09
        -0.35934E+08
        -0.24780E+08
        -0.30764E+08
        -0.18522E+08
        -0.19867E+08
        -0.37431E+08
        -0.10060E+09
        -0.81071E+08
        -0.25977E+08
        -0.22101E+08
        -0.41095E+08
        -0.31439E+08
        -0.18139E+08
        -0.23071E+08
        -0.21813E+08
        -0.82378E+08
        -0.10571E+09
        -0.87313E+08
         0.57960E+07
        -0.82006E+08
        -0.25207E+09
        -0.29404E+08
        -0.20892E+08
        -0.27273E+08
        -0.29429E+08
        -0.32014E+08
        -0.24575E+08
        -0.32784E+08
        -0.10160E+08
        -0.31979E+08
         0.11828E+09
         0.25239E+09
         0.55733E+07
         0.72859E+07
         0.58871E+07
        -0.45770E+08
        -0.13420E+09
        -0.11183E+09
         0.73069E+08
         0.57875E+09
         0.85439E+09
         0.55033E+09
         0.61453E+09
         0.35326E+09
         0.19372E+09
         0.10729E+09
         0.44611E+08
         0.16723E+08
         0.10616E+08
        -0.13414E+08
         0.13670E+08
         0.55892E+08
         0.16302E+09
         0.24908E+09
         0.28669E+09
         0.28111E+09
        -0.19119E+08
        -0.16698E+08
        -0.48062E+08
        -0.36004E+08
        -0.20970E+08
        -0.28091E+08
        -0.10042E+08
        -0.30489E+07
        -0.58914E+07
        -0.96020E+07
        -0.35039E+08
        -0.19273E+08
        -0.12927E+08
        -0.23897E+08
        -0.49110E+08
        -0.10211E+08
        -0.70321E+07
        -0.13190E+08
        -0.98207E+07
        -0.28847E+08
        -0.30484E+08
        -0.77740E+08
        -0.99887E+07
        -0.15776E+08
        -0.34023E+08
        -0.19475E+08
        -0.29870E+08
        -0.74174E+08
        -0.14782E+09
        -0.74638E+08
        -0.24394E+08
        -0.25735E+08
        -0.33855E+08
        -0.42491E+08
        -0.60017E+07
        -0.24861E+08
        -0.17621E+08
        -0.74551E+08
        -0.10837E+09
        -0.12607E+09
        -0.10089E+09
        -0.14569E+09
        -0.14361E+09
        -0.17716E+08
        -0.20716E+08
        -0.29380E+08
        -0.28686E+08
        -0.26077E+08
        -0.38873E+08
        -0.38795E+08
         0.69302E+06
        -0.24968E+08
         0.12608E+09
         0.20533E+09
         0.51342E+08
         0.25589E+08
         0.19782E+07
        -0.40640E+08
        -0.10803E+09
        -0.30860E+08
         0.93462E+08
         0.16801E+09
         0.58435E+09
         0.72467E+09
         0.49488E+09
         0.24863E+09
         0.10580E+09
         0.63307E+08
         0.31964E+08
         0.18054E+08
         0.51138E+07
        -0.14610E+08
         0.80477E+07
         0.56921E+08
         0.12571E+09
         0.22148E+09
         0.20346E+09
         0.23906E+09
        -0.15270E+08
        -0.16723E+08
        -0.33062E+08
        -0.18857E+08
        -0.16909E+08
        -0.24339E+08
        -0.10435E+08
        -0.19382E+08
        -0.70966E+07
        -0.14225E+08
        -0.47288E+08
        -0.29055E+08
        -0.15714E+08
        -0.40708E+08
        -0.58698E+08
        -0.14203E+08
        -0.13193E+08
        -0.13313E+08
        -0.20589E+08
        -0.35216E+08
        -0.53569E+08
        -0.11760E+09
        -0.24451E+08
        -0.22417E+08
        -0.25429E+08
        -0.22944E+08
        -0.43416E+08
        -0.68605E+08
        -0.10077E+09
        -0.61873E+08
        -0.29546E+08
        -0.28372E+08
        -0.32909E+08
        -0.36017E+08
         0.46205E+07
        -0.83573E+07
        -0.48217E+07
        -0.86780E+08
        -0.11854E+09
        -0.16244E+09
        -0.11403E+09
        -0.18412E+09
        -0.21774E+09
        -0.11934E+08
        -0.13087E+08
        -0.28800E+08
        -0.32321E+08
        -0.10959E+08
        -0.16596E+08
        -0.21398E+07
         0.25483E+08
        -0.67422E+07
         0.12592E+09
         0.20833E+09
         0.31185E+08
         0.26285E+08
         0.18559E+07
        -0.45473E+08
        -0.75423E+08
        -0.94687E+08
         0.67625E+08
         0.51810E+09
         0.99163E+09
         0.72249E+09
         0.74694E+09
         0.37004E+09
         0.12243E+09
         0.67851E+08
         0.22136E+08
         0.19422E+08
         0.87350E+07
        -0.39616E+07
         0.25402E+06
         0.54943E+08
         0.15295E+09
         0.24489E+09
         0.26165E+09
         0.15559E+09
        -0.26178E+08
        -0.18506E+08
        -0.51780E+08
        -0.35237E+08
        -0.11860E+08
        -0.79087E+07
        -0.12540E+08
        -0.10457E+08
        -0.67585E+07
        -0.10566E+08
        -0.39114E+08
        -0.34429E+08
        -0.18722E+08
        -0.30111E+08
        -0.62038E+08
        -0.83900E+07
        -0.18435E+08
        -0.10935E+08
        -0.22221E+08
        -0.47682E+08
        -0.78253E+08
        -0.15151E+09
        -0.32790E+08
        -0.33749E+08
        -0.36830E+08
        -0.16372E+08
        -0.41265E+08
        -0.54158E+08
        -0.94844E+08
        -0.74773E+08
        -0.17829E+08
        -0.22647E+08
        -0.28152E+08
        -0.22502E+08
        -0.40482E+07
        -0.12114E+08
        -0.18825E+08
        -0.10123E+09
        -0.15371E+09
        -0.21147E+09
        -0.11295E+09
        -0.19200E+09
        -0.19852E+09
        -0.26440E+08
        -0.16045E+08
        -0.11325E+08
        -0.12694E+08
        -0.25986E+08
        -0.20191E+08
        -0.15398E+08
         0.19023E+08
        -0.12866E+08
         0.12811E+09
         0.12814E+09
         0.64834E+08
         0.30813E+08
        -0.12136E+08
        -0.41333E+08
        -0.12305E+09
        -0.12844E+09
         0.10267E+09
         0.61711E+09
         0.11598E+10
         0.10033E+10
         0.80189E+09
         0.45206E+09
         0.19811E+09
         0.87196E+08
         0.17393E+08
         0.11149E+08
         0.15121E+08
         0.58425E+07
         0.17695E+08
         0.69490E+08
         0.12294E+09
         0.17277E+09
         0.17577E+09
         0.14434E+09
        -0.90787E+07
        -0.17328E+08
        -0.27370E+08
        -0.20188E+08
        -0.12610E+08
        -0.16646E+08
        -0.72517E+07
        -0.14324E+08
        -0.72886E+07
        -0.12115E+08
        -0.29174E+08
        -0.31982E+08
        -0.19498E+08
        -0.43165E+08
        -0.60566E+08
        -0.11504E+08
        -0.16894E+08
        -0.43683E+07
        -0.26797E+08
        -0.40931E+08
        -0.10119E+09
        -0.16995E+09
        -0.39532E+08
        -0.33083E+08
        -0.37977E+08
        -0.25448E+08
        -0.47661E+08
        -0.78434E+08
        -0.13051E+09
        -0.92210E+08
        -0.20786E+08
        -0.22176E+08
        -0.17420E+08
        -0.21383E+08
        -0.53329E+07
        -0.23057E+08
        -0.19008E+08
        -0.94112E+08
        -0.15798E+09
        -0.18787E+09
        -0.16601E+09
        -0.17695E+09
        -0.24566E+09
        -0.26694E+08
        -0.16541E+08
        -0.13519E+08
        -0.14452E+08
        -0.12796E+08
        -0.14397E+08
        -0.70918E+07
         0.13163E+08
        -0.57260E+07
         0.71813E+08
         0.13899E+09
         0.46374E+08
         0.25879E+08
        -0.20324E+08
        -0.51286E+08
        -0.40116E+08
        -0.50472E+08
        -0.51014E+08
         0.58360E+09
         0.11255E+10
         0.10605E+10
         0.84462E+09
         0.45183E+09
         0.21612E+09
         0.12975E+09
         0.67338E+08
         0.55408E+08
         0.44134E+08
         0.16361E+08
         0.21879E+08
         0.33363E+08
         0.92851E+08
         0.13502E+09
         0.14805E+09
         0.13854E+09
        -0.27341E+06
        -0.93608E+07
        -0.94921E+07
        -0.31328E+07
        -0.32540E+07
        -0.26456E+07
        -0.80339E+07
        -0.12211E+08
         0.99345E+05
        -0.19060E+08
        -0.29101E+08
        -0.19278E+08
        -0.81874E+07
        -0.51558E+08
        -0.63996E+08
        -0.30511E+07
        -0.13398E+08
         0.30532E+07
        -0.11696E+08
        -0.49222E+08
        -0.73346E+08
        -0.13369E+09
        -0.27358E+08
        -0.21315E+08
        -0.24497E+08
        -0.10040E+08
        -0.35751E+08
        -0.57883E+08
        -0.70313E+08
        -0.51852E+08
        -0.85464E+07
        -0.14318E+08
        -0.46713E+07
        -0.45080E+06
        -0.57841E+07
        -0.11291E+08
        -0.51800E+07
        -0.71609E+08
        -0.11180E+09
        -0.20914E+09
        -0.50378E+08
        -0.13520E+08
        -0.10684E+09
        -0.89848E+07
        -0.31670E+07
        -0.44163E+07
        -0.48898E+07
        -0.47730E+06
         0.84120E+07
         0.60084E+07
         0.57862E+07
        -0.68267E+07
        -0.10525E+06
         0.42462E+08
         0.68370E+07
         0.20318E+08
        -0.78258E+07
        -0.35267E+08
        -0.11783E+09
        -0.13199E+09
         0.93488E+07
         0.61817E+09
         0.13190E+10
         0.11873E+10
         0.35809E+09
         0.20919E+09
         0.11988E+09
         0.12530E+09
         0.71309E+08
         0.74566E+08
         0.59474E+08
         0.36381E+08
         0.15937E+08
         0.29425E+07
         0.55207E+07
         0.11094E+08
         0.33239E+08
         0.91541E+08
         0.17301E+07
         0.16293E+08
         0.60550E+07
         0.12975E+08
        -0.14197E+07
        -0.39346E+07
        -0.88907E+07
        -0.15577E+08
         0.19282E+07
        -0.11120E+08
        -0.49966E+08
        -0.26413E+08
        -0.56651E+07
        -0.31380E+08
        -0.61974E+08
         0.39922E+06
        -0.55235E+07
         0.12777E+08
        -0.31952E+07
        -0.27589E+08
        -0.38206E+08
        -0.10582E+09
        -0.21056E+08
        -0.29789E+07
        -0.31131E+08
        -0.59220E+07
        -0.50324E+08
        -0.89219E+08
        -0.15208E+09
        -0.74681E+08
         0.12471E+08
        -0.59854E+07
         0.27526E+08
         0.15189E+08
        -0.98114E+07
         0.78116E+07
         0.29608E+07
        -0.10152E+09
        -0.14898E+09
        -0.22144E+09
        -0.51848E+08
        -0.13054E+09
        -0.19092E+09
        -0.23114E+08
        -0.73421E+07
         0.93094E+07
         0.72824E+07
         0.22061E+08
         0.20690E+08
         0.10760E+08
        -0.39241E+08
        -0.80028E+07
        -0.11425E+09
        -0.84915E+08
        -0.34684E+08
        -0.10500E+08
        -0.25916E+08
        -0.66699E+08
        -0.15151E+08
        -0.10539E+09
         0.11211E+09
         0.68884E+09
         0.11955E+10
         0.12009E+10
         0.59106E+09
         0.32629E+09
         0.17244E+09
         0.99242E+08
         0.57731E+08
         0.71564E+08
         0.10063E+09
         0.42492E+08
         0.30926E+08
         0.17953E+07
        -0.14329E+09
        -0.17188E+09
        -0.12071E+09
        -0.61786E+08
        -0.32013E+06
         0.17035E+08
         0.31331E+08
         0.32925E+08
        -0.10091E+08
         0.98981E+06
        -0.17795E+08
        -0.27414E+08
         0.79018E+06
        -0.33217E+08
        -0.73569E+08
        -0.45530E+08
        -0.95999E+07
        -0.46372E+08
        -0.33643E+08
        -0.79190E+07
        -0.12722E+08
         0.98146E+07
        -0.37378E+08
        -0.27603E+08
        -0.12406E+09
        -0.17437E+09
        -0.71646E+08
        -0.60635E+08
        -0.26480E+08
        -0.33771E+08
        -0.26521E+08
        -0.26001E+08
        -0.52964E+08
        -0.42248E+08
         0.14364E+08
        -0.16783E+08
         0.46300E+08
         0.45403E+08
        -0.53347E+08
        -0.85260E+07
         0.66622E+07
        -0.62825E+08
        -0.70515E+08
        -0.21240E+08
         0.67851E+07
        -0.84282E+08
        -0.19536E+09
        -0.42448E+08
        -0.77532E+07
         0.28904E+08
         0.17318E+08
         0.23282E+08
         0.13216E+08
        -0.73987E+07
        -0.85890E+08
        -0.17649E+08
        -0.21799E+09
        -0.19507E+09
        -0.98501E+08
        -0.23664E+08
        -0.30240E+08
        -0.47140E+08
        -0.40345E+08
         0.58194E+08
         0.24677E+09
         0.49972E+09
         0.50609E+09
         0.61732E+09
         0.52085E+09
         0.32728E+09
         0.21355E+09
         0.10541E+09
         0.53901E+08
         0.14406E+09
         0.18539E+09
         0.10892E+09
        -0.32767E+08
        -0.14622E+09
        -0.31464E+09
        -0.53090E+09
        -0.49505E+09
        -0.30850E+09
        -0.15448E+08
        -0.52806E+07
         0.16048E+08
         0.28931E+08
         0.80330E+06
         0.76063E+07
        -0.25969E+08
        -0.30926E+08
        -0.10450E+08
        -0.37733E+08
        -0.52776E+08
        -0.25643E+08
        -0.17806E+08
        -0.37425E+08
        -0.23406E+08
        -0.20764E+08
        -0.48282E+07
         0.48097E+07
        -0.74730E+08
        -0.35500E+08
        -0.30800E+09
        -0.38520E+09
        -0.17933E+09
        -0.12794E+09
        -0.13735E+08
        -0.68471E+08
        -0.35483E+08
        -0.18808E+08
        -0.18378E+08
        -0.38927E+08
         0.89883E+07
        -0.26648E+08
         0.40990E+08
         0.47184E+08
        -0.16502E+08
         0.32975E+07
        -0.35067E+07
        -0.43797E+07
         0.27851E+08
         0.99288E+07
        -0.77682E+08
        -0.20216E+09
        -0.33563E+09
        -0.10629E+09
        -0.22708E+08
         0.22967E+08
         0.11864E+08
         0.18665E+08
         0.29621E+08
         0.29633E+08
        -0.54436E+08
         0.10161E+08
        -0.15241E+09
        -0.29168E+09
        -0.49977E+08
        -0.13337E+08
        -0.12442E+08
         0.12253E+08
         0.21274E+08
         0.67821E+08
         0.98247E+08
        -0.21276E+08
        -0.56664E+08
         0.28393E+09
         0.66512E+09
         0.86890E+09
         0.74993E+09
         0.44154E+09
         0.20110E+09
         0.25060E+09
         0.31340E+09
         0.19611E+09
         0.35910E+08
        -0.10998E+09
        -0.31672E+09
        -0.50898E+09
        -0.47344E+09
        -0.37320E+09
        -0.56802E+08
        -0.11250E+08
         0.10431E+09
         0.63789E+08
         0.18064E+09
         0.18393E+09
        -0.24011E+08
        -0.43087E+08
        -0.28939E+08
        -0.48310E+08
         0.43062E+08
         0.16007E+08
        -0.18996E+08
        -0.17799E+08
         0.38738E+07
        -0.11023E+09
        -0.44682E+08
        -0.82728E+07
        -0.28152E+09
        -0.22540E+09
        -0.78509E+09
        -0.10285E+10
        -0.37673E+09
        -0.36784E+09
         0.22722E+08
        -0.18895E+09
        -0.55574E+08
        -0.70012E+08
        -0.17569E+09
        -0.26292E+09
         0.13771E+08
        -0.68963E+08
         0.64274E+08
         0.17285E+09
         0.30777E+09
         0.10906E+09
        -0.52835E+07
        -0.28157E+08
        -0.16642E+08
        -0.15523E+09
        -0.44202E+09
        -0.47040E+09
        -0.90656E+09
        -0.20650E+09
         0.26993E+08
         0.21232E+09
         0.62522E+08
         0.37666E+08
         0.55115E+08
         0.17340E+09
         0.24768E+09
         0.20398E+09
         0.46668E+09
         0.58790E+08
         0.41126E+09
         0.10286E+09
        -0.17196E+08
        -0.11186E+08
         0.34696E+08
        -0.38178E+08
        -0.30925E+09
        -0.85475E+09
        -0.74226E+09
         0.12763E+10
         0.30811E+10
         0.37501E+10
         0.31080E+10
         0.19700E+10
         0.10689E+10
         0.86169E+09
         0.83502E+09
         0.34695E+09
        -0.11569E+09
        -0.26707E+09
        -0.25401E+09
        -0.27375E+09
        -0.28266E+09
        -0.16639E+09
  
SCALARS                 acceleration_z  double 1
LOOKUP_TABLE default
         0.14081E+09
         0.67732E+09
         0.11377E+09
        -0.21936E+09
         0.00000E+00
         0.00000E+00
         0.00000E+00
         0.00000E+00
        -0.26200E+09
        -0.62903E+09
         0.00000E+00
         0.00000E+00
         0.96591E+09
         0.92532E+08
         0.00000E+00
         0.00000E+00
        -0.44686E+08
         0.33343E+08
         0.00000E+00
         0.00000E+00
         0.13226E+10
         0.26657E+10
         0.15798E+10
         0.00000E+00
         0.00000E+00
         0.00000E+00
         0.50258E+09
         0.88740E+09
         0.00000E+00
         0.00000E+00
        -0.71061E+08
        -0.86961E+08
        -0.63532E+08
         0.00000E+00
         0.00000E+00
         0.00000E+00
        -0.47878E+08
        -0.76247E+08
         0.00000E+00
         0.00000E+00
        -0.70419E+08
        -0.69827E+08
         0.00000E+00
         0.00000E+00
        -0.35999E+08
         0.15324E+08
         0.00000E+00
         0.00000E+00
        -0.12752E+09
         0.00000E+00
         0.57339E+08
         0.00000E+00
         0.39437E+09
         0.00000E+00
         0.75585E+09
         0.00000E+00
         0.97696E+09
        -0.36719E+09
         0.00000E+00
         0.00000E+00
        -0.46533E+09
        -0.10398E+09
         0.00000E+00
         0.00000E+00
        -0.13758E+09
         0.00000E+00
        -0.65847E+09
         0.00000E+00
        -0.25349E+09
         0.26140E+09
         0.00000E+00
         0.00000E+00
         0.70678E+09
         0.00000E+00
         0.50955E+10
         0.00000E+00
         0.77667E+10
         0.00000E+00
         0.79724E+10
         0.00000E+00
         0.60967E+10
         0.74495E+09
         0.00000E+00
         0.00000E+00
        -0.36459E+09
         0.00000E+00
        -0.28232E+08
         0.00000E+00
        -0.31961E+09
         0.00000E+00
        -0.66907E+09
        -0.28846E+09
         0.00000E+00
         0.00000E+00
        -0.43092E+09
         0.00000E+00
        -0.14067E+10
         0.00000E+00
        -0.15984E+10
         0.00000E+00
        -0.19497E+10
        -0.14704E+10
         0.00000E+00
         0.00000E+00
        -0.45593E+09
        -0.11458E+10
         0.00000E+00
         0.00000E+00
         0.39482E+09
         0.00000E+00
         0.38941E+09
         0.00000E+00
        -0.11321E+10
         0.00000E+00
        -0.42782E+10
         0.00000E+00
        -0.79588E+10
         0.00000E+00
        -0.17061E+11
         0.00000E+00
        -0.21342E+11
         0.00000E+00
        -0.61830E+10
         0.00000E+00
         0.60764E+10
         0.00000E+00
         0.19868E+10
         0.00000E+00
         0.32985E+09
         0.00000E+00
        -0.10222E+09
         0.00000E+00
        -0.67768E+09
         0.00000E+00
        -0.88388E+09
         0.00000E+00
        -0.70464E+09
         0.00000E+00
        -0.64227E+09
         0.00000E+00
        -0.62314E+09
         0.00000E+00
         0.44792E+09
         0.00000E+00
         0.10752E+10
         0.00000E+00
         0.60296E+10
         0.00000E+00
         0.74728E+10
         0.00000E+00
         0.32794E+10
         0.00000E+00
        -0.13881E+10
         0.00000E+00
        -0.17558E+10
         0.00000E+00
         0.13405E+08
         0.28326E+09
        -0.32806E+09
        -0.78756E+09
        -0.11289E+10
        -0.13607E+10
         0.49481E+09
         0.35953E+08
        -0.13623E+09
        -0.31210E+09
         0.10760E+10
         0.14910E+10
         0.88699E+09
         0.59927E+09
         0.24733E+10
        -0.24161E+08
        -0.32534E+09
        -0.20849E+09
        -0.18153E+08
        -0.27699E+09
        -0.15250E+09
        -0.26233E+09
        -0.28831E+09
         0.25415E+08
        -0.32250E+09
        -0.33837E+09
         0.68990E+09
         0.60293E+09
         0.25885E+09
        -0.61352E+09
        -0.19288E+10
        -0.11671E+10
        -0.25866E+10
        -0.33510E+10
        -0.11632E+10
        -0.20784E+09
         0.42026E+09
         0.41131E+10
         0.55472E+10
         0.56681E+10
         0.48726E+10
         0.41419E+09
        -0.39398E+09
        -0.48468E+09
        -0.74070E+09
        -0.66574E+09
        -0.11193E+10
        -0.19488E+10
        -0.30397E+10
        -0.33944E+10
        -0.33655E+10
        -0.26934E+10
        -0.22214E+10
        -0.28669E+10
        -0.94704E+09
        -0.31712E+09
        -0.39901E+09
        -0.13712E+10
        -0.25049E+10
        -0.56922E+10
        -0.68052E+10
         0.17567E+10
         0.71938E+10
         0.22851E+10
         0.31863E+09
        -0.57269E+09
        -0.13253E+10
        -0.14079E+10
        -0.85340E+09
         0.42472E+09
         0.16525E+10
         0.35563E+10
         0.99671E+10
         0.16958E+11
         0.22165E+11
         0.12396E+11
        -0.32155E+09
        -0.32337E+10
         0.71062E+08
         0.71153E+08
        -0.12029E+09
        -0.43916E+09
        -0.51172E+09
        -0.11819E+10
        -0.23417E+08
        -0.12640E+09
        -0.55679E+08
        -0.22860E+09
        -0.10481E+09
        -0.12515E+07
         0.22663E+08
        -0.26217E+09
         0.13845E+09
        -0.52081E+07
        -0.11518E+09
        -0.51962E+08
        -0.42523E+08
        -0.29869E+09
        -0.22097E+09
        -0.31793E+09
        -0.32794E+09
        -0.12902E+09
        -0.27622E+09
        -0.43247E+09
        -0.25170E+09
        -0.41342E+09
        -0.28838E+09
        -0.47477E+09
        -0.12012E+10
        -0.78263E+09
        -0.19664E+10
        -0.25433E+10
        -0.11041E+10
        -0.26283E+09
        -0.68306E+08
         0.55709E+09
         0.10308E+10
         0.11811E+10
         0.17818E+10
         0.48923E+08
        -0.31977E+09
        -0.32249E+09
        -0.45047E+09
        -0.34492E+09
        -0.78982E+09
        -0.15264E+10
        -0.23798E+10
        -0.25099E+10
        -0.23566E+10
        -0.22622E+10
        -0.22156E+10
        -0.26810E+10
        -0.11696E+10
        -0.59260E+09
         0.84428E+08
         0.69509E+09
         0.17069E+10
         0.23900E+10
         0.29569E+10
         0.37245E+10
         0.37192E+10
         0.18320E+10
         0.55804E+09
        -0.38549E+09
        -0.13223E+10
        -0.13450E+10
        -0.37545E+09
         0.89886E+09
         0.19854E+10
         0.30060E+10
         0.71850E+10
         0.14464E+11
         0.19837E+11
         0.98827E+10
         0.16228E+10
        -0.88707E+09
        -0.12178E+08
        -0.13665E+09
        -0.16872E+09
        -0.13406E+09
        -0.16420E+09
        -0.81531E+08
        -0.81031E+08
        -0.14468E+09
        -0.93441E+08
        -0.30885E+09
        -0.40234E+09
        -0.31396E+09
        -0.18532E+09
        -0.44090E+09
        -0.50701E+09
        -0.81671E+07
        -0.16983E+09
        -0.10790E+08
        -0.53680E+08
        -0.33329E+09
        -0.19332E+09
        -0.41503E+09
        -0.80801E+08
         0.74446E+08
        -0.37926E+09
        -0.34022E+07
        -0.56990E+09
        -0.63175E+09
        -0.55256E+09
        -0.55337E+09
        -0.27267E+09
        -0.48152E+08
        -0.60209E+09
        -0.44176E+09
        -0.39114E+09
        -0.93535E+08
         0.24481E+07
        -0.38536E+09
        -0.10268E+08
         0.33598E+09
         0.30786E+09
        -0.37108E+09
        -0.46411E+09
        -0.66909E+08
        -0.22840E+08
        -0.22278E+08
        -0.58571E+08
        -0.17925E+09
        -0.10993E+07
        -0.61810E+09
        -0.53757E+09
        -0.74089E+09
        -0.95763E+09
        -0.12049E+10
        -0.55435E+09
        -0.21639E+09
         0.23159E+08
         0.17539E+09
         0.15374E+10
         0.21214E+10
         0.29028E+10
         0.29693E+10
         0.27599E+10
         0.81473E+09
         0.84667E+09
        -0.49491E+09
        -0.10634E+10
        -0.99092E+09
        -0.60078E+09
        -0.24432E+09
        -0.20130E+09
        -0.11446E+09
         0.86788E+09
         0.32362E+10
         0.41365E+10
         0.28282E+10
         0.64364E+09
        -0.33785E+09
        -0.52371E+08
        -0.32533E+06
         0.30681E+08
         0.47626E+08
         0.69065E+08
         0.14434E+09
        -0.56069E+08
        -0.12538E+09
        -0.71546E+08
        -0.25408E+09
        -0.25335E+09
        -0.25030E+09
        -0.11238E+09
        -0.28817E+09
        -0.44871E+09
         0.35824E+08
        -0.12386E+09
         0.66022E+08
        -0.25250E+08
        -0.22477E+09
        -0.14213E+09
        -0.33217E+09
         0.72145E+07
         0.99788E+08
        -0.39789E+09
         0.18359E+09
        -0.44274E+09
        -0.67081E+09
        -0.74644E+09
        -0.51264E+09
         0.30944E+09
         0.27404E+09
         0.31523E+09
         0.23636E+09
         0.81891E+08
         0.25038E+06
        -0.21458E+08
        -0.51949E+09
        -0.48544E+09
        -0.33536E+09
         0.23240E+09
        -0.58093E+09
        -0.56182E+09
         0.98681E+08
         0.13269E+09
         0.43406E+08
         0.16986E+09
         0.25462E+09
         0.27351E+09
         0.25701E+09
         0.21036E+09
         0.14638E+09
         0.43749E+07
         0.89849E+08
         0.23357E+08
         0.72103E+08
         0.22559E+08
         0.19450E+09
         0.89925E+09
         0.16549E+10
         0.32131E+10
         0.41370E+10
         0.36879E+10
         0.19785E+10
         0.42857E+09
        -0.56863E+09
        -0.77919E+09
        -0.53487E+09
        -0.41176E+09
        -0.58691E+09
        -0.84071E+09
        -0.10321E+10
        -0.11819E+10
        -0.15774E+10
        -0.12251E+10
        -0.93515E+09
        -0.21119E+09
         0.88822E+08
         0.44317E+08
         0.37929E+08
         0.97900E+08
         0.10276E+09
         0.99485E+08
         0.14394E+09
        -0.13670E+08
        -0.37135E+08
        -0.10849E+08
        -0.96858E+08
        -0.12284E+09
        -0.15966E+09
        -0.63251E+08
        -0.17708E+09
        -0.32814E+09
         0.48434E+08
        -0.79775E+08
         0.88204E+08
         0.67889E+06
        -0.11276E+09
        -0.78330E+08
        -0.17939E+09
         0.23268E+07
         0.68140E+08
        -0.27306E+09
         0.10327E+09
        -0.28295E+09
        -0.50513E+09
        -0.72230E+09
        -0.35449E+09
         0.21340E+09
         0.14930E+09
         0.24712E+09
         0.20901E+09
         0.10743E+09
         0.47972E+08
         0.50500E+07
        -0.50461E+09
        -0.67927E+09
        -0.65071E+09
        -0.26232E+09
        -0.42527E+09
        -0.46280E+09
         0.51345E+08
         0.55681E+08
         0.64612E+07
         0.68716E+08
         0.12775E+09
         0.13490E+09
         0.11711E+09
         0.32287E+08
         0.14108E+09
         0.15310E+09
         0.13235E+09
         0.86378E+08
         0.20707E+08
        -0.50682E+08
         0.10518E+08
         0.41746E+09
         0.16930E+10
         0.22592E+10
         0.31923E+10
         0.21258E+10
         0.98708E+09
         0.13000E+08
        -0.32138E+09
        -0.45127E+09
        -0.25397E+09
        -0.14478E+09
        -0.20987E+09
        -0.25153E+09
        -0.35904E+09
        -0.61935E+09
        -0.95504E+09
        -0.12132E+10
        -0.10127E+10
        -0.39184E+09
         0.13687E+08
         0.33017E+08
         0.18979E+08
         0.47826E+08
         0.42221E+08
         0.65248E+08
         0.53772E+08
         0.18686E+07
        -0.55845E+07
         0.79817E+07
        -0.35517E+08
        -0.33621E+08
        -0.43068E+08
        -0.75605E+07
        -0.52825E+08
        -0.15671E+09
         0.19357E+08
        -0.19647E+08
         0.38134E+08
         0.25594E+07
        -0.57545E+08
        -0.44695E+08
        -0.12757E+09
        -0.65674E+07
         0.16006E+08
        -0.69014E+08
         0.21636E+08
        -0.10704E+09
        -0.19718E+09
        -0.22132E+09
        -0.14091E+09
         0.53572E+08
         0.21122E+08
         0.75332E+08
         0.37295E+08
         0.54827E+08
         0.25192E+08
         0.83652E+07
        -0.32109E+09
        -0.42776E+09
        -0.42536E+09
        -0.26170E+09
        -0.30432E+09
        -0.14621E+09
         0.12036E+08
         0.11461E+08
        -0.12395E+08
         0.18795E+07
         0.15665E+08
         0.28725E+08
         0.12643E+08
        -0.45082E+08
         0.36476E+08
         0.74135E+08
         0.71881E+08
         0.32069E+08
        -0.21702E+07
        -0.27744E+08
        -0.25631E+08
         0.40626E+08
         0.47027E+09
         0.12081E+10
         0.21160E+10
         0.14334E+10
         0.73584E+09
        -0.10416E+09
        -0.25983E+09
        -0.21987E+09
        -0.10034E+09
        -0.29691E+08
        -0.28981E+08
        -0.20857E+08
        -0.59514E+07
        -0.10770E+09
        -0.17462E+09
        -0.46265E+09
        -0.43408E+09
        -0.23616E+09
        -0.86725E+08
         0.35874E+08
         0.14488E+08
         0.57303E+08
         0.39884E+08
         0.44719E+08
         0.32752E+08
         0.36321E+07
         0.28586E+08
         0.16227E+08
         0.57458E+07
         0.18898E+08
        -0.16888E+08
         0.12947E+07
         0.50564E+07
        -0.65025E+08
         0.13315E+08
        -0.85437E+06
         0.17576E+08
         0.66271E+07
        -0.16800E+08
        -0.65324E+07
        -0.23490E+08
         0.91262E+07
         0.14021E+08
        -0.16411E+08
         0.15585E+08
        -0.26616E+08
        -0.88713E+08
        -0.49237E+08
        -0.64614E+08
         0.22423E+08
         0.12131E+08
         0.32488E+08
         0.36247E+08
         0.62849E+08
         0.33995E+08
         0.22120E+08
        -0.88857E+08
        -0.12111E+09
        -0.15199E+09
        -0.14260E+09
        -0.12228E+09
        -0.10201E+09
         0.16835E+07
        -0.55576E+07
        -0.16132E+08
        -0.86556E+07
        -0.51303E+07
        -0.64576E+07
        -0.72760E+06
        -0.24451E+08
         0.84444E+07
         0.35806E+08
        -0.29884E+08
         0.14154E+08
         0.65976E+07
        -0.91068E+06
        -0.23692E+08
        -0.63596E+08
         0.13261E+09
         0.43692E+09
         0.76453E+09
         0.79244E+09
         0.11471E+09
        -0.17022E+09
        -0.13121E+09
        -0.29818E+08
         0.11177E+08
         0.71939E+07
        -0.12904E+08
        -0.28406E+08
        -0.27670E+08
        -0.29838E+08
        -0.68990E+08
        -0.85879E+08
        -0.26278E+09
        -0.18726E+09
        -0.91437E+08
         0.20050E+08
         0.15606E+08
         0.33334E+08
         0.28678E+08
         0.25391E+08
         0.26014E+08
         0.15265E+08
         0.15170E+08
         0.17565E+08
         0.11551E+08
         0.28611E+08
         0.32831E+07
         0.15686E+08
         0.14681E+08
        -0.56145E+07
         0.10245E+08
         0.11187E+08
         0.14857E+08
         0.12225E+08
         0.19664E+08
         0.31764E+08
         0.39306E+08
         0.18949E+08
         0.13194E+08
         0.14187E+08
         0.15730E+08
         0.87545E+07
         0.15087E+08
        -0.18550E+07
         0.24845E+08
         0.33593E+08
         0.14504E+08
         0.44687E+08
         0.35061E+08
         0.48604E+08
         0.24037E+08
         0.11671E+08
        -0.40085E+08
        -0.70811E+08
        -0.40066E+08
        -0.32667E+08
        -0.42517E+07
         0.15183E+08
         0.49703E+07
        -0.78216E+06
        -0.60049E+07
        -0.41152E+06
         0.34626E+07
        -0.56167E+07
        -0.16814E+08
        -0.21166E+08
         0.96901E+07
         0.50329E+08
        -0.23347E+08
         0.22704E+08
         0.10760E+08
        -0.56644E+07
        -0.44461E+08
        -0.93386E+08
        -0.81364E+08
         0.66881E+08
         0.96217E+08
         0.15056E+08
        -0.12217E+09
        -0.97444E+08
         0.67935E+07
         0.70963E+08
         0.21963E+08
        -0.79759E+07
        -0.13176E+08
        -0.49950E+07
        -0.15108E+08
        -0.51096E+08
        -0.12165E+09
        -0.15097E+09
        -0.19909E+09
        -0.12029E+09
        -0.91926E+08
         0.13427E+08
         0.18659E+08
         0.24783E+08
         0.16763E+08
         0.20427E+08
         0.20897E+08
         0.11894E+08
         0.10087E+08
         0.14457E+08
         0.21275E+08
         0.25436E+08
         0.18208E+08
         0.95489E+07
         0.21253E+08
         0.10068E+08
         0.30887E+07
         0.81003E+07
         0.63787E+07
         0.57847E+07
         0.17933E+08
         0.37118E+08
         0.69283E+08
         0.27854E+08
         0.17916E+08
         0.33106E+08
         0.75158E+07
         0.25891E+08
         0.50434E+08
         0.28994E+08
         0.37309E+08
         0.15405E+08
         0.62729E+07
         0.27391E+08
         0.31945E+08
         0.35484E+08
         0.24268E+08
         0.87655E+07
         0.10106E+08
         0.18884E+08
         0.29267E+08
        -0.24616E+08
         0.74588E+08
         0.79562E+08
         0.43776E+07
         0.31364E+07
        -0.93746E+06
         0.38854E+07
         0.70714E+07
        -0.88251E+06
        -0.70977E+07
        -0.31320E+08
         0.38052E+07
         0.23163E+08
        -0.13309E+08
         0.94277E+07
        -0.13408E+06
        -0.90059E+06
        -0.27210E+08
        -0.94288E+08
        -0.12649E+09
        -0.20372E+09
        -0.26826E+09
        -0.61233E+09
        -0.41923E+09
        -0.77311E+08
         0.53336E+08
         0.12732E+09
         0.43522E+08
         0.22301E+08
        -0.11620E+07
        -0.27604E+07
        -0.15576E+08
        -0.50439E+08
        -0.92443E+08
        -0.15887E+09
        -0.14632E+09
        -0.78582E+08
        -0.40945E+08
         0.10644E+08
         0.16183E+08
         0.31605E+08
         0.23908E+08
         0.26949E+08
         0.34620E+08
         0.52451E+07
         0.12783E+08
         0.11072E+08
         0.22078E+08
         0.26183E+08
         0.17807E+08
         0.10714E+08
         0.22556E+08
         0.26340E+08
         0.51815E+07
         0.18662E+08
         0.17504E+08
         0.14371E+08
         0.29771E+08
         0.44812E+08
         0.76166E+08
         0.21925E+08
         0.18336E+08
         0.27058E+08
         0.12837E+08
         0.39782E+08
         0.57619E+08
         0.80697E+08
         0.56808E+08
         0.36487E+08
         0.20981E+08
         0.52589E+08
         0.53398E+08
         0.47296E+08
         0.26442E+08
         0.78510E+07
         0.67064E+08
         0.82441E+08
         0.95530E+08
         0.25896E+08
         0.11447E+09
         0.12784E+09
         0.11145E+08
         0.75398E+07
         0.20613E+07
         0.11260E+08
         0.22213E+08
         0.10455E+08
         0.17640E+08
        -0.26910E+08
         0.26297E+08
         0.52679E+08
         0.19969E+08
         0.16749E+08
         0.91717E+07
         0.75140E+07
        -0.19871E+08
        -0.14972E+09
        -0.19927E+09
        -0.31029E+09
        -0.44345E+09
        -0.40953E+09
        -0.18082E+09
        -0.13376E+09
         0.73221E+08
         0.11605E+09
         0.62122E+08
         0.15854E+08
        -0.21146E+07
        -0.15637E+08
        -0.47137E+08
        -0.14720E+09
        -0.21629E+09
        -0.32084E+09
        -0.30000E+09
        -0.12648E+09
        -0.37518E+08
         0.15468E+08
         0.12313E+08
         0.17863E+08
         0.14658E+08
         0.12613E+08
         0.22491E+08
         0.10057E+08
         0.11926E+08
         0.91151E+07
         0.28767E+08
         0.25716E+08
         0.23691E+08
         0.11937E+08
         0.19357E+08
         0.16100E+08
         0.59831E+07
         0.18000E+08
         0.14417E+08
         0.17175E+08
         0.41539E+08
         0.49676E+08
         0.88413E+08
         0.25342E+08
         0.19650E+08
         0.38433E+08
         0.16472E+08
         0.33228E+08
         0.58333E+08
         0.10429E+09
         0.61112E+08
         0.31363E+08
         0.18460E+08
         0.38112E+08
         0.27696E+08
         0.13462E+08
         0.15752E+08
         0.95443E+07
         0.51491E+08
         0.77362E+08
         0.82312E+08
         0.20500E+08
         0.12335E+09
         0.15714E+09
         0.14242E+08
         0.83395E+07
         0.15420E+07
         0.13338E+08
         0.22917E+08
         0.24354E+08
         0.28372E+08
         0.62043E+07
         0.23967E+08
         0.50138E+08
         0.36548E+08
         0.26403E+08
         0.14928E+08
         0.27780E+07
        -0.17517E+08
        -0.10282E+09
        -0.25375E+09
        -0.45927E+09
        -0.65923E+09
        -0.70522E+09
        -0.17591E+09
        -0.10932E+09
         0.13848E+09
         0.13239E+09
         0.42087E+08
         0.46432E+07
         0.90002E+06
        -0.12897E+08
        -0.61822E+08
        -0.13708E+09
        -0.24995E+09
        -0.29083E+09
        -0.33698E+09
        -0.19166E+09
        -0.56227E+08
         0.15149E+08
         0.78359E+07
         0.32969E+08
         0.19093E+08
         0.26573E+08
         0.30579E+08
         0.74041E+07
         0.14045E+08
         0.11081E+08
         0.22007E+08
         0.23481E+08
         0.28113E+08
         0.82800E+07
         0.16500E+08
         0.38385E+08
         0.77756E+07
         0.17719E+08
         0.18224E+08
         0.13779E+08
         0.43159E+08
         0.37437E+08
         0.82228E+08
         0.19448E+08
         0.22671E+08
         0.66788E+08
         0.20415E+08
         0.44876E+08
         0.88539E+08
         0.13195E+09
         0.71958E+08
         0.28280E+08
         0.23946E+08
         0.52372E+08
         0.35012E+08
         0.32346E+08
         0.23103E+08
         0.95694E+07
         0.40107E+08
         0.74151E+08
         0.54827E+08
        -0.31751E+07
         0.16857E+09
         0.17875E+09
         0.14772E+08
         0.12921E+08
         0.99692E+06
         0.12623E+08
         0.13580E+08
         0.18264E+08
         0.17587E+08
        -0.28519E+08
         0.23679E+08
         0.46792E+08
         0.57506E+07
         0.33439E+08
         0.12336E+08
         0.12703E+08
        -0.24416E+08
        -0.14128E+09
        -0.35726E+09
        -0.71944E+09
        -0.98844E+09
        -0.82257E+09
        -0.24077E+09
        -0.10304E+09
         0.15249E+09
         0.14182E+09
         0.46147E+08
         0.24462E+08
        -0.83302E+07
        -0.42472E+08
        -0.69648E+08
        -0.13924E+09
        -0.21535E+09
        -0.22776E+09
        -0.22844E+09
        -0.10611E+09
        -0.42021E+08
         0.11807E+08
         0.16322E+08
         0.35235E+08
         0.28777E+08
         0.31286E+08
         0.22592E+08
         0.48614E+07
         0.86327E+07
         0.13740E+08
         0.18049E+08
         0.14660E+08
         0.18504E+08
         0.19458E+08
         0.41578E+08
         0.40355E+08
         0.46198E+07
         0.16406E+08
         0.10946E+08
         0.80694E+07
         0.32395E+08
         0.26591E+08
         0.57274E+08
         0.19324E+08
         0.16454E+08
         0.50744E+08
         0.20530E+08
         0.61005E+08
         0.10510E+09
         0.14547E+09
         0.88714E+08
         0.37881E+08
         0.24940E+08
         0.49406E+08
         0.41099E+08
         0.45656E+08
         0.18566E+08
         0.11712E+08
         0.11580E+09
         0.19485E+09
         0.22866E+09
         0.71426E+08
         0.18736E+09
         0.18635E+09
         0.16178E+08
         0.11187E+08
        -0.72639E+07
         0.65942E+07
         0.11958E+08
         0.96487E+07
         0.17311E+08
        -0.43644E+08
         0.24392E+08
         0.46379E+08
        -0.95030E+07
         0.43569E+08
         0.26183E+08
         0.23692E+08
        -0.22303E+08
        -0.14829E+09
        -0.43401E+09
        -0.69985E+09
        -0.79647E+09
        -0.84404E+09
        -0.36626E+09
        -0.50556E+08
         0.14545E+09
         0.16718E+09
         0.10904E+09
         0.55504E+08
        -0.78173E+07
        -0.86441E+08
        -0.11639E+09
        -0.16533E+09
        -0.20609E+09
        -0.28077E+09
        -0.28366E+09
        -0.11569E+09
        -0.11119E+09
         0.43783E+07
         0.18626E+08
         0.21449E+08
         0.23737E+08
         0.31403E+08
         0.18668E+08
         0.11540E+08
         0.45578E+07
         0.16662E+08
         0.11359E+08
         0.20267E+08
         0.33688E+08
         0.21716E+08
         0.27801E+08
         0.45433E+08
         0.45652E+07
         0.11720E+08
         0.13996E+08
         0.85625E+07
         0.34520E+08
         0.45245E+08
         0.85895E+08
         0.22545E+08
         0.41028E+07
         0.41168E+08
         0.13351E+08
         0.49779E+08
         0.63456E+08
         0.10022E+09
         0.86417E+08
         0.35603E+08
         0.28820E+08
         0.49538E+08
         0.28547E+08
         0.45274E+08
         0.28117E+08
         0.14755E+08
         0.10259E+09
         0.17002E+09
         0.14588E+09
         0.14351E+09
         0.16052E+09
         0.17056E+09
         0.20350E+08
         0.20971E+08
        -0.68233E+07
         0.73563E+07
         0.29651E+08
         0.24797E+08
         0.23197E+08
        -0.16812E+08
         0.28890E+08
         0.61810E+08
        -0.11423E+08
         0.35372E+08
         0.24758E+08
         0.19108E+08
        -0.33379E+08
        -0.20477E+09
        -0.34178E+09
        -0.60475E+09
        -0.10068E+10
        -0.53353E+09
        -0.34914E+09
        -0.42772E+08
         0.12114E+09
         0.12961E+09
         0.80476E+08
         0.42567E+08
         0.28476E+07
        -0.68708E+08
        -0.10431E+09
        -0.16389E+09
        -0.20749E+09
        -0.30184E+09
        -0.30282E+09
        -0.24080E+09
        -0.12403E+09
         0.13795E+08
         0.14658E+08
         0.32523E+08
         0.30144E+08
         0.29061E+08
         0.20795E+08
         0.87822E+07
         0.49601E+07
         0.11055E+08
         0.12507E+08
         0.22155E+08
         0.20830E+08
         0.15666E+08
         0.26966E+08
         0.59575E+08
         0.85212E+07
         0.12550E+08
         0.18892E+08
         0.13014E+08
         0.31422E+08
         0.28526E+08
         0.70814E+08
         0.18323E+08
         0.20970E+08
         0.53631E+08
         0.21660E+08
         0.77587E+08
         0.11236E+09
         0.18386E+09
         0.78379E+08
         0.37545E+08
         0.23231E+08
         0.40652E+08
         0.44372E+08
         0.58719E+08
         0.22172E+08
         0.13027E+08
         0.11193E+09
         0.16888E+09
         0.16205E+09
         0.81541E+08
         0.66397E+08
         0.11196E+09
         0.16877E+08
         0.11154E+08
        -0.13277E+08
         0.92069E+07
         0.17213E+08
         0.30126E+08
         0.22090E+08
        -0.27249E+08
         0.30893E+08
         0.53418E+08
        -0.41231E+08
         0.48630E+08
         0.25537E+08
         0.17472E+08
        -0.36637E+08
        -0.18530E+09
        -0.37593E+09
        -0.31580E+09
        -0.62745E+09
        -0.81029E+09
        -0.40969E+09
         0.33453E+08
         0.10597E+09
         0.67515E+08
         0.41646E+08
         0.16902E+08
        -0.29921E+08
        -0.77736E+08
        -0.89199E+08
        -0.13662E+09
        -0.17149E+09
        -0.28892E+09
        -0.21968E+09
        -0.17363E+09
        -0.10684E+09
         0.63446E+07
         0.16638E+08
         0.17799E+08
         0.94255E+07
         0.17431E+08
         0.29013E+07
         0.75369E+07
         0.14730E+08
         0.16966E+08
         0.12340E+08
         0.33055E+08
         0.39154E+08
         0.13640E+08
         0.39510E+08
         0.54414E+08
         0.11911E+08
         0.20950E+08
         0.16221E+08
         0.16103E+08
         0.34421E+08
         0.41846E+08
         0.78394E+08
         0.22710E+08
         0.13451E+08
         0.48635E+08
         0.19781E+08
         0.47379E+08
         0.93006E+08
         0.14885E+09
         0.78968E+08
         0.36977E+08
         0.20795E+08
         0.42166E+08
         0.34498E+08
         0.24489E+08
         0.18804E+08
         0.14767E+08
         0.11183E+09
         0.14987E+09
         0.19100E+09
         0.84363E+08
         0.16911E+09
         0.16997E+09
         0.12096E+08
         0.66921E+07
        -0.12358E+08
         0.20667E+07
         0.53829E+07
         0.85283E+07
         0.36991E+07
        -0.28438E+08
         0.38010E+07
         0.30766E+08
        -0.54779E+08
         0.24544E+08
         0.23144E+08
         0.23393E+08
        -0.24755E+08
        -0.14067E+09
        -0.36104E+09
        -0.68614E+09
        -0.97591E+09
        -0.79769E+09
        -0.30357E+09
        -0.90471E+08
         0.15118E+09
         0.11331E+09
         0.32111E+08
         0.45419E+07
        -0.22925E+08
        -0.59104E+08
        -0.63771E+08
        -0.11832E+09
        -0.18204E+09
        -0.24139E+09
        -0.31112E+09
        -0.13257E+09
        -0.87780E+08
         0.21422E+08
         0.86370E+07
         0.32551E+08
         0.25759E+08
         0.14493E+08
         0.12289E+08
         0.47082E+07
         0.10708E+08
         0.14298E+08
         0.13944E+08
         0.29350E+08
         0.29926E+08
         0.17332E+08
         0.28837E+08
         0.66056E+08
         0.39065E+07
         0.22623E+08
         0.12527E+08
         0.12651E+08
         0.42550E+08
         0.38522E+08
         0.90474E+08
         0.26392E+08
         0.21304E+08
         0.60540E+08
         0.11158E+08
         0.65824E+08
         0.87091E+08
         0.14394E+09
         0.73944E+08
         0.26336E+08
         0.16128E+08
         0.28562E+08
         0.17160E+08
         0.25916E+08
         0.13597E+08
         0.11389E+08
         0.12334E+09
         0.21761E+09
         0.25533E+09
         0.18083E+09
         0.16183E+09
         0.16661E+09
         0.12035E+08
         0.48417E+07
        -0.98337E+07
         0.53583E+07
         0.16376E+08
         0.10555E+08
         0.50954E+06
        -0.33774E+08
         0.72608E+07
         0.11473E+08
        -0.49489E+08
         0.29859E+08
         0.24386E+08
         0.24488E+08
        -0.10684E+08
        -0.17717E+09
        -0.46542E+09
        -0.70911E+09
        -0.12526E+10
        -0.10459E+10
        -0.48122E+09
        -0.88126E+08
         0.15025E+09
         0.14918E+09
         0.61397E+08
         0.29344E+08
        -0.89229E+07
        -0.46015E+08
        -0.64191E+08
        -0.82795E+08
        -0.17748E+09
        -0.22960E+09
        -0.22883E+09
        -0.15675E+09
        -0.91304E+08
         0.13507E+08
         0.12429E+08
         0.19787E+08
         0.16409E+08
         0.21484E+08
         0.16904E+08
         0.68444E+07
         0.15469E+08
         0.13559E+08
         0.23614E+08
         0.25643E+08
         0.19085E+08
         0.10800E+08
         0.37433E+08
         0.47459E+08
         0.65851E+07
         0.17243E+08
         0.66628E+07
         0.75236E+07
         0.27637E+08
         0.43788E+08
         0.80750E+08
         0.28029E+08
         0.17486E+08
         0.55849E+08
         0.15198E+08
         0.65287E+08
         0.10954E+09
         0.14284E+09
         0.95548E+08
         0.23175E+08
         0.13249E+08
         0.33987E+08
         0.22072E+08
         0.20740E+08
         0.18198E+08
         0.10713E+08
         0.97516E+08
         0.19614E+09
         0.24292E+09
         0.19042E+09
         0.18813E+09
         0.18133E+09
         0.13185E+08
         0.58459E+07
        -0.67866E+07
         0.16832E+07
         0.50208E+07
         0.77317E+07
        -0.82378E+07
        -0.39452E+08
         0.44661E+06
         0.88490E+07
        -0.56610E+08
         0.18899E+08
         0.22945E+08
         0.20703E+08
        -0.15705E+08
        -0.11293E+09
        -0.28079E+09
        -0.73026E+09
        -0.11068E+10
        -0.87444E+09
        -0.48665E+09
        -0.91832E+08
         0.13002E+09
         0.16221E+09
         0.10241E+09
         0.45827E+08
         0.93064E+07
        -0.39172E+08
        -0.31289E+08
        -0.59090E+08
        -0.65207E+08
        -0.16282E+09
        -0.20398E+09
        -0.14879E+09
        -0.77089E+08
         0.37882E+07
         0.97463E+07
         0.40519E+07
         0.54217E+07
         0.19706E+07
        -0.71814E+07
         0.96058E+07
         0.13164E+08
         0.78499E+07
         0.29695E+08
         0.22966E+08
         0.21028E+08
         0.10268E+08
         0.46200E+08
         0.17652E+08
         0.12032E+07
         0.11936E+08
         0.13456E+06
         0.14365E+08
         0.42164E+08
         0.43986E+08
         0.91974E+08
         0.22495E+08
         0.10347E+08
         0.34994E+08
         0.91538E+06
         0.61618E+08
         0.82889E+08
         0.10564E+09
         0.48822E+08
        -0.22928E+06
        -0.34960E+07
        -0.44890E+06
        -0.71032E+07
         0.19106E+08
         0.71921E+07
         0.29983E+07
         0.11472E+09
         0.18002E+09
         0.23554E+09
         0.69534E+08
         0.54887E+08
         0.67589E+08
         0.27748E+07
        -0.41178E+07
        -0.74487E+07
        -0.97845E+07
        -0.15799E+08
        -0.46387E+07
        -0.21987E+08
        -0.36338E+08
        -0.18558E+08
         0.94775E+05
        -0.30817E+08
         0.89421E+07
        -0.62703E+07
        -0.12233E+06
        -0.48345E+08
        -0.17299E+09
        -0.46145E+09
        -0.66076E+09
        -0.12849E+10
        -0.12711E+10
        -0.43699E+09
        -0.15673E+07
         0.73789E+08
         0.15014E+09
         0.93900E+08
         0.31643E+08
        -0.75100E+04
        -0.69853E+07
         0.24136E+08
         0.24709E+08
        -0.11816E+08
        -0.34403E+08
        -0.72694E+08
        -0.94312E+08
        -0.79123E+08
         0.86247E+07
         0.88894E+06
        -0.40996E+06
        -0.11693E+08
        -0.12549E+07
        -0.13543E+08
         0.16808E+08
         0.16741E+08
         0.64596E+07
         0.13398E+08
         0.54618E+08
         0.28974E+08
         0.12416E+08
         0.49342E+08
         0.70096E+08
        -0.16882E+07
         0.14174E+08
        -0.58467E+07
         0.96223E+07
         0.28335E+08
         0.38151E+08
         0.68532E+08
         0.15461E+08
         0.50386E+07
         0.53986E+08
        -0.52127E+07
         0.59099E+08
         0.12421E+09
         0.14378E+09
         0.86102E+08
        -0.34697E+08
        -0.28364E+08
        -0.46171E+08
        -0.17009E+08
         0.87056E+07
        -0.64987E+06
         0.53904E+07
         0.14170E+09
         0.12727E+09
         0.22505E+09
         0.12330E+09
         0.18766E+09
         0.11377E+09
        -0.42451E+06
        -0.18579E+08
        -0.24452E+08
        -0.34451E+08
        -0.43012E+08
        -0.19292E+08
        -0.16798E+08
        -0.91320E+07
        -0.28364E+08
         0.21391E+08
        -0.18766E+08
        -0.78917E+07
        -0.11923E+08
        -0.72827E+07
        -0.61728E+08
        -0.22820E+09
        -0.48438E+09
        -0.84538E+09
        -0.90240E+09
        -0.11130E+10
        -0.58696E+09
        -0.67197E+08
         0.11788E+09
         0.13508E+09
         0.82042E+08
         0.11666E+08
         0.12533E+08
         0.83291E+08
         0.10987E+09
         0.16213E+09
         0.84071E+08
         0.16975E+09
         0.92192E+08
         0.59849E+07
        -0.33112E+08
         0.12564E+08
         0.51937E+07
        -0.10067E+08
        -0.28243E+08
        -0.83927E+07
        -0.36197E+08
         0.29406E+08
         0.30709E+08
         0.40428E+07
         0.40322E+08
         0.76993E+08
         0.50769E+08
         0.24297E+08
         0.40224E+08
         0.33302E+08
        -0.10901E+07
         0.21115E+08
        -0.13524E+08
         0.78337E+07
         0.19847E+08
         0.37353E+08
         0.60526E+08
         0.22542E+08
         0.11519E+08
         0.34230E+08
        -0.21048E+08
         0.43090E+08
         0.44186E+08
         0.70170E+08
         0.43397E+08
        -0.89660E+08
        -0.77918E+08
        -0.89798E+08
        -0.56065E+08
         0.26771E+08
        -0.76865E+06
        -0.51638E+06
         0.80928E+08
         0.10300E+09
         0.72090E+08
        -0.20123E+08
         0.34771E+08
         0.10595E+09
        -0.99470E+07
        -0.39776E+08
        -0.29922E+08
        -0.56814E+08
        -0.82352E+08
        -0.64507E+08
        -0.36826E+08
         0.11082E+08
        -0.28397E+08
         0.40231E+08
         0.13562E+07
         0.40778E+07
         0.11867E+08
         0.57045E+07
        -0.71335E+08
        -0.19172E+09
        -0.35743E+09
        -0.58108E+09
        -0.57398E+09
        -0.62160E+09
        -0.52803E+09
        -0.16623E+09
         0.93349E+08
         0.15675E+09
         0.14916E+09
         0.71967E+08
         0.71665E+08
         0.23451E+09
         0.38341E+09
         0.43296E+09
         0.37210E+09
         0.46019E+09
         0.42469E+09
         0.16600E+09
         0.17388E+08
         0.11558E+08
         0.15078E+08
        -0.10231E+08
        -0.25840E+08
        -0.11073E+08
        -0.30027E+08
         0.31755E+08
         0.24146E+08
         0.13306E+08
         0.29092E+08
         0.55833E+08
         0.21772E+08
         0.22782E+08
         0.37296E+08
         0.12380E+08
        -0.42664E+07
         0.23610E+08
        -0.70370E+07
        -0.40759E+07
         0.26273E+08
         0.28647E+08
         0.70807E+08
         0.56377E+07
        -0.31343E+08
         0.29943E+08
        -0.48235E+08
         0.31568E+08
         0.22214E+08
         0.20212E+08
         0.55151E+08
        -0.11172E+09
        -0.12193E+09
        -0.90461E+08
        -0.78718E+08
        -0.17385E+08
         0.34150E+07
         0.12157E+08
        -0.80381E+07
        -0.24064E+08
        -0.26139E+08
        -0.61653E+08
         0.20088E+08
         0.10077E+09
        -0.20091E+08
        -0.46198E+08
        -0.24432E+08
        -0.57623E+08
        -0.79122E+08
        -0.70566E+08
        -0.56989E+08
         0.50274E+07
        -0.48527E+08
        -0.44541E+08
        -0.22648E+08
        -0.10811E+08
         0.11040E+08
         0.14474E+08
        -0.10696E+08
        -0.62238E+08
        -0.72541E+08
         0.15150E+07
         0.80267E+08
        -0.28567E+09
        -0.69289E+09
        -0.50565E+09
        -0.77334E+07
         0.38561E+09
         0.46661E+09
         0.30463E+09
         0.24246E+09
         0.40899E+09
         0.36464E+09
         0.47871E+09
         0.42224E+09
         0.51324E+09
         0.43630E+09
         0.21721E+09
         0.65658E+08
        -0.60866E+08
        -0.28950E+08
        -0.13667E+09
        -0.96641E+08
        -0.19694E+09
        -0.15678E+09
         0.11186E+07
        -0.31414E+08
        -0.12857E+08
        -0.88703E+07
        -0.40795E+08
        -0.26176E+08
         0.38258E+07
        -0.42851E+08
        -0.47335E+08
        -0.27739E+08
         0.25244E+08
        -0.33399E+08
        -0.11089E+08
         0.90189E+08
         0.18064E+09
         0.18696E+09
         0.19290E+09
        -0.32114E+08
         0.25812E+08
        -0.10272E+09
        -0.62571E+08
        -0.12341E+09
        -0.31191E+09
         0.11932E+09
        -0.19778E+09
        -0.24473E+09
        -0.17076E+09
        -0.19057E+09
        -0.27974E+09
        -0.69568E+08
         0.13698E+08
        -0.12265E+09
        -0.23065E+09
        -0.41478E+09
        -0.95569E+09
        -0.57521E+09
         0.69159E+07
         0.84070E+08
        -0.42897E+08
        -0.29580E+08
        -0.15351E+09
        -0.20596E+09
        -0.22198E+09
        -0.17973E+09
        -0.93378E+08
        -0.12113E+09
        -0.41164E+09
        -0.19981E+09
        -0.10605E+08
         0.15212E+09
         0.84962E+08
         0.28504E+08
         0.17492E+09
         0.41576E+09
         0.63665E+09
         0.32364E+09
        -0.13718E+10
        -0.30973E+10
        -0.24029E+10
        -0.27266E+09
         0.13642E+10
         0.16880E+10
         0.13031E+10
         0.10624E+10
         0.10773E+10
         0.11832E+10
         0.91037E+09
         0.64974E+09
         0.50078E+09
         0.37469E+09
         0.62839E+08
        -0.74048E+08
  
SCALARS                         fint_x  double 1
LOOKUP_TABLE default
         0.00000E+00
        -0.37173E+03
        -0.28351E+03
        -0.37529E+03
         0.36931E+02
         0.19262E+04
         0.23888E+04
         0.22534E+04
         0.23257E+04
        -0.55048E+03
        -0.50523E+03
         0.17548E+04
         0.19789E+04
        -0.42118E+02
         0.17307E+03
         0.13971E+04
         0.22215E+04
        -0.85579E+02
         0.50154E+02
         0.11194E+04
         0.26866E+04
         0.20662E+03
        -0.13211E+03
        -0.20366E+03
         0.14278E+04
        -0.16267E+03
         0.34266E+03
         0.23329E+03
         0.34873E+03
         0.17208E+04
         0.10076E+04
        -0.39859E+02
        -0.13485E+03
         0.15462E+02
         0.21470E+03
         0.73894E+03
         0.42186E+03
        -0.98483E+01
        -0.55713E+02
         0.21762E+02
         0.14217E+03
         0.10275E+03
         0.18223E+03
         0.66125E+01
         0.73735E+02
        -0.22154E+02
         0.46046E+01
         0.33356E+02
         0.40602E+02
        -0.94455E+02
         0.11670E+04
         0.62625E+02
         0.51488E+03
         0.20182E+03
         0.19571E+04
         0.27490E+03
         0.22915E+04
         0.19897E+03
         0.21519E+02
         0.22514E+04
         0.72863E+03
         0.23738E+03
         0.89465E+02
         0.79058E+03
         0.12902E+04
        -0.48320E+03
         0.36708E+03
         0.23810E+03
         0.23206E+04
        -0.50961E+03
        -0.31511E+03
         0.12676E+04
         0.13675E+04
        -0.21104E+03
         0.87914E+03
        -0.12285E+04
         0.11319E+04
        -0.18727E+04
         0.65338E+03
        -0.12260E+04
         0.73610E+03
        -0.63853E+02
         0.22059E+03
         0.74889E+03
         0.14733E+04
         0.48139E+03
         0.12396E+04
        -0.24461E+03
         0.13964E+04
        -0.46481E+03
         0.16074E+04
        -0.66537E+03
        -0.24828E+03
         0.13035E+04
         0.86144E+03
        -0.45871E+03
         0.69969E+03
        -0.12866E+04
         0.15631E+04
        -0.33886E+04
         0.88247E+03
        -0.51581E+04
        -0.20299E+04
         0.62797E+02
         0.87634E+03
        -0.93029E+03
        -0.19516E+04
         0.13335E+04
         0.11373E+04
        -0.56040E+03
         0.46246E+03
        -0.12003E+03
        -0.10424E+04
         0.68562E+03
        -0.45267E+04
         0.16936E+04
        -0.84131E+04
         0.29517E+04
        -0.11500E+05
         0.46970E+04
        -0.18111E+05
         0.68678E+04
        -0.23385E+05
         0.42718E+04
        -0.84188E+04
         0.79079E+03
        -0.20194E+03
         0.93898E+02
         0.72724E+03
         0.34066E+03
         0.11309E+04
         0.43788E+03
         0.20400E+04
         0.43502E+02
         0.24082E+04
        -0.49997E+03
         0.18775E+04
        -0.85928E+03
         0.10995E+04
        -0.11689E+04
         0.14810E+04
        -0.13284E+04
         0.13787E+04
        -0.19453E+04
         0.12247E+04
        -0.32355E+04
         0.82435E+03
        -0.10581E+05
        -0.15030E+02
        -0.13590E+05
        -0.18661E+04
        -0.12627E+05
        -0.82349E+03
        -0.81885E+04
         0.54285E+03
        -0.42143E+04
         0.15306E+04
        -0.12361E+04
        -0.19694E+04
        -0.11299E+04
        -0.62206E+03
        -0.17594E+04
        -0.26438E+04
        -0.11289E+04
        -0.17069E+04
        -0.22524E+04
        -0.18895E+04
        -0.79710E+03
         0.82945E+03
        -0.37814E+02
        -0.12835E+04
         0.55492E+03
        -0.15904E+04
        -0.16432E+04
        -0.20064E+04
        -0.83003E+03
        -0.70032E+03
        -0.38426E+03
         0.38518E+02
        -0.10078E+04
        -0.90611E+03
        -0.16355E+04
        -0.14163E+04
        -0.20221E+04
        -0.21291E+04
        -0.14870E+04
        -0.83912E+03
        -0.12237E+03
        -0.12393E+04
         0.13464E+04
        -0.10477E+03
        -0.18766E+04
        -0.15071E+04
        -0.93362E+03
        -0.46302E+03
        -0.68480E+03
        -0.41666E+03
        -0.10431E+03
        -0.85067E+03
        -0.45538E+03
        -0.12615E+04
        -0.13934E+04
        -0.11643E+04
        -0.12222E+04
        -0.66673E+03
        -0.60406E+03
        -0.12686E+04
        -0.32003E+04
        -0.18954E+04
        -0.16379E+04
        -0.27986E+04
        -0.12363E+04
         0.33110E+03
         0.25098E+04
         0.53260E+04
         0.85344E+04
         0.13461E+05
         0.16131E+05
         0.95492E+04
         0.17820E+04
        -0.44076E+03
        -0.45155E+03
        -0.78678E+03
        -0.13216E+04
        -0.16758E+04
        -0.16677E+04
        -0.17531E+04
        -0.15224E+04
        -0.16696E+04
        -0.43433E+04
        -0.91032E+04
        -0.13675E+05
        -0.12158E+05
        -0.80196E+04
        -0.46107E+04
        -0.83861E+03
        -0.48877E+03
        -0.96169E+03
        -0.12556E+04
        -0.28875E+03
         0.10833E+04
        -0.36402E+03
        -0.76316E+03
        -0.86836E+03
        -0.12699E+04
        -0.38175E+03
         0.13462E+03
        -0.69604E+02
        -0.59375E+03
        -0.76746E+02
        -0.87611E+03
        -0.78576E+03
        -0.65635E+03
        -0.43655E+03
        -0.68716E+03
        -0.47713E+03
        -0.53759E+03
        -0.40472E+03
        -0.42691E+03
        -0.58975E+03
        -0.73144E+03
        -0.68845E+03
        -0.78878E+03
        -0.53434E+03
        -0.53231E+03
        -0.51344E+03
        -0.64272E+03
        -0.38119E+03
         0.35374E+03
         0.29890E+03
        -0.34218E+03
        -0.33382E+03
         0.46961E+03
         0.71290E+03
         0.46535E+03
         0.12050E+03
        -0.42637E+03
        -0.59845E+03
        -0.20582E+03
        -0.29713E+02
         0.35067E+03
         0.36003E+03
         0.97268E+03
         0.18932E+04
         0.36290E+04
         0.49408E+04
         0.28879E+04
         0.11540E+04
         0.23291E+04
         0.45987E+03
         0.28398E+03
         0.61604E+03
         0.11601E+04
         0.23139E+04
         0.48746E+04
         0.60439E+04
         0.41206E+04
         0.13646E+04
         0.70195E+03
        -0.96366E+03
        -0.11871E+04
        -0.61105E+03
        -0.37874E+03
        -0.17868E+03
         0.59400E+03
         0.88098E+03
         0.15929E+04
         0.26382E+04
         0.44054E+04
         0.59179E+04
         0.49141E+04
         0.33451E+04
         0.21474E+04
        -0.30551E+03
        -0.63656E+02
         0.31679E+03
        -0.56852E+03
         0.10596E+04
         0.52651E+03
        -0.56615E+02
        -0.20228E+03
         0.24156E+02
        -0.12483E+03
        -0.10793E+03
        -0.32784E+03
        -0.13692E+03
        -0.20208E+03
        -0.29676E+03
        -0.61072E+02
        -0.68483E+02
        -0.21207E+03
        -0.66496E+02
        -0.20472E+03
        -0.19822E+03
        -0.39410E+03
        -0.19620E+02
        -0.22265E+02
        -0.34373E+01
        -0.38578E+02
        -0.22558E+03
         0.15309E+02
         0.28232E+03
        -0.12964E+03
         0.50668E+02
         0.10730E+03
         0.32129E+03
        -0.12499E+03
         0.13984E+04
         0.69662E+02
        -0.57543E+01
        -0.19709E+03
         0.10002E+03
         0.47314E+03
         0.65094E+03
        -0.25414E+03
        -0.60802E+02
         0.16322E+03
         0.42637E+03
         0.70301E+03
         0.73996E+03
         0.15068E+04
         0.10641E+04
         0.25190E+04
         0.62741E+04
         0.45672E+04
         0.19027E+04
         0.38528E+04
         0.84952E+03
         0.28577E+03
        -0.20030E+03
        -0.58803E+03
         0.17520E+03
         0.75266E+03
         0.11964E+04
         0.70237E+03
         0.95115E+03
         0.89547E+03
         0.50196E+03
        -0.22626E+03
        -0.44581E+03
        -0.92240E+02
         0.38580E+03
         0.83399E+03
         0.10908E+04
         0.14256E+04
         0.31401E+04
         0.67142E+04
         0.89935E+04
         0.95174E+04
         0.87956E+04
         0.67759E+04
         0.31688E+02
         0.29696E+02
         0.13109E+03
         0.84073E+02
         0.33465E+03
         0.26609E+03
        -0.37063E+02
        -0.46268E+01
         0.49071E+02
        -0.92808E+02
        -0.14308E+03
        -0.20876E+03
        -0.74659E+02
        -0.20855E+03
        -0.46806E+03
         0.13084E+03
         0.17765E+02
         0.10363E+03
         0.32879E+02
        -0.11019E+03
        -0.20594E+03
        -0.43412E+03
        -0.11003E+03
        -0.13646E+01
        -0.18739E+03
         0.35024E+02
        -0.38660E+03
        -0.60794E+03
        -0.81574E+03
        -0.37281E+03
         0.63119E+02
        -0.42752E+02
         0.25795E+03
         0.86941E+02
         0.81981E+02
         0.48996E+02
        -0.36951E+02
        -0.74489E+03
        -0.62736E+03
        -0.46495E+03
        -0.17059E+03
        -0.51854E+03
        -0.63940E+03
        -0.92045E+02
        -0.67371E+02
        -0.92017E+02
        -0.47107E+02
        -0.35994E+02
         0.63999E+02
         0.30266E+03
         0.79173E+03
         0.68680E+03
         0.44022E+03
         0.82712E+03
         0.94641E+02
        -0.40015E+02
        -0.24472E+03
        -0.41093E+03
        -0.56948E+03
        -0.52900E+02
         0.77175E+03
         0.10087E+04
         0.87755E+03
         0.62331E+03
        -0.19243E+03
        -0.60350E+03
        -0.61942E+03
        -0.39819E+03
        -0.20398E+03
        -0.12028E+03
        -0.18594E+03
        -0.38381E+03
        -0.98634E+02
        -0.19638E+03
         0.77654E+03
         0.10066E+04
         0.11764E+04
         0.87758E+03
         0.10562E+03
         0.41794E+02
        -0.30937E+02
        -0.34444E+02
        -0.69128E+02
        -0.17854E+03
         0.56162E+02
         0.16759E+00
         0.71972E+02
        -0.58894E+02
        -0.47514E+02
        -0.58977E+02
        -0.22711E+02
        -0.52455E+02
        -0.14018E+03
         0.12817E+03
         0.50820E+02
         0.65526E+02
         0.46290E+02
        -0.54943E+02
        -0.12771E+03
        -0.23793E+03
        -0.80977E+02
         0.29306E+02
        -0.12296E+03
         0.60204E+02
        -0.14390E+03
        -0.37964E+03
        -0.56624E+03
        -0.22196E+03
        -0.25863E+02
        -0.29237E+02
        -0.13196E+03
        -0.18767E+03
        -0.54717E+02
        -0.12796E+02
        -0.14278E+01
        -0.39504E+03
        -0.64600E+03
        -0.57416E+03
        -0.17879E+03
        -0.34134E+03
        -0.44959E+03
        -0.96904E+02
        -0.14476E+03
        -0.22249E+03
        -0.28482E+03
        -0.44347E+03
        -0.25371E+03
        -0.56404E+03
        -0.60204E+03
        -0.39309E+03
        -0.49758E+02
        -0.59944E+02
        -0.18167E+02
        -0.52409E+02
        -0.95016E+02
        -0.21908E+03
        -0.27401E+03
        -0.54319E+03
        -0.36221E+03
         0.35077E+01
         0.74808E+02
        -0.11809E+03
        -0.22537E+03
        -0.51849E+03
        -0.50621E+03
        -0.33180E+03
        -0.26347E+03
        -0.27535E+03
        -0.32444E+03
        -0.46609E+03
        -0.95543E+03
        -0.12819E+04
        -0.11004E+04
        -0.67820E+03
        -0.35805E+03
        -0.15748E+03
         0.96628E+02
         0.81895E+01
        -0.74628E+01
         0.19201E+02
        -0.54020E+02
        -0.10938E+03
         0.43299E+02
         0.24255E+02
         0.75947E+02
         0.68387E+02
         0.79286E+02
         0.10719E+02
         0.23993E+02
         0.52057E+02
        -0.81963E+02
         0.46349E+02
         0.41133E+02
         0.58429E+02
         0.24164E+02
        -0.92069E+01
        -0.68121E+02
        -0.15429E+03
        -0.22487E+02
         0.47178E+01
        -0.46438E+02
         0.18684E+02
        -0.18045E+02
        -0.10806E+03
        -0.24578E+03
        -0.96333E+02
         0.97644E+01
        -0.75578E+00
        -0.37632E+02
        -0.77838E+02
        -0.28331E+02
        -0.16483E+02
         0.82795E+01
        -0.17385E+03
        -0.27539E+03
        -0.33813E+03
        -0.47214E+03
        -0.49923E+03
        -0.22436E+03
        -0.10572E+02
        -0.24698E+02
        -0.41083E+02
        -0.79323E+02
        -0.17058E+03
        -0.20397E+03
        -0.33847E+03
        -0.41045E+03
        -0.24692E+03
        -0.28124E+02
        -0.84147E+02
        -0.67197E+01
        -0.94868E+01
        -0.33371E+02
        -0.11780E+02
        -0.31558E+03
        -0.58985E+03
        -0.10506E+03
        -0.49643E+03
        -0.25939E+03
        -0.46320E+03
        -0.57514E+03
        -0.48475E+03
        -0.24488E+03
        -0.91282E+02
        -0.34432E+02
        -0.47552E+02
        -0.66256E+02
        -0.16374E+03
        -0.34203E+03
        -0.23226E+03
        -0.36997E+03
        -0.42405E+03
        -0.32724E+03
        -0.16909E+03
         0.71347E+02
         0.21824E+02
         0.31301E+02
         0.47461E+02
         0.17495E+02
        -0.34465E+01
         0.16177E+02
         0.54030E+02
         0.53889E+02
         0.50714E+02
         0.26222E+02
        -0.13554E+02
         0.45197E+01
         0.39331E+02
        -0.35603E+02
         0.26660E+02
         0.29946E+02
         0.31584E+02
         0.12560E+02
         0.44995E+01
        -0.31518E+02
        -0.94186E+02
        -0.99724E+01
        -0.99245E+00
         0.21909E+02
         0.57541E+01
         0.11870E+02
         0.56964E+00
        -0.10893E+03
        -0.65769E+02
         0.32182E+02
         0.11909E+02
         0.41349E+02
         0.29207E+02
         0.11552E+02
         0.14419E+02
         0.17005E+02
        -0.13643E+03
        -0.19317E+03
        -0.31601E+03
        -0.36547E+03
        -0.23828E+03
        -0.19623E+03
         0.93008E+01
         0.21342E+02
         0.32342E+02
         0.28713E+02
         0.18737E+02
        -0.51989E+01
        -0.20795E+02
        -0.39465E+02
        -0.33188E+02
         0.21388E+02
        -0.30445E+02
         0.39778E+02
         0.29791E+02
         0.48380E+01
        -0.95940E+01
        -0.53478E+02
        -0.52891E+03
        -0.11633E+03
        -0.15278E+03
        -0.37063E+03
        -0.57723E+03
        -0.47208E+03
        -0.33110E+03
        -0.70050E+02
         0.28068E+02
         0.57460E+02
         0.20410E+02
         0.90160E+01
         0.99332E+01
        -0.30077E+02
         0.20905E+02
         0.16097E+02
         0.16435E+02
        -0.14250E+03
        -0.11251E+03
         0.19134E+02
         0.11199E+02
         0.12726E+02
         0.29055E+02
        -0.21759E+01
         0.28761E+02
         0.97020E+01
         0.22418E+02
         0.33572E+02
         0.25701E+02
         0.22058E+02
        -0.64936E+01
         0.12225E+02
         0.20532E+02
        -0.15114E+02
         0.57688E+01
         0.26806E+02
         0.28714E+02
         0.29928E+01
         0.10802E+02
        -0.15500E+02
        -0.19003E+02
        -0.10021E+02
        -0.12420E+01
         0.24192E+02
        -0.35985E+01
         0.11427E+02
         0.77401E+01
         0.21464E+02
        -0.85504E+01
         0.17369E+02
        -0.77389E+01
         0.37852E+02
         0.24905E+02
         0.40695E+01
         0.11749E+02
         0.29426E+01
        -0.47811E+02
        -0.87059E+02
        -0.12659E+03
        -0.18933E+03
        -0.74701E+02
        -0.37259E+02
         0.94806E+00
         0.37715E+01
         0.13750E+02
         0.15279E+02
         0.22442E+02
         0.53395E+01
         0.11237E+02
        -0.20173E+02
         0.22408E+01
         0.39761E+02
        -0.31079E+02
         0.27994E+02
         0.41147E+02
         0.21320E+02
         0.33715E+01
        -0.74079E+02
        -0.20197E+03
        -0.43075E+03
        -0.47979E+03
        -0.41772E+03
        -0.29442E+03
        -0.13864E+03
        -0.10054E+03
        -0.15419E+02
         0.47057E+02
         0.18310E+02
         0.30263E+02
         0.41177E+02
         0.67775E+02
         0.87509E+02
         0.28165E+02
        -0.15647E+02
         0.23276E+02
        -0.67555E+02
        -0.68271E+02
         0.62076E+01
         0.25181E+01
        -0.51047E+01
         0.84729E+01
         0.46310E+01
         0.30812E+02
        -0.51864E+00
         0.11596E+02
         0.18883E+02
         0.15416E+02
         0.48292E+01
         0.31745E+01
         0.14411E+01
         0.59772E+01
        -0.28313E+01
         0.15281E+01
         0.13979E+02
         0.33255E+01
        -0.31934E-01
         0.21056E+02
        -0.37780E+01
         0.14482E+02
        -0.60691E+01
        -0.57542E+01
         0.32716E+02
        -0.10019E+02
         0.17586E+02
         0.25660E+02
        -0.18314E+01
         0.18751E+02
        -0.38804E+00
        -0.33015E+01
         0.12382E+02
         0.18487E+02
         0.20084E+01
        -0.19007E+01
        -0.24778E+01
        -0.21176E+02
        -0.25515E+02
        -0.70844E+02
        -0.10215E+03
        -0.29362E+02
        -0.89601E+01
        -0.66350E+01
        -0.66641E+01
        -0.45258E+01
        -0.16551E+01
         0.12294E+02
         0.36748E+01
        -0.34353E+01
         0.68169E+01
         0.55371E+01
         0.88710E+01
         0.18307E+02
         0.21331E+02
         0.19284E+02
         0.10420E+02
         0.11354E+01
        -0.62917E+02
        -0.15594E+03
        -0.27593E+03
        -0.31956E+03
        -0.25499E+03
        -0.21479E+03
        -0.13680E+03
        -0.63049E+02
        -0.27226E+02
         0.21134E+02
         0.24377E+02
         0.10585E+02
         0.34862E+01
        -0.11613E+00
         0.28896E+02
         0.23660E+01
         0.26347E+02
         0.31670E+02
         0.42594E+02
         0.42070E+02
         0.50233E+01
        -0.70430E+00
         0.23937E+01
         0.12017E+02
         0.29791E+02
         0.17385E+02
        -0.59310E+01
         0.10050E+02
         0.20584E+02
         0.20902E+02
         0.56835E+01
        -0.15745E+00
        -0.29163E+01
         0.12231E+02
        -0.59385E+01
         0.30942E+01
         0.23156E+02
         0.18708E+02
         0.61742E+01
         0.27623E+02
         0.99887E+01
         0.39310E+02
         0.10031E+01
         0.87462E+00
         0.25599E+02
        -0.41912E+01
         0.34014E+02
         0.35804E+02
         0.39617E+02
         0.49935E+02
         0.14115E+02
        -0.59132E+01
         0.91239E+01
         0.19430E+01
        -0.10422E+02
         0.25310E+00
        -0.11350E+01
        -0.11061E+02
        -0.29858E+01
        -0.27281E+02
        -0.75643E+02
         0.16233E+02
         0.52686E+02
        -0.24006E+01
        -0.16512E+01
        -0.81929E+00
        -0.92930E+01
        -0.83080E+01
         0.11968E+02
         0.30137E+02
         0.16571E+02
        -0.25713E+02
         0.28454E+00
         0.70525E+02
         0.23180E+02
         0.37742E+02
         0.36822E+02
         0.21398E+02
        -0.76817E+02
        -0.74049E+02
        -0.73355E+02
        -0.63343E+02
        -0.17050E+03
        -0.29237E+02
        -0.80663E+02
        -0.21471E+02
         0.16018E+02
         0.27745E+02
         0.33520E+02
         0.30560E+02
         0.18112E+02
         0.12273E+02
        -0.22777E+02
        -0.83916E+02
        -0.98898E+02
        -0.75781E+02
        -0.39909E+02
        -0.21958E+02
         0.84817E+01
        -0.10616E+01
         0.31762E+01
         0.15389E+02
         0.91151E+01
         0.19469E+02
        -0.31678E+01
         0.12842E+02
         0.15431E+02
         0.32588E+02
         0.50907E+01
         0.19042E+01
        -0.32841E+01
         0.85710E+01
         0.52086E+00
         0.91362E+01
         0.28706E+02
         0.18862E+02
         0.64986E+01
         0.29929E+02
         0.93149E+01
         0.30429E+02
         0.13886E+00
        -0.70472E+00
         0.42493E+02
         0.29791E+01
         0.23164E+02
         0.28504E+02
         0.53187E+02
         0.34944E+02
         0.77607E+01
        -0.14550E+01
         0.17110E+02
         0.11083E+02
         0.16439E+02
         0.10490E+01
        -0.25647E+01
        -0.21181E+02
        -0.48756E+02
        -0.46693E+02
        -0.51076E+02
         0.24994E+02
         0.13869E+02
         0.39233E+01
         0.61072E+01
         0.92540E+01
         0.50912E+01
         0.69858E+01
         0.16982E+02
         0.17237E+02
         0.26548E+02
         0.28266E+02
         0.20524E+02
         0.48406E+02
         0.45390E+02
         0.24228E+02
         0.16475E+02
         0.11069E+02
        -0.29234E+02
        -0.95270E+02
        -0.16840E+03
        -0.15218E+03
        -0.17205E+03
         0.45332E+02
        -0.73002E+02
        -0.48340E+02
         0.12449E+02
         0.27817E+02
         0.27870E+02
         0.30923E+02
         0.22495E+02
         0.73062E+01
        -0.22964E+02
        -0.11896E+03
        -0.13846E+03
        -0.11695E+03
        -0.91364E+02
         0.27748E+02
         0.53404E+01
        -0.51631E+01
         0.16753E+01
         0.20129E+02
         0.32413E+01
         0.15253E+02
        -0.51260E+01
         0.84002E+01
         0.17652E+02
         0.19107E+02
         0.58793E+01
         0.48257E+01
        -0.29573E+01
         0.93663E+01
         0.21839E+02
         0.80059E+01
         0.16243E+02
         0.28526E+02
         0.24044E+01
         0.20501E+02
         0.60907E+01
         0.34496E+02
        -0.63012E+00
        -0.24789E+01
         0.46895E+02
        -0.22613E+01
         0.33932E+02
         0.62133E+02
         0.89221E+02
         0.31586E+02
         0.14778E+02
         0.62473E+01
         0.43753E+02
         0.34883E+02
         0.14969E+01
         0.12244E+02
        -0.99099E+01
        -0.17067E+02
        -0.83173E+01
        -0.16986E+02
        -0.48696E+02
         0.45245E+02
        -0.22508E+02
         0.69243E+01
         0.10342E+02
         0.90596E+01
         0.61205E+01
         0.13799E+01
         0.65973E+01
         0.25540E+01
        -0.14042E+02
         0.17752E+02
         0.31525E+02
         0.29754E+02
         0.48598E+02
         0.32729E+02
         0.20485E+02
        -0.20037E+01
        -0.81531E+02
        -0.21534E+03
        -0.32892E+03
        -0.36689E+03
        -0.29436E+03
        -0.20875E+02
        -0.12815E+03
         0.44516E+02
         0.37487E+02
         0.26971E+02
         0.47754E+02
         0.38186E+02
         0.14857E+02
        -0.10820E+02
        -0.20270E+02
        -0.71804E+02
        -0.26678E+02
        -0.45061E+01
        -0.60571E+01
        -0.14093E+01
         0.55199E+01
        -0.50647E+00
         0.41756E-01
         0.25175E+02
         0.23599E+02
         0.10137E+02
        -0.26139E+01
         0.28245E+01
         0.81501E+01
         0.24203E+02
        -0.45348E+01
         0.69356E+01
        -0.83930E+00
         0.18193E+02
         0.43631E+01
         0.28434E+01
         0.16979E+02
         0.13102E+02
         0.25685E+01
         0.28072E+02
         0.62604E+01
         0.33342E+02
         0.36505E+01
         0.18112E+01
         0.42271E+02
         0.65421E+01
         0.27220E+02
         0.60578E+02
         0.57121E+02
         0.32638E+02
         0.19970E+02
         0.41454E+01
         0.35073E+02
         0.21196E+02
         0.11586E+02
        -0.10828E+01
        -0.11683E+02
        -0.16123E+02
         0.42596E+02
        -0.40123E+02
        -0.67660E+02
         0.19839E+02
        -0.45636E+01
         0.58212E+01
         0.63549E+01
         0.32457E+01
         0.63436E+01
         0.15473E+02
        -0.55556E+01
         0.35670E+01
        -0.34087E+02
        -0.32454E+01
         0.38253E+02
         0.48597E+02
         0.56403E+02
         0.38696E+02
         0.28109E+02
        -0.27522E+01
        -0.80275E+02
        -0.15446E+03
        -0.17377E+03
         0.21029E+02
         0.14322E+03
         0.17056E+03
        -0.14812E+03
        -0.34499E+02
         0.80006E+01
         0.32917E+02
         0.35187E+02
         0.34353E+02
         0.13502E+02
        -0.15334E+01
        -0.16737E+02
        -0.52857E+02
        -0.57181E+02
        -0.25419E+02
         0.49844E+00
         0.15874E+02
        -0.11726E+01
         0.88544E+01
        -0.56548E+01
         0.18111E+02
         0.38981E+00
         0.12165E+02
        -0.32282E+01
         0.25336E+01
         0.15057E+02
         0.15421E+02
        -0.27845E+01
         0.33287E+01
        -0.52274E+00
         0.47068E+01
         0.30755E+01
         0.27166E+00
         0.11276E+02
         0.17188E+02
        -0.25993E+01
         0.79474E+01
         0.15758E+02
         0.18152E+02
         0.83341E+01
        -0.14395E+01
         0.41287E+02
        -0.31727E+01
         0.33529E+01
         0.16226E+02
         0.14281E+02
         0.16059E+02
         0.14040E+02
         0.93429E+00
         0.30897E+02
         0.31112E+02
         0.99245E+01
         0.65778E+01
        -0.61763E+01
         0.67771E+02
         0.10658E+03
         0.12989E+03
         0.15481E+03
         0.11049E+03
         0.26111E+02
        -0.36518E+00
         0.17686E+01
        -0.62114E+01
        -0.78723E+01
        -0.17917E+01
         0.21688E+02
        -0.12304E+02
        -0.15941E+02
        -0.80069E+00
         0.76777E+01
        -0.37363E+02
         0.11281E+02
         0.31335E+02
         0.28756E+02
         0.12720E+02
        -0.54699E+02
         0.52122E+02
        -0.47420E+01
         0.22771E+03
         0.24707E+03
         0.26683E+03
         0.23755E+03
         0.17901E+03
         0.12195E+03
         0.76799E+02
         0.46670E+02
         0.16867E+02
        -0.50997E+01
        -0.17490E+02
        -0.31577E+02
        -0.55485E+02
        -0.55013E+02
        -0.43087E+02
        -0.64342E+02
        -0.77757E+02
        -0.24940E+01
        -0.64981E+01
        -0.12578E+02
         0.21779E+02
         0.56401E+00
        -0.16711E+02
        -0.76781E+01
        -0.62444E+01
         0.16019E+02
         0.11001E+02
        -0.23875E+01
        -0.18740E+01
        -0.14158E+00
         0.55270E+01
         0.30403E+01
         0.47159E+01
         0.89427E+01
         0.25777E+02
        -0.12782E+01
         0.90235E+01
         0.18228E+02
         0.38022E+02
         0.10629E+02
        -0.25655E+01
         0.35734E+02
        -0.21409E+01
         0.44220E+02
         0.61719E+02
         0.53990E+02
         0.27748E+02
         0.15712E+02
         0.24664E+01
         0.34881E+02
         0.24853E+02
        -0.18349E+00
        -0.71535E+01
        -0.60362E+01
         0.15813E+02
        -0.31570E+01
        -0.83198E+01
        -0.16063E+01
        -0.65334E+02
         0.16509E+02
         0.20350E+01
        -0.27046E+01
        -0.13435E+02
        -0.10744E+02
         0.17862E-01
         0.15259E+02
         0.58237E+01
        -0.19174E+02
         0.17205E+01
         0.18842E+02
        -0.59402E+02
         0.46124E+02
         0.47734E+02
         0.40166E+02
         0.20277E+02
        -0.22610E+02
         0.62340E+02
        -0.32469E+02
        -0.61340E+02
         0.10911E+03
        -0.71390E+02
         0.33132E+02
         0.46821E+02
         0.72172E+02
         0.36450E+02
         0.25156E+02
         0.84902E+01
        -0.14991E+02
        -0.26837E+02
        -0.44926E+02
        -0.67425E+02
        -0.83723E+02
        -0.78624E+02
        -0.86537E+02
        -0.30134E+02
         0.68996E+01
        -0.45153E+01
        -0.34030E+01
         0.55231E+01
        -0.14471E+02
        -0.88329E+01
        -0.62506E+01
         0.97601E+01
         0.11167E+02
         0.14607E+02
        -0.41616E+00
         0.25672E+01
         0.24901E+01
         0.11959E+02
         0.40661E+01
         0.27370E+01
         0.94932E+01
         0.19127E+02
        -0.31031E+01
         0.12486E+02
        -0.13089E+02
         0.91090E+01
        -0.11917E+01
        -0.51415E+01
         0.36400E+02
        -0.55393E+01
         0.99958E+01
         0.23619E+02
         0.69266E+02
         0.42765E+02
         0.15145E+02
        -0.86010E+01
         0.19136E+02
         0.17195E+02
        -0.38948E+01
         0.15860E+00
        -0.30840E+01
         0.19552E+02
        -0.15907E+02
         0.63618E+02
         0.48442E+02
         0.54201E+02
         0.12630E+02
        -0.55249E+01
        -0.82166E+01
        -0.13065E+02
        -0.16334E+02
         0.37903E+01
        -0.27542E+02
        -0.33886E+02
        -0.42052E+02
        -0.30452E+02
         0.10736E+02
        -0.80100E+01
         0.16140E+02
         0.42046E+02
         0.35577E+02
         0.16771E+02
        -0.28121E+02
        -0.11778E+03
        -0.17333E+03
        -0.25484E+03
        -0.25421E+03
        -0.16958E+03
        -0.10841E+03
        -0.14777E+03
        -0.59954E+02
        -0.89583E+01
         0.96016E+01
         0.72006E+00
        -0.51189E+01
        -0.59386E+01
        -0.41127E+02
        -0.98163E+02
        -0.10195E+03
        -0.90228E+02
        -0.52609E+02
        -0.46219E+02
         0.82647E+01
        -0.18934E+02
        -0.11232E+02
         0.69037E+01
        -0.85993E+01
        -0.32355E+02
        -0.69130E+01
        -0.45893E+01
         0.67628E+01
         0.46398E+01
        -0.94825E+01
        -0.27967E+01
        -0.93154E+01
         0.89979E+00
         0.11914E+02
         0.17417E+01
         0.68371E+01
         0.70175E+01
         0.40736E+01
         0.18689E+02
        -0.12809E+02
        -0.33052E+01
        -0.48684E+01
        -0.24095E+01
         0.38487E+02
        -0.37787E+01
         0.24577E+02
         0.18299E+02
         0.22377E+01
         0.53453E+02
         0.32806E+01
        -0.25295E+01
         0.13283E+02
         0.57377E+01
        -0.23121E+02
        -0.93959E+01
        -0.10553E+02
         0.25960E+02
         0.30891E+02
         0.72278E+02
         0.23523E+01
         0.39126E+02
         0.11986E+02
        -0.49600E+01
        -0.46421E+01
        -0.77829E+01
        -0.61557E+01
        -0.36559E+01
        -0.15291E+02
        -0.36122E+02
        -0.54166E+02
        -0.43145E+02
         0.13939E+02
        -0.56160E+02
         0.28425E+02
         0.32195E+02
         0.24784E+02
         0.41456E+01
        -0.59593E+02
        -0.12014E+03
        -0.14196E+03
        -0.14713E+03
        -0.37777E+03
        -0.64982E+02
        -0.10045E+03
        -0.32885E+02
        -0.27556E+02
        -0.11254E+02
         0.63026E+00
        -0.24710E+00
        -0.32044E+01
        -0.15917E+01
        -0.39625E+02
        -0.88898E+02
        -0.10374E+03
        -0.88236E+02
        -0.54692E+02
        -0.15055E+02
         0.28600E+01
        -0.12280E+02
        -0.11257E+02
         0.96106E+01
        -0.17927E+02
        -0.12296E+02
        -0.57981E+01
         0.22201E+01
         0.16175E+02
         0.26011E+02
        -0.83119E+01
        -0.13965E+01
        -0.11065E+02
         0.63639E+01
         0.88342E+01
         0.74225E+01
         0.18377E+02
         0.51420E+01
         0.78317E+01
         0.26949E+02
         0.14678E+02
         0.53152E+02
         0.12831E+01
        -0.14334E+01
         0.30202E+02
        -0.53053E+01
         0.20428E+02
         0.21626E+02
         0.74104E+00
         0.47463E+02
         0.19509E+01
        -0.72489E+01
         0.85055E+01
        -0.13129E+02
        -0.13212E+02
        -0.24811E+02
        -0.21088E+02
         0.39353E+02
         0.65244E+02
         0.69865E+02
         0.18740E+02
         0.87549E+02
         0.61093E+02
        -0.27572E+01
        -0.86462E+01
        -0.12777E+02
        -0.22056E+02
        -0.26988E+02
        -0.26523E+02
        -0.42249E+02
        -0.57308E+02
        -0.32686E+02
        -0.37222E+01
        -0.38345E+02
         0.16923E+02
         0.11348E+02
         0.16549E+02
         0.30761E+02
         0.67287E+01
         0.48520E+02
         0.12953E+03
         0.20179E+03
         0.22082E+03
         0.22872E+03
         0.12341E+01
         0.39191E+02
         0.76586E+02
         0.42071E+02
         0.39573E+02
         0.22187E+02
        -0.34866E+01
        -0.24650E+02
        -0.34475E+02
        -0.68434E+02
        -0.89275E+02
        -0.98732E+02
        -0.95597E+02
        -0.73594E+02
        -0.92716E+01
        -0.16307E+02
        -0.29151E+02
        -0.21135E+02
        -0.39411E+02
        -0.45739E+02
        -0.11176E+02
         0.49834E+00
         0.31038E+01
         0.13485E+02
        -0.54061E+01
        -0.72561E+01
        -0.13551E+02
         0.84767E+01
        -0.29692E+02
        -0.33658E+01
         0.59743E+01
        -0.10790E+02
         0.82747E+01
         0.22944E+02
        -0.80200E+00
         0.69284E+01
        -0.58257E+01
        -0.40229E+01
         0.11095E+02
        -0.79182E+01
         0.33046E+02
         0.26187E+02
         0.20974E+02
         0.25757E+02
        -0.16829E+02
        -0.20909E+02
        -0.17634E+02
        -0.55041E+02
        -0.38194E+02
        -0.28716E+02
        -0.20877E+02
         0.98633E+01
         0.49549E+02
         0.25588E+02
         0.10855E+01
         0.90111E+02
         0.71141E+02
        -0.18425E+01
        -0.92155E+01
        -0.35715E+02
        -0.43527E+02
        -0.55356E+02
        -0.43199E+02
        -0.89942E+02
        -0.84161E+02
        -0.72434E+02
        -0.18047E+02
        -0.45964E+02
         0.20341E+01
        -0.16295E+02
         0.54207E+01
        -0.14379E+01
        -0.82171E+02
        -0.10689E+03
         0.10183E+03
        -0.11659E+03
        -0.84586E+02
        -0.39960E+02
        -0.92600E+02
        -0.32029E+02
         0.25989E+02
         0.31758E+02
         0.28771E+02
         0.96044E+00
        -0.36622E+02
        -0.54532E+02
        -0.89989E+02
        -0.11400E+03
        -0.11786E+03
        -0.11658E+03
        -0.93601E+02
        -0.52092E+02
        -0.91601E+01
        -0.95663E+01
        -0.32140E+02
        -0.39360E+02
        -0.62702E+02
        -0.65629E+02
        -0.25104E+01
         0.12120E+00
        -0.20336E+01
         0.59175E+00
        -0.27785E+01
        -0.11895E+02
        -0.86705E+01
        -0.91638E+00
        -0.16238E+02
        -0.11248E+02
         0.86670E+01
        -0.13951E+02
        -0.31736E+01
         0.14882E+02
        -0.66028E+01
         0.21440E+00
        -0.75461E+01
        -0.25215E+01
         0.23978E+02
        -0.21572E+02
         0.22769E+01
         0.19672E+02
         0.35367E+02
         0.28120E+02
        -0.43977E+02
        -0.33955E+02
        -0.75506E+02
        -0.69604E+02
        -0.45575E+02
        -0.34096E+02
        -0.12080E+02
         0.38439E+02
         0.29745E+02
         0.12533E+03
         0.11525E+03
         0.52568E+02
         0.42863E+02
        -0.12593E+02
        -0.29262E+02
        -0.54583E+02
        -0.75135E+02
        -0.10777E+03
        -0.44870E+02
        -0.72680E+02
        -0.95731E+02
        -0.10160E+03
        -0.31489E+02
        -0.53023E+02
        -0.21123E+02
        -0.96534E+01
         0.38294E+01
        -0.17022E+02
        -0.19122E+02
        -0.69657E+02
        -0.66039E+02
         0.26691E+02
         0.20091E+03
         0.89500E+02
         0.72056E+02
         0.75287E+01
         0.27766E+02
        -0.91971E+01
        -0.20363E+02
        -0.32735E+02
        -0.67818E+02
        -0.57777E+01
        -0.60935E+02
        -0.20410E+01
        -0.27068E+02
        -0.26273E+02
        -0.81023E+02
        -0.80826E+02
         0.32942E+02
         0.24638E+02
         0.11295E+02
         0.39360E+01
        -0.20101E+02
        -0.69479E+02
         0.20003E+02
         0.24602E+02
         0.13957E+02
         0.30205E+02
         0.19486E+02
         0.46518E+02
         0.28282E+02
         0.30700E+02
         0.63428E+02
         0.17705E+02
         0.26250E+02
         0.44787E+01
         0.17423E+02
         0.31273E+02
        -0.47162E+02
        -0.25610E+02
        -0.35059E+02
         0.67719E+00
         0.38271E+02
        -0.67034E+01
         0.43288E+02
         0.62998E+02
         0.88996E+02
         0.34556E+02
        -0.46922E+02
        -0.37902E+02
        -0.51145E+02
        -0.48636E+02
         0.12383E+02
         0.17528E+02
         0.14828E+02
         0.12440E+03
         0.19626E+03
         0.24415E+03
         0.28037E+03
         0.11431E+03
         0.40921E+02
        -0.36849E+02
        -0.47950E+02
        -0.68530E+02
        -0.82941E+02
        -0.96224E+02
        -0.12428E+03
        -0.10276E+03
        -0.10068E+03
        -0.91147E+02
         0.10586E+02
        -0.74496E+02
         0.38360E+02
         0.53099E+02
         0.64775E+02
         0.98219E+02
         0.11374E+03
         0.18128E+03
         0.31218E+03
         0.52386E+03
         0.46432E+03
         0.21166E+03
         0.22897E+02
        -0.37060E+03
        -0.35970E+03
        -0.19981E+03
        -0.57251E+02
        -0.49633E+02
        -0.89533E+02
        -0.13389E+03
        -0.13838E+03
        -0.11133E+03
        -0.91014E+02
        -0.91943E+02
        -0.12984E+03
        -0.14070E+03
         0.84075E+02
         0.11317E+03
         0.16189E+03
         0.12977E+03
         0.90893E+02
         0.48153E+02
         0.43674E+02
         0.28472E+02
        -0.11207E+02
        -0.42159E+02
         0.38625E+02
         0.62349E+02
         0.70955E+02
         0.48280E+02
         0.10811E+03
        -0.13610E+03
        -0.91246E+02
         0.23046E+02
        -0.17416E+03
        -0.16232E+03
        -0.51010E+03
        -0.64242E+03
        -0.34454E+03
        -0.16682E+03
         0.15549E+02
        -0.15972E+03
         0.26117E+02
        -0.51266E+02
        -0.97460E+02
        -0.15187E+03
        -0.63369E+02
        -0.10535E+03
         0.27881E+02
         0.65021E+02
         0.12976E+03
         0.15373E+03
         0.11723E+03
         0.16475E+03
         0.16673E+03
         0.53434E+02
        -0.75350E+02
        -0.45469E+03
        -0.61798E+03
        -0.23663E+03
        -0.14196E+03
        -0.83278E+02
        -0.84316E+02
        -0.49087E+02
         0.80483E+01
         0.72098E+02
         0.91675E+02
         0.65015E+02
         0.85568E+02
        -0.17192E+02
         0.16637E+03
         0.14827E+03
         0.10781E+03
         0.10165E+03
         0.19222E+03
         0.30865E+03
         0.37110E+03
         0.30762E+03
         0.43300E+02
        -0.59854E+03
        -0.12966E+04
        -0.15085E+04
        -0.11074E+04
        -0.56500E+03
        -0.19374E+03
        -0.97406E+02
        -0.64595E+02
        -0.53980E+02
         0.38757E+02
         0.19382E+03
         0.16395E+03
         0.86774E+02
        -0.67428E+01
        -0.55056E+02
        -0.10024E+03
        -0.14043E+03
        -0.18797E+03
        -0.15492E+03
        -0.10072E+03
        -0.56464E+01
        -0.65981E+02
        -0.19218E+02
         0.18162E+02
         0.74074E+02
        -0.46221E+02
        -0.52589E+02
        -0.81606E+02
        -0.11016E+02
        -0.59419E+02
         0.72294E+02
         0.15116E+03
        -0.44428E+02
         0.23775E+03
         0.27421E+03
         0.78936E+03
         0.10525E+04
         0.50025E+03
         0.19922E+03
         0.15624E+03
         0.12068E+03
         0.64630E+02
         0.15745E+03
         0.25802E+03
         0.28310E+03
         0.34501E+01
         0.10390E+03
        -0.71027E+02
        -0.61250E+02
        -0.12001E+03
        -0.15317E+03
        -0.12526E+03
        -0.61254E+02
        -0.76009E+02
        -0.89186E+01
         0.81230E+02
         0.62957E+03
         0.98380E+03
         0.36590E+03
         0.27616E+03
         0.28488E+03
         0.30032E+03
         0.28395E+03
         0.21019E+03
         0.17357E+03
         0.19564E+03
         0.67087E+02
        -0.98048E+02
        -0.29682E+02
        -0.14166E+03
        -0.93272E+02
        -0.47821E+02
        -0.43104E+02
        -0.10402E+03
        -0.23461E+03
        -0.38871E+03
        -0.37644E+03
        -0.12346E+03
         0.59013E+03
         0.15423E+04
         0.20130E+04
         0.16979E+04
         0.10913E+04
         0.63837E+03
         0.45008E+03
         0.41623E+03
         0.58124E+03
         0.66250E+03
         0.58704E+03
         0.40811E+03
         0.27867E+03
         0.18612E+03
  
SCALARS                         fint_y  double 1
LOOKUP_TABLE default
         0.18440E+03
        -0.97643E+03
        -0.20233E+03
        -0.60677E+03
         0.39190E+03
        -0.47033E+03
         0.21801E+03
         0.42201E+03
        -0.90173E+03
        -0.13161E+04
        -0.17258E+03
        -0.23208E+03
        -0.66755E+03
        -0.38825E+03
        -0.34866E+03
        -0.27217E+03
        -0.11852E+03
         0.13914E+03
        -0.15698E+03
         0.74112E+02
        -0.48203E+03
         0.48095E+03
         0.35407E+02
        -0.34145E+03
        -0.13534E+03
        -0.26837E+03
        -0.80690E+02
        -0.81890E+03
        -0.72001E+01
        -0.50793E+03
         0.62879E+02
         0.15143E+03
        -0.10556E+03
         0.42724E+02
         0.18251E+03
        -0.12655E+03
         0.47153E+02
         0.13477E+03
         0.40316E+02
         0.12535E+03
        -0.31769E+03
        -0.50011E+03
        -0.14202E+03
        -0.28455E+03
        -0.26898E+01
         0.88023E+02
         0.24139E+02
         0.38545E+02
         0.25677E+03
         0.14955E+03
         0.13460E+03
        -0.34152E+02
         0.43727E+03
         0.29195E+03
         0.10269E+04
         0.10010E+04
         0.19909E+04
        -0.25765E+03
         0.15894E+04
        -0.12372E+03
        -0.56396E+03
        -0.22001E+03
        -0.12678E+03
        -0.32439E+03
        -0.46289E+03
         0.26905E+03
        -0.13147E+04
         0.52045E+02
        -0.55219E+03
        -0.53106E+03
        -0.36676E+03
        -0.21550E+03
        -0.26525E+03
        -0.15827E+03
         0.73488E+04
         0.62878E+04
         0.11466E+05
         0.12984E+05
         0.78794E+04
         0.91543E+04
         0.38066E+04
         0.15696E+04
         0.33127E+04
         0.10052E+04
        -0.39624E+03
        -0.10646E+03
         0.25212E+03
         0.20286E+03
         0.10507E+03
        -0.18159E+02
        -0.15283E+03
        -0.18341E+03
        -0.24345E+03
        -0.31276E+03
        -0.96548E+03
         0.67420E+02
        -0.28001E+04
        -0.19162E+03
        -0.27982E+04
        -0.38403E+03
        -0.79400E+03
        -0.17573E+04
        -0.28911E+03
        -0.29232E+03
        -0.40650E+03
         0.40420E+02
        -0.81684E+03
        -0.96987E+03
         0.17092E+03
         0.77239E+01
         0.16093E+04
         0.14373E+04
         0.32439E+04
         0.30380E+04
         0.35874E+04
         0.25723E+04
         0.32552E+04
         0.42290E+03
        -0.21697E+04
        -0.83892E+04
        -0.21281E+05
        -0.38707E+05
        -0.18769E+05
        -0.28590E+05
        -0.11023E+04
        -0.46817E+03
         0.21360E+04
         0.14699E+04
         0.13622E+04
         0.10232E+04
         0.11343E+04
         0.72569E+03
         0.82465E+03
         0.48149E+03
         0.56184E+03
         0.45229E+03
         0.31944E+03
         0.60344E+03
         0.10796E+03
         0.59679E+03
        -0.25286E+03
         0.34355E+02
        -0.12367E+04
        -0.18508E+03
        -0.10495E+04
        -0.35332E+03
        -0.12701E+04
        -0.71191E+03
         0.34105E+04
        -0.46416E+03
         0.55510E+04
        -0.31487E+03
         0.44081E+04
        -0.62170E+03
         0.16987E+04
        -0.95638E+03
        -0.11533E+04
        -0.83929E+03
        -0.29634E+04
        -0.55639E+04
        -0.16549E+04
        -0.36242E+04
        -0.51334E+03
        -0.29857E+03
         0.57639E+02
        -0.18693E+03
        -0.20695E+03
         0.35176E+03
        -0.10438E+03
        -0.24289E+03
         0.15801E+04
         0.17629E+02
        -0.15844E+03
        -0.87471E+03
         0.59930E+02
        -0.43727E+03
        -0.82906E+03
        -0.12921E+04
        -0.66495E+02
         0.36579E+03
         0.54848E+02
         0.54907E+03
         0.38085E+03
         0.11093E+04
         0.90598E+03
        -0.47104E+03
        -0.16842E+04
         0.10987E+03
        -0.48756E+04
        -0.69645E+04
        -0.50134E+03
        -0.91513E+03
        -0.25649E+03
         0.54568E+04
         0.74360E+04
         0.52924E+04
         0.28799E+04
         0.11194E+04
        -0.80564E+03
         0.23688E+03
         0.19926E+03
         0.14284E+02
        -0.10285E+04
        -0.36853E+04
        -0.67437E+04
        -0.59635E+04
        -0.14508E+04
        -0.36700E+04
         0.99804E+03
         0.36301E+04
         0.76548E+03
         0.99096E+03
         0.17601E+04
         0.24057E+04
         0.31775E+04
         0.29038E+04
        -0.56974E+04
        -0.63666E+04
         0.13018E+04
         0.26757E+04
         0.22876E+04
         0.19465E+04
         0.12569E+04
         0.46493E+03
        -0.30720E+03
        -0.10821E+04
        -0.88922E+03
        -0.28553E+04
        -0.58561E+04
        -0.29304E+04
         0.99794E+04
         0.17191E+05
         0.16050E+05
         0.94378E+04
        -0.44188E+03
        -0.15063E+03
        -0.22361E+04
        -0.33688E+04
        -0.15204E+04
        -0.26699E+04
        -0.16811E+02
        -0.28894E+02
         0.15878E+02
        -0.15314E+03
        -0.68566E+02
        -0.13792E+03
        -0.36510E+03
        -0.16567E+03
         0.27825E+02
         0.14935E+03
        -0.12579E+03
        -0.10106E+04
        -0.31534E+03
        -0.72310E+03
        -0.92293E+03
        -0.12737E+04
        -0.33901E+03
         0.28105E+02
        -0.40988E+03
         0.34095E+03
        -0.13324E+03
        -0.23971E+03
        -0.36431E+02
        -0.47337E+03
        -0.62103E+03
         0.23878E+03
        -0.49371E+04
        -0.65487E+04
        -0.23556E+03
        -0.72826E+03
        -0.43773E+03
         0.12010E+03
         0.13565E+04
         0.18715E+04
         0.19624E+04
         0.31775E+03
        -0.84341E+03
        -0.10129E+03
         0.22512E+01
        -0.57050E+02
        -0.82211E+03
        -0.36266E+04
        -0.44998E+04
        -0.43590E+04
        -0.16821E+03
        -0.24926E+04
         0.18510E+04
         0.55103E+04
         0.67654E+03
        -0.95021E+02
        -0.41217E+03
        -0.41677E+03
         0.59619E+03
         0.22144E+04
         0.29083E+04
         0.25629E+04
         0.20129E+04
         0.22765E+04
         0.22235E+04
         0.20651E+04
         0.12710E+04
         0.12520E+03
        -0.74215E+03
        -0.10358E+04
        -0.77680E+03
        -0.23892E+04
        -0.37234E+04
        -0.27336E+04
         0.78579E+04
         0.14222E+05
         0.10491E+05
         0.82267E+04
        -0.58321E+01
         0.30659E+02
        -0.73925E+03
        -0.16017E+04
         0.89748E+02
        -0.14129E+03
        -0.37304E+02
        -0.11918E+03
        -0.19199E+03
        -0.44019E+03
        -0.60065E+02
        -0.28006E+03
        -0.15882E+03
        -0.32470E+03
        -0.63139E+03
        -0.14049E+03
        -0.34169E+03
        -0.60636E+03
        -0.44837E+03
        -0.79712E+03
        -0.12392E+04
        -0.17897E+04
        -0.56629E+03
        -0.26907E+03
        -0.69430E+03
        -0.15216E+03
        -0.66836E+03
        -0.86654E+03
        -0.35748E+03
        -0.90156E+03
        -0.62701E+03
        -0.16713E+03
        -0.17551E+04
        -0.12182E+04
         0.50851E+02
        -0.62769E+02
         0.48462E+02
        -0.80433E+03
        -0.60070E+03
         0.44972E+03
         0.85667E+03
         0.38675E+03
        -0.14209E+04
        -0.28389E+03
        -0.11414E+03
        -0.44039E+02
        -0.36466E+03
        -0.12124E+04
        -0.78388E+03
        -0.13045E+04
        -0.82206E+03
        -0.74179E+03
         0.66470E+03
         0.26780E+04
         0.21929E+03
        -0.13678E+03
        -0.38769E+03
        -0.45724E+03
        -0.15633E+03
         0.49047E+03
         0.16077E+04
         0.22068E+04
         0.21473E+04
         0.19188E+04
         0.29782E+04
         0.23250E+04
         0.14186E+04
         0.62419E+03
         0.61521E+02
        -0.13757E+02
         0.58584E+02
        -0.44267E+03
        -0.15673E+04
        -0.99768E+03
         0.15925E+04
         0.38504E+04
         0.49307E+04
         0.41919E+04
        -0.53559E+02
        -0.24010E+01
        -0.21405E+02
         0.15800E+03
        -0.10455E+02
        -0.94904E+00
         0.26927E+01
        -0.16197E+03
        -0.16448E+03
        -0.44906E+03
        -0.10812E+03
        -0.25830E+03
        -0.32443E+02
        -0.37205E+03
        -0.68241E+03
        -0.12526E+03
        -0.32220E+03
         0.23539E+03
        -0.32636E+03
        -0.53788E+03
        -0.93891E+03
        -0.15180E+04
        -0.39272E+03
        -0.20577E+03
        -0.65540E+03
        -0.17803E+03
        -0.82612E+03
        -0.12827E+04
        -0.10890E+04
        -0.74759E+03
         0.26540E+03
        -0.19576E+02
         0.57504E+03
         0.40094E+03
        -0.75710E+02
         0.21034E+02
         0.58877E+02
        -0.11857E+04
        -0.12402E+04
        -0.63164E+03
         0.43741E+03
        -0.58380E+03
        -0.14812E+04
        -0.19004E+03
         0.18032E+01
         0.94072E+02
         0.20363E+03
         0.42501E+03
         0.30657E+03
        -0.10223E+03
        -0.48101E+03
        -0.18445E+03
        -0.32731E+03
        -0.12831E+03
        -0.80325E+02
        -0.17967E+03
        -0.29568E+03
        -0.55621E+03
        -0.63969E+03
        -0.27083E+03
         0.10241E+04
         0.26677E+04
         0.29362E+04
         0.31277E+04
         0.27192E+04
         0.19594E+04
         0.11284E+04
         0.65314E+03
         0.44325E+03
         0.37497E+03
         0.29964E+03
         0.41580E+03
         0.30463E+03
        -0.22199E+03
        -0.12415E+04
        -0.15696E+04
        -0.12594E+04
        -0.75060E+03
         0.10713E+03
         0.13636E+03
         0.17456E+03
         0.34782E+03
         0.32569E+02
         0.79454E+02
         0.58342E+01
        -0.97217E+02
        -0.61643E+02
        -0.24671E+03
        -0.38622E+02
        -0.10844E+03
         0.44114E+02
        -0.24535E+03
        -0.49768E+03
        -0.29055E+02
        -0.21745E+03
         0.25515E+03
        -0.19625E+03
        -0.30465E+03
        -0.55921E+03
        -0.10314E+04
        -0.19441E+03
        -0.97865E+02
        -0.46621E+03
        -0.44115E+02
        -0.43322E+03
        -0.73897E+03
        -0.91426E+03
        -0.47382E+03
         0.31595E+03
         0.80268E+02
         0.56021E+03
         0.47433E+03
         0.13151E+01
         0.53701E+02
         0.80552E+02
        -0.82116E+03
        -0.95720E+03
        -0.90088E+03
        -0.19887E+03
        -0.73237E+03
        -0.12447E+04
        -0.57027E+02
         0.31178E+02
         0.65041E+02
         0.19631E+03
         0.39439E+03
         0.35851E+03
         0.25577E+03
        -0.16590E+03
         0.66462E+02
        -0.24797E+03
        -0.52956E+03
        -0.64120E+02
        -0.34663E+02
        -0.62553E+02
        -0.28772E+03
        -0.68526E+03
        -0.64465E+03
         0.84433E+03
         0.22369E+04
         0.20905E+04
         0.18909E+04
         0.17385E+04
         0.11960E+04
         0.62754E+03
         0.29300E+03
         0.17611E+03
         0.92393E+02
         0.78415E+02
         0.27395E+03
         0.38800E+03
        -0.69914E+02
        -0.71900E+03
        -0.10729E+04
        -0.12176E+04
        -0.82066E+03
         0.37546E+02
         0.53675E+02
         0.98152E+02
         0.14723E+03
         0.78794E+02
         0.12584E+03
         0.12587E+02
        -0.30293E+02
        -0.28404E+02
        -0.12593E+03
        -0.97190E+01
        -0.58072E+02
         0.13763E+02
        -0.82204E+02
        -0.18682E+03
        -0.84090E+01
        -0.81783E+02
         0.82847E+02
        -0.60559E+02
        -0.12124E+03
        -0.21256E+03
        -0.47154E+03
        -0.55079E+02
        -0.21391E+02
        -0.21491E+03
         0.30637E+01
        -0.17683E+03
        -0.33894E+03
        -0.33418E+03
        -0.21653E+03
         0.12902E+03
         0.67578E+02
         0.18901E+03
         0.10439E+03
         0.24475E+02
         0.44510E+02
         0.38387E+02
        -0.52635E+03
        -0.72369E+03
        -0.48124E+03
        -0.10059E+02
        -0.33037E+03
        -0.51845E+03
         0.39783E+01
         0.25061E+02
         0.41974E+02
         0.71158E+02
         0.13416E+03
         0.17107E+03
         0.16984E+03
         0.17523E+02
         0.13124E+03
        -0.50150E+02
        -0.20344E+03
        -0.69262E+01
         0.36342E+01
        -0.34628E+02
        -0.97819E+02
        -0.31259E+03
        -0.37652E+03
         0.72159E+02
         0.11021E+04
         0.14352E+04
         0.14417E+04
         0.10222E+04
         0.59904E+03
         0.21124E+03
         0.36315E+02
        -0.23059E+02
        -0.52748E+02
        -0.32947E+02
         0.37312E+02
         0.11689E+03
         0.38693E+02
        -0.18166E+03
        -0.25883E+03
        -0.37238E+03
        -0.36574E+03
         0.55746E+02
         0.35497E+02
         0.10480E+03
         0.13336E+03
         0.47380E+02
         0.78620E+02
         0.21690E+02
         0.50743E+01
        -0.15914E+02
        -0.38907E+02
         0.16013E+02
        -0.24197E+02
         0.13129E+02
        -0.66342E+01
        -0.59056E+02
         0.69818E+01
        -0.48659E+02
         0.27845E+02
        -0.11569E+02
        -0.44390E+02
        -0.25936E+02
        -0.64238E+02
         0.16025E+02
         0.92942E+01
        -0.74643E+02
         0.32653E+02
        -0.83060E+02
        -0.17994E+03
        -0.16460E+03
        -0.12487E+03
         0.59394E+02
         0.27224E+02
         0.84638E+02
         0.76960E+02
         0.25003E+02
         0.52226E+02
         0.48308E+02
        -0.22688E+03
        -0.26744E+03
        -0.22098E+03
        -0.25691E+02
        -0.87752E+01
        -0.18830E+02
         0.12646E+02
         0.17498E+02
         0.12153E+02
         0.36163E+02
         0.45994E+02
         0.31075E+02
         0.41038E+02
         0.28016E+01
         0.25908E+02
        -0.34628E+02
        -0.16953E+03
         0.43717E+01
        -0.15380E+02
        -0.41855E+01
        -0.19142E+02
        -0.15206E+03
        -0.22547E+03
         0.36578E+02
         0.36862E+03
         0.66336E+03
         0.74172E+03
         0.39165E+03
         0.91931E+02
        -0.20916E+02
        -0.62406E+02
        -0.70150E+02
        -0.15904E+02
         0.11539E+01
         0.98071E+01
         0.61941E+01
         0.36619E+01
        -0.33295E+02
        -0.98546E+02
        -0.18571E+03
        -0.22694E+03
         0.43999E+02
         0.44509E+02
         0.96353E+02
         0.10848E+03
         0.63467E+01
         0.41474E+02
         0.18148E+02
         0.96261E+01
         0.16426E+02
         0.17640E+00
         0.23823E+02
         0.86372E+01
         0.18995E+02
         0.12480E+02
         0.86494E+01
         0.19360E+02
        -0.54220E+01
         0.31464E+02
         0.20313E+02
         0.25920E+02
         0.96465E+02
         0.14186E+03
         0.38937E+02
         0.11933E+02
        -0.23312E+02
         0.19457E+02
         0.51496E+01
        -0.83186E+01
        -0.16771E+02
         0.24499E+02
         0.73826E+02
         0.46677E+02
         0.10332E+03
         0.84434E+02
         0.42969E+01
         0.27844E+02
         0.23036E+02
        -0.63789E+02
        -0.63794E+02
         0.23933E+01
         0.38103E+02
         0.15429E+02
         0.72066E+02
         0.99237E+01
         0.64726E+01
         0.21840E+02
         0.40561E+02
         0.51776E+02
         0.12794E+02
        -0.57263E+01
         0.18541E+01
         0.24497E+02
        -0.83981E+02
        -0.15940E+03
        -0.29236E+02
        -0.27927E+02
        -0.96780E+01
        -0.30575E+02
        -0.67714E+02
        -0.98065E+02
        -0.27046E+02
         0.14446E+03
         0.21596E+03
        -0.52924E+02
        -0.12972E+03
        -0.24995E+03
        -0.35102E+02
        -0.53514E+02
        -0.45860E+02
        -0.48284E+02
        -0.19913E+02
         0.43868E+01
         0.12076E+02
        -0.25659E+02
        -0.78994E+02
        -0.13272E+03
        -0.19432E+03
        -0.17490E+03
         0.29877E+02
         0.35988E+02
         0.74447E+02
         0.80408E+02
         0.20711E+02
         0.45071E+02
         0.17013E+02
         0.17041E+02
         0.27452E+02
         0.18199E+02
         0.21444E+02
         0.24350E+02
         0.21697E+02
         0.25700E+02
         0.22702E+02
         0.12659E+02
         0.59042E+01
         0.14330E+02
         0.14723E+02
         0.30604E+02
         0.13445E+03
         0.25783E+03
         0.50814E+02
         0.27594E+02
         0.34226E+02
         0.15752E+02
         0.31403E+02
         0.56402E+02
         0.31509E+02
         0.36861E+02
         0.57111E+02
         0.15858E+02
         0.65801E+02
         0.64700E+02
         0.56944E+01
         0.21231E+02
         0.24968E+02
         0.24125E+02
         0.49630E+02
         0.30121E+02
         0.79422E+01
         0.15552E+03
         0.13973E+03
         0.62074E+01
         0.11470E+02
         0.12398E+02
         0.29430E+02
         0.32129E+02
         0.19595E+02
         0.13204E+02
        -0.31553E+02
         0.35777E+01
        -0.49031E+02
        -0.10587E+03
        -0.35664E+02
        -0.13738E+02
         0.60865E+01
         0.76079E+01
        -0.17533E+02
        -0.13460E+02
        -0.48051E+02
        -0.82519E+02
        -0.21915E+03
        -0.45751E+03
        -0.26355E+03
        -0.18681E+03
        -0.83444E+02
        -0.54172E+02
        -0.56944E+02
        -0.30020E+02
        -0.12202E+02
         0.12903E+02
         0.19465E+02
        -0.31548E+02
        -0.77886E+02
        -0.10518E+03
        -0.11520E+03
        -0.12223E+03
         0.21939E+02
         0.47656E+02
         0.97122E+02
         0.11878E+03
         0.47144E+02
         0.85537E+02
         0.17209E+02
         0.17062E+02
         0.16317E+02
         0.26277E+02
         0.22189E+02
         0.29803E+02
         0.27056E+02
         0.29247E+02
         0.59809E+02
         0.30405E+02
         0.20323E+02
         0.52839E+02
         0.42688E+02
         0.73977E+02
         0.14188E+03
         0.29960E+03
         0.40909E+02
         0.24050E+02
         0.28411E+02
         0.35353E+02
         0.39850E+02
         0.54467E+02
         0.10821E+03
         0.10985E+03
         0.82687E+02
         0.46789E+02
         0.10735E+03
         0.12426E+03
         0.72983E+01
         0.44555E+02
         0.30189E+02
         0.11874E+03
         0.15999E+03
         0.15278E+03
         0.20236E+02
         0.14145E+03
         0.37344E+03
         0.33663E+02
         0.22365E+02
         0.26773E+02
         0.56233E+02
         0.82513E+02
         0.87442E+02
         0.62431E+02
        -0.11223E+02
         0.57541E+02
        -0.77604E+02
        -0.19829E+03
        -0.64039E+02
        -0.46479E+02
        -0.20218E+02
        -0.39650E+01
         0.32729E+02
         0.27446E+02
        -0.28425E+02
        -0.15993E+03
        -0.24163E+03
        -0.30677E+03
        -0.67312E+03
        -0.45407E+03
        -0.24383E+03
        -0.12837E+03
        -0.81840E+02
        -0.52912E+02
        -0.79666E+01
         0.36212E+02
         0.43115E+02
        -0.50400E+02
        -0.18091E+03
        -0.22339E+03
        -0.17548E+03
        -0.16267E+03
         0.33770E+02
         0.32923E+02
         0.48467E+02
         0.58817E+02
         0.19190E+02
         0.42247E+02
         0.76517E+01
         0.18452E+02
         0.85568E+01
         0.31887E+02
         0.29566E+02
         0.29463E+02
         0.31457E+02
         0.31723E+02
         0.55517E+02
         0.22759E+02
         0.25955E+02
         0.44446E+02
         0.41651E+02
         0.87119E+02
         0.17361E+03
         0.34439E+03
         0.58127E+02
         0.27486E+02
         0.41987E+02
         0.27808E+02
         0.68521E+02
         0.83061E+02
         0.13708E+03
         0.98940E+02
         0.61199E+02
         0.33786E+02
         0.90808E+02
         0.69379E+02
        -0.49375E+01
         0.59469E+01
         0.19535E+02
         0.75823E+02
         0.11163E+03
         0.11535E+03
         0.11883E+02
         0.13598E+03
         0.43043E+03
         0.41155E+02
         0.18123E+02
         0.31157E+02
         0.65723E+02
         0.87738E+02
         0.75415E+02
         0.60098E+02
         0.14812E+02
         0.70675E+02
        -0.68559E+02
        -0.15816E+03
        -0.58659E+02
        -0.54044E+02
         0.34308E+01
         0.12739E+02
         0.47241E+02
         0.95139E+02
        -0.67898E+02
        -0.20314E+03
        -0.48738E+03
        -0.60588E+03
        -0.71120E+03
        -0.45006E+03
        -0.18684E+03
        -0.99425E+02
        -0.39534E+02
        -0.30169E+02
        -0.78282E+01
         0.19229E+02
         0.19020E+02
        -0.96799E+02
        -0.17983E+03
        -0.20996E+03
        -0.23314E+03
        -0.21176E+03
         0.44243E+02
         0.33919E+02
         0.95368E+02
         0.65564E+02
         0.78101E+01
         0.58343E+02
         0.11167E+02
         0.17705E+02
         0.14214E+02
         0.22905E+02
         0.36682E+02
         0.33946E+02
         0.37203E+02
         0.34971E+02
         0.72388E+02
         0.34906E+02
         0.32557E+02
         0.51946E+02
         0.40088E+02
         0.88969E+02
         0.15027E+03
         0.25270E+03
         0.28478E+02
         0.18982E+02
         0.87875E+02
         0.31076E+02
         0.57683E+02
         0.10938E+03
         0.15320E+03
         0.13776E+03
         0.59584E+02
         0.40228E+02
         0.12388E+03
         0.98566E+02
        -0.63208E+01
         0.43804E+02
         0.36156E+02
         0.12915E+03
         0.19683E+03
         0.11964E+03
        -0.52493E+01
         0.20204E+03
         0.51896E+03
         0.25179E+02
         0.25915E+02
         0.24604E+02
         0.47441E+02
         0.66304E+02
         0.67042E+02
         0.68341E+02
         0.16043E+02
         0.75387E+02
        -0.11862E+03
        -0.19801E+03
        -0.63246E+02
        -0.29461E+02
         0.37025E+01
         0.34721E+02
         0.65685E+02
         0.13932E+03
         0.28691E+02
        -0.33453E+03
        -0.65298E+03
        -0.71006E+03
        -0.88686E+03
        -0.52204E+03
        -0.16730E+03
        -0.95998E+02
        -0.48163E+02
        -0.31101E+02
        -0.83891E+01
         0.64511E+01
        -0.92188E+01
        -0.72454E+02
        -0.13568E+03
        -0.17542E+03
        -0.16586E+03
        -0.16601E+03
         0.41955E+02
         0.49739E+02
         0.11434E+03
         0.14270E+03
         0.52822E+02
         0.90902E+02
         0.14098E+02
         0.19849E+02
         0.20500E+02
         0.33180E+02
         0.24990E+02
         0.25475E+02
         0.37017E+02
         0.63375E+02
         0.11162E+03
         0.25502E+02
         0.29015E+02
         0.32315E+02
         0.27473E+02
         0.61026E+02
         0.10624E+03
         0.20924E+03
         0.28078E+02
         0.17656E+02
         0.65141E+02
         0.21703E+02
         0.64839E+02
         0.12800E+03
         0.15059E+03
         0.13865E+03
         0.74083E+02
         0.41014E+02
         0.10185E+03
         0.10169E+03
         0.10801E+02
         0.47040E+02
         0.50397E+02
         0.18092E+03
         0.28722E+03
         0.23647E+03
         0.35175E+02
         0.27702E+03
         0.51397E+03
         0.24692E+02
         0.22426E+02
         0.20023E+02
         0.40413E+02
         0.53534E+02
         0.34599E+02
         0.82260E+02
        -0.36013E+01
         0.52781E+02
        -0.10343E+03
        -0.21582E+03
        -0.48788E+02
        -0.22444E+02
        -0.11992E+02
         0.26097E+02
         0.11319E+03
         0.17244E+02
        -0.17576E+03
        -0.41186E+03
        -0.48479E+03
        -0.71306E+03
        -0.92126E+03
        -0.58292E+03
        -0.28652E+03
        -0.11045E+03
        -0.55072E+02
        -0.26374E+02
         0.43848E+01
         0.15032E+02
        -0.10076E+02
        -0.56668E+02
        -0.16289E+03
        -0.20264E+03
        -0.16679E+03
        -0.24201E+03
         0.34106E+02
         0.47820E+02
         0.91388E+02
         0.10755E+03
         0.44972E+02
         0.53893E+02
         0.13913E+02
         0.25815E+02
         0.20063E+02
         0.18973E+02
         0.24927E+02
         0.37561E+02
         0.32171E+02
         0.40017E+02
         0.97646E+02
         0.30072E+02
         0.23009E+02
         0.38499E+02
         0.50136E+02
         0.95092E+02
         0.16220E+03
         0.36542E+03
         0.62533E+02
         0.26781E+02
         0.62988E+02
         0.31643E+02
         0.34972E+02
         0.67791E+02
         0.15912E+03
         0.15653E+03
         0.63871E+02
         0.38305E+02
         0.11347E+03
         0.75757E+02
         0.19626E+02
         0.38438E+02
         0.41273E+02
         0.16481E+03
         0.20438E+03
         0.13264E+03
        -0.55323E+01
         0.12918E+03
         0.52611E+03
         0.49495E+02
         0.30897E+02
         0.26421E+02
         0.48702E+02
         0.71989E+02
         0.58042E+02
         0.62529E+02
         0.11900E+02
         0.64701E+02
        -0.87957E+02
        -0.23943E+03
        -0.49202E+01
        -0.76296E+01
        -0.60275E+01
         0.45499E+02
         0.14259E+03
         0.12587E+03
        -0.77334E+02
        -0.47657E+03
        -0.57266E+03
        -0.47565E+03
        -0.70830E+03
        -0.44784E+03
        -0.23540E+03
        -0.11742E+03
        -0.44317E+02
        -0.13490E+02
        -0.72016E+01
         0.11899E+02
        -0.16062E+02
        -0.67852E+02
        -0.15969E+03
        -0.19807E+03
        -0.28012E+03
        -0.32451E+03
         0.47087E+02
         0.32546E+02
         0.10079E+03
         0.13038E+03
         0.40602E+02
         0.69499E+02
         0.13772E+02
         0.50204E+01
         0.16153E+02
         0.19135E+02
         0.28233E+02
         0.29589E+02
         0.21862E+02
         0.32432E+02
         0.85830E+02
         0.33301E+02
         0.17952E+02
         0.42828E+02
         0.18650E+02
         0.62637E+02
         0.62398E+02
         0.17645E+03
         0.17381E+02
         0.17048E+02
         0.69630E+02
         0.33268E+02
         0.52500E+02
         0.13420E+03
         0.23372E+03
         0.14408E+03
         0.59984E+02
         0.44598E+02
         0.93530E+02
         0.10248E+03
         0.64934E+01
         0.41412E+02
         0.33337E+02
         0.14914E+03
         0.20953E+03
         0.19153E+03
         0.96301E+02
         0.22945E+03
         0.29973E+03
         0.29818E+02
         0.30631E+02
         0.28455E+02
         0.47468E+02
         0.58638E+02
         0.91827E+02
         0.74008E+02
        -0.81176E+00
         0.50542E+02
        -0.93723E+02
        -0.19479E+03
        -0.45303E+02
        -0.26797E+02
        -0.20258E+01
         0.40408E+02
         0.11483E+03
         0.34758E+02
        -0.98976E+02
        -0.13838E+03
        -0.39169E+03
        -0.62634E+03
        -0.57047E+03
        -0.31526E+03
        -0.12858E+03
        -0.69281E+02
        -0.31752E+02
        -0.14564E+02
        -0.34684E+01
         0.12959E+02
        -0.94555E+01
        -0.69101E+02
        -0.12312E+03
        -0.17608E+03
        -0.19882E+03
        -0.27597E+03
         0.37611E+02
         0.32587E+02
         0.69341E+02
         0.68317E+02
         0.32743E+02
         0.60236E+02
         0.14304E+02
         0.31895E+02
         0.19464E+02
         0.28328E+02
         0.38066E+02
         0.44600E+02
         0.26573E+02
         0.55171E+02
         0.10257E+03
         0.46334E+02
         0.33695E+02
         0.43249E+02
         0.39100E+02
         0.76476E+02
         0.10965E+03
         0.26694E+03
         0.42541E+02
         0.24222E+02
         0.52019E+02
         0.39190E+02
         0.76192E+02
         0.12400E+03
         0.15925E+03
         0.11941E+03
         0.72661E+02
         0.49161E+02
         0.90967E+02
         0.86942E+02
        -0.49991E+01
         0.13919E+02
         0.91208E+01
         0.17359E+03
         0.22921E+03
         0.24679E+03
         0.10884E+03
         0.28994E+03
         0.45441E+03
         0.20082E+02
         0.19346E+02
         0.27886E+02
         0.53479E+02
         0.24643E+02
         0.39209E+02
         0.40828E+01
        -0.29850E+02
         0.13655E+02
        -0.93577E+02
        -0.19763E+03
        -0.27504E+02
        -0.27527E+02
        -0.19010E+01
         0.45223E+02
         0.80206E+02
         0.10672E+03
        -0.71656E+02
        -0.42682E+03
        -0.66474E+03
        -0.62447E+03
        -0.86113E+03
        -0.46932E+03
        -0.14881E+03
        -0.74251E+02
        -0.21987E+02
        -0.15665E+02
        -0.59236E+01
         0.35137E+01
        -0.29846E+00
        -0.66700E+02
        -0.14977E+03
        -0.19465E+03
        -0.25571E+03
        -0.17961E+03
         0.64483E+02
         0.36054E+02
         0.10861E+03
         0.12772E+03
         0.22971E+02
         0.19579E+02
         0.17180E+02
         0.17199E+02
         0.18543E+02
         0.21028E+02
         0.31456E+02
         0.52840E+02
         0.31659E+02
         0.40751E+02
         0.10838E+03
         0.27378E+02
         0.47104E+02
         0.35541E+02
         0.42202E+02
         0.10356E+03
         0.16016E+03
         0.34392E+03
         0.57045E+02
         0.36462E+02
         0.75310E+02
         0.27962E+02
         0.72308E+02
         0.97793E+02
         0.14983E+03
         0.14427E+03
         0.43849E+02
         0.39237E+02
         0.77857E+02
         0.54369E+02
         0.43799E+01
         0.20172E+02
         0.35604E+02
         0.20249E+03
         0.29724E+03
         0.32131E+03
         0.10781E+03
         0.30231E+03
         0.41428E+03
         0.44488E+02
         0.23713E+02
         0.10963E+02
         0.21001E+02
         0.58436E+02
         0.47709E+02
         0.29387E+02
        -0.22283E+02
         0.26071E+02
        -0.95178E+02
        -0.12156E+03
        -0.57153E+02
        -0.32269E+02
         0.12434E+02
         0.41115E+02
         0.13091E+03
         0.14487E+03
        -0.10886E+03
        -0.50850E+03
        -0.77757E+03
        -0.86718E+03
        -0.92461E+03
        -0.57348E+03
        -0.24082E+03
        -0.95419E+02
        -0.17275E+02
        -0.89916E+01
        -0.10253E+02
        -0.51817E+01
        -0.20790E+02
        -0.84360E+02
        -0.12035E+03
        -0.13730E+03
        -0.17180E+03
        -0.16661E+03
         0.22364E+02
         0.33753E+02
         0.57414E+02
         0.73209E+02
         0.24426E+02
         0.41220E+02
         0.99298E+01
         0.23544E+02
         0.20005E+02
         0.24094E+02
         0.23439E+02
         0.49075E+02
         0.32967E+02
         0.58336E+02
         0.10578E+03
         0.37551E+02
         0.43188E+02
         0.14205E+02
         0.50894E+02
         0.88908E+02
         0.20709E+03
         0.38579E+03
         0.68767E+02
         0.35739E+02
         0.77622E+02
         0.43460E+02
         0.83388E+02
         0.14149E+03
         0.20607E+03
         0.17787E+03
         0.51128E+02
         0.38417E+02
         0.48202E+02
         0.51712E+02
         0.57698E+01
         0.38384E+02
         0.35946E+02
         0.18823E+03
         0.30552E+03
         0.28546E+03
         0.15846E+03
         0.27857E+03
         0.51263E+03
         0.44909E+02
         0.24441E+02
         0.13083E+02
         0.23909E+02
         0.28776E+02
         0.34024E+02
         0.13537E+02
        -0.15419E+02
         0.11608E+02
        -0.53335E+02
        -0.13185E+03
        -0.40859E+02
        -0.27103E+02
         0.20827E+02
         0.51026E+02
         0.42697E+02
         0.56968E+02
         0.54118E+02
        -0.48099E+03
        -0.75458E+03
        -0.91670E+03
        -0.97401E+03
        -0.57331E+03
        -0.26275E+03
        -0.14198E+03
        -0.66878E+02
        -0.44684E+02
        -0.29920E+02
        -0.14509E+02
        -0.25704E+02
        -0.40502E+02
        -0.90882E+02
        -0.10727E+03
        -0.14473E+03
        -0.15991E+03
         0.67353E+00
         0.18230E+02
         0.19913E+02
         0.11366E+02
         0.63042E+01
         0.65534E+01
         0.10995E+02
         0.20059E+02
        -0.27277E+00
         0.37883E+02
         0.23358E+02
         0.29576E+02
         0.13843E+02
         0.69581E+02
         0.11175E+03
         0.99622E+01
         0.34266E+02
        -0.99335E+01
         0.22214E+02
         0.10693E+03
         0.15011E+03
         0.30349E+03
         0.47586E+02
         0.23024E+02
         0.50047E+02
         0.17145E+02
         0.62455E+02
         0.10431E+03
         0.11098E+03
         0.10000E+03
         0.21024E+02
         0.24801E+02
         0.12933E+02
         0.10912E+01
         0.62579E+01
         0.18793E+02
         0.97947E+01
         0.14321E+03
         0.21622E+03
         0.31779E+03
         0.48087E+02
         0.21281E+02
         0.22294E+03
         0.15113E+02
         0.46783E+01
         0.42728E+01
         0.80887E+01
         0.10733E+01
        -0.19883E+02
        -0.11472E+02
        -0.67784E+01
         0.13847E+02
         0.78143E-01
        -0.40279E+02
        -0.60210E+01
        -0.21280E+02
         0.80215E+01
         0.35095E+02
         0.12546E+03
         0.14908E+03
        -0.99236E+01
        -0.50960E+03
        -0.88438E+03
        -0.10263E+04
        -0.41300E+03
        -0.26549E+03
        -0.14576E+03
        -0.13711E+03
        -0.70817E+02
        -0.60129E+02
        -0.40313E+02
        -0.32261E+02
        -0.18724E+02
        -0.35721E+01
        -0.54025E+01
        -0.88122E+01
        -0.32497E+02
        -0.10566E+03
        -0.42622E+01
        -0.31724E+02
        -0.12704E+02
        -0.47098E+02
         0.27509E+01
         0.97494E+01
         0.12161E+02
         0.25574E+02
        -0.52961E+01
         0.22087E+02
         0.40067E+02
         0.40516E+02
         0.95775E+01
         0.42290E+02
         0.10820E+03
        -0.13039E+01
         0.14133E+02
        -0.41591E+02
         0.60689E+01
         0.59943E+02
         0.78188E+02
         0.24023E+03
         0.36621E+02
         0.32174E+01
         0.63573E+02
         0.10112E+02
         0.87779E+02
         0.16062E+03
         0.23993E+03
         0.14400E+03
        -0.30683E+02
         0.10366E+02
        -0.76248E+02
        -0.36798E+02
         0.10615E+02
        -0.13000E+02
        -0.55977E+01
         0.20302E+03
         0.28816E+03
         0.33651E+03
         0.49491E+02
         0.20546E+03
         0.39836E+03
         0.38875E+02
         0.10843E+02
        -0.90047E+01
        -0.12046E+02
        -0.49610E+02
        -0.48912E+02
        -0.20547E+02
         0.45971E+02
         0.16240E+02
         0.84800E+02
         0.80549E+02
         0.30530E+02
         0.10997E+02
         0.26570E+02
         0.66389E+02
         0.16140E+02
         0.11913E+03
        -0.11907E+03
        -0.56799E+03
        -0.80165E+03
        -0.10381E+04
        -0.68179E+03
        -0.41421E+03
        -0.20969E+03
        -0.10859E+03
        -0.57329E+02
        -0.57705E+02
        -0.68203E+02
        -0.37678E+02
        -0.36332E+02
        -0.21795E+01
         0.14019E+03
         0.13650E+03
         0.11803E+03
         0.71316E+02
         0.78872E+00
        -0.33162E+02
        -0.65737E+02
        -0.11957E+03
         0.19557E+02
        -0.24533E+01
         0.24329E+02
         0.44979E+02
        -0.21710E+01
         0.65933E+02
         0.58936E+02
         0.69826E+02
         0.16228E+02
         0.62404E+02
         0.58725E+02
         0.25871E+02
         0.32565E+02
        -0.31963E+02
         0.70996E+02
         0.59979E+02
         0.25387E+03
         0.39587E+03
         0.12459E+03
         0.65480E+02
         0.54051E+02
         0.57657E+02
         0.46189E+02
         0.46763E+02
         0.83523E+02
         0.81439E+02
        -0.35342E+02
         0.29063E+02
        -0.12831E+03
        -0.11009E+03
         0.57714E+02
         0.14186E+02
        -0.12594E+02
         0.12563E+03
         0.13640E+03
         0.32277E+02
        -0.64765E+01
         0.13263E+03
         0.40759E+03
         0.71380E+02
         0.11447E+02
        -0.27950E+02
        -0.28642E+02
        -0.52356E+02
        -0.31248E+02
         0.14131E+02
         0.10062E+03
         0.35832E+02
         0.16175E+03
         0.18503E+03
         0.86659E+02
         0.24786E+02
         0.31010E+02
         0.46930E+02
         0.42995E+02
        -0.65824E+02
        -0.26224E+03
        -0.41213E+03
        -0.33939E+03
        -0.53362E+03
        -0.60087E+03
        -0.41554E+03
        -0.25970E+03
        -0.11533E+03
        -0.53521E+02
        -0.11615E+03
        -0.12562E+03
        -0.96572E+02
         0.38494E+02
         0.17750E+03
         0.30778E+03
         0.42151E+03
         0.48410E+03
         0.35606E+03
         0.38062E+02
         0.10277E+02
        -0.33675E+02
        -0.10511E+03
        -0.15570E+01
        -0.18859E+02
         0.35484E+02
         0.50711E+02
         0.28722E+02
         0.74849E+02
         0.42239E+02
         0.39320E+02
         0.30099E+02
         0.50294E+02
         0.40847E+02
         0.67855E+02
         0.12365E+02
        -0.15672E+02
         0.14195E+03
         0.77150E+02
         0.63027E+03
         0.87457E+03
         0.31182E+03
         0.13815E+03
         0.28025E+02
         0.11689E+03
         0.61702E+02
         0.33792E+02
         0.28970E+02
         0.75021E+02
        -0.22118E+02
         0.46141E+02
        -0.11366E+03
        -0.11452E+03
         0.17853E+02
        -0.54855E+01
         0.66281E+01
         0.87572E+01
        -0.53877E+02
        -0.15089E+02
         0.74150E+02
         0.31810E+03
         0.70022E+03
         0.17872E+03
         0.33520E+02
        -0.22204E+02
        -0.19621E+02
        -0.41974E+02
        -0.70046E+02
        -0.56612E+02
         0.63775E+02
        -0.20640E+02
         0.11306E+03
         0.27667E+03
         0.43948E+02
         0.13970E+02
         0.12762E+02
        -0.12201E+02
        -0.22682E+02
        -0.76768E+02
        -0.10447E+03
         0.17551E+02
         0.38003E+02
        -0.24545E+03
        -0.76743E+03
        -0.11035E+04
        -0.91213E+03
        -0.48311E+03
        -0.19968E+03
        -0.20203E+03
        -0.21233E+03
        -0.17386E+03
        -0.42186E+02
         0.13351E+03
         0.30975E+03
         0.40403E+03
         0.46304E+03
         0.43074E+03
         0.69982E+02
         0.10947E+02
        -0.10945E+03
        -0.11591E+03
        -0.17509E+03
        -0.22806E+03
         0.16401E+02
         0.35317E+02
         0.39778E+02
         0.47900E+02
        -0.17225E+02
        -0.12272E+02
         0.16055E+02
         0.11952E+02
        -0.33800E+01
         0.18015E+03
         0.57229E+02
         0.13482E+02
         0.26739E+03
         0.24494E+03
         0.80328E+03
         0.11676E+04
         0.32753E+03
         0.19860E+03
        -0.23176E+02
         0.16129E+03
         0.48284E+02
         0.62865E+02
         0.13844E+03
         0.25334E+03
        -0.16945E+02
         0.59703E+02
        -0.89139E+02
        -0.20986E+03
        -0.16649E+03
        -0.90705E+02
         0.49931E+01
         0.28150E+02
         0.16097E+02
         0.11796E+03
         0.21097E+03
         0.37006E+03
         0.94569E+03
         0.17359E+03
        -0.19921E+02
        -0.10262E+03
        -0.51699E+02
        -0.42354E+02
        -0.65174E+02
        -0.16566E+03
        -0.14509E+03
        -0.20724E+03
        -0.17307E+03
        -0.27883E+02
        -0.18078E+03
        -0.53873E+02
         0.88207E+01
         0.55704E+01
        -0.18501E+02
         0.21616E+02
         0.16448E+03
         0.35260E+03
         0.24893E+03
        -0.55169E+03
        -0.17777E+04
        -0.23817E+04
        -0.18903E+04
        -0.10778E+04
        -0.53067E+03
        -0.34735E+03
        -0.28286E+03
        -0.15380E+03
         0.67955E+02
         0.16211E+03
         0.12420E+03
         0.10864E+03
         0.13824E+03
         0.96026E+02
  
SCALARS                         fint_z  double 1
LOOKUP_TABLE default
        -0.34650E+03
        -0.13242E+04
        -0.23830E+03
         0.78864E+03
        -0.35924E+03
        -0.96691E+03
        -0.27493E+03
         0.43911E+02
         0.50606E+03
         0.15491E+04
         0.11420E+03
         0.28517E+03
        -0.13351E+04
        -0.15373E+03
        -0.83205E+03
        -0.27303E+03
         0.12188E+03
        -0.67101E+02
         0.10221E+03
        -0.18893E+03
        -0.10811E+04
        -0.41034E+04
        -0.26745E+04
        -0.78840E+03
        -0.38134E+04
        -0.23319E+04
        -0.69652E+03
        -0.15558E+04
        -0.56246E+03
        -0.13497E+04
         0.23073E+03
         0.22049E+03
         0.20473E+03
         0.18178E+03
         0.23082E+03
         0.21603E+03
         0.90873E+02
         0.16525E+03
         0.55325E+02
         0.13046E+03
         0.14423E+03
         0.15839E+03
         0.36209E+02
         0.10038E+03
         0.62733E+02
        -0.16586E+02
        -0.41170E+02
        -0.43825E+02
         0.26267E+03
         0.80352E+02
        -0.98069E+02
        -0.30329E+03
        -0.70898E+03
        -0.71707E+03
        -0.13879E+04
        -0.12954E+04
        -0.15544E+04
         0.71121E+03
        -0.10680E+04
         0.32420E+03
         0.11425E+04
         0.18052E+03
        -0.35253E+03
        -0.25382E+03
         0.37710E+03
        -0.64671E+02
         0.15667E+04
         0.94253E+02
         0.27429E+03
        -0.43668E+03
        -0.14147E+02
        -0.53790E+03
        -0.13397E+04
        -0.11141E+04
        -0.10204E+05
        -0.92004E+04
        -0.15002E+05
        -0.16213E+05
        -0.12103E+05
        -0.11245E+05
        -0.58189E+04
        -0.11757E+04
        -0.40983E+04
        -0.73770E+03
         0.76148E+03
         0.35242E+03
         0.47617E+02
        -0.38165E+03
         0.47425E+03
         0.14273E+02
         0.65049E+03
         0.47794E+03
         0.20289E+03
         0.70572E+02
         0.96882E+03
        -0.11776E+03
         0.33153E+04
         0.39258E+03
         0.30398E+04
         0.31922E+03
         0.22828E+04
         0.29543E+04
         0.21120E+03
         0.27168E+03
         0.34049E+03
         0.10872E+04
        -0.29485E+03
         0.36993E+02
        -0.35094E+03
        -0.74087E+03
        -0.40757E+03
        -0.44924E+03
         0.11554E+04
         0.16969E+04
         0.42401E+04
         0.58995E+04
         0.84047E+04
         0.11531E+05
         0.19011E+05
         0.26140E+05
         0.22402E+05
         0.38255E+05
         0.50753E+04
         0.12118E+05
        -0.40681E+04
        -0.31265E+04
        -0.17165E+04
        -0.99407E+03
        -0.37947E+03
        -0.51769E+03
         0.12918E+03
        -0.26676E+03
         0.82216E+03
         0.21102E+03
         0.96772E+03
         0.45257E+03
         0.70062E+03
         0.42657E+03
         0.51869E+03
         0.49810E+03
         0.42362E+03
         0.55291E+03
        -0.39773E+03
         0.39131E+03
        -0.12636E+04
         0.34041E+03
        -0.73200E+04
         0.15376E+03
        -0.73410E+04
        -0.17422E+03
        -0.26158E+04
         0.26646E+03
         0.13539E+04
         0.41729E+03
         0.20276E+04
         0.13674E+03
        -0.32988E+02
        -0.55369E+03
         0.68716E+03
         0.28328E+04
         0.21808E+04
         0.33519E+04
        -0.68358E+03
        -0.59695E+02
         0.37168E+03
         0.62767E+03
        -0.87863E+03
        -0.22947E+04
        -0.15014E+04
        -0.82936E+03
        -0.43352E+04
         0.78473E+02
         0.82527E+03
         0.67218E+03
         0.34456E+02
         0.60039E+03
         0.31234E+03
         0.59507E+03
         0.50237E+03
        -0.27504E+02
         0.66399E+03
         0.57867E+03
        -0.12384E+04
        -0.11060E+04
        -0.41168E+03
         0.11880E+04
         0.47364E+04
         0.20259E+04
         0.70933E+04
         0.79800E+04
         0.12586E+04
         0.34714E+03
        -0.79651E+03
        -0.82363E+04
        -0.10715E+05
        -0.86050E+04
        -0.46505E+04
        -0.65358E+03
         0.82279E+03
         0.81737E+03
         0.10988E+04
         0.64709E+03
         0.18544E+04
         0.43813E+04
         0.71649E+04
         0.64568E+04
         0.39406E+04
         0.54140E+04
         0.16584E+04
         0.27203E+04
         0.84136E+03
         0.33192E+03
         0.40728E+03
         0.13592E+04
         0.26463E+04
         0.63470E+04
         0.71472E+04
        -0.14423E+04
        -0.48166E+04
        -0.19743E+04
        -0.36660E+03
         0.72388E+03
         0.16080E+04
         0.15414E+04
         0.84847E+03
        -0.34296E+03
        -0.11232E+04
        -0.31576E+04
        -0.11714E+05
        -0.20587E+05
        -0.21770E+05
        -0.98857E+04
         0.31367E+03
         0.37341E+04
        -0.17489E+03
        -0.13906E+03
         0.25200E+03
         0.15804E+04
         0.98870E+03
         0.29125E+04
         0.32334E+02
         0.20975E+03
         0.15197E+03
         0.45945E+03
         0.85505E+02
         0.19258E+01
        -0.38360E+02
         0.36234E+03
        -0.24263E+03
         0.16921E+02
         0.29231E+03
         0.16762E+03
         0.80715E+02
         0.64752E+03
         0.45256E+03
         0.72123E+03
         0.57137E+03
         0.13962E+03
         0.56848E+03
         0.73955E+03
         0.45115E+03
         0.75765E+03
         0.45845E+03
         0.91919E+03
         0.29501E+04
         0.13584E+04
         0.53955E+04
         0.60621E+04
         0.11947E+04
         0.43891E+03
         0.12944E+03
        -0.11155E+04
        -0.19913E+04
        -0.17933E+04
        -0.17007E+04
        -0.77189E+02
         0.66780E+03
         0.54378E+03
         0.66811E+03
         0.33517E+03
         0.13084E+04
         0.34318E+04
         0.56103E+04
         0.47753E+04
         0.27595E+04
         0.45497E+04
         0.16536E+04
         0.25439E+04
         0.10386E+04
         0.62028E+03
        -0.86200E+02
        -0.68920E+03
        -0.18041E+04
        -0.26669E+04
        -0.31074E+04
        -0.30586E+04
        -0.24904E+04
        -0.15829E+04
        -0.64216E+03
         0.48738E+03
         0.16046E+04
         0.14725E+04
         0.37327E+03
        -0.72580E+03
        -0.13493E+04
        -0.26689E+04
        -0.84440E+04
        -0.17560E+05
        -0.19480E+05
        -0.78796E+04
        -0.15833E+04
         0.10244E+04
         0.29974E+02
         0.26700E+03
         0.35347E+03
         0.48266E+03
         0.31731E+03
         0.20097E+03
         0.11183E+03
         0.23994E+03
         0.25512E+03
         0.62033E+03
         0.32792E+03
         0.48303E+03
         0.31366E+03
         0.60850E+03
         0.88832E+03
         0.26542E+02
         0.43119E+03
         0.34823E+02
         0.10190E+03
         0.72261E+03
         0.39592E+03
         0.94155E+03
         0.14077E+03
        -0.80550E+02
         0.78018E+03
         0.58174E+01
         0.10200E+04
         0.11566E+04
         0.87806E+03
         0.10711E+04
         0.66970E+03
         0.83568E+02
         0.16529E+04
         0.10539E+04
         0.42324E+03
         0.15616E+03
        -0.46386E+01
         0.77157E+03
         0.19837E+02
        -0.51013E+03
        -0.29383E+03
         0.58540E+03
         0.96919E+03
         0.11280E+03
         0.33866E+02
         0.21643E+02
         0.97019E+02
         0.40301E+03
         0.25921E+01
         0.11762E+04
         0.62947E+03
         0.14908E+04
         0.71452E+03
         0.11433E+04
         0.49202E+03
         0.22650E+03
        -0.23651E+02
        -0.17394E+03
        -0.16257E+04
        -0.23689E+04
        -0.30524E+04
        -0.24390E+04
        -0.18482E+04
        -0.70395E+03
        -0.97441E+03
         0.62586E+03
         0.12906E+04
         0.10848E+04
         0.59724E+03
         0.19727E+03
         0.13678E+03
         0.10161E+03
        -0.10199E+04
        -0.39288E+04
        -0.40611E+04
        -0.22545E+04
        -0.62804E+03
         0.39013E+03
         0.12890E+03
         0.63554E+00
        -0.64282E+02
        -0.17156E+03
        -0.13348E+03
        -0.35590E+03
         0.77340E+02
         0.20781E+03
         0.19541E+03
         0.50999E+03
         0.20629E+03
         0.38502E+03
         0.19019E+03
         0.39716E+03
         0.78601E+03
        -0.11646E+03
         0.31463E+03
        -0.21319E+03
         0.47931E+02
         0.48739E+03
         0.29106E+03
         0.75360E+03
        -0.12567E+02
        -0.10796E+03
         0.81817E+03
        -0.31389E+03
         0.79118E+03
         0.12269E+04
         0.11857E+04
         0.99204E+03
        -0.76009E+03
        -0.47555E+03
        -0.86586E+03
        -0.56441E+03
        -0.88609E+02
        -0.41795E+00
         0.40654E+02
         0.10401E+04
         0.93791E+03
         0.50921E+03
        -0.22181E+03
         0.91633E+03
         0.11732E+04
        -0.16635E+03
        -0.19670E+03
        -0.42158E+02
        -0.28134E+03
        -0.57248E+03
        -0.64499E+03
        -0.48919E+03
        -0.24633E+03
        -0.29469E+03
        -0.32633E+01
        -0.85252E+02
        -0.20721E+02
        -0.75476E+02
        -0.23043E+02
        -0.19293E+03
        -0.95129E+03
        -0.18493E+04
        -0.33806E+04
        -0.33989E+04
        -0.24698E+04
        -0.17095E+04
        -0.49329E+03
         0.71925E+03
         0.94575E+03
         0.58553E+03
         0.40931E+03
         0.47383E+03
         0.57118E+03
         0.91625E+03
         0.13890E+04
         0.19149E+04
         0.12026E+04
         0.74527E+03
         0.20610E+03
        -0.10256E+03
        -0.10909E+03
        -0.74081E+02
        -0.20514E+03
        -0.37032E+03
        -0.19231E+03
        -0.35503E+03
         0.18846E+02
         0.61512E+02
         0.29641E+02
         0.19429E+03
         0.99930E+02
         0.24556E+03
         0.10704E+03
         0.24372E+03
         0.57469E+03
        -0.15750E+03
         0.20274E+03
        -0.28495E+03
        -0.12888E+01
         0.24454E+03
         0.16040E+03
         0.40702E+03
        -0.40527E+01
        -0.73711E+02
         0.56125E+03
        -0.17656E+03
         0.50488E+03
         0.92300E+03
         0.11468E+04
         0.68586E+03
        -0.52424E+03
        -0.25906E+03
        -0.67913E+03
        -0.49954E+03
        -0.11625E+03
        -0.80063E+02
        -0.95663E+01
         0.10102E+04
         0.13125E+04
         0.98809E+03
         0.25037E+03
         0.67070E+03
         0.96635E+03
        -0.86540E+02
        -0.82524E+02
        -0.62738E+01
        -0.11380E+03
        -0.28722E+03
        -0.31817E+03
        -0.22296E+03
        -0.37809E+02
        -0.28416E+03
        -0.11417E+03
        -0.12558E+03
        -0.76592E+02
        -0.21677E+02
         0.51782E+02
        -0.10436E+02
        -0.44182E+03
        -0.18932E+04
        -0.23785E+04
        -0.26234E+04
        -0.14238E+04
        -0.85292E+03
        -0.14966E+02
         0.40661E+03
         0.54780E+03
         0.27802E+03
         0.14391E+03
         0.16943E+03
         0.17087E+03
         0.31870E+03
         0.72784E+03
         0.11594E+04
         0.11906E+04
         0.80694E+03
         0.38244E+03
        -0.15804E+02
        -0.81277E+02
        -0.37061E+02
        -0.10022E+03
        -0.15223E+03
        -0.12615E+03
        -0.13267E+03
        -0.25748E+01
         0.92448E+01
        -0.21815E+02
         0.71197E+02
         0.27324E+02
         0.66225E+02
         0.12794E+02
         0.72602E+02
         0.27440E+03
        -0.62962E+02
         0.49953E+02
        -0.12326E+03
        -0.48588E+01
         0.12481E+03
         0.91522E+02
         0.28945E+03
         0.11438E+02
        -0.17313E+02
         0.14179E+03
        -0.36986E+02
         0.19072E+03
         0.35995E+03
         0.35125E+03
         0.27257E+03
        -0.13162E+03
        -0.36644E+02
        -0.20713E+03
        -0.89219E+02
        -0.59324E+02
        -0.42036E+02
        -0.15844E+02
         0.64276E+03
         0.82658E+03
         0.64593E+03
         0.24978E+03
         0.47988E+03
         0.30528E+03
        -0.20283E+02
        -0.16981E+02
         0.12033E+02
        -0.31124E+01
        -0.35220E+02
        -0.67761E+02
        -0.24074E+02
         0.52793E+02
        -0.73505E+02
        -0.55263E+02
        -0.68200E+02
        -0.28422E+02
         0.22719E+01
         0.28352E+02
         0.25435E+02
        -0.43015E+02
        -0.52627E+03
        -0.12726E+04
        -0.17392E+04
        -0.96011E+03
        -0.63584E+03
         0.11992E+03
         0.32880E+03
         0.26694E+03
         0.10984E+03
         0.29510E+02
         0.23394E+02
         0.14166E+02
         0.52824E+01
         0.12656E+03
         0.21199E+03
         0.45394E+03
         0.34579E+03
         0.23052E+03
         0.10014E+03
        -0.88313E+02
        -0.28284E+02
        -0.12009E+03
        -0.14387E+03
        -0.86472E+02
        -0.80830E+02
        -0.50021E+01
        -0.47295E+02
        -0.44367E+02
        -0.11510E+02
        -0.15344E+02
         0.25964E+02
        -0.21907E+01
        -0.69397E+01
         0.11384E+03
        -0.43323E+02
         0.21732E+01
        -0.56837E+02
        -0.12582E+02
         0.36442E+02
         0.13376E+02
         0.53300E+02
        -0.15893E+02
        -0.15164E+02
         0.33702E+02
        -0.26640E+02
         0.47350E+02
         0.16178E+03
         0.78110E+02
         0.12495E+03
        -0.55095E+02
        -0.21043E+02
        -0.89376E+02
        -0.86789E+02
        -0.68003E+02
        -0.56715E+02
        -0.41892E+02
         0.17786E+03
         0.23405E+03
         0.23081E+03
         0.13610E+03
         0.19280E+03
         0.21297E+03
        -0.28367E+01
         0.82329E+01
         0.15656E+02
         0.14333E+02
         0.11535E+02
         0.15236E+02
         0.13858E+01
         0.28634E+02
        -0.17026E+02
        -0.26683E+02
         0.28353E+02
        -0.12538E+02
        -0.69070E+01
         0.93087E+00
         0.23517E+02
         0.67364E+02
        -0.14851E+03
        -0.46052E+03
        -0.62856E+03
        -0.53084E+03
        -0.99125E+02
         0.19601E+03
         0.16608E+03
         0.36204E+02
        -0.12234E+02
        -0.71497E+01
         0.10415E+02
         0.19290E+02
         0.24558E+02
         0.35064E+02
         0.83755E+02
         0.84246E+02
         0.20929E+03
         0.18281E+03
         0.10557E+03
        -0.49363E+02
        -0.30461E+02
        -0.69865E+02
        -0.10350E+03
        -0.49106E+02
        -0.64222E+02
        -0.21012E+02
        -0.25083E+02
        -0.48043E+02
        -0.23125E+02
        -0.23209E+02
        -0.50467E+01
        -0.26541E+02
        -0.20121E+02
         0.98268E+01
        -0.33344E+02
        -0.28469E+02
        -0.48070E+02
        -0.23210E+02
        -0.42660E+02
        -0.65038E+02
        -0.89190E+02
        -0.32995E+02
        -0.14268E+02
        -0.29123E+02
        -0.26886E+02
        -0.15551E+02
        -0.27487E+02
         0.29416E+01
        -0.48036E+02
        -0.82549E+02
        -0.25157E+02
        -0.12300E+03
        -0.84027E+02
        -0.52589E+02
        -0.40095E+02
        -0.22099E+02
         0.80230E+02
         0.13685E+03
         0.60849E+02
         0.31180E+02
         0.67027E+01
        -0.31698E+02
        -0.83738E+01
         0.11584E+01
         0.58262E+01
         0.68137E+00
        -0.77855E+01
         0.13254E+02
         0.32030E+02
         0.24788E+02
        -0.19547E+02
        -0.37495E+02
         0.22151E+02
        -0.20103E+02
        -0.11265E+02
         0.57914E+01
         0.44141E+02
         0.98963E+02
         0.91182E+02
        -0.70536E+02
        -0.79123E+02
        -0.10086E+02
         0.10557E+03
         0.11222E+03
        -0.86007E+01
        -0.86173E+02
        -0.24041E+02
         0.79264E+01
         0.10634E+02
         0.33915E+01
         0.13408E+02
         0.60043E+02
         0.14768E+03
         0.14807E+03
         0.15853E+03
         0.11745E+03
         0.10614E+03
        -0.33057E+02
        -0.36413E+02
        -0.51948E+02
        -0.60526E+02
        -0.39512E+02
        -0.51606E+02
        -0.16364E+02
        -0.16669E+02
        -0.39556E+02
        -0.42564E+02
        -0.20613E+02
        -0.27983E+02
        -0.16155E+02
        -0.29088E+02
        -0.17618E+02
        -0.10055E+02
        -0.20623E+02
        -0.20649E+02
        -0.10983E+02
        -0.38909E+02
        -0.75997E+02
        -0.15722E+03
        -0.48497E+02
        -0.19373E+02
        -0.67928E+02
        -0.12845E+02
        -0.45922E+02
        -0.91792E+02
        -0.45958E+02
        -0.72118E+02
        -0.37857E+02
        -0.10879E+02
        -0.75435E+02
        -0.76628E+02
        -0.38393E+02
        -0.40470E+02
        -0.16596E+02
        -0.20226E+02
        -0.36499E+02
        -0.44450E+02
         0.23496E+02
        -0.11757E+03
        -0.16610E+03
        -0.73740E+01
        -0.46441E+01
         0.90934E+00
        -0.64327E+01
        -0.15900E+02
         0.20828E+01
         0.13523E+02
         0.36680E+02
        -0.76796E+01
        -0.17251E+02
         0.12627E+02
        -0.83433E+01
         0.14038E+00
         0.92099E+00
         0.27019E+02
         0.99963E+02
         0.14186E+03
         0.21498E+03
         0.22065E+03
         0.41025E+03
         0.36229E+03
         0.89047E+02
        -0.67540E+02
        -0.15463E+03
        -0.47638E+02
        -0.22161E+02
         0.93774E+00
         0.18740E+01
         0.13822E+02
         0.59269E+02
         0.11223E+03
         0.15578E+03
         0.11648E+03
         0.76734E+02
         0.47274E+02
        -0.26209E+02
        -0.31575E+02
        -0.66253E+02
        -0.86367E+02
        -0.52136E+02
        -0.85521E+02
        -0.72123E+01
        -0.21110E+02
        -0.30305E+02
        -0.44142E+02
        -0.21198E+02
        -0.27362E+02
        -0.18125E+02
        -0.30828E+02
        -0.46082E+02
        -0.16874E+02
        -0.47534E+02
        -0.56693E+02
        -0.27285E+02
        -0.64603E+02
        -0.91746E+02
        -0.17284E+03
        -0.38170E+02
        -0.19824E+02
        -0.55496E+02
        -0.21938E+02
        -0.70452E+02
        -0.10477E+03
        -0.12786E+03
        -0.10978E+03
        -0.89678E+02
        -0.36381E+02
        -0.14491E+03
        -0.12820E+03
        -0.51174E+02
        -0.44089E+02
        -0.14863E+02
        -0.13421E+03
        -0.15935E+03
        -0.14510E+03
        -0.24717E+02
        -0.18042E+03
        -0.26688E+03
        -0.18771E+02
        -0.11161E+02
        -0.19989E+01
        -0.18641E+02
        -0.49946E+02
        -0.24678E+02
        -0.33616E+02
         0.31516E+02
        -0.53099E+02
        -0.39221E+02
        -0.18945E+02
        -0.14815E+02
        -0.96028E+01
        -0.76859E+01
         0.19736E+02
         0.15880E+03
         0.22364E+03
         0.32763E+03
         0.36483E+03
         0.27440E+03
         0.15626E+03
         0.15408E+03
        -0.92741E+02
        -0.14096E+03
        -0.67994E+02
        -0.15753E+02
         0.17064E+01
         0.10614E+02
         0.41826E+02
         0.17297E+03
         0.26257E+03
         0.31455E+03
         0.23877E+03
         0.12352E+03
         0.43316E+02
        -0.38087E+02
        -0.24019E+02
        -0.37448E+02
        -0.52979E+02
        -0.24405E+02
        -0.55576E+02
        -0.13822E+02
        -0.19684E+02
        -0.24957E+02
        -0.57477E+02
        -0.20800E+02
        -0.36398E+02
        -0.20193E+02
        -0.26419E+02
        -0.28162E+02
        -0.19490E+02
        -0.45869E+02
        -0.46718E+02
        -0.32611E+02
        -0.90151E+02
        -0.10170E+03
        -0.20064E+03
        -0.44115E+02
        -0.21243E+02
        -0.78791E+02
        -0.28148E+02
        -0.58758E+02
        -0.10596E+03
        -0.16517E+03
        -0.11807E+03
        -0.77090E+02
        -0.32007E+02
        -0.10507E+03
        -0.66556E+02
        -0.14565E+02
        -0.26259E+02
        -0.18066E+02
        -0.10304E+03
        -0.14954E+03
        -0.12503E+03
        -0.19567E+02
        -0.19438E+03
        -0.32803E+03
        -0.23983E+02
        -0.12342E+02
        -0.14950E+01
        -0.22079E+02
        -0.51530E+02
        -0.57494E+02
        -0.54080E+02
        -0.72665E+01
        -0.48419E+02
        -0.37318E+02
        -0.34674E+02
        -0.23343E+02
        -0.15630E+02
        -0.28422E+01
         0.17402E+02
         0.10911E+03
         0.28498E+03
         0.48522E+03
         0.54247E+03
         0.47256E+03
         0.15202E+03
         0.12595E+03
        -0.17543E+03
        -0.16082E+03
        -0.46063E+02
        -0.46135E+01
        -0.72623E+00
         0.87525E+01
         0.54852E+02
         0.16107E+03
         0.30344E+03
         0.28507E+03
         0.26815E+03
         0.18720E+03
         0.64914E+02
        -0.37304E+02
        -0.15282E+02
        -0.69124E+02
        -0.69039E+02
        -0.51424E+02
        -0.75583E+02
        -0.10170E+02
        -0.23168E+02
        -0.30351E+02
        -0.43942E+02
        -0.18974E+02
        -0.43183E+02
        -0.14006E+02
        -0.22488E+02
        -0.67128E+02
        -0.25336E+02
        -0.45173E+02
        -0.59084E+02
        -0.26164E+02
        -0.93679E+02
        -0.76640E+02
        -0.18661E+03
        -0.33851E+02
        -0.24507E+02
        -0.13686E+03
        -0.34882E+02
        -0.79234E+02
        -0.16067E+03
        -0.20889E+03
        -0.13900E+03
        -0.69520E+02
        -0.41513E+02
        -0.14446E+03
        -0.84213E+02
        -0.34997E+02
        -0.38506E+02
        -0.18111E+02
        -0.80251E+02
        -0.14334E+03
        -0.83283E+02
         0.30306E+01
        -0.26560E+03
        -0.37312E+03
        -0.24873E+02
        -0.19119E+02
        -0.96627E+00
        -0.20893E+02
        -0.30536E+02
        -0.43125E+02
        -0.33529E+02
         0.33402E+02
        -0.47861E+02
        -0.34816E+02
        -0.54556E+01
        -0.29549E+02
        -0.12917E+02
        -0.12999E+02
         0.24261E+02
         0.14998E+03
         0.40152E+03
         0.76053E+03
         0.81356E+03
         0.55124E+03
         0.20809E+03
         0.11873E+03
        -0.19323E+03
        -0.17229E+03
        -0.50506E+02
        -0.24304E+02
         0.67211E+01
         0.28820E+02
         0.61792E+02
         0.16360E+03
         0.26143E+03
         0.22320E+03
         0.18173E+03
         0.10365E+03
         0.48511E+02
        -0.29076E+02
        -0.31825E+02
        -0.73881E+02
        -0.10411E+03
        -0.60554E+02
        -0.55859E+02
        -0.66743E+01
        -0.14232E+02
        -0.37646E+02
        -0.36016E+02
        -0.11835E+02
        -0.28418E+02
        -0.32911E+02
        -0.56588E+02
        -0.70557E+02
        -0.15058E+02
        -0.41846E+02
        -0.35504E+02
        -0.15323E+02
        -0.70323E+02
        -0.54434E+02
        -0.12999E+03
        -0.33631E+02
        -0.17784E+02
        -0.10394E+03
        -0.35075E+02
        -0.10755E+03
        -0.19053E+03
        -0.23019E+03
        -0.17133E+03
        -0.93132E+02
        -0.43231E+02
        -0.13635E+03
        -0.98943E+02
        -0.49398E+02
        -0.30938E+02
        -0.22162E+02
        -0.23169E+03
        -0.37671E+03
        -0.34736E+03
        -0.68175E+02
        -0.29516E+03
        -0.38896E+03
        -0.27237E+02
        -0.16549E+02
         0.70387E+01
        -0.10914E+02
        -0.26888E+02
        -0.22785E+02
        -0.33010E+02
         0.51119E+02
        -0.49326E+02
        -0.34499E+02
         0.90154E+01
        -0.38482E+02
        -0.27416E+02
        -0.24251E+02
         0.22167E+02
         0.15749E+03
         0.48812E+03
         0.74027E+03
         0.65570E+03
         0.56567E+03
         0.31654E+03
         0.58261E+02
        -0.18435E+03
        -0.20313E+03
        -0.11934E+03
        -0.55142E+02
         0.63068E+01
         0.58647E+02
         0.10325E+03
         0.19426E+03
         0.25019E+03
         0.27509E+03
         0.22562E+03
         0.11302E+03
         0.12836E+03
        -0.10783E+02
        -0.36312E+02
        -0.44977E+02
        -0.85915E+02
        -0.60791E+02
        -0.46171E+02
        -0.15836E+02
        -0.75095E+01
        -0.45667E+02
        -0.22651E+02
        -0.16346E+02
        -0.51730E+02
        -0.36729E+02
        -0.37784E+02
        -0.79420E+02
        -0.14884E+02
        -0.29908E+02
        -0.45422E+02
        -0.16260E+02
        -0.74946E+02
        -0.92617E+02
        -0.19495E+03
        -0.39234E+02
        -0.44340E+01
        -0.84289E+02
        -0.22808E+02
        -0.87625E+02
        -0.11492E+03
        -0.15852E+03
        -0.16685E+03
        -0.87541E+02
        -0.49950E+02
        -0.13679E+03
        -0.68788E+02
        -0.48984E+02
        -0.46845E+02
        -0.27919E+02
        -0.20525E+03
        -0.32873E+03
        -0.22161E+03
        -0.13698E+03
        -0.25284E+03
        -0.35598E+03
        -0.34255E+02
        -0.31015E+02
         0.66101E+01
        -0.12174E+02
        -0.66674E+02
        -0.58568E+02
        -0.44243E+02
         0.19693E+02
        -0.58452E+02
        -0.45963E+02
         0.10837E+02
        -0.31227E+02
        -0.25925E+02
        -0.19564E+02
         0.33182E+02
         0.21756E+03
         0.38467E+03
         0.64005E+03
         0.82906E+03
         0.35760E+03
         0.30176E+03
         0.49299E+02
        -0.15358E+03
        -0.15750E+03
        -0.88073E+02
        -0.42287E+02
        -0.22972E+01
         0.46609E+02
         0.92527E+02
         0.19257E+03
         0.25190E+03
         0.29568E+03
         0.24081E+03
         0.23528E+03
         0.14318E+03
        -0.33975E+02
        -0.28570E+02
        -0.68206E+02
        -0.10916E+03
        -0.56267E+02
        -0.51448E+02
        -0.12044E+02
        -0.81674E+01
        -0.30311E+02
        -0.24924E+02
        -0.17851E+02
        -0.31980E+02
        -0.26494E+02
        -0.36597E+02
        -0.10412E+03
        -0.27790E+02
        -0.32038E+02
        -0.61342E+02
        -0.24715E+02
        -0.68228E+02
        -0.58390E+02
        -0.16073E+03
        -0.31883E+02
        -0.22660E+02
        -0.10976E+03
        -0.37000E+02
        -0.13637E+03
        -0.20329E+03
        -0.29069E+03
        -0.15130E+03
        -0.92323E+02
        -0.40258E+02
        -0.11231E+03
        -0.10702E+03
        -0.63530E+02
        -0.36934E+02
        -0.24645E+02
        -0.22392E+03
        -0.32654E+03
        -0.24620E+03
        -0.77830E+02
        -0.10457E+03
        -0.23367E+03
        -0.28405E+02
        -0.16492E+02
         0.12859E+02
        -0.15235E+02
        -0.38706E+02
        -0.71164E+02
        -0.42140E+02
         0.31918E+02
        -0.62534E+02
        -0.39711E+02
         0.39114E+02
        -0.42911E+02
        -0.26742E+02
        -0.17892E+02
         0.36427E+02
         0.19697E+03
         0.42341E+03
         0.33443E+03
         0.51679E+03
         0.54314E+03
         0.35409E+03
        -0.38563E+02
        -0.13437E+03
        -0.82052E+02
        -0.45576E+02
        -0.16789E+02
         0.24136E+02
         0.52725E+02
         0.79121E+02
         0.16051E+03
         0.20818E+03
         0.28297E+03
         0.17465E+03
         0.16967E+03
         0.12333E+03
        -0.15627E+02
        -0.32422E+02
        -0.37330E+02
        -0.34148E+02
        -0.33755E+02
        -0.71801E+01
        -0.10331E+02
        -0.24240E+02
        -0.46534E+02
        -0.24575E+02
        -0.26608E+02
        -0.60101E+02
        -0.23066E+02
        -0.53547E+02
        -0.95079E+02
        -0.38857E+02
        -0.53507E+02
        -0.52695E+02
        -0.30582E+02
        -0.74750E+02
        -0.85652E+02
        -0.17794E+03
        -0.39513E+02
        -0.14533E+02
        -0.99491E+02
        -0.33787E+02
        -0.83146E+02
        -0.16811E+03
        -0.23523E+03
        -0.15240E+03
        -0.90935E+02
        -0.36034E+02
        -0.11655E+03
        -0.83277E+02
        -0.26495E+02
        -0.31318E+02
        -0.27934E+02
        -0.22370E+03
        -0.28980E+03
        -0.29018E+03
        -0.80525E+02
        -0.26630E+03
        -0.35471E+03
        -0.20355E+02
        -0.98924E+01
         0.11965E+02
        -0.34196E+01
        -0.12104E+02
        -0.20149E+02
        -0.70581E+01
         0.33311E+02
        -0.76980E+01
        -0.22864E+02
         0.51966E+02
        -0.21647E+02
        -0.24237E+02
        -0.23961E+02
         0.24619E+02
         0.14959E+03
         0.40694E+03
         0.72704E+03
         0.80397E+03
         0.53474E+03
         0.26238E+03
         0.10430E+03
        -0.19174E+03
        -0.13772E+03
        -0.35140E+02
        -0.45114E+01
         0.18491E+02
         0.40081E+02
         0.56562E+02
         0.13901E+03
         0.22099E+03
         0.23636E+03
         0.24729E+03
         0.12956E+03
         0.10133E+03
        -0.52766E+02
        -0.16827E+02
        -0.68276E+02
        -0.93368E+02
        -0.28070E+02
        -0.30422E+02
        -0.64504E+01
        -0.17610E+02
        -0.39230E+02
        -0.27751E+02
        -0.23604E+02
        -0.45929E+02
        -0.29308E+02
        -0.39027E+02
        -0.11540E+03
        -0.12748E+02
        -0.57808E+02
        -0.40715E+02
        -0.24028E+02
        -0.92415E+02
        -0.78845E+02
        -0.20538E+03
        -0.45914E+02
        -0.23017E+02
        -0.12379E+03
        -0.19057E+02
        -0.11534E+03
        -0.15726E+03
        -0.22738E+03
        -0.14267E+03
        -0.64775E+02
        -0.27942E+02
        -0.78992E+02
        -0.41462E+02
        -0.28039E+02
        -0.22640E+02
        -0.21540E+02
        -0.24671E+03
        -0.42081E+03
        -0.38794E+03
        -0.17260E+03
        -0.25481E+03
        -0.34770E+03
        -0.20251E+02
        -0.71555E+01
         0.95191E+01
        -0.88652E+01
        -0.36826E+02
        -0.24941E+02
        -0.97244E+00
         0.39562E+02
        -0.14712E+02
        -0.85234E+01
         0.46947E+02
        -0.26321E+02
        -0.25538E+02
        -0.25089E+02
         0.10628E+02
         0.18849E+03
         0.52496E+03
         0.75183E+03
         0.10321E+04
         0.70117E+03
         0.41594E+03
         0.10161E+03
        -0.19061E+03
        -0.18134E+03
        -0.67187E+02
        -0.29145E+02
         0.71965E+01
         0.31200E+02
         0.56931E+02
         0.97275E+02
         0.21546E+03
         0.22478E+03
         0.18184E+03
         0.15321E+03
         0.10540E+03
        -0.33273E+02
        -0.24210E+02
        -0.41507E+02
        -0.59506E+02
        -0.41616E+02
        -0.41859E+02
        -0.93721E+01
        -0.25426E+02
        -0.37215E+02
        -0.46965E+02
        -0.20602E+02
        -0.29285E+02
        -0.18261E+02
        -0.50589E+02
        -0.82893E+02
        -0.21495E+02
        -0.44079E+02
        -0.21666E+02
        -0.14289E+02
        -0.60031E+02
        -0.89619E+02
        -0.18331E+03
        -0.48757E+02
        -0.18890E+02
        -0.11415E+03
        -0.25955E+02
        -0.11423E+03
        -0.19760E+03
        -0.22555E+03
        -0.18431E+03
        -0.57005E+02
        -0.22951E+02
        -0.94043E+02
        -0.53377E+02
        -0.22438E+02
        -0.30295E+02
        -0.20260E+02
        -0.19504E+03
        -0.37932E+03
        -0.36911E+03
        -0.18176E+03
        -0.29618E+03
        -0.37838E+03
        -0.22181E+02
        -0.86376E+01
         0.65678E+01
        -0.27845E+01
        -0.11290E+02
        -0.18272E+02
         0.15725E+02
         0.46215E+02
        -0.90540E+00
        -0.65722E+01
         0.53701E+02
        -0.16652E+02
        -0.24030E+02
        -0.21216E+02
         0.15625E+02
         0.12020E+03
         0.31693E+03
         0.77470E+03
         0.91222E+03
         0.58628E+03
         0.42064E+03
         0.10590E+03
        -0.16498E+03
        -0.19721E+03
        -0.11206E+03
        -0.45514E+02
        -0.75052E+01
         0.26556E+02
         0.27748E+02
         0.69423E+02
         0.79159E+02
         0.15936E+03
         0.16206E+03
         0.14545E+03
         0.88983E+02
        -0.93321E+01
        -0.18981E+02
        -0.85003E+01
        -0.19670E+02
        -0.38178E+01
         0.17789E+02
        -0.13146E+02
        -0.21624E+02
        -0.21553E+02
        -0.59019E+02
        -0.18434E+02
        -0.32260E+02
        -0.17360E+02
        -0.62350E+02
        -0.30824E+02
        -0.39284E+01
        -0.30527E+02
        -0.43777E+00
        -0.27284E+02
        -0.91599E+02
        -0.90019E+02
        -0.20880E+03
        -0.39127E+02
        -0.11177E+02
        -0.71493E+02
        -0.15631E+01
        -0.10764E+03
        -0.14937E+03
        -0.16673E+03
        -0.94157E+02
         0.56402E+00
         0.60556E+01
         0.12428E+01
         0.17193E+02
        -0.20671E+02
        -0.11971E+02
        -0.56694E+01
        -0.22944E+03
        -0.34818E+03
        -0.35791E+03
        -0.66372E+02
        -0.86398E+02
        -0.14103E+03
        -0.46675E+01
         0.60827E+01
         0.72067E+01
         0.16186E+02
         0.35529E+02
         0.10964E+02
         0.41978E+02
         0.42569E+02
         0.37642E+02
        -0.70368E-01
         0.29233E+02
        -0.78750E+01
         0.65671E+01
         0.12539E+00
         0.48110E+02
         0.18420E+03
         0.52122E+03
         0.70138E+03
         0.10592E+04
         0.85233E+03
         0.37773E+03
         0.18076E+01
        -0.93649E+02
        -0.18255E+03
        -0.10275E+03
        -0.31424E+02
         0.60560E-02
         0.47349E+01
        -0.21403E+02
        -0.29030E+02
         0.14344E+02
         0.33667E+02
         0.57743E+02
         0.92207E+02
         0.91328E+02
        -0.21248E+02
        -0.17308E+01
         0.86010E+00
         0.42442E+02
         0.24316E+01
         0.33558E+02
        -0.22991E+02
        -0.27484E+02
        -0.17742E+02
        -0.26612E+02
        -0.43797E+02
        -0.44444E+02
        -0.20991E+02
        -0.66496E+02
        -0.12238E+03
         0.55136E+01
        -0.36266E+02
         0.19032E+02
        -0.18276E+02
        -0.61563E+02
        -0.78075E+02
        -0.15559E+03
        -0.26890E+02
        -0.54419E+01
        -0.11025E+03
         0.89006E+01
        -0.10308E+03
        -0.22362E+03
        -0.22684E+03
        -0.16602E+03
         0.85364E+02
         0.49125E+02
         0.12789E+03
         0.41208E+02
        -0.94186E+01
         0.10815E+01
        -0.10191E+02
        -0.28337E+03
        -0.24616E+03
        -0.34199E+03
        -0.11769E+03
        -0.29535E+03
        -0.23739E+03
         0.71397E+00
         0.27439E+02
         0.23651E+02
         0.56985E+02
         0.96727E+02
         0.45608E+02
         0.32078E+02
         0.10698E+02
         0.57559E+02
        -0.15878E+02
         0.17802E+02
         0.69465E+01
         0.12488E+02
         0.74666E+01
         0.61442E+02
         0.24309E+03
         0.54750E+03
         0.89788E+03
         0.74408E+03
         0.74637E+03
         0.50738E+03
         0.77512E+02
        -0.14964E+03
        -0.16426E+03
        -0.89771E+02
        -0.11585E+02
        -0.10106E+02
        -0.56449E+02
        -0.97423E+02
        -0.19048E+03
        -0.10206E+03
        -0.16608E+03
        -0.73215E+02
        -0.58521E+01
         0.38219E+02
        -0.30955E+02
        -0.10110E+02
         0.21122E+02
         0.10257E+03
         0.16265E+02
         0.89716E+02
        -0.40202E+02
        -0.50385E+02
        -0.11108E+02
        -0.80034E+02
        -0.61679E+02
        -0.77861E+02
        -0.41073E+02
        -0.54132E+02
        -0.58129E+02
         0.35613E+01
        -0.54051E+02
         0.44042E+02
        -0.14880E+02
        -0.43127E+02
        -0.76437E+02
        -0.13741E+03
        -0.39200E+02
        -0.12440E+02
        -0.69870E+02
         0.35935E+02
        -0.75046E+02
        -0.79467E+02
        -0.11066E+03
        -0.83655E+02
         0.22060E+03
         0.13493E+03
         0.24886E+03
         0.13595E+03
        -0.28962E+02
         0.12789E+01
         0.97614E+00
        -0.16183E+03
        -0.19923E+03
        -0.10955E+03
         0.19208E+02
        -0.54718E+02
        -0.22105E+03
         0.16727E+02
         0.58728E+02
         0.28934E+02
         0.93964E+02
         0.18519E+03
         0.15252E+03
         0.70338E+02
        -0.12982E+02
         0.57654E+02
        -0.29851E+02
        -0.12864E+01
        -0.35876E+01
        -0.12430E+02
        -0.58498E+01
         0.71018E+02
         0.20431E+03
         0.40429E+03
         0.61753E+03
         0.47337E+03
         0.41685E+03
         0.45644E+03
         0.19177E+03
        -0.11853E+03
        -0.19062E+03
        -0.16320E+03
        -0.71460E+02
        -0.57780E+02
        -0.15891E+03
        -0.33994E+03
        -0.50863E+03
        -0.45171E+03
        -0.45015E+03
        -0.33719E+03
        -0.16233E+03
        -0.20069E+02
        -0.28479E+02
        -0.29346E+02
         0.21468E+02
         0.93886E+02
         0.21464E+02
         0.74449E+02
        -0.43391E+02
        -0.39595E+02
        -0.36572E+02
        -0.57707E+02
        -0.44685E+02
        -0.33385E+02
        -0.38509E+02
        -0.50120E+02
        -0.21605E+02
         0.13943E+02
        -0.60465E+02
         0.22929E+02
         0.77421E+01
        -0.57097E+02
        -0.58621E+02
        -0.16076E+03
        -0.98029E+01
         0.33845E+02
        -0.61095E+02
         0.82348E+02
        -0.54894E+02
        -0.39912E+02
        -0.31861E+02
        -0.10629E+03
         0.27491E+03
         0.21111E+03
         0.25084E+03
         0.19105E+03
         0.18808E+02
        -0.56809E+01
        -0.22978E+02
         0.16072E+02
         0.46550E+02
         0.39725E+02
         0.58850E+02
        -0.31608E+02
        -0.21024E+03
         0.33780E+02
         0.68194E+02
         0.23620E+02
         0.95296E+02
         0.17793E+03
         0.16687E+03
         0.10887E+03
        -0.58899E+01
         0.98575E+02
         0.33040E+02
         0.21483E+02
         0.95066E+01
        -0.11564E+02
        -0.14847E+02
         0.10651E+02
         0.66357E+02
         0.82112E+02
        -0.16109E+01
        -0.66214E+02
         0.19159E+03
         0.59897E+03
         0.58342E+03
         0.98214E+01
        -0.46901E+03
        -0.51054E+03
        -0.30247E+03
        -0.19547E+03
        -0.27710E+03
        -0.32328E+03
        -0.56238E+03
        -0.51258E+03
        -0.50195E+03
        -0.34633E+03
        -0.21244E+03
        -0.75780E+02
         0.74989E+02
         0.28170E+02
         0.14341E+03
         0.17561E+03
         0.19089E+03
         0.19440E+03
        -0.76404E+00
         0.25749E+02
         0.17673E+02
         0.87951E+01
         0.16318E+02
         0.20068E+02
        -0.32335E+01
         0.28774E+02
         0.41301E+02
         0.45333E+02
        -0.32333E+02
         0.54429E+02
         0.10532E+02
        -0.98010E+02
        -0.18482E+03
        -0.21226E+03
        -0.16771E+03
         0.17338E+02
        -0.26328E+02
         0.87685E+02
         0.54364E+02
         0.11082E+03
         0.24579E+03
        -0.11497E+03
         0.24336E+03
         0.21187E+03
         0.23682E+03
         0.23138E+03
         0.15133E+03
         0.57860E+02
        -0.12945E+02
         0.12262E+03
         0.22311E+03
         0.31520E+03
         0.45613E+03
         0.45252E+03
        -0.72144E+01
        -0.70674E+02
         0.31658E+02
         0.14297E+02
         0.12694E+03
         0.23159E+03
         0.26250E+03
         0.17170E+03
         0.54701E+02
         0.12307E+03
         0.15266E+03
         0.94768E+02
         0.46617E+01
        -0.79671E+02
        -0.43580E+02
        -0.14194E+02
        -0.93269E+02
        -0.23539E+03
        -0.33860E+03
        -0.13351E+03
         0.46006E+03
         0.13388E+04
         0.13864E+04
         0.17316E+03
        -0.82969E+03
        -0.92346E+03
        -0.64692E+03
        -0.42825E+03
        -0.36493E+03
        -0.52450E+03
        -0.53476E+03
        -0.39439E+03
        -0.24486E+03
        -0.14870E+03
        -0.30732E+02
         0.42733E+02
  
SCALARS        characteristic_distance  double 1
LOOKUP_TABLE default
         0.00000E+00
         0.00000E+00
         0.00000E+00
         0.00000E+00
         0.00000E+00
         0.00000E+00
         0.00000E+00
         0.00000E+00
         0.00000E+00
         0.00000E+00
         0.00000E+00
         0.00000E+00
         0.00000E+00
         0.00000E+00
         0.00000E+00
         0.00000E+00
         0.00000E+00
         0.00000E+00
         0.00000E+00
         0.00000E+00
         0.00000E+00
         0.00000E+00
         0.00000E+00
         0.00000E+00
         0.00000E+00
         0.00000E+00
         0.00000E+00
         0.00000E+00
         0.00000E+00
         0.00000E+00
         0.00000E+00
         0.00000E+00
         0.00000E+00
         0.00000E+00
         0.00000E+00
         0.00000E+00
         0.00000E+00
         0.00000E+00
         0.00000E+00
         0.00000E+00
         0.00000E+00
         0.00000E+00
         0.00000E+00
         0.00000E+00
         0.00000E+00
         0.00000E+00
         0.00000E+00
         0.00000E+00
         0.00000E+00
         0.00000E+00
         0.00000E+00
         0.00000E+00
         0.00000E+00
         0.00000E+00
         0.00000E+00
         0.00000E+00
         0.00000E+00
         0.00000E+00
         0.00000E+00
         0.00000E+00
         0.00000E+00
         0.00000E+00
         0.00000E+00
         0.00000E+00
         0.00000E+00
         0.00000E+00
         0.00000E+00
         0.00000E+00
         0.00000E+00
         0.00000E+00
         0.00000E+00
         0.00000E+00
         0.00000E+00
         0.00000E+00
         0.00000E+00
         0.00000E+00
         0.00000E+00
         0.00000E+00
         0.00000E+00
         0.00000E+00
         0.00000E+00
         0.00000E+00
         0.00000E+00
         0.00000E+00
         0.00000E+00
         0.00000E+00
         0.00000E+00
         0.00000E+00
         0.00000E+00
         0.00000E+00
         0.00000E+00
         0.00000E+00
         0.00000E+00
         0.00000E+00
         0.00000E+00
         0.00000E+00
         0.00000E+00
         0.00000E+00
         0.00000E+00
         0.00000E+00
         0.00000E+00
         0.00000E+00
         0.00000E+00
         0.00000E+00
         0.00000E+00
         0.00000E+00
         0.00000E+00
         0.00000E+00
         0.00000E+00
         0.00000E+00
         0.00000E+00
         0.00000E+00
         0.00000E+00
         0.00000E+00
         0.00000E+00
         0.00000E+00
         0.00000E+00
         0.00000E+00
         0.00000E+00
         0.00000E+00
         0.00000E+00
         0.00000E+00
         0.00000E+00
         0.00000E+00
         0.00000E+00
         0.00000E+00
         0.00000E+00
         0.00000E+00
         0.00000E+00
         0.00000E+00
         0.00000E+00
         0.00000E+00
         0.00000E+00
         0.00000E+00
         0.00000E+00
         0.00000E+00
         0.00000E+00
         0.00000E+00
         0.00000E+00
         0.00000E+00
         0.00000E+00
         0.00000E+00
         0.00000E+00
         0.00000E+00
         0.00000E+00
         0.00000E+00
         0.00000E+00
         0.00000E+00
         0.00000E+00
         0.00000E+00
         0.00000E+00
         0.00000E+00
         0.00000E+00
         0.00000E+00
         0.00000E+00
         0.00000E+00
         0.00000E+00
         0.00000E+00
         0.00000E+00
         0.00000E+00
         0.00000E+00
         0.00000E+00
         0.00000E+00
         0.00000E+00
         0.00000E+00
         0.00000E+00
         0.00000E+00
         0.00000E+00
         0.00000E+00
         0.00000E+00
         0.00000E+00
         0.00000E+00
         0.00000E+00
         0.00000E+00
         0.00000E+00
         0.00000E+00
         0.00000E+00
         0.00000E+00
         0.00000E+00
         0.00000E+00
         0.00000E+00
         0.00000E+00
         0.00000E+00
         0.00000E+00
         0.00000E+00
         0.00000E+00
         0.00000E+00
         0.00000E+00
         0.00000E+00
         0.00000E+00
         0.00000E+00
         0.00000E+00
         0.00000E+00
         0.00000E+00
         0.00000E+00
         0.00000E+00
         0.00000E+00
         0.00000E+00
         0.00000E+00
         0.00000E+00
         0.00000E+00
         0.00000E+00
         0.00000E+00
         0.00000E+00
         0.00000E+00
         0.00000E+00
         0.00000E+00
         0.00000E+00
         0.00000E+00
         0.00000E+00
         0.00000E+00
         0.00000E+00
         0.00000E+00
         0.00000E+00
         0.00000E+00
         0.00000E+00
         0.00000E+00
         0.00000E+00
         0.00000E+00
         0.00000E+00
         0.00000E+00
         0.00000E+00
         0.00000E+00
         0.00000E+00
         0.00000E+00
         0.00000E+00
         0.00000E+00
         0.00000E+00
         0.00000E+00
         0.00000E+00
         0.00000E+00
         0.00000E+00
         0.00000E+00
         0.00000E+00
         0.00000E+00
         0.00000E+00
         0.00000E+00
         0.00000E+00
         0.00000E+00
         0.00000E+00
         0.00000E+00
         0.00000E+00
         0.00000E+00
         0.00000E+00
         0.00000E+00
         0.00000E+00
         0.00000E+00
         0.00000E+00
         0.00000E+00
         0.00000E+00
         0.00000E+00
         0.00000E+00
         0.00000E+00
         0.00000E+00
         0.00000E+00
         0.00000E+00
         0.00000E+00
         0.00000E+00
         0.00000E+00
         0.00000E+00
         0.00000E+00
         0.00000E+00
         0.00000E+00
         0.00000E+00
         0.00000E+00
         0.00000E+00
         0.00000E+00
         0.00000E+00
         0.00000E+00
         0.00000E+00
         0.00000E+00
         0.00000E+00
         0.00000E+00
         0.00000E+00
         0.00000E+00
         0.00000E+00
         0.00000E+00
         0.00000E+00
         0.00000E+00
         0.00000E+00
         0.00000E+00
         0.00000E+00
         0.00000E+00
         0.00000E+00
         0.00000E+00
         0.00000E+00
         0.00000E+00
         0.00000E+00
         0.00000E+00
         0.00000E+00
         0.00000E+00
         0.00000E+00
         0.00000E+00
         0.00000E+00
         0.00000E+00
         0.00000E+00
         0.00000E+00
         0.00000E+00
         0.00000E+00
         0.00000E+00
         0.00000E+00
         0.00000E+00
         0.00000E+00
         0.00000E+00
         0.00000E+00
         0.00000E+00
         0.00000E+00
         0.00000E+00
         0.00000E+00
         0.00000E+00
         0.00000E+00
         0.00000E+00
         0.00000E+00
         0.00000E+00
         0.00000E+00
         0.00000E+00
         0.00000E+00
         0.00000E+00
         0.00000E+00
         0.00000E+00
         0.00000E+00
         0.00000E+00
         0.00000E+00
         0.00000E+00
         0.00000E+00
         0.00000E+00
         0.00000E+00
         0.00000E+00
         0.00000E+00
         0.00000E+00
         0.00000E+00
         0.00000E+00
         0.00000E+00
         0.00000E+00
         0.00000E+00
         0.00000E+00
         0.00000E+00
         0.00000E+00
         0.00000E+00
         0.00000E+00
         0.00000E+00
         0.00000E+00
         0.00000E+00
         0.00000E+00
         0.00000E+00
         0.00000E+00
         0.00000E+00
         0.00000E+00
         0.00000E+00
         0.00000E+00
         0.00000E+00
         0.00000E+00
         0.00000E+00
         0.00000E+00
         0.00000E+00
         0.00000E+00
         0.00000E+00
         0.00000E+00
         0.00000E+00
         0.00000E+00
         0.00000E+00
         0.00000E+00
         0.00000E+00
         0.00000E+00
         0.00000E+00
         0.00000E+00
         0.00000E+00
         0.00000E+00
         0.00000E+00
         0.00000E+00
         0.00000E+00
         0.00000E+00
         0.00000E+00
         0.00000E+00
         0.00000E+00
         0.00000E+00
         0.00000E+00
         0.00000E+00
         0.00000E+00
         0.00000E+00
         0.00000E+00
         0.00000E+00
         0.00000E+00
         0.00000E+00
         0.00000E+00
         0.00000E+00
         0.00000E+00
         0.00000E+00
         0.00000E+00
         0.00000E+00
         0.00000E+00
         0.00000E+00
         0.00000E+00
         0.00000E+00
         0.00000E+00
         0.00000E+00
         0.00000E+00
         0.00000E+00
         0.00000E+00
         0.00000E+00
         0.00000E+00
         0.00000E+00
         0.00000E+00
         0.00000E+00
         0.00000E+00
         0.00000E+00
         0.00000E+00
         0.00000E+00
         0.00000E+00
         0.00000E+00
         0.00000E+00
         0.00000E+00
         0.00000E+00
         0.00000E+00
         0.00000E+00
         0.00000E+00
         0.00000E+00
         0.00000E+00
         0.00000E+00
         0.00000E+00
         0.00000E+00
         0.00000E+00
         0.00000E+00
         0.00000E+00
         0.00000E+00
         0.00000E+00
         0.00000E+00
         0.00000E+00
         0.00000E+00
         0.00000E+00
         0.00000E+00
         0.00000E+00
         0.00000E+00
         0.00000E+00
         0.00000E+00
         0.00000E+00
         0.00000E+00
         0.00000E+00
         0.00000E+00
         0.00000E+00
         0.00000E+00
         0.00000E+00
         0.00000E+00
         0.00000E+00
         0.00000E+00
         0.00000E+00
         0.00000E+00
         0.00000E+00
         0.00000E+00
         0.00000E+00
         0.00000E+00
         0.00000E+00
         0.00000E+00
         0.00000E+00
         0.00000E+00
         0.00000E+00
         0.00000E+00
         0.00000E+00
         0.00000E+00
         0.00000E+00
         0.00000E+00
         0.00000E+00
         0.00000E+00
         0.00000E+00
         0.00000E+00
         0.00000E+00
         0.00000E+00
         0.00000E+00
         0.00000E+00
         0.00000E+00
         0.00000E+00
         0.00000E+00
         0.00000E+00
         0.00000E+00
         0.00000E+00
         0.00000E+00
         0.00000E+00
         0.00000E+00
         0.00000E+00
         0.00000E+00
         0.00000E+00
         0.00000E+00
         0.00000E+00
         0.00000E+00
         0.00000E+00
         0.00000E+00
         0.00000E+00
         0.00000E+00
         0.00000E+00
         0.00000E+00
         0.00000E+00
         0.00000E+00
         0.00000E+00
         0.00000E+00
         0.00000E+00
         0.00000E+00
         0.00000E+00
         0.00000E+00
         0.00000E+00
         0.00000E+00
         0.00000E+00
         0.00000E+00
         0.00000E+00
         0.00000E+00
         0.00000E+00
         0.00000E+00
         0.00000E+00
         0.00000E+00
         0.00000E+00
         0.00000E+00
         0.00000E+00
         0.00000E+00
         0.00000E+00
         0.00000E+00
         0.00000E+00
         0.00000E+00
         0.00000E+00
         0.00000E+00
         0.00000E+00
         0.00000E+00
         0.00000E+00
         0.00000E+00
         0.00000E+00
         0.00000E+00
         0.00000E+00
         0.00000E+00
         0.00000E+00
         0.00000E+00
         0.00000E+00
         0.00000E+00
         0.00000E+00
         0.00000E+00
         0.00000E+00
         0.00000E+00
         0.00000E+00
         0.00000E+00
         0.00000E+00
         0.00000E+00
         0.00000E+00
         0.00000E+00
         0.00000E+00
         0.00000E+00
         0.00000E+00
         0.00000E+00
         0.00000E+00
         0.00000E+00
         0.00000E+00
         0.00000E+00
         0.00000E+00
         0.00000E+00
         0.00000E+00
         0.00000E+00
         0.00000E+00
         0.00000E+00
         0.00000E+00
         0.00000E+00
         0.00000E+00
         0.00000E+00
         0.00000E+00
         0.00000E+00
         0.00000E+00
         0.00000E+00
         0.00000E+00
         0.00000E+00
         0.00000E+00
         0.00000E+00
         0.00000E+00
         0.00000E+00
         0.00000E+00
         0.00000E+00
         0.00000E+00
         0.00000E+00
         0.00000E+00
         0.00000E+00
         0.00000E+00
         0.00000E+00
         0.00000E+00
         0.00000E+00
         0.00000E+00
         0.00000E+00
         0.00000E+00
         0.00000E+00
         0.00000E+00
         0.00000E+00
         0.00000E+00
         0.00000E+00
         0.00000E+00
         0.00000E+00
         0.00000E+00
         0.00000E+00
         0.00000E+00
         0.00000E+00
         0.00000E+00
         0.00000E+00
         0.00000E+00
         0.00000E+00
         0.00000E+00
         0.00000E+00
         0.00000E+00
         0.00000E+00
         0.00000E+00
         0.00000E+00
         0.00000E+00
         0.00000E+00
         0.00000E+00
         0.00000E+00
         0.00000E+00
         0.00000E+00
         0.00000E+00
         0.00000E+00
         0.00000E+00
         0.00000E+00
         0.00000E+00
         0.00000E+00
         0.00000E+00
         0.00000E+00
         0.00000E+00
         0.00000E+00
         0.00000E+00
         0.00000E+00
         0.00000E+00
         0.00000E+00
         0.00000E+00
         0.00000E+00
         0.00000E+00
         0.00000E+00
         0.00000E+00
         0.00000E+00
         0.00000E+00
         0.00000E+00
         0.00000E+00
         0.00000E+00
         0.00000E+00
         0.00000E+00
         0.00000E+00
         0.00000E+00
         0.00000E+00
         0.00000E+00
         0.00000E+00
         0.00000E+00
         0.00000E+00
         0.00000E+00
         0.00000E+00
         0.00000E+00
         0.00000E+00
         0.00000E+00
         0.00000E+00
         0.00000E+00
         0.00000E+00
         0.00000E+00
         0.00000E+00
         0.00000E+00
         0.00000E+00
         0.00000E+00
         0.00000E+00
         0.00000E+00
         0.00000E+00
         0.00000E+00
         0.00000E+00
         0.00000E+00
         0.00000E+00
         0.00000E+00
         0.00000E+00
         0.00000E+00
         0.00000E+00
         0.00000E+00
         0.00000E+00
         0.00000E+00
         0.00000E+00
         0.00000E+00
         0.00000E+00
         0.00000E+00
         0.00000E+00
         0.00000E+00
         0.00000E+00
         0.00000E+00
         0.00000E+00
         0.00000E+00
         0.00000E+00
         0.00000E+00
         0.00000E+00
         0.00000E+00
         0.00000E+00
         0.00000E+00
         0.00000E+00
         0.00000E+00
         0.00000E+00
         0.00000E+00
         0.00000E+00
         0.00000E+00
         0.00000E+00
         0.00000E+00
         0.00000E+00
         0.00000E+00
         0.00000E+00
         0.00000E+00
         0.00000E+00
         0.00000E+00
         0.00000E+00
         0.00000E+00
         0.00000E+00
         0.00000E+00
         0.00000E+00
         0.00000E+00
         0.00000E+00
         0.00000E+00
         0.00000E+00
         0.00000E+00
         0.00000E+00
         0.00000E+00
         0.00000E+00
         0.00000E+00
         0.00000E+00
         0.00000E+00
         0.00000E+00
         0.00000E+00
         0.00000E+00
         0.00000E+00
         0.00000E+00
         0.00000E+00
         0.00000E+00
         0.00000E+00
         0.00000E+00
         0.00000E+00
         0.00000E+00
         0.00000E+00
         0.00000E+00
         0.00000E+00
         0.00000E+00
         0.00000E+00
         0.00000E+00
         0.00000E+00
         0.00000E+00
         0.00000E+00
         0.00000E+00
         0.00000E+00
         0.00000E+00
         0.00000E+00
         0.00000E+00
         0.00000E+00
         0.00000E+00
         0.00000E+00
         0.00000E+00
         0.00000E+00
         0.00000E+00
         0.00000E+00
         0.00000E+00
         0.00000E+00
         0.00000E+00
         0.00000E+00
         0.00000E+00
         0.00000E+00
         0.00000E+00
         0.00000E+00
         0.00000E+00
         0.00000E+00
         0.00000E+00
         0.00000E+00
         0.00000E+00
         0.00000E+00
         0.00000E+00
         0.00000E+00
         0.00000E+00
         0.00000E+00
         0.00000E+00
         0.00000E+00
         0.00000E+00
         0.00000E+00
         0.00000E+00
         0.00000E+00
         0.00000E+00
         0.00000E+00
         0.00000E+00
         0.00000E+00
         0.00000E+00
         0.00000E+00
         0.00000E+00
         0.00000E+00
         0.00000E+00
         0.00000E+00
         0.00000E+00
         0.00000E+00
         0.00000E+00
         0.00000E+00
         0.00000E+00
         0.00000E+00
         0.00000E+00
         0.00000E+00
         0.00000E+00
         0.00000E+00
         0.00000E+00
         0.00000E+00
         0.00000E+00
         0.00000E+00
         0.00000E+00
         0.00000E+00
         0.00000E+00
         0.00000E+00
         0.00000E+00
         0.00000E+00
         0.00000E+00
         0.00000E+00
         0.00000E+00
         0.00000E+00
         0.00000E+00
         0.00000E+00
         0.00000E+00
         0.00000E+00
         0.00000E+00
         0.00000E+00
         0.00000E+00
         0.00000E+00
         0.00000E+00
         0.00000E+00
         0.00000E+00
         0.00000E+00
         0.00000E+00
         0.00000E+00
         0.00000E+00
         0.00000E+00
         0.00000E+00
         0.00000E+00
         0.00000E+00
         0.00000E+00
         0.00000E+00
         0.00000E+00
         0.00000E+00
         0.00000E+00
         0.00000E+00
         0.00000E+00
         0.00000E+00
         0.00000E+00
         0.00000E+00
         0.00000E+00
         0.00000E+00
         0.00000E+00
         0.00000E+00
         0.00000E+00
         0.00000E+00
         0.00000E+00
         0.00000E+00
         0.00000E+00
         0.00000E+00
         0.00000E+00
         0.00000E+00
         0.00000E+00
         0.00000E+00
         0.00000E+00
         0.00000E+00
         0.00000E+00
         0.00000E+00
         0.00000E+00
         0.00000E+00
         0.00000E+00
         0.00000E+00
         0.00000E+00
         0.00000E+00
         0.00000E+00
         0.00000E+00
         0.00000E+00
         0.00000E+00
         0.00000E+00
         0.00000E+00
         0.00000E+00
         0.00000E+00
         0.00000E+00
         0.00000E+00
         0.00000E+00
         0.00000E+00
         0.00000E+00
         0.00000E+00
         0.00000E+00
         0.00000E+00
         0.00000E+00
         0.00000E+00
         0.00000E+00
         0.00000E+00
         0.00000E+00
         0.00000E+00
         0.00000E+00
         0.00000E+00
         0.00000E+00
         0.00000E+00
         0.00000E+00
         0.00000E+00
         0.00000E+00
         0.00000E+00
         0.00000E+00
         0.00000E+00
         0.00000E+00
         0.00000E+00
         0.00000E+00
         0.00000E+00
         0.00000E+00
         0.00000E+00
         0.00000E+00
         0.00000E+00
         0.00000E+00
         0.00000E+00
         0.00000E+00
         0.00000E+00
         0.00000E+00
         0.00000E+00
         0.00000E+00
         0.00000E+00
         0.00000E+00
         0.00000E+00
         0.00000E+00
         0.00000E+00
         0.00000E+00
         0.00000E+00
         0.00000E+00
         0.00000E+00
         0.00000E+00
         0.00000E+00
         0.00000E+00
         0.00000E+00
         0.00000E+00
         0.00000E+00
         0.00000E+00
         0.00000E+00
         0.00000E+00
         0.00000E+00
         0.00000E+00
         0.00000E+00
         0.00000E+00
         0.00000E+00
         0.00000E+00
         0.00000E+00
         0.00000E+00
         0.00000E+00
         0.00000E+00
         0.00000E+00
         0.00000E+00
         0.00000E+00
         0.00000E+00
         0.00000E+00
         0.00000E+00
         0.00000E+00
         0.00000E+00
         0.00000E+00
         0.00000E+00
         0.00000E+00
         0.00000E+00
         0.00000E+00
         0.00000E+00
         0.00000E+00
         0.00000E+00
         0.00000E+00
         0.00000E+00
         0.00000E+00
         0.00000E+00
         0.00000E+00
         0.00000E+00
         0.00000E+00
         0.00000E+00
         0.00000E+00
         0.00000E+00
         0.00000E+00
         0.00000E+00
         0.00000E+00
         0.00000E+00
         0.00000E+00
         0.00000E+00
         0.00000E+00
         0.00000E+00
         0.00000E+00
         0.00000E+00
         0.00000E+00
         0.00000E+00
         0.00000E+00
         0.00000E+00
         0.00000E+00
         0.00000E+00
         0.00000E+00
         0.00000E+00
         0.00000E+00
         0.00000E+00
         0.00000E+00
         0.00000E+00
         0.00000E+00
         0.00000E+00
         0.00000E+00
         0.00000E+00
         0.00000E+00
         0.00000E+00
         0.00000E+00
         0.00000E+00
         0.00000E+00
         0.00000E+00
         0.00000E+00
         0.00000E+00
         0.00000E+00
         0.00000E+00
         0.00000E+00
         0.00000E+00
         0.00000E+00
         0.00000E+00
         0.00000E+00
         0.00000E+00
         0.00000E+00
         0.00000E+00
         0.00000E+00
         0.00000E+00
         0.00000E+00
         0.00000E+00
         0.00000E+00
         0.00000E+00
         0.00000E+00
         0.00000E+00
         0.00000E+00
         0.00000E+00
         0.00000E+00
         0.00000E+00
         0.00000E+00
         0.00000E+00
         0.00000E+00
         0.00000E+00
         0.00000E+00
         0.00000E+00
         0.00000E+00
         0.00000E+00
         0.00000E+00
         0.00000E+00
         0.00000E+00
         0.00000E+00
         0.00000E+00
         0.00000E+00
         0.00000E+00
         0.00000E+00
         0.00000E+00
         0.00000E+00
         0.00000E+00
         0.00000E+00
         0.00000E+00
         0.00000E+00
         0.00000E+00
         0.00000E+00
         0.00000E+00
         0.00000E+00
         0.00000E+00
         0.00000E+00
         0.00000E+00
         0.00000E+00
         0.00000E+00
         0.00000E+00
         0.00000E+00
         0.00000E+00
         0.00000E+00
         0.00000E+00
         0.00000E+00
         0.00000E+00
         0.00000E+00
         0.00000E+00
         0.00000E+00
         0.00000E+00
         0.00000E+00
         0.00000E+00
         0.00000E+00
         0.00000E+00
         0.00000E+00
         0.00000E+00
         0.00000E+00
         0.00000E+00
         0.00000E+00
         0.00000E+00
         0.00000E+00
         0.00000E+00
         0.00000E+00
         0.00000E+00
         0.00000E+00
         0.00000E+00
         0.00000E+00
         0.00000E+00
         0.00000E+00
         0.00000E+00
         0.00000E+00
         0.00000E+00
         0.00000E+00
         0.00000E+00
         0.00000E+00
         0.00000E+00
         0.00000E+00
         0.00000E+00
         0.00000E+00
         0.00000E+00
         0.00000E+00
         0.00000E+00
         0.00000E+00
         0.00000E+00
         0.00000E+00
         0.00000E+00
         0.00000E+00
         0.00000E+00
         0.00000E+00
         0.00000E+00
         0.00000E+00
         0.00000E+00
         0.00000E+00
         0.00000E+00
         0.00000E+00
         0.00000E+00
         0.00000E+00
         0.00000E+00
         0.00000E+00
         0.00000E+00
         0.00000E+00
         0.00000E+00
         0.00000E+00
         0.00000E+00
         0.00000E+00
         0.00000E+00
         0.00000E+00
         0.00000E+00
         0.00000E+00
         0.00000E+00
         0.00000E+00
         0.00000E+00
         0.00000E+00
         0.00000E+00
         0.00000E+00
         0.00000E+00
         0.00000E+00
         0.00000E+00
         0.00000E+00
         0.00000E+00
         0.00000E+00
         0.00000E+00
         0.00000E+00
         0.00000E+00
         0.00000E+00
         0.00000E+00
         0.00000E+00
         0.00000E+00
         0.00000E+00
         0.00000E+00
         0.00000E+00
         0.00000E+00
         0.00000E+00
         0.00000E+00
         0.00000E+00
         0.00000E+00
         0.00000E+00
         0.00000E+00
         0.00000E+00
         0.00000E+00
         0.00000E+00
         0.00000E+00
         0.00000E+00
         0.00000E+00
         0.00000E+00
         0.00000E+00
         0.00000E+00
         0.00000E+00
         0.00000E+00
         0.00000E+00
         0.00000E+00
         0.00000E+00
         0.00000E+00
         0.00000E+00
         0.00000E+00
         0.00000E+00
         0.00000E+00
         0.00000E+00
         0.00000E+00
         0.00000E+00
         0.00000E+00
         0.00000E+00
         0.00000E+00
         0.00000E+00
         0.00000E+00
         0.00000E+00
         0.00000E+00
         0.00000E+00
         0.00000E+00
         0.00000E+00
         0.00000E+00
         0.00000E+00
         0.00000E+00
         0.00000E+00
         0.00000E+00
         0.00000E+00
         0.00000E+00
         0.00000E+00
         0.00000E+00
         0.00000E+00
         0.00000E+00
         0.00000E+00
         0.00000E+00
         0.00000E+00
         0.00000E+00
         0.00000E+00
         0.00000E+00
         0.00000E+00
         0.00000E+00
         0.00000E+00
         0.00000E+00
         0.00000E+00
         0.00000E+00
         0.00000E+00
         0.00000E+00
         0.00000E+00
         0.00000E+00
         0.00000E+00
         0.00000E+00
         0.00000E+00
         0.00000E+00
         0.00000E+00
         0.00000E+00
         0.00000E+00
         0.00000E+00
         0.00000E+00
         0.00000E+00
         0.00000E+00
         0.00000E+00
         0.00000E+00
         0.00000E+00
         0.00000E+00
         0.00000E+00
         0.00000E+00
         0.00000E+00
         0.00000E+00
         0.00000E+00
         0.00000E+00
         0.00000E+00
         0.00000E+00
         0.00000E+00
         0.00000E+00
         0.00000E+00
         0.00000E+00
         0.00000E+00
         0.00000E+00
         0.00000E+00
         0.00000E+00
         0.00000E+00
         0.00000E+00
         0.00000E+00
         0.00000E+00
         0.00000E+00
         0.00000E+00
         0.00000E+00
         0.00000E+00
         0.00000E+00
         0.00000E+00
         0.00000E+00
         0.00000E+00
         0.00000E+00
         0.00000E+00
         0.00000E+00
         0.00000E+00
         0.00000E+00
         0.00000E+00
         0.00000E+00
         0.00000E+00
         0.00000E+00
         0.00000E+00
         0.00000E+00
         0.00000E+00
         0.00000E+00
         0.00000E+00
         0.00000E+00
         0.00000E+00
         0.00000E+00
         0.00000E+00
         0.00000E+00
         0.00000E+00
         0.00000E+00
         0.00000E+00
         0.00000E+00
         0.00000E+00
         0.00000E+00
         0.00000E+00
         0.00000E+00
         0.00000E+00
         0.00000E+00
         0.00000E+00
         0.00000E+00
         0.00000E+00
         0.00000E+00
         0.00000E+00
         0.00000E+00
         0.00000E+00
         0.00000E+00
         0.00000E+00
         0.00000E+00
         0.00000E+00
         0.00000E+00
         0.00000E+00
         0.00000E+00
         0.00000E+00
         0.00000E+00
         0.00000E+00
         0.00000E+00
         0.00000E+00
         0.00000E+00
         0.00000E+00
         0.00000E+00
         0.00000E+00
         0.00000E+00
         0.00000E+00
         0.00000E+00
         0.00000E+00
         0.00000E+00
         0.00000E+00
         0.00000E+00
         0.00000E+00
         0.00000E+00
         0.00000E+00
         0.00000E+00
         0.00000E+00
         0.00000E+00
         0.00000E+00
         0.00000E+00
         0.00000E+00
         0.00000E+00
         0.00000E+00
         0.00000E+00
         0.00000E+00
         0.00000E+00
         0.00000E+00
         0.00000E+00
         0.00000E+00
         0.00000E+00
         0.00000E+00
         0.00000E+00
         0.00000E+00
         0.00000E+00
         0.00000E+00
         0.00000E+00
         0.00000E+00
         0.00000E+00
         0.00000E+00
         0.00000E+00
         0.00000E+00
         0.00000E+00
         0.00000E+00
         0.00000E+00
         0.00000E+00
         0.00000E+00
         0.00000E+00
         0.00000E+00
         0.00000E+00
         0.00000E+00
         0.00000E+00
         0.00000E+00
         0.00000E+00
         0.00000E+00
         0.00000E+00
         0.00000E+00
         0.00000E+00
         0.00000E+00
         0.00000E+00
         0.00000E+00
         0.00000E+00
         0.00000E+00
         0.00000E+00
         0.00000E+00
         0.00000E+00
         0.00000E+00
         0.00000E+00
         0.00000E+00
         0.00000E+00
         0.00000E+00
         0.00000E+00
         0.00000E+00
         0.00000E+00
         0.00000E+00
         0.00000E+00
         0.00000E+00
         0.00000E+00
         0.00000E+00
         0.00000E+00
         0.00000E+00
         0.00000E+00
         0.00000E+00
         0.00000E+00
         0.00000E+00
         0.00000E+00
         0.00000E+00
         0.00000E+00
         0.00000E+00
         0.00000E+00
         0.00000E+00
         0.00000E+00
         0.00000E+00
         0.00000E+00
         0.00000E+00
         0.00000E+00
         0.00000E+00
         0.00000E+00
         0.00000E+00
         0.00000E+00
         0.00000E+00
         0.00000E+00
         0.00000E+00
         0.00000E+00
         0.00000E+00
         0.00000E+00
         0.00000E+00
         0.00000E+00
         0.00000E+00
         0.00000E+00
         0.00000E+00
         0.00000E+00
         0.00000E+00
         0.00000E+00
         0.00000E+00
         0.00000E+00
         0.00000E+00
         0.00000E+00
         0.00000E+00
         0.00000E+00
         0.00000E+00
         0.00000E+00
         0.00000E+00
         0.00000E+00
         0.00000E+00
         0.00000E+00
         0.00000E+00
         0.00000E+00
         0.00000E+00
         0.00000E+00
         0.00000E+00
         0.00000E+00
         0.00000E+00
         0.00000E+00
         0.00000E+00
         0.00000E+00
         0.00000E+00
         0.00000E+00
         0.00000E+00
         0.00000E+00
         0.00000E+00
         0.00000E+00
         0.00000E+00
         0.00000E+00
         0.00000E+00
         0.00000E+00
         0.00000E+00
         0.00000E+00
         0.00000E+00
         0.00000E+00
         0.00000E+00
         0.00000E+00
         0.00000E+00
         0.00000E+00
         0.00000E+00
         0.00000E+00
         0.00000E+00
         0.00000E+00
         0.00000E+00
         0.00000E+00
         0.00000E+00
         0.00000E+00
         0.00000E+00
         0.00000E+00
         0.00000E+00
         0.00000E+00
         0.00000E+00
         0.00000E+00
         0.00000E+00
         0.00000E+00
         0.00000E+00
         0.00000E+00
         0.00000E+00
         0.00000E+00
         0.00000E+00
         0.00000E+00
         0.00000E+00
         0.00000E+00
         0.00000E+00
         0.00000E+00
         0.00000E+00
         0.00000E+00
         0.00000E+00
         0.00000E+00
         0.00000E+00
         0.00000E+00
         0.00000E+00
         0.00000E+00
         0.00000E+00
         0.00000E+00
         0.00000E+00
         0.00000E+00
         0.00000E+00
         0.00000E+00
         0.00000E+00
         0.00000E+00
         0.00000E+00
         0.00000E+00
         0.00000E+00
         0.00000E+00
         0.00000E+00
         0.00000E+00
         0.00000E+00
         0.00000E+00
         0.00000E+00
         0.00000E+00
         0.00000E+00
         0.00000E+00
         0.00000E+00
         0.00000E+00
         0.00000E+00
         0.00000E+00
         0.00000E+00
         0.00000E+00
         0.00000E+00
         0.00000E+00
         0.00000E+00
         0.00000E+00
         0.00000E+00
         0.00000E+00
         0.00000E+00
         0.00000E+00
         0.00000E+00
         0.00000E+00
         0.00000E+00
         0.00000E+00
         0.00000E+00
         0.00000E+00
         0.00000E+00
         0.00000E+00
         0.00000E+00
         0.00000E+00
         0.00000E+00
         0.00000E+00
         0.00000E+00
         0.00000E+00
         0.00000E+00
         0.00000E+00
         0.00000E+00
         0.00000E+00
         0.00000E+00
         0.00000E+00
         0.00000E+00
         0.00000E+00
         0.00000E+00
         0.00000E+00
         0.00000E+00
         0.00000E+00
         0.00000E+00
         0.00000E+00
         0.00000E+00
         0.00000E+00
         0.00000E+00
         0.00000E+00
         0.00000E+00
         0.00000E+00
         0.00000E+00
         0.00000E+00
         0.00000E+00
         0.00000E+00
         0.00000E+00
         0.00000E+00
         0.00000E+00
         0.00000E+00
         0.00000E+00
         0.00000E+00
         0.00000E+00
         0.00000E+00
         0.00000E+00
         0.00000E+00
         0.00000E+00
         0.00000E+00
         0.00000E+00
         0.00000E+00
         0.00000E+00
         0.00000E+00
         0.00000E+00
         0.00000E+00
         0.00000E+00
         0.00000E+00
         0.00000E+00
         0.00000E+00
         0.00000E+00
         0.00000E+00
         0.00000E+00
         0.00000E+00
         0.00000E+00
         0.00000E+00
         0.00000E+00
         0.00000E+00
         0.00000E+00
         0.00000E+00
         0.00000E+00
         0.00000E+00
         0.00000E+00
         0.00000E+00
         0.00000E+00
         0.00000E+00
         0.00000E+00
         0.00000E+00
         0.00000E+00
         0.00000E+00
         0.00000E+00
         0.00000E+00
         0.00000E+00
         0.00000E+00
         0.00000E+00
         0.00000E+00
         0.00000E+00
         0.00000E+00
         0.00000E+00
         0.00000E+00
         0.00000E+00
         0.00000E+00
         0.00000E+00
         0.00000E+00
         0.00000E+00
         0.00000E+00
         0.00000E+00
         0.00000E+00
         0.00000E+00
         0.00000E+00
         0.00000E+00
         0.00000E+00
         0.00000E+00
         0.00000E+00
         0.00000E+00
         0.00000E+00
         0.00000E+00
         0.00000E+00
         0.00000E+00
         0.00000E+00
         0.00000E+00
         0.00000E+00
         0.00000E+00
         0.00000E+00
         0.00000E+00
         0.00000E+00
         0.00000E+00
         0.00000E+00
         0.00000E+00
         0.00000E+00
         0.00000E+00
         0.00000E+00
         0.00000E+00
         0.00000E+00
         0.00000E+00
         0.00000E+00
         0.00000E+00
         0.00000E+00
         0.00000E+00
         0.00000E+00
         0.00000E+00
         0.00000E+00
         0.00000E+00
         0.00000E+00
         0.00000E+00
         0.00000E+00
         0.00000E+00
         0.00000E+00
         0.00000E+00
         0.00000E+00
         0.00000E+00
         0.00000E+00
         0.00000E+00
         0.00000E+00
         0.00000E+00
         0.00000E+00
         0.00000E+00
         0.00000E+00
         0.00000E+00
         0.00000E+00
         0.00000E+00
         0.00000E+00
         0.00000E+00
         0.00000E+00
         0.00000E+00
         0.00000E+00
         0.00000E+00
         0.00000E+00
         0.00000E+00
         0.00000E+00
         0.00000E+00
         0.00000E+00
         0.00000E+00
         0.00000E+00
         0.00000E+00
         0.00000E+00
         0.00000E+00
         0.00000E+00
         0.00000E+00
         0.00000E+00
         0.00000E+00
         0.00000E+00
         0.00000E+00
         0.00000E+00
         0.00000E+00
         0.00000E+00
         0.00000E+00
         0.00000E+00
         0.00000E+00
         0.00000E+00
         0.00000E+00
         0.00000E+00
         0.00000E+00
         0.00000E+00
         0.00000E+00
         0.00000E+00
         0.00000E+00
         0.00000E+00
         0.00000E+00
         0.00000E+00
         0.00000E+00
         0.00000E+00
         0.00000E+00
         0.00000E+00
         0.00000E+00
         0.00000E+00
         0.00000E+00
         0.00000E+00
         0.00000E+00
         0.00000E+00
         0.00000E+00
         0.00000E+00
         0.00000E+00
         0.00000E+00
         0.00000E+00
         0.00000E+00
         0.00000E+00
         0.00000E+00
         0.00000E+00
         0.00000E+00
         0.00000E+00
         0.00000E+00
         0.00000E+00
         0.00000E+00
         0.00000E+00
         0.00000E+00
         0.00000E+00
         0.00000E+00
         0.00000E+00
         0.00000E+00
         0.00000E+00
         0.00000E+00
         0.00000E+00
         0.00000E+00
         0.00000E+00
         0.00000E+00
         0.00000E+00
         0.00000E+00
         0.00000E+00
         0.00000E+00
         0.00000E+00
         0.00000E+00
         0.00000E+00
         0.00000E+00
         0.00000E+00
         0.00000E+00
         0.00000E+00
         0.00000E+00
         0.00000E+00
         0.00000E+00
         0.00000E+00
         0.00000E+00
         0.00000E+00
         0.00000E+00
         0.00000E+00
         0.00000E+00
         0.00000E+00
         0.00000E+00
         0.00000E+00
         0.00000E+00
         0.00000E+00
         0.00000E+00
         0.00000E+00
         0.00000E+00
         0.00000E+00
         0.00000E+00
         0.00000E+00
         0.00000E+00
         0.00000E+00
         0.00000E+00
         0.00000E+00
         0.00000E+00
         0.00000E+00
         0.00000E+00
         0.00000E+00
         0.00000E+00
         0.00000E+00
         0.00000E+00
         0.00000E+00
         0.00000E+00
         0.00000E+00
         0.00000E+00
         0.00000E+00
         0.00000E+00
         0.00000E+00
         0.00000E+00
         0.00000E+00
         0.00000E+00
         0.00000E+00
         0.00000E+00
         0.00000E+00
         0.00000E+00
         0.00000E+00
         0.00000E+00
         0.00000E+00
         0.00000E+00
         0.00000E+00
         0.00000E+00
         0.00000E+00
         0.00000E+00
         0.00000E+00
         0.00000E+00
         0.00000E+00
         0.00000E+00
         0.00000E+00
         0.00000E+00
         0.00000E+00
         0.00000E+00
         0.00000E+00
         0.00000E+00
         0.00000E+00
         0.00000E+00
         0.00000E+00
         0.00000E+00
         0.00000E+00
         0.00000E+00
         0.00000E+00
         0.00000E+00
         0.00000E+00
         0.00000E+00
         0.00000E+00
         0.00000E+00
         0.00000E+00
         0.00000E+00
         0.00000E+00
         0.00000E+00
         0.00000E+00
         0.00000E+00
         0.00000E+00
         0.00000E+00
         0.00000E+00
         0.00000E+00
         0.00000E+00
         0.00000E+00
         0.00000E+00
         0.00000E+00
         0.00000E+00
         0.00000E+00
         0.00000E+00
         0.00000E+00
         0.00000E+00
         0.00000E+00
         0.00000E+00
         0.00000E+00
         0.00000E+00
         0.00000E+00
         0.00000E+00
         0.00000E+00
         0.00000E+00
         0.00000E+00
         0.00000E+00
         0.00000E+00
         0.00000E+00
         0.00000E+00
         0.00000E+00
         0.00000E+00
         0.00000E+00
         0.00000E+00
         0.00000E+00
         0.00000E+00
         0.00000E+00
         0.00000E+00
         0.00000E+00
         0.00000E+00
         0.00000E+00
         0.00000E+00
         0.00000E+00
         0.00000E+00
         0.00000E+00
         0.00000E+00
         0.00000E+00
         0.00000E+00
         0.00000E+00
         0.00000E+00
         0.00000E+00
         0.00000E+00
         0.00000E+00
         0.00000E+00
         0.00000E+00
         0.00000E+00
         0.00000E+00
         0.00000E+00
         0.00000E+00
         0.00000E+00
         0.00000E+00
         0.00000E+00
         0.00000E+00
         0.00000E+00
         0.00000E+00
         0.00000E+00
         0.00000E+00
         0.00000E+00
         0.00000E+00
         0.00000E+00
         0.00000E+00
         0.00000E+00
         0.00000E+00
         0.00000E+00
         0.00000E+00
         0.00000E+00
         0.00000E+00
         0.00000E+00
         0.00000E+00
         0.00000E+00
         0.00000E+00
         0.00000E+00
         0.00000E+00
         0.00000E+00
         0.00000E+00
         0.00000E+00
         0.00000E+00
         0.00000E+00
         0.00000E+00
         0.00000E+00
         0.00000E+00
         0.00000E+00
         0.00000E+00
         0.00000E+00
         0.00000E+00
         0.00000E+00
         0.00000E+00
         0.00000E+00
         0.00000E+00
         0.00000E+00
         0.00000E+00
         0.00000E+00
         0.00000E+00
         0.00000E+00
         0.00000E+00
         0.00000E+00
         0.00000E+00
         0.00000E+00
         0.00000E+00
         0.00000E+00
         0.00000E+00
         0.00000E+00
         0.00000E+00
         0.00000E+00
         0.00000E+00
         0.00000E+00
         0.00000E+00
         0.00000E+00
         0.00000E+00
         0.00000E+00
         0.00000E+00
         0.00000E+00
  
SCALARS                   max_wave_vel  double 1
LOOKUP_TABLE default
         0.00000E+00
         0.00000E+00
         0.00000E+00
         0.00000E+00
         0.00000E+00
         0.00000E+00
         0.00000E+00
         0.00000E+00
         0.00000E+00
         0.00000E+00
         0.00000E+00
         0.00000E+00
         0.00000E+00
         0.00000E+00
         0.00000E+00
         0.00000E+00
         0.00000E+00
         0.00000E+00
         0.00000E+00
         0.00000E+00
         0.00000E+00
         0.00000E+00
         0.00000E+00
         0.00000E+00
         0.00000E+00
         0.00000E+00
         0.00000E+00
         0.00000E+00
         0.00000E+00
         0.00000E+00
         0.00000E+00
         0.00000E+00
         0.00000E+00
         0.00000E+00
         0.00000E+00
         0.00000E+00
         0.00000E+00
         0.00000E+00
         0.00000E+00
         0.00000E+00
         0.00000E+00
         0.00000E+00
         0.00000E+00
         0.00000E+00
         0.00000E+00
         0.00000E+00
         0.00000E+00
         0.00000E+00
         0.00000E+00
         0.00000E+00
         0.00000E+00
         0.00000E+00
         0.00000E+00
         0.00000E+00
         0.00000E+00
         0.00000E+00
         0.00000E+00
         0.00000E+00
         0.00000E+00
         0.00000E+00
         0.00000E+00
         0.00000E+00
         0.00000E+00
         0.00000E+00
         0.00000E+00
         0.00000E+00
         0.00000E+00
         0.00000E+00
         0.00000E+00
         0.00000E+00
         0.00000E+00
         0.00000E+00
         0.00000E+00
         0.00000E+00
         0.00000E+00
         0.00000E+00
         0.00000E+00
         0.00000E+00
         0.00000E+00
         0.00000E+00
         0.00000E+00
         0.00000E+00
         0.00000E+00
         0.00000E+00
         0.00000E+00
         0.00000E+00
         0.00000E+00
         0.00000E+00
         0.00000E+00
         0.00000E+00
         0.00000E+00
         0.00000E+00
         0.00000E+00
         0.00000E+00
         0.00000E+00
         0.00000E+00
         0.00000E+00
         0.00000E+00
         0.00000E+00
         0.00000E+00
         0.00000E+00
         0.00000E+00
         0.00000E+00
         0.00000E+00
         0.00000E+00
         0.00000E+00
         0.00000E+00
         0.00000E+00
         0.00000E+00
         0.00000E+00
         0.00000E+00
         0.00000E+00
         0.00000E+00
         0.00000E+00
         0.00000E+00
         0.00000E+00
         0.00000E+00
         0.00000E+00
         0.00000E+00
         0.00000E+00
         0.00000E+00
         0.00000E+00
         0.00000E+00
         0.00000E+00
         0.00000E+00
         0.00000E+00
         0.00000E+00
         0.00000E+00
         0.00000E+00
         0.00000E+00
         0.00000E+00
         0.00000E+00
         0.00000E+00
         0.00000E+00
         0.00000E+00
         0.00000E+00
         0.00000E+00
         0.00000E+00
         0.00000E+00
         0.00000E+00
         0.00000E+00
         0.00000E+00
         0.00000E+00
         0.00000E+00
         0.00000E+00
         0.00000E+00
         0.00000E+00
         0.00000E+00
         0.00000E+00
         0.00000E+00
         0.00000E+00
         0.00000E+00
         0.00000E+00
         0.00000E+00
         0.00000E+00
         0.00000E+00
         0.00000E+00
         0.00000E+00
         0.00000E+00
         0.00000E+00
         0.00000E+00
         0.00000E+00
         0.00000E+00
         0.00000E+00
         0.00000E+00
         0.00000E+00
         0.00000E+00
         0.00000E+00
         0.00000E+00
         0.00000E+00
         0.00000E+00
         0.00000E+00
         0.00000E+00
         0.00000E+00
         0.00000E+00
         0.00000E+00
         0.00000E+00
         0.00000E+00
         0.00000E+00
         0.00000E+00
         0.00000E+00
         0.00000E+00
         0.00000E+00
         0.00000E+00
         0.00000E+00
         0.00000E+00
         0.00000E+00
         0.00000E+00
         0.00000E+00
         0.00000E+00
         0.00000E+00
         0.00000E+00
         0.00000E+00
         0.00000E+00
         0.00000E+00
         0.00000E+00
         0.00000E+00
         0.00000E+00
         0.00000E+00
         0.00000E+00
         0.00000E+00
         0.00000E+00
         0.00000E+00
         0.00000E+00
         0.00000E+00
         0.00000E+00
         0.00000E+00
         0.00000E+00
         0.00000E+00
         0.00000E+00
         0.00000E+00
         0.00000E+00
         0.00000E+00
         0.00000E+00
         0.00000E+00
         0.00000E+00
         0.00000E+00
         0.00000E+00
         0.00000E+00
         0.00000E+00
         0.00000E+00
         0.00000E+00
         0.00000E+00
         0.00000E+00
         0.00000E+00
         0.00000E+00
         0.00000E+00
         0.00000E+00
         0.00000E+00
         0.00000E+00
         0.00000E+00
         0.00000E+00
         0.00000E+00
         0.00000E+00
         0.00000E+00
         0.00000E+00
         0.00000E+00
         0.00000E+00
         0.00000E+00
         0.00000E+00
         0.00000E+00
         0.00000E+00
         0.00000E+00
         0.00000E+00
         0.00000E+00
         0.00000E+00
         0.00000E+00
         0.00000E+00
         0.00000E+00
         0.00000E+00
         0.00000E+00
         0.00000E+00
         0.00000E+00
         0.00000E+00
         0.00000E+00
         0.00000E+00
         0.00000E+00
         0.00000E+00
         0.00000E+00
         0.00000E+00
         0.00000E+00
         0.00000E+00
         0.00000E+00
         0.00000E+00
         0.00000E+00
         0.00000E+00
         0.00000E+00
         0.00000E+00
         0.00000E+00
         0.00000E+00
         0.00000E+00
         0.00000E+00
         0.00000E+00
         0.00000E+00
         0.00000E+00
         0.00000E+00
         0.00000E+00
         0.00000E+00
         0.00000E+00
         0.00000E+00
         0.00000E+00
         0.00000E+00
         0.00000E+00
         0.00000E+00
         0.00000E+00
         0.00000E+00
         0.00000E+00
         0.00000E+00
         0.00000E+00
         0.00000E+00
         0.00000E+00
         0.00000E+00
         0.00000E+00
         0.00000E+00
         0.00000E+00
         0.00000E+00
         0.00000E+00
         0.00000E+00
         0.00000E+00
         0.00000E+00
         0.00000E+00
         0.00000E+00
         0.00000E+00
         0.00000E+00
         0.00000E+00
         0.00000E+00
         0.00000E+00
         0.00000E+00
         0.00000E+00
         0.00000E+00
         0.00000E+00
         0.00000E+00
         0.00000E+00
         0.00000E+00
         0.00000E+00
         0.00000E+00
         0.00000E+00
         0.00000E+00
         0.00000E+00
         0.00000E+00
         0.00000E+00
         0.00000E+00
         0.00000E+00
         0.00000E+00
         0.00000E+00
         0.00000E+00
         0.00000E+00
         0.00000E+00
         0.00000E+00
         0.00000E+00
         0.00000E+00
         0.00000E+00
         0.00000E+00
         0.00000E+00
         0.00000E+00
         0.00000E+00
         0.00000E+00
         0.00000E+00
         0.00000E+00
         0.00000E+00
         0.00000E+00
         0.00000E+00
         0.00000E+00
         0.00000E+00
         0.00000E+00
         0.00000E+00
         0.00000E+00
         0.00000E+00
         0.00000E+00
         0.00000E+00
         0.00000E+00
         0.00000E+00
         0.00000E+00
         0.00000E+00
         0.00000E+00
         0.00000E+00
         0.00000E+00
         0.00000E+00
         0.00000E+00
         0.00000E+00
         0.00000E+00
         0.00000E+00
         0.00000E+00
         0.00000E+00
         0.00000E+00
         0.00000E+00
         0.00000E+00
         0.00000E+00
         0.00000E+00
         0.00000E+00
         0.00000E+00
         0.00000E+00
         0.00000E+00
         0.00000E+00
         0.00000E+00
         0.00000E+00
         0.00000E+00
         0.00000E+00
         0.00000E+00
         0.00000E+00
         0.00000E+00
         0.00000E+00
         0.00000E+00
         0.00000E+00
         0.00000E+00
         0.00000E+00
         0.00000E+00
         0.00000E+00
         0.00000E+00
         0.00000E+00
         0.00000E+00
         0.00000E+00
         0.00000E+00
         0.00000E+00
         0.00000E+00
         0.00000E+00
         0.00000E+00
         0.00000E+00
         0.00000E+00
         0.00000E+00
         0.00000E+00
         0.00000E+00
         0.00000E+00
         0.00000E+00
         0.00000E+00
         0.00000E+00
         0.00000E+00
         0.00000E+00
         0.00000E+00
         0.00000E+00
         0.00000E+00
         0.00000E+00
         0.00000E+00
         0.00000E+00
         0.00000E+00
         0.00000E+00
         0.00000E+00
         0.00000E+00
         0.00000E+00
         0.00000E+00
         0.00000E+00
         0.00000E+00
         0.00000E+00
         0.00000E+00
         0.00000E+00
         0.00000E+00
         0.00000E+00
         0.00000E+00
         0.00000E+00
         0.00000E+00
         0.00000E+00
         0.00000E+00
         0.00000E+00
         0.00000E+00
         0.00000E+00
         0.00000E+00
         0.00000E+00
         0.00000E+00
         0.00000E+00
         0.00000E+00
         0.00000E+00
         0.00000E+00
         0.00000E+00
         0.00000E+00
         0.00000E+00
         0.00000E+00
         0.00000E+00
         0.00000E+00
         0.00000E+00
         0.00000E+00
         0.00000E+00
         0.00000E+00
         0.00000E+00
         0.00000E+00
         0.00000E+00
         0.00000E+00
         0.00000E+00
         0.00000E+00
         0.00000E+00
         0.00000E+00
         0.00000E+00
         0.00000E+00
         0.00000E+00
         0.00000E+00
         0.00000E+00
         0.00000E+00
         0.00000E+00
         0.00000E+00
         0.00000E+00
         0.00000E+00
         0.00000E+00
         0.00000E+00
         0.00000E+00
         0.00000E+00
         0.00000E+00
         0.00000E+00
         0.00000E+00
         0.00000E+00
         0.00000E+00
         0.00000E+00
         0.00000E+00
         0.00000E+00
         0.00000E+00
         0.00000E+00
         0.00000E+00
         0.00000E+00
         0.00000E+00
         0.00000E+00
         0.00000E+00
         0.00000E+00
         0.00000E+00
         0.00000E+00
         0.00000E+00
         0.00000E+00
         0.00000E+00
         0.00000E+00
         0.00000E+00
         0.00000E+00
         0.00000E+00
         0.00000E+00
         0.00000E+00
         0.00000E+00
         0.00000E+00
         0.00000E+00
         0.00000E+00
         0.00000E+00
         0.00000E+00
         0.00000E+00
         0.00000E+00
         0.00000E+00
         0.00000E+00
         0.00000E+00
         0.00000E+00
         0.00000E+00
         0.00000E+00
         0.00000E+00
         0.00000E+00
         0.00000E+00
         0.00000E+00
         0.00000E+00
         0.00000E+00
         0.00000E+00
         0.00000E+00
         0.00000E+00
         0.00000E+00
         0.00000E+00
         0.00000E+00
         0.00000E+00
         0.00000E+00
         0.00000E+00
         0.00000E+00
         0.00000E+00
         0.00000E+00
         0.00000E+00
         0.00000E+00
         0.00000E+00
         0.00000E+00
         0.00000E+00
         0.00000E+00
         0.00000E+00
         0.00000E+00
         0.00000E+00
         0.00000E+00
         0.00000E+00
         0.00000E+00
         0.00000E+00
         0.00000E+00
         0.00000E+00
         0.00000E+00
         0.00000E+00
         0.00000E+00
         0.00000E+00
         0.00000E+00
         0.00000E+00
         0.00000E+00
         0.00000E+00
         0.00000E+00
         0.00000E+00
         0.00000E+00
         0.00000E+00
         0.00000E+00
         0.00000E+00
         0.00000E+00
         0.00000E+00
         0.00000E+00
         0.00000E+00
         0.00000E+00
         0.00000E+00
         0.00000E+00
         0.00000E+00
         0.00000E+00
         0.00000E+00
         0.00000E+00
         0.00000E+00
         0.00000E+00
         0.00000E+00
         0.00000E+00
         0.00000E+00
         0.00000E+00
         0.00000E+00
         0.00000E+00
         0.00000E+00
         0.00000E+00
         0.00000E+00
         0.00000E+00
         0.00000E+00
         0.00000E+00
         0.00000E+00
         0.00000E+00
         0.00000E+00
         0.00000E+00
         0.00000E+00
         0.00000E+00
         0.00000E+00
         0.00000E+00
         0.00000E+00
         0.00000E+00
         0.00000E+00
         0.00000E+00
         0.00000E+00
         0.00000E+00
         0.00000E+00
         0.00000E+00
         0.00000E+00
         0.00000E+00
         0.00000E+00
         0.00000E+00
         0.00000E+00
         0.00000E+00
         0.00000E+00
         0.00000E+00
         0.00000E+00
         0.00000E+00
         0.00000E+00
         0.00000E+00
         0.00000E+00
         0.00000E+00
         0.00000E+00
         0.00000E+00
         0.00000E+00
         0.00000E+00
         0.00000E+00
         0.00000E+00
         0.00000E+00
         0.00000E+00
         0.00000E+00
         0.00000E+00
         0.00000E+00
         0.00000E+00
         0.00000E+00
         0.00000E+00
         0.00000E+00
         0.00000E+00
         0.00000E+00
         0.00000E+00
         0.00000E+00
         0.00000E+00
         0.00000E+00
         0.00000E+00
         0.00000E+00
         0.00000E+00
         0.00000E+00
         0.00000E+00
         0.00000E+00
         0.00000E+00
         0.00000E+00
         0.00000E+00
         0.00000E+00
         0.00000E+00
         0.00000E+00
         0.00000E+00
         0.00000E+00
         0.00000E+00
         0.00000E+00
         0.00000E+00
         0.00000E+00
         0.00000E+00
         0.00000E+00
         0.00000E+00
         0.00000E+00
         0.00000E+00
         0.00000E+00
         0.00000E+00
         0.00000E+00
         0.00000E+00
         0.00000E+00
         0.00000E+00
         0.00000E+00
         0.00000E+00
         0.00000E+00
         0.00000E+00
         0.00000E+00
         0.00000E+00
         0.00000E+00
         0.00000E+00
         0.00000E+00
         0.00000E+00
         0.00000E+00
         0.00000E+00
         0.00000E+00
         0.00000E+00
         0.00000E+00
         0.00000E+00
         0.00000E+00
         0.00000E+00
         0.00000E+00
         0.00000E+00
         0.00000E+00
         0.00000E+00
         0.00000E+00
         0.00000E+00
         0.00000E+00
         0.00000E+00
         0.00000E+00
         0.00000E+00
         0.00000E+00
         0.00000E+00
         0.00000E+00
         0.00000E+00
         0.00000E+00
         0.00000E+00
         0.00000E+00
         0.00000E+00
         0.00000E+00
         0.00000E+00
         0.00000E+00
         0.00000E+00
         0.00000E+00
         0.00000E+00
         0.00000E+00
         0.00000E+00
         0.00000E+00
         0.00000E+00
         0.00000E+00
         0.00000E+00
         0.00000E+00
         0.00000E+00
         0.00000E+00
         0.00000E+00
         0.00000E+00
         0.00000E+00
         0.00000E+00
         0.00000E+00
         0.00000E+00
         0.00000E+00
         0.00000E+00
         0.00000E+00
         0.00000E+00
         0.00000E+00
         0.00000E+00
         0.00000E+00
         0.00000E+00
         0.00000E+00
         0.00000E+00
         0.00000E+00
         0.00000E+00
         0.00000E+00
         0.00000E+00
         0.00000E+00
         0.00000E+00
         0.00000E+00
         0.00000E+00
         0.00000E+00
         0.00000E+00
         0.00000E+00
         0.00000E+00
         0.00000E+00
         0.00000E+00
         0.00000E+00
         0.00000E+00
         0.00000E+00
         0.00000E+00
         0.00000E+00
         0.00000E+00
         0.00000E+00
         0.00000E+00
         0.00000E+00
         0.00000E+00
         0.00000E+00
         0.00000E+00
         0.00000E+00
         0.00000E+00
         0.00000E+00
         0.00000E+00
         0.00000E+00
         0.00000E+00
         0.00000E+00
         0.00000E+00
         0.00000E+00
         0.00000E+00
         0.00000E+00
         0.00000E+00
         0.00000E+00
         0.00000E+00
         0.00000E+00
         0.00000E+00
         0.00000E+00
         0.00000E+00
         0.00000E+00
         0.00000E+00
         0.00000E+00
         0.00000E+00
         0.00000E+00
         0.00000E+00
         0.00000E+00
         0.00000E+00
         0.00000E+00
         0.00000E+00
         0.00000E+00
         0.00000E+00
         0.00000E+00
         0.00000E+00
         0.00000E+00
         0.00000E+00
         0.00000E+00
         0.00000E+00
         0.00000E+00
         0.00000E+00
         0.00000E+00
         0.00000E+00
         0.00000E+00
         0.00000E+00
         0.00000E+00
         0.00000E+00
         0.00000E+00
         0.00000E+00
         0.00000E+00
         0.00000E+00
         0.00000E+00
         0.00000E+00
         0.00000E+00
         0.00000E+00
         0.00000E+00
         0.00000E+00
         0.00000E+00
         0.00000E+00
         0.00000E+00
         0.00000E+00
         0.00000E+00
         0.00000E+00
         0.00000E+00
         0.00000E+00
         0.00000E+00
         0.00000E+00
         0.00000E+00
         0.00000E+00
         0.00000E+00
         0.00000E+00
         0.00000E+00
         0.00000E+00
         0.00000E+00
         0.00000E+00
         0.00000E+00
         0.00000E+00
         0.00000E+00
         0.00000E+00
         0.00000E+00
         0.00000E+00
         0.00000E+00
         0.00000E+00
         0.00000E+00
         0.00000E+00
         0.00000E+00
         0.00000E+00
         0.00000E+00
         0.00000E+00
         0.00000E+00
         0.00000E+00
         0.00000E+00
         0.00000E+00
         0.00000E+00
         0.00000E+00
         0.00000E+00
         0.00000E+00
         0.00000E+00
         0.00000E+00
         0.00000E+00
         0.00000E+00
         0.00000E+00
         0.00000E+00
         0.00000E+00
         0.00000E+00
         0.00000E+00
         0.00000E+00
         0.00000E+00
         0.00000E+00
         0.00000E+00
         0.00000E+00
         0.00000E+00
         0.00000E+00
         0.00000E+00
         0.00000E+00
         0.00000E+00
         0.00000E+00
         0.00000E+00
         0.00000E+00
         0.00000E+00
         0.00000E+00
         0.00000E+00
         0.00000E+00
         0.00000E+00
         0.00000E+00
         0.00000E+00
         0.00000E+00
         0.00000E+00
         0.00000E+00
         0.00000E+00
         0.00000E+00
         0.00000E+00
         0.00000E+00
         0.00000E+00
         0.00000E+00
         0.00000E+00
         0.00000E+00
         0.00000E+00
         0.00000E+00
         0.00000E+00
         0.00000E+00
         0.00000E+00
         0.00000E+00
         0.00000E+00
         0.00000E+00
         0.00000E+00
         0.00000E+00
         0.00000E+00
         0.00000E+00
         0.00000E+00
         0.00000E+00
         0.00000E+00
         0.00000E+00
         0.00000E+00
         0.00000E+00
         0.00000E+00
         0.00000E+00
         0.00000E+00
         0.00000E+00
         0.00000E+00
         0.00000E+00
         0.00000E+00
         0.00000E+00
         0.00000E+00
         0.00000E+00
         0.00000E+00
         0.00000E+00
         0.00000E+00
         0.00000E+00
         0.00000E+00
         0.00000E+00
         0.00000E+00
         0.00000E+00
         0.00000E+00
         0.00000E+00
         0.00000E+00
         0.00000E+00
         0.00000E+00
         0.00000E+00
         0.00000E+00
         0.00000E+00
         0.00000E+00
         0.00000E+00
         0.00000E+00
         0.00000E+00
         0.00000E+00
         0.00000E+00
         0.00000E+00
         0.00000E+00
         0.00000E+00
         0.00000E+00
         0.00000E+00
         0.00000E+00
         0.00000E+00
         0.00000E+00
         0.00000E+00
         0.00000E+00
         0.00000E+00
         0.00000E+00
         0.00000E+00
         0.00000E+00
         0.00000E+00
         0.00000E+00
         0.00000E+00
         0.00000E+00
         0.00000E+00
         0.00000E+00
         0.00000E+00
         0.00000E+00
         0.00000E+00
         0.00000E+00
         0.00000E+00
         0.00000E+00
         0.00000E+00
         0.00000E+00
         0.00000E+00
         0.00000E+00
         0.00000E+00
         0.00000E+00
         0.00000E+00
         0.00000E+00
         0.00000E+00
         0.00000E+00
         0.00000E+00
         0.00000E+00
         0.00000E+00
         0.00000E+00
         0.00000E+00
         0.00000E+00
         0.00000E+00
         0.00000E+00
         0.00000E+00
         0.00000E+00
         0.00000E+00
         0.00000E+00
         0.00000E+00
         0.00000E+00
         0.00000E+00
         0.00000E+00
         0.00000E+00
         0.00000E+00
         0.00000E+00
         0.00000E+00
         0.00000E+00
         0.00000E+00
         0.00000E+00
         0.00000E+00
         0.00000E+00
         0.00000E+00
         0.00000E+00
         0.00000E+00
         0.00000E+00
         0.00000E+00
         0.00000E+00
         0.00000E+00
         0.00000E+00
         0.00000E+00
         0.00000E+00
         0.00000E+00
         0.00000E+00
         0.00000E+00
         0.00000E+00
         0.00000E+00
         0.00000E+00
         0.00000E+00
         0.00000E+00
         0.00000E+00
         0.00000E+00
         0.00000E+00
         0.00000E+00
         0.00000E+00
         0.00000E+00
         0.00000E+00
         0.00000E+00
         0.00000E+00
         0.00000E+00
         0.00000E+00
         0.00000E+00
         0.00000E+00
         0.00000E+00
         0.00000E+00
         0.00000E+00
         0.00000E+00
         0.00000E+00
         0.00000E+00
         0.00000E+00
         0.00000E+00
         0.00000E+00
         0.00000E+00
         0.00000E+00
         0.00000E+00
         0.00000E+00
         0.00000E+00
         0.00000E+00
         0.00000E+00
         0.00000E+00
         0.00000E+00
         0.00000E+00
         0.00000E+00
         0.00000E+00
         0.00000E+00
         0.00000E+00
         0.00000E+00
         0.00000E+00
         0.00000E+00
         0.00000E+00
         0.00000E+00
         0.00000E+00
         0.00000E+00
         0.00000E+00
         0.00000E+00
         0.00000E+00
         0.00000E+00
         0.00000E+00
         0.00000E+00
         0.00000E+00
         0.00000E+00
         0.00000E+00
         0.00000E+00
         0.00000E+00
         0.00000E+00
         0.00000E+00
         0.00000E+00
         0.00000E+00
         0.00000E+00
         0.00000E+00
         0.00000E+00
         0.00000E+00
         0.00000E+00
         0.00000E+00
         0.00000E+00
         0.00000E+00
         0.00000E+00
         0.00000E+00
         0.00000E+00
         0.00000E+00
         0.00000E+00
         0.00000E+00
         0.00000E+00
         0.00000E+00
         0.00000E+00
         0.00000E+00
         0.00000E+00
         0.00000E+00
         0.00000E+00
         0.00000E+00
         0.00000E+00
         0.00000E+00
         0.00000E+00
         0.00000E+00
         0.00000E+00
         0.00000E+00
         0.00000E+00
         0.00000E+00
         0.00000E+00
         0.00000E+00
         0.00000E+00
         0.00000E+00
         0.00000E+00
         0.00000E+00
         0.00000E+00
         0.00000E+00
         0.00000E+00
         0.00000E+00
         0.00000E+00
         0.00000E+00
         0.00000E+00
         0.00000E+00
         0.00000E+00
         0.00000E+00
         0.00000E+00
         0.00000E+00
         0.00000E+00
         0.00000E+00
         0.00000E+00
         0.00000E+00
         0.00000E+00
         0.00000E+00
         0.00000E+00
         0.00000E+00
         0.00000E+00
         0.00000E+00
         0.00000E+00
         0.00000E+00
         0.00000E+00
         0.00000E+00
         0.00000E+00
         0.00000E+00
         0.00000E+00
         0.00000E+00
         0.00000E+00
         0.00000E+00
         0.00000E+00
         0.00000E+00
         0.00000E+00
         0.00000E+00
         0.00000E+00
         0.00000E+00
         0.00000E+00
         0.00000E+00
         0.00000E+00
         0.00000E+00
         0.00000E+00
         0.00000E+00
         0.00000E+00
         0.00000E+00
         0.00000E+00
         0.00000E+00
         0.00000E+00
         0.00000E+00
         0.00000E+00
         0.00000E+00
         0.00000E+00
         0.00000E+00
         0.00000E+00
         0.00000E+00
         0.00000E+00
         0.00000E+00
         0.00000E+00
         0.00000E+00
         0.00000E+00
         0.00000E+00
         0.00000E+00
         0.00000E+00
         0.00000E+00
         0.00000E+00
         0.00000E+00
         0.00000E+00
         0.00000E+00
         0.00000E+00
         0.00000E+00
         0.00000E+00
         0.00000E+00
         0.00000E+00
         0.00000E+00
         0.00000E+00
         0.00000E+00
         0.00000E+00
         0.00000E+00
         0.00000E+00
         0.00000E+00
         0.00000E+00
         0.00000E+00
         0.00000E+00
         0.00000E+00
         0.00000E+00
         0.00000E+00
         0.00000E+00
         0.00000E+00
         0.00000E+00
         0.00000E+00
         0.00000E+00
         0.00000E+00
         0.00000E+00
         0.00000E+00
         0.00000E+00
         0.00000E+00
         0.00000E+00
         0.00000E+00
         0.00000E+00
         0.00000E+00
         0.00000E+00
         0.00000E+00
         0.00000E+00
         0.00000E+00
         0.00000E+00
         0.00000E+00
         0.00000E+00
         0.00000E+00
         0.00000E+00
         0.00000E+00
         0.00000E+00
         0.00000E+00
         0.00000E+00
         0.00000E+00
         0.00000E+00
         0.00000E+00
         0.00000E+00
         0.00000E+00
         0.00000E+00
         0.00000E+00
         0.00000E+00
         0.00000E+00
         0.00000E+00
         0.00000E+00
         0.00000E+00
         0.00000E+00
         0.00000E+00
         0.00000E+00
         0.00000E+00
         0.00000E+00
         0.00000E+00
         0.00000E+00
         0.00000E+00
         0.00000E+00
         0.00000E+00
         0.00000E+00
         0.00000E+00
         0.00000E+00
         0.00000E+00
         0.00000E+00
         0.00000E+00
         0.00000E+00
         0.00000E+00
         0.00000E+00
         0.00000E+00
         0.00000E+00
         0.00000E+00
         0.00000E+00
         0.00000E+00
         0.00000E+00
         0.00000E+00
         0.00000E+00
         0.00000E+00
         0.00000E+00
         0.00000E+00
         0.00000E+00
         0.00000E+00
         0.00000E+00
         0.00000E+00
         0.00000E+00
         0.00000E+00
         0.00000E+00
         0.00000E+00
         0.00000E+00
         0.00000E+00
         0.00000E+00
         0.00000E+00
         0.00000E+00
         0.00000E+00
         0.00000E+00
         0.00000E+00
         0.00000E+00
         0.00000E+00
         0.00000E+00
         0.00000E+00
         0.00000E+00
         0.00000E+00
         0.00000E+00
         0.00000E+00
         0.00000E+00
         0.00000E+00
         0.00000E+00
         0.00000E+00
         0.00000E+00
         0.00000E+00
         0.00000E+00
         0.00000E+00
         0.00000E+00
         0.00000E+00
         0.00000E+00
         0.00000E+00
         0.00000E+00
         0.00000E+00
         0.00000E+00
         0.00000E+00
         0.00000E+00
         0.00000E+00
         0.00000E+00
         0.00000E+00
         0.00000E+00
         0.00000E+00
         0.00000E+00
         0.00000E+00
         0.00000E+00
         0.00000E+00
         0.00000E+00
         0.00000E+00
         0.00000E+00
         0.00000E+00
         0.00000E+00
         0.00000E+00
         0.00000E+00
         0.00000E+00
         0.00000E+00
         0.00000E+00
         0.00000E+00
         0.00000E+00
         0.00000E+00
         0.00000E+00
         0.00000E+00
         0.00000E+00
         0.00000E+00
         0.00000E+00
         0.00000E+00
         0.00000E+00
         0.00000E+00
         0.00000E+00
         0.00000E+00
         0.00000E+00
         0.00000E+00
         0.00000E+00
         0.00000E+00
         0.00000E+00
         0.00000E+00
         0.00000E+00
         0.00000E+00
         0.00000E+00
         0.00000E+00
         0.00000E+00
         0.00000E+00
         0.00000E+00
         0.00000E+00
         0.00000E+00
         0.00000E+00
         0.00000E+00
         0.00000E+00
         0.00000E+00
         0.00000E+00
         0.00000E+00
         0.00000E+00
         0.00000E+00
         0.00000E+00
         0.00000E+00
         0.00000E+00
         0.00000E+00
         0.00000E+00
         0.00000E+00
         0.00000E+00
         0.00000E+00
         0.00000E+00
         0.00000E+00
         0.00000E+00
         0.00000E+00
         0.00000E+00
         0.00000E+00
         0.00000E+00
         0.00000E+00
         0.00000E+00
         0.00000E+00
         0.00000E+00
         0.00000E+00
         0.00000E+00
         0.00000E+00
         0.00000E+00
         0.00000E+00
         0.00000E+00
         0.00000E+00
         0.00000E+00
         0.00000E+00
         0.00000E+00
         0.00000E+00
         0.00000E+00
         0.00000E+00
         0.00000E+00
         0.00000E+00
         0.00000E+00
         0.00000E+00
         0.00000E+00
         0.00000E+00
         0.00000E+00
         0.00000E+00
         0.00000E+00
         0.00000E+00
         0.00000E+00
         0.00000E+00
         0.00000E+00
         0.00000E+00
         0.00000E+00
         0.00000E+00
         0.00000E+00
         0.00000E+00
         0.00000E+00
         0.00000E+00
         0.00000E+00
         0.00000E+00
         0.00000E+00
         0.00000E+00
         0.00000E+00
         0.00000E+00
         0.00000E+00
         0.00000E+00
         0.00000E+00
         0.00000E+00
         0.00000E+00
         0.00000E+00
         0.00000E+00
         0.00000E+00
         0.00000E+00
         0.00000E+00
         0.00000E+00
         0.00000E+00
         0.00000E+00
         0.00000E+00
         0.00000E+00
         0.00000E+00
         0.00000E+00
         0.00000E+00
         0.00000E+00
         0.00000E+00
         0.00000E+00
         0.00000E+00
         0.00000E+00
         0.00000E+00
         0.00000E+00
         0.00000E+00
         0.00000E+00
         0.00000E+00
         0.00000E+00
         0.00000E+00
         0.00000E+00
         0.00000E+00
         0.00000E+00
         0.00000E+00
         0.00000E+00
         0.00000E+00
         0.00000E+00
         0.00000E+00
         0.00000E+00
         0.00000E+00
         0.00000E+00
         0.00000E+00
         0.00000E+00
         0.00000E+00
         0.00000E+00
         0.00000E+00
         0.00000E+00
         0.00000E+00
         0.00000E+00
         0.00000E+00
         0.00000E+00
         0.00000E+00
         0.00000E+00
         0.00000E+00
         0.00000E+00
         0.00000E+00
         0.00000E+00
         0.00000E+00
         0.00000E+00
         0.00000E+00
         0.00000E+00
         0.00000E+00
         0.00000E+00
         0.00000E+00
         0.00000E+00
         0.00000E+00
         0.00000E+00
         0.00000E+00
         0.00000E+00
         0.00000E+00
         0.00000E+00
         0.00000E+00
         0.00000E+00
         0.00000E+00
         0.00000E+00
         0.00000E+00
         0.00000E+00
         0.00000E+00
         0.00000E+00
         0.00000E+00
         0.00000E+00
         0.00000E+00
         0.00000E+00
         0.00000E+00
         0.00000E+00
         0.00000E+00
         0.00000E+00
         0.00000E+00
         0.00000E+00
         0.00000E+00
         0.00000E+00
         0.00000E+00
         0.00000E+00
         0.00000E+00
         0.00000E+00
         0.00000E+00
         0.00000E+00
         0.00000E+00
         0.00000E+00
         0.00000E+00
         0.00000E+00
         0.00000E+00
         0.00000E+00
         0.00000E+00
         0.00000E+00
         0.00000E+00
         0.00000E+00
         0.00000E+00
         0.00000E+00
         0.00000E+00
         0.00000E+00
         0.00000E+00
         0.00000E+00
         0.00000E+00
         0.00000E+00
         0.00000E+00
         0.00000E+00
         0.00000E+00
         0.00000E+00
         0.00000E+00
         0.00000E+00
         0.00000E+00
         0.00000E+00
         0.00000E+00
         0.00000E+00
         0.00000E+00
         0.00000E+00
         0.00000E+00
         0.00000E+00
         0.00000E+00
         0.00000E+00
         0.00000E+00
         0.00000E+00
         0.00000E+00
         0.00000E+00
         0.00000E+00
         0.00000E+00
         0.00000E+00
         0.00000E+00
         0.00000E+00
         0.00000E+00
         0.00000E+00
         0.00000E+00
         0.00000E+00
         0.00000E+00
         0.00000E+00
         0.00000E+00
         0.00000E+00
         0.00000E+00
         0.00000E+00
         0.00000E+00
         0.00000E+00
         0.00000E+00
         0.00000E+00
         0.00000E+00
         0.00000E+00
         0.00000E+00
         0.00000E+00
         0.00000E+00
         0.00000E+00
         0.00000E+00
         0.00000E+00
         0.00000E+00
         0.00000E+00
         0.00000E+00
         0.00000E+00
         0.00000E+00
         0.00000E+00
         0.00000E+00
         0.00000E+00
         0.00000E+00
         0.00000E+00
         0.00000E+00
         0.00000E+00
         0.00000E+00
         0.00000E+00
         0.00000E+00
         0.00000E+00
         0.00000E+00
         0.00000E+00
         0.00000E+00
         0.00000E+00
         0.00000E+00
         0.00000E+00
         0.00000E+00
         0.00000E+00
         0.00000E+00
         0.00000E+00
         0.00000E+00
         0.00000E+00
         0.00000E+00
         0.00000E+00
         0.00000E+00
         0.00000E+00
         0.00000E+00
         0.00000E+00
         0.00000E+00
         0.00000E+00
         0.00000E+00
         0.00000E+00
         0.00000E+00
         0.00000E+00
         0.00000E+00
         0.00000E+00
         0.00000E+00
         0.00000E+00
         0.00000E+00
         0.00000E+00
         0.00000E+00
         0.00000E+00
         0.00000E+00
         0.00000E+00
         0.00000E+00
         0.00000E+00
         0.00000E+00
         0.00000E+00
         0.00000E+00
         0.00000E+00
         0.00000E+00
         0.00000E+00
         0.00000E+00
         0.00000E+00
         0.00000E+00
         0.00000E+00
         0.00000E+00
         0.00000E+00
         0.00000E+00
         0.00000E+00
         0.00000E+00
         0.00000E+00
         0.00000E+00
         0.00000E+00
         0.00000E+00
         0.00000E+00
         0.00000E+00
         0.00000E+00
         0.00000E+00
         0.00000E+00
         0.00000E+00
         0.00000E+00
         0.00000E+00
         0.00000E+00
         0.00000E+00
         0.00000E+00
         0.00000E+00
         0.00000E+00
         0.00000E+00
         0.00000E+00
         0.00000E+00
         0.00000E+00
         0.00000E+00
         0.00000E+00
         0.00000E+00
         0.00000E+00
         0.00000E+00
         0.00000E+00
         0.00000E+00
         0.00000E+00
         0.00000E+00
         0.00000E+00
         0.00000E+00
         0.00000E+00
         0.00000E+00
         0.00000E+00
         0.00000E+00
         0.00000E+00
         0.00000E+00
         0.00000E+00
         0.00000E+00
         0.00000E+00
         0.00000E+00
         0.00000E+00
         0.00000E+00
         0.00000E+00
         0.00000E+00
         0.00000E+00
         0.00000E+00
         0.00000E+00
         0.00000E+00
         0.00000E+00
         0.00000E+00
         0.00000E+00
         0.00000E+00
         0.00000E+00
         0.00000E+00
         0.00000E+00
         0.00000E+00
         0.00000E+00
         0.00000E+00
         0.00000E+00
         0.00000E+00
         0.00000E+00
         0.00000E+00
         0.00000E+00
         0.00000E+00
         0.00000E+00
         0.00000E+00
         0.00000E+00
         0.00000E+00
         0.00000E+00
         0.00000E+00
         0.00000E+00
         0.00000E+00
         0.00000E+00
         0.00000E+00
         0.00000E+00
         0.00000E+00
         0.00000E+00
         0.00000E+00
         0.00000E+00
         0.00000E+00
         0.00000E+00
         0.00000E+00
         0.00000E+00
         0.00000E+00
         0.00000E+00
         0.00000E+00
         0.00000E+00
         0.00000E+00
         0.00000E+00
         0.00000E+00
         0.00000E+00
         0.00000E+00
         0.00000E+00
         0.00000E+00
         0.00000E+00
         0.00000E+00
         0.00000E+00
         0.00000E+00
         0.00000E+00
         0.00000E+00
         0.00000E+00
         0.00000E+00
         0.00000E+00
         0.00000E+00
         0.00000E+00
         0.00000E+00
         0.00000E+00
         0.00000E+00
         0.00000E+00
         0.00000E+00
         0.00000E+00
         0.00000E+00
         0.00000E+00
         0.00000E+00
         0.00000E+00
         0.00000E+00
         0.00000E+00
         0.00000E+00
         0.00000E+00
         0.00000E+00
         0.00000E+00
         0.00000E+00
         0.00000E+00
         0.00000E+00
         0.00000E+00
         0.00000E+00
         0.00000E+00
         0.00000E+00
         0.00000E+00
         0.00000E+00
         0.00000E+00
         0.00000E+00
         0.00000E+00
         0.00000E+00
         0.00000E+00
         0.00000E+00
         0.00000E+00
         0.00000E+00
         0.00000E+00
         0.00000E+00
         0.00000E+00
         0.00000E+00
         0.00000E+00
         0.00000E+00
         0.00000E+00
         0.00000E+00
         0.00000E+00
         0.00000E+00
         0.00000E+00
         0.00000E+00
         0.00000E+00
         0.00000E+00
         0.00000E+00
         0.00000E+00
         0.00000E+00
         0.00000E+00
         0.00000E+00
         0.00000E+00
         0.00000E+00
         0.00000E+00
         0.00000E+00
         0.00000E+00
         0.00000E+00
         0.00000E+00
         0.00000E+00
         0.00000E+00
         0.00000E+00
         0.00000E+00
         0.00000E+00
         0.00000E+00
         0.00000E+00
         0.00000E+00
         0.00000E+00
         0.00000E+00
         0.00000E+00
         0.00000E+00
         0.00000E+00
         0.00000E+00
         0.00000E+00
         0.00000E+00
         0.00000E+00
         0.00000E+00
         0.00000E+00
         0.00000E+00
         0.00000E+00
         0.00000E+00
         0.00000E+00
         0.00000E+00
         0.00000E+00
         0.00000E+00
         0.00000E+00
         0.00000E+00
         0.00000E+00
         0.00000E+00
         0.00000E+00
         0.00000E+00
         0.00000E+00
         0.00000E+00
         0.00000E+00
         0.00000E+00
         0.00000E+00
         0.00000E+00
         0.00000E+00
         0.00000E+00
         0.00000E+00
         0.00000E+00
         0.00000E+00
         0.00000E+00
         0.00000E+00
         0.00000E+00
         0.00000E+00
         0.00000E+00
         0.00000E+00
         0.00000E+00
         0.00000E+00
         0.00000E+00
         0.00000E+00
         0.00000E+00
         0.00000E+00
         0.00000E+00
         0.00000E+00
         0.00000E+00
         0.00000E+00
         0.00000E+00
         0.00000E+00
         0.00000E+00
         0.00000E+00
         0.00000E+00
         0.00000E+00
         0.00000E+00
         0.00000E+00
         0.00000E+00
         0.00000E+00
         0.00000E+00
         0.00000E+00
         0.00000E+00
         0.00000E+00
         0.00000E+00
         0.00000E+00
         0.00000E+00
         0.00000E+00
         0.00000E+00
         0.00000E+00
         0.00000E+00
         0.00000E+00
         0.00000E+00
         0.00000E+00
         0.00000E+00
         0.00000E+00
         0.00000E+00
         0.00000E+00
         0.00000E+00
         0.00000E+00
         0.00000E+00
         0.00000E+00
         0.00000E+00
         0.00000E+00
         0.00000E+00
         0.00000E+00
         0.00000E+00
         0.00000E+00
         0.00000E+00
         0.00000E+00
         0.00000E+00
         0.00000E+00
         0.00000E+00
         0.00000E+00
         0.00000E+00
         0.00000E+00
         0.00000E+00
         0.00000E+00
         0.00000E+00
         0.00000E+00
         0.00000E+00
         0.00000E+00
         0.00000E+00
         0.00000E+00
         0.00000E+00
         0.00000E+00
         0.00000E+00
         0.00000E+00
         0.00000E+00
         0.00000E+00
         0.00000E+00
         0.00000E+00
         0.00000E+00
         0.00000E+00
         0.00000E+00
         0.00000E+00
         0.00000E+00
         0.00000E+00
         0.00000E+00
  
SCALARS                      eps_shear  double 1
LOOKUP_TABLE default
         0.00000E+00
         0.00000E+00
         0.00000E+00
         0.00000E+00
         0.00000E+00
         0.00000E+00
         0.00000E+00
         0.00000E+00
         0.00000E+00
         0.00000E+00
         0.00000E+00
         0.00000E+00
         0.00000E+00
         0.00000E+00
         0.00000E+00
         0.00000E+00
         0.00000E+00
         0.00000E+00
         0.00000E+00
         0.00000E+00
         0.00000E+00
         0.00000E+00
         0.00000E+00
         0.00000E+00
         0.00000E+00
         0.00000E+00
         0.00000E+00
         0.00000E+00
         0.00000E+00
         0.00000E+00
         0.00000E+00
         0.00000E+00
         0.00000E+00
         0.00000E+00
         0.00000E+00
         0.00000E+00
         0.00000E+00
         0.00000E+00
         0.00000E+00
         0.00000E+00
         0.00000E+00
         0.00000E+00
         0.00000E+00
         0.00000E+00
         0.00000E+00
         0.00000E+00
         0.00000E+00
         0.00000E+00
         0.00000E+00
         0.00000E+00
         0.00000E+00
         0.00000E+00
         0.00000E+00
         0.00000E+00
         0.00000E+00
         0.00000E+00
         0.00000E+00
         0.00000E+00
         0.00000E+00
         0.00000E+00
         0.00000E+00
         0.00000E+00
         0.00000E+00
         0.00000E+00
         0.00000E+00
         0.00000E+00
         0.00000E+00
         0.00000E+00
         0.00000E+00
         0.00000E+00
         0.00000E+00
         0.00000E+00
         0.00000E+00
         0.00000E+00
         0.00000E+00
         0.00000E+00
         0.00000E+00
         0.00000E+00
         0.00000E+00
         0.00000E+00
         0.00000E+00
         0.00000E+00
         0.00000E+00
         0.00000E+00
         0.00000E+00
         0.00000E+00
         0.00000E+00
         0.00000E+00
         0.00000E+00
         0.00000E+00
         0.00000E+00
         0.00000E+00
         0.00000E+00
         0.00000E+00
         0.00000E+00
         0.00000E+00
         0.00000E+00
         0.00000E+00
         0.00000E+00
         0.00000E+00
         0.00000E+00
         0.00000E+00
         0.00000E+00
         0.00000E+00
         0.00000E+00
         0.00000E+00
         0.00000E+00
         0.00000E+00
         0.00000E+00
         0.00000E+00
         0.00000E+00
         0.00000E+00
         0.00000E+00
         0.00000E+00
         0.00000E+00
         0.00000E+00
         0.00000E+00
         0.00000E+00
         0.00000E+00
         0.00000E+00
         0.00000E+00
         0.00000E+00
         0.00000E+00
         0.00000E+00
         0.00000E+00
         0.00000E+00
         0.00000E+00
         0.00000E+00
         0.00000E+00
         0.00000E+00
         0.00000E+00
         0.00000E+00
         0.00000E+00
         0.00000E+00
         0.00000E+00
         0.00000E+00
         0.00000E+00
         0.00000E+00
         0.00000E+00
         0.00000E+00
         0.00000E+00
         0.00000E+00
         0.00000E+00
         0.00000E+00
         0.00000E+00
         0.00000E+00
         0.00000E+00
         0.00000E+00
         0.00000E+00
         0.00000E+00
         0.00000E+00
         0.00000E+00
         0.00000E+00
         0.00000E+00
         0.00000E+00
         0.00000E+00
         0.00000E+00
         0.00000E+00
         0.00000E+00
         0.00000E+00
         0.00000E+00
         0.00000E+00
         0.00000E+00
         0.00000E+00
         0.00000E+00
         0.00000E+00
         0.00000E+00
         0.00000E+00
         0.00000E+00
         0.00000E+00
         0.00000E+00
         0.00000E+00
         0.00000E+00
         0.00000E+00
         0.00000E+00
         0.00000E+00
         0.00000E+00
         0.00000E+00
         0.00000E+00
         0.00000E+00
         0.00000E+00
         0.00000E+00
         0.00000E+00
         0.00000E+00
         0.00000E+00
         0.00000E+00
         0.00000E+00
         0.00000E+00
         0.00000E+00
         0.00000E+00
         0.00000E+00
         0.00000E+00
         0.00000E+00
         0.00000E+00
         0.00000E+00
         0.00000E+00
         0.00000E+00
         0.00000E+00
         0.00000E+00
         0.00000E+00
         0.00000E+00
         0.00000E+00
         0.00000E+00
         0.00000E+00
         0.00000E+00
         0.00000E+00
         0.00000E+00
         0.00000E+00
         0.00000E+00
         0.00000E+00
         0.00000E+00
         0.00000E+00
         0.00000E+00
         0.00000E+00
         0.00000E+00
         0.00000E+00
         0.00000E+00
         0.00000E+00
         0.00000E+00
         0.00000E+00
         0.00000E+00
         0.00000E+00
         0.00000E+00
         0.00000E+00
         0.00000E+00
         0.00000E+00
         0.00000E+00
         0.00000E+00
         0.00000E+00
         0.00000E+00
         0.00000E+00
         0.00000E+00
         0.00000E+00
         0.00000E+00
         0.00000E+00
         0.00000E+00
         0.00000E+00
         0.00000E+00
         0.00000E+00
         0.00000E+00
         0.00000E+00
         0.00000E+00
         0.00000E+00
         0.00000E+00
         0.00000E+00
         0.00000E+00
         0.00000E+00
         0.00000E+00
         0.00000E+00
         0.00000E+00
         0.00000E+00
         0.00000E+00
         0.00000E+00
         0.00000E+00
         0.00000E+00
         0.00000E+00
         0.00000E+00
         0.00000E+00
         0.00000E+00
         0.00000E+00
         0.00000E+00
         0.00000E+00
         0.00000E+00
         0.00000E+00
         0.00000E+00
         0.00000E+00
         0.00000E+00
         0.00000E+00
         0.00000E+00
         0.00000E+00
         0.00000E+00
         0.00000E+00
         0.00000E+00
         0.00000E+00
         0.00000E+00
         0.00000E+00
         0.00000E+00
         0.00000E+00
         0.00000E+00
         0.00000E+00
         0.00000E+00
         0.00000E+00
         0.00000E+00
         0.00000E+00
         0.00000E+00
         0.00000E+00
         0.00000E+00
         0.00000E+00
         0.00000E+00
         0.00000E+00
         0.00000E+00
         0.00000E+00
         0.00000E+00
         0.00000E+00
         0.00000E+00
         0.00000E+00
         0.00000E+00
         0.00000E+00
         0.00000E+00
         0.00000E+00
         0.00000E+00
         0.00000E+00
         0.00000E+00
         0.00000E+00
         0.00000E+00
         0.00000E+00
         0.00000E+00
         0.00000E+00
         0.00000E+00
         0.00000E+00
         0.00000E+00
         0.00000E+00
         0.00000E+00
         0.00000E+00
         0.00000E+00
         0.00000E+00
         0.00000E+00
         0.00000E+00
         0.00000E+00
         0.00000E+00
         0.00000E+00
         0.00000E+00
         0.00000E+00
         0.00000E+00
         0.00000E+00
         0.00000E+00
         0.00000E+00
         0.00000E+00
         0.00000E+00
         0.00000E+00
         0.00000E+00
         0.00000E+00
         0.00000E+00
         0.00000E+00
         0.00000E+00
         0.00000E+00
         0.00000E+00
         0.00000E+00
         0.00000E+00
         0.00000E+00
         0.00000E+00
         0.00000E+00
         0.00000E+00
         0.00000E+00
         0.00000E+00
         0.00000E+00
         0.00000E+00
         0.00000E+00
         0.00000E+00
         0.00000E+00
         0.00000E+00
         0.00000E+00
         0.00000E+00
         0.00000E+00
         0.00000E+00
         0.00000E+00
         0.00000E+00
         0.00000E+00
         0.00000E+00
         0.00000E+00
         0.00000E+00
         0.00000E+00
         0.00000E+00
         0.00000E+00
         0.00000E+00
         0.00000E+00
         0.00000E+00
         0.00000E+00
         0.00000E+00
         0.00000E+00
         0.00000E+00
         0.00000E+00
         0.00000E+00
         0.00000E+00
         0.00000E+00
         0.00000E+00
         0.00000E+00
         0.00000E+00
         0.00000E+00
         0.00000E+00
         0.00000E+00
         0.00000E+00
         0.00000E+00
         0.00000E+00
         0.00000E+00
         0.00000E+00
         0.00000E+00
         0.00000E+00
         0.00000E+00
         0.00000E+00
         0.00000E+00
         0.00000E+00
         0.00000E+00
         0.00000E+00
         0.00000E+00
         0.00000E+00
         0.00000E+00
         0.00000E+00
         0.00000E+00
         0.00000E+00
         0.00000E+00
         0.00000E+00
         0.00000E+00
         0.00000E+00
         0.00000E+00
         0.00000E+00
         0.00000E+00
         0.00000E+00
         0.00000E+00
         0.00000E+00
         0.00000E+00
         0.00000E+00
         0.00000E+00
         0.00000E+00
         0.00000E+00
         0.00000E+00
         0.00000E+00
         0.00000E+00
         0.00000E+00
         0.00000E+00
         0.00000E+00
         0.00000E+00
         0.00000E+00
         0.00000E+00
         0.00000E+00
         0.00000E+00
         0.00000E+00
         0.00000E+00
         0.00000E+00
         0.00000E+00
         0.00000E+00
         0.00000E+00
         0.00000E+00
         0.00000E+00
         0.00000E+00
         0.00000E+00
         0.00000E+00
         0.00000E+00
         0.00000E+00
         0.00000E+00
         0.00000E+00
         0.00000E+00
         0.00000E+00
         0.00000E+00
         0.00000E+00
         0.00000E+00
         0.00000E+00
         0.00000E+00
         0.00000E+00
         0.00000E+00
         0.00000E+00
         0.00000E+00
         0.00000E+00
         0.00000E+00
         0.00000E+00
         0.00000E+00
         0.00000E+00
         0.00000E+00
         0.00000E+00
         0.00000E+00
         0.00000E+00
         0.00000E+00
         0.00000E+00
         0.00000E+00
         0.00000E+00
         0.00000E+00
         0.00000E+00
         0.00000E+00
         0.00000E+00
         0.00000E+00
         0.00000E+00
         0.00000E+00
         0.00000E+00
         0.00000E+00
         0.00000E+00
         0.00000E+00
         0.00000E+00
         0.00000E+00
         0.00000E+00
         0.00000E+00
         0.00000E+00
         0.00000E+00
         0.00000E+00
         0.00000E+00
         0.00000E+00
         0.00000E+00
         0.00000E+00
         0.00000E+00
         0.00000E+00
         0.00000E+00
         0.00000E+00
         0.00000E+00
         0.00000E+00
         0.00000E+00
         0.00000E+00
         0.00000E+00
         0.00000E+00
         0.00000E+00
         0.00000E+00
         0.00000E+00
         0.00000E+00
         0.00000E+00
         0.00000E+00
         0.00000E+00
         0.00000E+00
         0.00000E+00
         0.00000E+00
         0.00000E+00
         0.00000E+00
         0.00000E+00
         0.00000E+00
         0.00000E+00
         0.00000E+00
         0.00000E+00
         0.00000E+00
         0.00000E+00
         0.00000E+00
         0.00000E+00
         0.00000E+00
         0.00000E+00
         0.00000E+00
         0.00000E+00
         0.00000E+00
         0.00000E+00
         0.00000E+00
         0.00000E+00
         0.00000E+00
         0.00000E+00
         0.00000E+00
         0.00000E+00
         0.00000E+00
         0.00000E+00
         0.00000E+00
         0.00000E+00
         0.00000E+00
         0.00000E+00
         0.00000E+00
         0.00000E+00
         0.00000E+00
         0.00000E+00
         0.00000E+00
         0.00000E+00
         0.00000E+00
         0.00000E+00
         0.00000E+00
         0.00000E+00
         0.00000E+00
         0.00000E+00
         0.00000E+00
         0.00000E+00
         0.00000E+00
         0.00000E+00
         0.00000E+00
         0.00000E+00
         0.00000E+00
         0.00000E+00
         0.00000E+00
         0.00000E+00
         0.00000E+00
         0.00000E+00
         0.00000E+00
         0.00000E+00
         0.00000E+00
         0.00000E+00
         0.00000E+00
         0.00000E+00
         0.00000E+00
         0.00000E+00
         0.00000E+00
         0.00000E+00
         0.00000E+00
         0.00000E+00
         0.00000E+00
         0.00000E+00
         0.00000E+00
         0.00000E+00
         0.00000E+00
         0.00000E+00
         0.00000E+00
         0.00000E+00
         0.00000E+00
         0.00000E+00
         0.00000E+00
         0.00000E+00
         0.00000E+00
         0.00000E+00
         0.00000E+00
         0.00000E+00
         0.00000E+00
         0.00000E+00
         0.00000E+00
         0.00000E+00
         0.00000E+00
         0.00000E+00
         0.00000E+00
         0.00000E+00
         0.00000E+00
         0.00000E+00
         0.00000E+00
         0.00000E+00
         0.00000E+00
         0.00000E+00
         0.00000E+00
         0.00000E+00
         0.00000E+00
         0.00000E+00
         0.00000E+00
         0.00000E+00
         0.00000E+00
         0.00000E+00
         0.00000E+00
         0.00000E+00
         0.00000E+00
         0.00000E+00
         0.00000E+00
         0.00000E+00
         0.00000E+00
         0.00000E+00
         0.00000E+00
         0.00000E+00
         0.00000E+00
         0.00000E+00
         0.00000E+00
         0.00000E+00
         0.00000E+00
         0.00000E+00
         0.00000E+00
         0.00000E+00
         0.00000E+00
         0.00000E+00
         0.00000E+00
         0.00000E+00
         0.00000E+00
         0.00000E+00
         0.00000E+00
         0.00000E+00
         0.00000E+00
         0.00000E+00
         0.00000E+00
         0.00000E+00
         0.00000E+00
         0.00000E+00
         0.00000E+00
         0.00000E+00
         0.00000E+00
         0.00000E+00
         0.00000E+00
         0.00000E+00
         0.00000E+00
         0.00000E+00
         0.00000E+00
         0.00000E+00
         0.00000E+00
         0.00000E+00
         0.00000E+00
         0.00000E+00
         0.00000E+00
         0.00000E+00
         0.00000E+00
         0.00000E+00
         0.00000E+00
         0.00000E+00
         0.00000E+00
         0.00000E+00
         0.00000E+00
         0.00000E+00
         0.00000E+00
         0.00000E+00
         0.00000E+00
         0.00000E+00
         0.00000E+00
         0.00000E+00
         0.00000E+00
         0.00000E+00
         0.00000E+00
         0.00000E+00
         0.00000E+00
         0.00000E+00
         0.00000E+00
         0.00000E+00
         0.00000E+00
         0.00000E+00
         0.00000E+00
         0.00000E+00
         0.00000E+00
         0.00000E+00
         0.00000E+00
         0.00000E+00
         0.00000E+00
         0.00000E+00
         0.00000E+00
         0.00000E+00
         0.00000E+00
         0.00000E+00
         0.00000E+00
         0.00000E+00
         0.00000E+00
         0.00000E+00
         0.00000E+00
         0.00000E+00
         0.00000E+00
         0.00000E+00
         0.00000E+00
         0.00000E+00
         0.00000E+00
         0.00000E+00
         0.00000E+00
         0.00000E+00
         0.00000E+00
         0.00000E+00
         0.00000E+00
         0.00000E+00
         0.00000E+00
         0.00000E+00
         0.00000E+00
         0.00000E+00
         0.00000E+00
         0.00000E+00
         0.00000E+00
         0.00000E+00
         0.00000E+00
         0.00000E+00
         0.00000E+00
         0.00000E+00
         0.00000E+00
         0.00000E+00
         0.00000E+00
         0.00000E+00
         0.00000E+00
         0.00000E+00
         0.00000E+00
         0.00000E+00
         0.00000E+00
         0.00000E+00
         0.00000E+00
         0.00000E+00
         0.00000E+00
         0.00000E+00
         0.00000E+00
         0.00000E+00
         0.00000E+00
         0.00000E+00
         0.00000E+00
         0.00000E+00
         0.00000E+00
         0.00000E+00
         0.00000E+00
         0.00000E+00
         0.00000E+00
         0.00000E+00
         0.00000E+00
         0.00000E+00
         0.00000E+00
         0.00000E+00
         0.00000E+00
         0.00000E+00
         0.00000E+00
         0.00000E+00
         0.00000E+00
         0.00000E+00
         0.00000E+00
         0.00000E+00
         0.00000E+00
         0.00000E+00
         0.00000E+00
         0.00000E+00
         0.00000E+00
         0.00000E+00
         0.00000E+00
         0.00000E+00
         0.00000E+00
         0.00000E+00
         0.00000E+00
         0.00000E+00
         0.00000E+00
         0.00000E+00
         0.00000E+00
         0.00000E+00
         0.00000E+00
         0.00000E+00
         0.00000E+00
         0.00000E+00
         0.00000E+00
         0.00000E+00
         0.00000E+00
         0.00000E+00
         0.00000E+00
         0.00000E+00
         0.00000E+00
         0.00000E+00
         0.00000E+00
         0.00000E+00
         0.00000E+00
         0.00000E+00
         0.00000E+00
         0.00000E+00
         0.00000E+00
         0.00000E+00
         0.00000E+00
         0.00000E+00
         0.00000E+00
         0.00000E+00
         0.00000E+00
         0.00000E+00
         0.00000E+00
         0.00000E+00
         0.00000E+00
         0.00000E+00
         0.00000E+00
         0.00000E+00
         0.00000E+00
         0.00000E+00
         0.00000E+00
         0.00000E+00
         0.00000E+00
         0.00000E+00
         0.00000E+00
         0.00000E+00
         0.00000E+00
         0.00000E+00
         0.00000E+00
         0.00000E+00
         0.00000E+00
         0.00000E+00
         0.00000E+00
         0.00000E+00
         0.00000E+00
         0.00000E+00
         0.00000E+00
         0.00000E+00
         0.00000E+00
         0.00000E+00
         0.00000E+00
         0.00000E+00
         0.00000E+00
         0.00000E+00
         0.00000E+00
         0.00000E+00
         0.00000E+00
         0.00000E+00
         0.00000E+00
         0.00000E+00
         0.00000E+00
         0.00000E+00
         0.00000E+00
         0.00000E+00
         0.00000E+00
         0.00000E+00
         0.00000E+00
         0.00000E+00
         0.00000E+00
         0.00000E+00
         0.00000E+00
         0.00000E+00
         0.00000E+00
         0.00000E+00
         0.00000E+00
         0.00000E+00
         0.00000E+00
         0.00000E+00
         0.00000E+00
         0.00000E+00
         0.00000E+00
         0.00000E+00
         0.00000E+00
         0.00000E+00
         0.00000E+00
         0.00000E+00
         0.00000E+00
         0.00000E+00
         0.00000E+00
         0.00000E+00
         0.00000E+00
         0.00000E+00
         0.00000E+00
         0.00000E+00
         0.00000E+00
         0.00000E+00
         0.00000E+00
         0.00000E+00
         0.00000E+00
         0.00000E+00
         0.00000E+00
         0.00000E+00
         0.00000E+00
         0.00000E+00
         0.00000E+00
         0.00000E+00
         0.00000E+00
         0.00000E+00
         0.00000E+00
         0.00000E+00
         0.00000E+00
         0.00000E+00
         0.00000E+00
         0.00000E+00
         0.00000E+00
         0.00000E+00
         0.00000E+00
         0.00000E+00
         0.00000E+00
         0.00000E+00
         0.00000E+00
         0.00000E+00
         0.00000E+00
         0.00000E+00
         0.00000E+00
         0.00000E+00
         0.00000E+00
         0.00000E+00
         0.00000E+00
         0.00000E+00
         0.00000E+00
         0.00000E+00
         0.00000E+00
         0.00000E+00
         0.00000E+00
         0.00000E+00
         0.00000E+00
         0.00000E+00
         0.00000E+00
         0.00000E+00
         0.00000E+00
         0.00000E+00
         0.00000E+00
         0.00000E+00
         0.00000E+00
         0.00000E+00
         0.00000E+00
         0.00000E+00
         0.00000E+00
         0.00000E+00
         0.00000E+00
         0.00000E+00
         0.00000E+00
         0.00000E+00
         0.00000E+00
         0.00000E+00
         0.00000E+00
         0.00000E+00
         0.00000E+00
         0.00000E+00
         0.00000E+00
         0.00000E+00
         0.00000E+00
         0.00000E+00
         0.00000E+00
         0.00000E+00
         0.00000E+00
         0.00000E+00
         0.00000E+00
         0.00000E+00
         0.00000E+00
         0.00000E+00
         0.00000E+00
         0.00000E+00
         0.00000E+00
         0.00000E+00
         0.00000E+00
         0.00000E+00
         0.00000E+00
         0.00000E+00
         0.00000E+00
         0.00000E+00
         0.00000E+00
         0.00000E+00
         0.00000E+00
         0.00000E+00
         0.00000E+00
         0.00000E+00
         0.00000E+00
         0.00000E+00
         0.00000E+00
         0.00000E+00
         0.00000E+00
         0.00000E+00
         0.00000E+00
         0.00000E+00
         0.00000E+00
         0.00000E+00
         0.00000E+00
         0.00000E+00
         0.00000E+00
         0.00000E+00
         0.00000E+00
         0.00000E+00
         0.00000E+00
         0.00000E+00
         0.00000E+00
         0.00000E+00
         0.00000E+00
         0.00000E+00
         0.00000E+00
         0.00000E+00
         0.00000E+00
         0.00000E+00
         0.00000E+00
         0.00000E+00
         0.00000E+00
         0.00000E+00
         0.00000E+00
         0.00000E+00
         0.00000E+00
         0.00000E+00
         0.00000E+00
         0.00000E+00
         0.00000E+00
         0.00000E+00
         0.00000E+00
         0.00000E+00
         0.00000E+00
         0.00000E+00
         0.00000E+00
         0.00000E+00
         0.00000E+00
         0.00000E+00
         0.00000E+00
         0.00000E+00
         0.00000E+00
         0.00000E+00
         0.00000E+00
         0.00000E+00
         0.00000E+00
         0.00000E+00
         0.00000E+00
         0.00000E+00
         0.00000E+00
         0.00000E+00
         0.00000E+00
         0.00000E+00
         0.00000E+00
         0.00000E+00
         0.00000E+00
         0.00000E+00
         0.00000E+00
         0.00000E+00
         0.00000E+00
         0.00000E+00
         0.00000E+00
         0.00000E+00
         0.00000E+00
         0.00000E+00
         0.00000E+00
         0.00000E+00
         0.00000E+00
         0.00000E+00
         0.00000E+00
         0.00000E+00
         0.00000E+00
         0.00000E+00
         0.00000E+00
         0.00000E+00
         0.00000E+00
         0.00000E+00
         0.00000E+00
         0.00000E+00
         0.00000E+00
         0.00000E+00
         0.00000E+00
         0.00000E+00
         0.00000E+00
         0.00000E+00
         0.00000E+00
         0.00000E+00
         0.00000E+00
         0.00000E+00
         0.00000E+00
         0.00000E+00
         0.00000E+00
         0.00000E+00
         0.00000E+00
         0.00000E+00
         0.00000E+00
         0.00000E+00
         0.00000E+00
         0.00000E+00
         0.00000E+00
         0.00000E+00
         0.00000E+00
         0.00000E+00
         0.00000E+00
         0.00000E+00
         0.00000E+00
         0.00000E+00
         0.00000E+00
         0.00000E+00
         0.00000E+00
         0.00000E+00
         0.00000E+00
         0.00000E+00
         0.00000E+00
         0.00000E+00
         0.00000E+00
         0.00000E+00
         0.00000E+00
         0.00000E+00
         0.00000E+00
         0.00000E+00
         0.00000E+00
         0.00000E+00
         0.00000E+00
         0.00000E+00
         0.00000E+00
         0.00000E+00
         0.00000E+00
         0.00000E+00
         0.00000E+00
         0.00000E+00
         0.00000E+00
         0.00000E+00
         0.00000E+00
         0.00000E+00
         0.00000E+00
         0.00000E+00
         0.00000E+00
         0.00000E+00
         0.00000E+00
         0.00000E+00
         0.00000E+00
         0.00000E+00
         0.00000E+00
         0.00000E+00
         0.00000E+00
         0.00000E+00
         0.00000E+00
         0.00000E+00
         0.00000E+00
         0.00000E+00
         0.00000E+00
         0.00000E+00
         0.00000E+00
         0.00000E+00
         0.00000E+00
         0.00000E+00
         0.00000E+00
         0.00000E+00
         0.00000E+00
         0.00000E+00
         0.00000E+00
         0.00000E+00
         0.00000E+00
         0.00000E+00
         0.00000E+00
         0.00000E+00
         0.00000E+00
         0.00000E+00
         0.00000E+00
         0.00000E+00
         0.00000E+00
         0.00000E+00
         0.00000E+00
         0.00000E+00
         0.00000E+00
         0.00000E+00
         0.00000E+00
         0.00000E+00
         0.00000E+00
         0.00000E+00
         0.00000E+00
         0.00000E+00
         0.00000E+00
         0.00000E+00
         0.00000E+00
         0.00000E+00
         0.00000E+00
         0.00000E+00
         0.00000E+00
         0.00000E+00
         0.00000E+00
         0.00000E+00
         0.00000E+00
         0.00000E+00
         0.00000E+00
         0.00000E+00
         0.00000E+00
         0.00000E+00
         0.00000E+00
         0.00000E+00
         0.00000E+00
         0.00000E+00
         0.00000E+00
         0.00000E+00
         0.00000E+00
         0.00000E+00
         0.00000E+00
         0.00000E+00
         0.00000E+00
         0.00000E+00
         0.00000E+00
         0.00000E+00
         0.00000E+00
         0.00000E+00
         0.00000E+00
         0.00000E+00
         0.00000E+00
         0.00000E+00
         0.00000E+00
         0.00000E+00
         0.00000E+00
         0.00000E+00
         0.00000E+00
         0.00000E+00
         0.00000E+00
         0.00000E+00
         0.00000E+00
         0.00000E+00
         0.00000E+00
         0.00000E+00
         0.00000E+00
         0.00000E+00
         0.00000E+00
         0.00000E+00
         0.00000E+00
         0.00000E+00
         0.00000E+00
         0.00000E+00
         0.00000E+00
         0.00000E+00
         0.00000E+00
         0.00000E+00
         0.00000E+00
         0.00000E+00
         0.00000E+00
         0.00000E+00
         0.00000E+00
         0.00000E+00
         0.00000E+00
         0.00000E+00
         0.00000E+00
         0.00000E+00
         0.00000E+00
         0.00000E+00
         0.00000E+00
         0.00000E+00
         0.00000E+00
         0.00000E+00
         0.00000E+00
         0.00000E+00
         0.00000E+00
         0.00000E+00
         0.00000E+00
         0.00000E+00
         0.00000E+00
         0.00000E+00
         0.00000E+00
         0.00000E+00
         0.00000E+00
         0.00000E+00
         0.00000E+00
         0.00000E+00
         0.00000E+00
         0.00000E+00
         0.00000E+00
         0.00000E+00
         0.00000E+00
         0.00000E+00
         0.00000E+00
         0.00000E+00
         0.00000E+00
         0.00000E+00
         0.00000E+00
         0.00000E+00
         0.00000E+00
         0.00000E+00
         0.00000E+00
         0.00000E+00
         0.00000E+00
         0.00000E+00
         0.00000E+00
         0.00000E+00
         0.00000E+00
         0.00000E+00
         0.00000E+00
         0.00000E+00
         0.00000E+00
         0.00000E+00
         0.00000E+00
         0.00000E+00
         0.00000E+00
         0.00000E+00
         0.00000E+00
         0.00000E+00
         0.00000E+00
         0.00000E+00
         0.00000E+00
         0.00000E+00
         0.00000E+00
         0.00000E+00
         0.00000E+00
         0.00000E+00
         0.00000E+00
         0.00000E+00
         0.00000E+00
         0.00000E+00
         0.00000E+00
         0.00000E+00
         0.00000E+00
         0.00000E+00
         0.00000E+00
         0.00000E+00
         0.00000E+00
         0.00000E+00
         0.00000E+00
         0.00000E+00
         0.00000E+00
         0.00000E+00
         0.00000E+00
         0.00000E+00
         0.00000E+00
         0.00000E+00
         0.00000E+00
         0.00000E+00
         0.00000E+00
         0.00000E+00
         0.00000E+00
         0.00000E+00
         0.00000E+00
         0.00000E+00
         0.00000E+00
         0.00000E+00
         0.00000E+00
         0.00000E+00
         0.00000E+00
         0.00000E+00
         0.00000E+00
         0.00000E+00
         0.00000E+00
         0.00000E+00
         0.00000E+00
         0.00000E+00
         0.00000E+00
         0.00000E+00
         0.00000E+00
         0.00000E+00
         0.00000E+00
         0.00000E+00
         0.00000E+00
         0.00000E+00
         0.00000E+00
         0.00000E+00
         0.00000E+00
         0.00000E+00
         0.00000E+00
         0.00000E+00
         0.00000E+00
         0.00000E+00
         0.00000E+00
         0.00000E+00
         0.00000E+00
         0.00000E+00
         0.00000E+00
         0.00000E+00
         0.00000E+00
         0.00000E+00
         0.00000E+00
         0.00000E+00
         0.00000E+00
         0.00000E+00
         0.00000E+00
         0.00000E+00
         0.00000E+00
         0.00000E+00
         0.00000E+00
         0.00000E+00
         0.00000E+00
         0.00000E+00
         0.00000E+00
         0.00000E+00
         0.00000E+00
         0.00000E+00
         0.00000E+00
         0.00000E+00
         0.00000E+00
         0.00000E+00
         0.00000E+00
         0.00000E+00
         0.00000E+00
         0.00000E+00
         0.00000E+00
         0.00000E+00
         0.00000E+00
         0.00000E+00
         0.00000E+00
         0.00000E+00
         0.00000E+00
         0.00000E+00
         0.00000E+00
         0.00000E+00
         0.00000E+00
         0.00000E+00
         0.00000E+00
         0.00000E+00
         0.00000E+00
         0.00000E+00
         0.00000E+00
         0.00000E+00
         0.00000E+00
         0.00000E+00
         0.00000E+00
         0.00000E+00
         0.00000E+00
         0.00000E+00
         0.00000E+00
         0.00000E+00
         0.00000E+00
         0.00000E+00
         0.00000E+00
         0.00000E+00
         0.00000E+00
         0.00000E+00
         0.00000E+00
         0.00000E+00
         0.00000E+00
         0.00000E+00
         0.00000E+00
         0.00000E+00
         0.00000E+00
         0.00000E+00
         0.00000E+00
         0.00000E+00
         0.00000E+00
         0.00000E+00
         0.00000E+00
         0.00000E+00
         0.00000E+00
         0.00000E+00
         0.00000E+00
         0.00000E+00
         0.00000E+00
         0.00000E+00
         0.00000E+00
         0.00000E+00
         0.00000E+00
         0.00000E+00
         0.00000E+00
         0.00000E+00
         0.00000E+00
         0.00000E+00
         0.00000E+00
         0.00000E+00
         0.00000E+00
         0.00000E+00
         0.00000E+00
         0.00000E+00
         0.00000E+00
         0.00000E+00
         0.00000E+00
         0.00000E+00
         0.00000E+00
         0.00000E+00
         0.00000E+00
         0.00000E+00
         0.00000E+00
         0.00000E+00
         0.00000E+00
         0.00000E+00
         0.00000E+00
         0.00000E+00
         0.00000E+00
         0.00000E+00
         0.00000E+00
         0.00000E+00
         0.00000E+00
         0.00000E+00
         0.00000E+00
         0.00000E+00
         0.00000E+00
         0.00000E+00
         0.00000E+00
         0.00000E+00
         0.00000E+00
         0.00000E+00
         0.00000E+00
         0.00000E+00
         0.00000E+00
         0.00000E+00
         0.00000E+00
         0.00000E+00
         0.00000E+00
         0.00000E+00
         0.00000E+00
         0.00000E+00
         0.00000E+00
         0.00000E+00
         0.00000E+00
         0.00000E+00
         0.00000E+00
         0.00000E+00
         0.00000E+00
         0.00000E+00
         0.00000E+00
         0.00000E+00
         0.00000E+00
         0.00000E+00
         0.00000E+00
         0.00000E+00
         0.00000E+00
         0.00000E+00
         0.00000E+00
         0.00000E+00
         0.00000E+00
         0.00000E+00
         0.00000E+00
         0.00000E+00
         0.00000E+00
         0.00000E+00
         0.00000E+00
         0.00000E+00
         0.00000E+00
         0.00000E+00
         0.00000E+00
         0.00000E+00
         0.00000E+00
         0.00000E+00
         0.00000E+00
         0.00000E+00
         0.00000E+00
         0.00000E+00
         0.00000E+00
         0.00000E+00
         0.00000E+00
         0.00000E+00
         0.00000E+00
         0.00000E+00
         0.00000E+00
         0.00000E+00
         0.00000E+00
         0.00000E+00
         0.00000E+00
         0.00000E+00
         0.00000E+00
         0.00000E+00
         0.00000E+00
         0.00000E+00
         0.00000E+00
         0.00000E+00
         0.00000E+00
         0.00000E+00
         0.00000E+00
         0.00000E+00
         0.00000E+00
         0.00000E+00
         0.00000E+00
         0.00000E+00
         0.00000E+00
         0.00000E+00
         0.00000E+00
         0.00000E+00
         0.00000E+00
         0.00000E+00
         0.00000E+00
         0.00000E+00
         0.00000E+00
         0.00000E+00
         0.00000E+00
         0.00000E+00
         0.00000E+00
         0.00000E+00
         0.00000E+00
         0.00000E+00
         0.00000E+00
         0.00000E+00
         0.00000E+00
         0.00000E+00
         0.00000E+00
         0.00000E+00
         0.00000E+00
         0.00000E+00
         0.00000E+00
         0.00000E+00
         0.00000E+00
         0.00000E+00
         0.00000E+00
         0.00000E+00
         0.00000E+00
         0.00000E+00
         0.00000E+00
         0.00000E+00
         0.00000E+00
         0.00000E+00
         0.00000E+00
         0.00000E+00
         0.00000E+00
         0.00000E+00
         0.00000E+00
         0.00000E+00
         0.00000E+00
         0.00000E+00
         0.00000E+00
         0.00000E+00
         0.00000E+00
         0.00000E+00
         0.00000E+00
         0.00000E+00
         0.00000E+00
         0.00000E+00
         0.00000E+00
         0.00000E+00
         0.00000E+00
         0.00000E+00
         0.00000E+00
         0.00000E+00
         0.00000E+00
         0.00000E+00
         0.00000E+00
         0.00000E+00
         0.00000E+00
         0.00000E+00
         0.00000E+00
         0.00000E+00
         0.00000E+00
         0.00000E+00
         0.00000E+00
         0.00000E+00
         0.00000E+00
         0.00000E+00
         0.00000E+00
         0.00000E+00
         0.00000E+00
         0.00000E+00
         0.00000E+00
         0.00000E+00
         0.00000E+00
         0.00000E+00
         0.00000E+00
         0.00000E+00
         0.00000E+00
         0.00000E+00
         0.00000E+00
         0.00000E+00
         0.00000E+00
         0.00000E+00
         0.00000E+00
         0.00000E+00
         0.00000E+00
         0.00000E+00
         0.00000E+00
         0.00000E+00
         0.00000E+00
         0.00000E+00
         0.00000E+00
         0.00000E+00
         0.00000E+00
         0.00000E+00
         0.00000E+00
         0.00000E+00
         0.00000E+00
         0.00000E+00
         0.00000E+00
         0.00000E+00
         0.00000E+00
         0.00000E+00
         0.00000E+00
         0.00000E+00
         0.00000E+00
         0.00000E+00
         0.00000E+00
         0.00000E+00
         0.00000E+00
         0.00000E+00
         0.00000E+00
         0.00000E+00
         0.00000E+00
         0.00000E+00
         0.00000E+00
         0.00000E+00
         0.00000E+00
         0.00000E+00
         0.00000E+00
         0.00000E+00
         0.00000E+00
         0.00000E+00
         0.00000E+00
         0.00000E+00
         0.00000E+00
         0.00000E+00
         0.00000E+00
         0.00000E+00
         0.00000E+00
         0.00000E+00
         0.00000E+00
         0.00000E+00
         0.00000E+00
         0.00000E+00
         0.00000E+00
         0.00000E+00
         0.00000E+00
         0.00000E+00
         0.00000E+00
         0.00000E+00
         0.00000E+00
         0.00000E+00
         0.00000E+00
         0.00000E+00
         0.00000E+00
         0.00000E+00
         0.00000E+00
         0.00000E+00
         0.00000E+00
         0.00000E+00
         0.00000E+00
         0.00000E+00
         0.00000E+00
         0.00000E+00
         0.00000E+00
         0.00000E+00
         0.00000E+00
         0.00000E+00
         0.00000E+00
         0.00000E+00
         0.00000E+00
         0.00000E+00
         0.00000E+00
         0.00000E+00
         0.00000E+00
         0.00000E+00
         0.00000E+00
         0.00000E+00
         0.00000E+00
         0.00000E+00
         0.00000E+00
         0.00000E+00
         0.00000E+00
         0.00000E+00
         0.00000E+00
         0.00000E+00
         0.00000E+00
         0.00000E+00
         0.00000E+00
         0.00000E+00
         0.00000E+00
         0.00000E+00
         0.00000E+00
         0.00000E+00
         0.00000E+00
         0.00000E+00
         0.00000E+00
         0.00000E+00
         0.00000E+00
         0.00000E+00
         0.00000E+00
         0.00000E+00
         0.00000E+00
         0.00000E+00
         0.00000E+00
         0.00000E+00
         0.00000E+00
         0.00000E+00
         0.00000E+00
         0.00000E+00
         0.00000E+00
         0.00000E+00
         0.00000E+00
         0.00000E+00
         0.00000E+00
         0.00000E+00
         0.00000E+00
         0.00000E+00
         0.00000E+00
         0.00000E+00
         0.00000E+00
         0.00000E+00
         0.00000E+00
         0.00000E+00
         0.00000E+00
         0.00000E+00
         0.00000E+00
         0.00000E+00
         0.00000E+00
         0.00000E+00
         0.00000E+00
         0.00000E+00
         0.00000E+00
         0.00000E+00
         0.00000E+00
         0.00000E+00
         0.00000E+00
         0.00000E+00
         0.00000E+00
         0.00000E+00
         0.00000E+00
         0.00000E+00
         0.00000E+00
         0.00000E+00
         0.00000E+00
         0.00000E+00
         0.00000E+00
         0.00000E+00
         0.00000E+00
         0.00000E+00
         0.00000E+00
         0.00000E+00
         0.00000E+00
         0.00000E+00
         0.00000E+00
         0.00000E+00
         0.00000E+00
         0.00000E+00
         0.00000E+00
         0.00000E+00
         0.00000E+00
         0.00000E+00
         0.00000E+00
         0.00000E+00
         0.00000E+00
         0.00000E+00
         0.00000E+00
         0.00000E+00
         0.00000E+00
         0.00000E+00
         0.00000E+00
         0.00000E+00
         0.00000E+00
         0.00000E+00
         0.00000E+00
         0.00000E+00
         0.00000E+00
         0.00000E+00
         0.00000E+00
         0.00000E+00
         0.00000E+00
         0.00000E+00
         0.00000E+00
         0.00000E+00
         0.00000E+00
         0.00000E+00
         0.00000E+00
         0.00000E+00
         0.00000E+00
         0.00000E+00
         0.00000E+00
         0.00000E+00
         0.00000E+00
         0.00000E+00
         0.00000E+00
         0.00000E+00
         0.00000E+00
         0.00000E+00
         0.00000E+00
         0.00000E+00
         0.00000E+00
         0.00000E+00
         0.00000E+00
         0.00000E+00
         0.00000E+00
         0.00000E+00
         0.00000E+00
         0.00000E+00
         0.00000E+00
         0.00000E+00
         0.00000E+00
         0.00000E+00
         0.00000E+00
         0.00000E+00
         0.00000E+00
         0.00000E+00
         0.00000E+00
         0.00000E+00
         0.00000E+00
         0.00000E+00
         0.00000E+00
         0.00000E+00
         0.00000E+00
         0.00000E+00
         0.00000E+00
         0.00000E+00
         0.00000E+00
         0.00000E+00
         0.00000E+00
         0.00000E+00
         0.00000E+00
         0.00000E+00
         0.00000E+00
         0.00000E+00
         0.00000E+00
         0.00000E+00
         0.00000E+00
         0.00000E+00
         0.00000E+00
         0.00000E+00
         0.00000E+00
         0.00000E+00
         0.00000E+00
         0.00000E+00
         0.00000E+00
         0.00000E+00
         0.00000E+00
         0.00000E+00
         0.00000E+00
         0.00000E+00
         0.00000E+00
         0.00000E+00
         0.00000E+00
         0.00000E+00
         0.00000E+00
         0.00000E+00
         0.00000E+00
         0.00000E+00
         0.00000E+00
         0.00000E+00
         0.00000E+00
         0.00000E+00
         0.00000E+00
         0.00000E+00
         0.00000E+00
         0.00000E+00
         0.00000E+00
         0.00000E+00
         0.00000E+00
         0.00000E+00
         0.00000E+00
         0.00000E+00
         0.00000E+00
         0.00000E+00
         0.00000E+00
         0.00000E+00
         0.00000E+00
         0.00000E+00
         0.00000E+00
         0.00000E+00
         0.00000E+00
         0.00000E+00
         0.00000E+00
         0.00000E+00
         0.00000E+00
         0.00000E+00
         0.00000E+00
         0.00000E+00
         0.00000E+00
         0.00000E+00
         0.00000E+00
         0.00000E+00
         0.00000E+00
         0.00000E+00
         0.00000E+00
         0.00000E+00
         0.00000E+00
         0.00000E+00
         0.00000E+00
         0.00000E+00
         0.00000E+00
         0.00000E+00
         0.00000E+00
         0.00000E+00
         0.00000E+00
         0.00000E+00
         0.00000E+00
         0.00000E+00
         0.00000E+00
         0.00000E+00
  
SCALARS                        eps_vol  double 1
LOOKUP_TABLE default
         0.00000E+00
         0.00000E+00
         0.00000E+00
         0.00000E+00
         0.00000E+00
         0.00000E+00
         0.00000E+00
         0.00000E+00
         0.00000E+00
         0.00000E+00
         0.00000E+00
         0.00000E+00
         0.00000E+00
         0.00000E+00
         0.00000E+00
         0.00000E+00
         0.00000E+00
         0.00000E+00
         0.00000E+00
         0.00000E+00
         0.00000E+00
         0.00000E+00
         0.00000E+00
         0.00000E+00
         0.00000E+00
         0.00000E+00
         0.00000E+00
         0.00000E+00
         0.00000E+00
         0.00000E+00
         0.00000E+00
         0.00000E+00
         0.00000E+00
         0.00000E+00
         0.00000E+00
         0.00000E+00
         0.00000E+00
         0.00000E+00
         0.00000E+00
         0.00000E+00
         0.00000E+00
         0.00000E+00
         0.00000E+00
         0.00000E+00
         0.00000E+00
         0.00000E+00
         0.00000E+00
         0.00000E+00
         0.00000E+00
         0.00000E+00
         0.00000E+00
         0.00000E+00
         0.00000E+00
         0.00000E+00
         0.00000E+00
         0.00000E+00
         0.00000E+00
         0.00000E+00
         0.00000E+00
         0.00000E+00
         0.00000E+00
         0.00000E+00
         0.00000E+00
         0.00000E+00
         0.00000E+00
         0.00000E+00
         0.00000E+00
         0.00000E+00
         0.00000E+00
         0.00000E+00
         0.00000E+00
         0.00000E+00
         0.00000E+00
         0.00000E+00
         0.00000E+00
         0.00000E+00
         0.00000E+00
         0.00000E+00
         0.00000E+00
         0.00000E+00
         0.00000E+00
         0.00000E+00
         0.00000E+00
         0.00000E+00
         0.00000E+00
         0.00000E+00
         0.00000E+00
         0.00000E+00
         0.00000E+00
         0.00000E+00
         0.00000E+00
         0.00000E+00
         0.00000E+00
         0.00000E+00
         0.00000E+00
         0.00000E+00
         0.00000E+00
         0.00000E+00
         0.00000E+00
         0.00000E+00
         0.00000E+00
         0.00000E+00
         0.00000E+00
         0.00000E+00
         0.00000E+00
         0.00000E+00
         0.00000E+00
         0.00000E+00
         0.00000E+00
         0.00000E+00
         0.00000E+00
         0.00000E+00
         0.00000E+00
         0.00000E+00
         0.00000E+00
         0.00000E+00
         0.00000E+00
         0.00000E+00
         0.00000E+00
         0.00000E+00
         0.00000E+00
         0.00000E+00
         0.00000E+00
         0.00000E+00
         0.00000E+00
         0.00000E+00
         0.00000E+00
         0.00000E+00
         0.00000E+00
         0.00000E+00
         0.00000E+00
         0.00000E+00
         0.00000E+00
         0.00000E+00
         0.00000E+00
         0.00000E+00
         0.00000E+00
         0.00000E+00
         0.00000E+00
         0.00000E+00
         0.00000E+00
         0.00000E+00
         0.00000E+00
         0.00000E+00
         0.00000E+00
         0.00000E+00
         0.00000E+00
         0.00000E+00
         0.00000E+00
         0.00000E+00
         0.00000E+00
         0.00000E+00
         0.00000E+00
         0.00000E+00
         0.00000E+00
         0.00000E+00
         0.00000E+00
         0.00000E+00
         0.00000E+00
         0.00000E+00
         0.00000E+00
         0.00000E+00
         0.00000E+00
         0.00000E+00
         0.00000E+00
         0.00000E+00
         0.00000E+00
         0.00000E+00
         0.00000E+00
         0.00000E+00
         0.00000E+00
         0.00000E+00
         0.00000E+00
         0.00000E+00
         0.00000E+00
         0.00000E+00
         0.00000E+00
         0.00000E+00
         0.00000E+00
         0.00000E+00
         0.00000E+00
         0.00000E+00
         0.00000E+00
         0.00000E+00
         0.00000E+00
         0.00000E+00
         0.00000E+00
         0.00000E+00
         0.00000E+00
         0.00000E+00
         0.00000E+00
         0.00000E+00
         0.00000E+00
         0.00000E+00
         0.00000E+00
         0.00000E+00
         0.00000E+00
         0.00000E+00
         0.00000E+00
         0.00000E+00
         0.00000E+00
         0.00000E+00
         0.00000E+00
         0.00000E+00
         0.00000E+00
         0.00000E+00
         0.00000E+00
         0.00000E+00
         0.00000E+00
         0.00000E+00
         0.00000E+00
         0.00000E+00
         0.00000E+00
         0.00000E+00
         0.00000E+00
         0.00000E+00
         0.00000E+00
         0.00000E+00
         0.00000E+00
         0.00000E+00
         0.00000E+00
         0.00000E+00
         0.00000E+00
         0.00000E+00
         0.00000E+00
         0.00000E+00
         0.00000E+00
         0.00000E+00
         0.00000E+00
         0.00000E+00
         0.00000E+00
         0.00000E+00
         0.00000E+00
         0.00000E+00
         0.00000E+00
         0.00000E+00
         0.00000E+00
         0.00000E+00
         0.00000E+00
         0.00000E+00
         0.00000E+00
         0.00000E+00
         0.00000E+00
         0.00000E+00
         0.00000E+00
         0.00000E+00
         0.00000E+00
         0.00000E+00
         0.00000E+00
         0.00000E+00
         0.00000E+00
         0.00000E+00
         0.00000E+00
         0.00000E+00
         0.00000E+00
         0.00000E+00
         0.00000E+00
         0.00000E+00
         0.00000E+00
         0.00000E+00
         0.00000E+00
         0.00000E+00
         0.00000E+00
         0.00000E+00
         0.00000E+00
         0.00000E+00
         0.00000E+00
         0.00000E+00
         0.00000E+00
         0.00000E+00
         0.00000E+00
         0.00000E+00
         0.00000E+00
         0.00000E+00
         0.00000E+00
         0.00000E+00
         0.00000E+00
         0.00000E+00
         0.00000E+00
         0.00000E+00
         0.00000E+00
         0.00000E+00
         0.00000E+00
         0.00000E+00
         0.00000E+00
         0.00000E+00
         0.00000E+00
         0.00000E+00
         0.00000E+00
         0.00000E+00
         0.00000E+00
         0.00000E+00
         0.00000E+00
         0.00000E+00
         0.00000E+00
         0.00000E+00
         0.00000E+00
         0.00000E+00
         0.00000E+00
         0.00000E+00
         0.00000E+00
         0.00000E+00
         0.00000E+00
         0.00000E+00
         0.00000E+00
         0.00000E+00
         0.00000E+00
         0.00000E+00
         0.00000E+00
         0.00000E+00
         0.00000E+00
         0.00000E+00
         0.00000E+00
         0.00000E+00
         0.00000E+00
         0.00000E+00
         0.00000E+00
         0.00000E+00
         0.00000E+00
         0.00000E+00
         0.00000E+00
         0.00000E+00
         0.00000E+00
         0.00000E+00
         0.00000E+00
         0.00000E+00
         0.00000E+00
         0.00000E+00
         0.00000E+00
         0.00000E+00
         0.00000E+00
         0.00000E+00
         0.00000E+00
         0.00000E+00
         0.00000E+00
         0.00000E+00
         0.00000E+00
         0.00000E+00
         0.00000E+00
         0.00000E+00
         0.00000E+00
         0.00000E+00
         0.00000E+00
         0.00000E+00
         0.00000E+00
         0.00000E+00
         0.00000E+00
         0.00000E+00
         0.00000E+00
         0.00000E+00
         0.00000E+00
         0.00000E+00
         0.00000E+00
         0.00000E+00
         0.00000E+00
         0.00000E+00
         0.00000E+00
         0.00000E+00
         0.00000E+00
         0.00000E+00
         0.00000E+00
         0.00000E+00
         0.00000E+00
         0.00000E+00
         0.00000E+00
         0.00000E+00
         0.00000E+00
         0.00000E+00
         0.00000E+00
         0.00000E+00
         0.00000E+00
         0.00000E+00
         0.00000E+00
         0.00000E+00
         0.00000E+00
         0.00000E+00
         0.00000E+00
         0.00000E+00
         0.00000E+00
         0.00000E+00
         0.00000E+00
         0.00000E+00
         0.00000E+00
         0.00000E+00
         0.00000E+00
         0.00000E+00
         0.00000E+00
         0.00000E+00
         0.00000E+00
         0.00000E+00
         0.00000E+00
         0.00000E+00
         0.00000E+00
         0.00000E+00
         0.00000E+00
         0.00000E+00
         0.00000E+00
         0.00000E+00
         0.00000E+00
         0.00000E+00
         0.00000E+00
         0.00000E+00
         0.00000E+00
         0.00000E+00
         0.00000E+00
         0.00000E+00
         0.00000E+00
         0.00000E+00
         0.00000E+00
         0.00000E+00
         0.00000E+00
         0.00000E+00
         0.00000E+00
         0.00000E+00
         0.00000E+00
         0.00000E+00
         0.00000E+00
         0.00000E+00
         0.00000E+00
         0.00000E+00
         0.00000E+00
         0.00000E+00
         0.00000E+00
         0.00000E+00
         0.00000E+00
         0.00000E+00
         0.00000E+00
         0.00000E+00
         0.00000E+00
         0.00000E+00
         0.00000E+00
         0.00000E+00
         0.00000E+00
         0.00000E+00
         0.00000E+00
         0.00000E+00
         0.00000E+00
         0.00000E+00
         0.00000E+00
         0.00000E+00
         0.00000E+00
         0.00000E+00
         0.00000E+00
         0.00000E+00
         0.00000E+00
         0.00000E+00
         0.00000E+00
         0.00000E+00
         0.00000E+00
         0.00000E+00
         0.00000E+00
         0.00000E+00
         0.00000E+00
         0.00000E+00
         0.00000E+00
         0.00000E+00
         0.00000E+00
         0.00000E+00
         0.00000E+00
         0.00000E+00
         0.00000E+00
         0.00000E+00
         0.00000E+00
         0.00000E+00
         0.00000E+00
         0.00000E+00
         0.00000E+00
         0.00000E+00
         0.00000E+00
         0.00000E+00
         0.00000E+00
         0.00000E+00
         0.00000E+00
         0.00000E+00
         0.00000E+00
         0.00000E+00
         0.00000E+00
         0.00000E+00
         0.00000E+00
         0.00000E+00
         0.00000E+00
         0.00000E+00
         0.00000E+00
         0.00000E+00
         0.00000E+00
         0.00000E+00
         0.00000E+00
         0.00000E+00
         0.00000E+00
         0.00000E+00
         0.00000E+00
         0.00000E+00
         0.00000E+00
         0.00000E+00
         0.00000E+00
         0.00000E+00
         0.00000E+00
         0.00000E+00
         0.00000E+00
         0.00000E+00
         0.00000E+00
         0.00000E+00
         0.00000E+00
         0.00000E+00
         0.00000E+00
         0.00000E+00
         0.00000E+00
         0.00000E+00
         0.00000E+00
         0.00000E+00
         0.00000E+00
         0.00000E+00
         0.00000E+00
         0.00000E+00
         0.00000E+00
         0.00000E+00
         0.00000E+00
         0.00000E+00
         0.00000E+00
         0.00000E+00
         0.00000E+00
         0.00000E+00
         0.00000E+00
         0.00000E+00
         0.00000E+00
         0.00000E+00
         0.00000E+00
         0.00000E+00
         0.00000E+00
         0.00000E+00
         0.00000E+00
         0.00000E+00
         0.00000E+00
         0.00000E+00
         0.00000E+00
         0.00000E+00
         0.00000E+00
         0.00000E+00
         0.00000E+00
         0.00000E+00
         0.00000E+00
         0.00000E+00
         0.00000E+00
         0.00000E+00
         0.00000E+00
         0.00000E+00
         0.00000E+00
         0.00000E+00
         0.00000E+00
         0.00000E+00
         0.00000E+00
         0.00000E+00
         0.00000E+00
         0.00000E+00
         0.00000E+00
         0.00000E+00
         0.00000E+00
         0.00000E+00
         0.00000E+00
         0.00000E+00
         0.00000E+00
         0.00000E+00
         0.00000E+00
         0.00000E+00
         0.00000E+00
         0.00000E+00
         0.00000E+00
         0.00000E+00
         0.00000E+00
         0.00000E+00
         0.00000E+00
         0.00000E+00
         0.00000E+00
         0.00000E+00
         0.00000E+00
         0.00000E+00
         0.00000E+00
         0.00000E+00
         0.00000E+00
         0.00000E+00
         0.00000E+00
         0.00000E+00
         0.00000E+00
         0.00000E+00
         0.00000E+00
         0.00000E+00
         0.00000E+00
         0.00000E+00
         0.00000E+00
         0.00000E+00
         0.00000E+00
         0.00000E+00
         0.00000E+00
         0.00000E+00
         0.00000E+00
         0.00000E+00
         0.00000E+00
         0.00000E+00
         0.00000E+00
         0.00000E+00
         0.00000E+00
         0.00000E+00
         0.00000E+00
         0.00000E+00
         0.00000E+00
         0.00000E+00
         0.00000E+00
         0.00000E+00
         0.00000E+00
         0.00000E+00
         0.00000E+00
         0.00000E+00
         0.00000E+00
         0.00000E+00
         0.00000E+00
         0.00000E+00
         0.00000E+00
         0.00000E+00
         0.00000E+00
         0.00000E+00
         0.00000E+00
         0.00000E+00
         0.00000E+00
         0.00000E+00
         0.00000E+00
         0.00000E+00
         0.00000E+00
         0.00000E+00
         0.00000E+00
         0.00000E+00
         0.00000E+00
         0.00000E+00
         0.00000E+00
         0.00000E+00
         0.00000E+00
         0.00000E+00
         0.00000E+00
         0.00000E+00
         0.00000E+00
         0.00000E+00
         0.00000E+00
         0.00000E+00
         0.00000E+00
         0.00000E+00
         0.00000E+00
         0.00000E+00
         0.00000E+00
         0.00000E+00
         0.00000E+00
         0.00000E+00
         0.00000E+00
         0.00000E+00
         0.00000E+00
         0.00000E+00
         0.00000E+00
         0.00000E+00
         0.00000E+00
         0.00000E+00
         0.00000E+00
         0.00000E+00
         0.00000E+00
         0.00000E+00
         0.00000E+00
         0.00000E+00
         0.00000E+00
         0.00000E+00
         0.00000E+00
         0.00000E+00
         0.00000E+00
         0.00000E+00
         0.00000E+00
         0.00000E+00
         0.00000E+00
         0.00000E+00
         0.00000E+00
         0.00000E+00
         0.00000E+00
         0.00000E+00
         0.00000E+00
         0.00000E+00
         0.00000E+00
         0.00000E+00
         0.00000E+00
         0.00000E+00
         0.00000E+00
         0.00000E+00
         0.00000E+00
         0.00000E+00
         0.00000E+00
         0.00000E+00
         0.00000E+00
         0.00000E+00
         0.00000E+00
         0.00000E+00
         0.00000E+00
         0.00000E+00
         0.00000E+00
         0.00000E+00
         0.00000E+00
         0.00000E+00
         0.00000E+00
         0.00000E+00
         0.00000E+00
         0.00000E+00
         0.00000E+00
         0.00000E+00
         0.00000E+00
         0.00000E+00
         0.00000E+00
         0.00000E+00
         0.00000E+00
         0.00000E+00
         0.00000E+00
         0.00000E+00
         0.00000E+00
         0.00000E+00
         0.00000E+00
         0.00000E+00
         0.00000E+00
         0.00000E+00
         0.00000E+00
         0.00000E+00
         0.00000E+00
         0.00000E+00
         0.00000E+00
         0.00000E+00
         0.00000E+00
         0.00000E+00
         0.00000E+00
         0.00000E+00
         0.00000E+00
         0.00000E+00
         0.00000E+00
         0.00000E+00
         0.00000E+00
         0.00000E+00
         0.00000E+00
         0.00000E+00
         0.00000E+00
         0.00000E+00
         0.00000E+00
         0.00000E+00
         0.00000E+00
         0.00000E+00
         0.00000E+00
         0.00000E+00
         0.00000E+00
         0.00000E+00
         0.00000E+00
         0.00000E+00
         0.00000E+00
         0.00000E+00
         0.00000E+00
         0.00000E+00
         0.00000E+00
         0.00000E+00
         0.00000E+00
         0.00000E+00
         0.00000E+00
         0.00000E+00
         0.00000E+00
         0.00000E+00
         0.00000E+00
         0.00000E+00
         0.00000E+00
         0.00000E+00
         0.00000E+00
         0.00000E+00
         0.00000E+00
         0.00000E+00
         0.00000E+00
         0.00000E+00
         0.00000E+00
         0.00000E+00
         0.00000E+00
         0.00000E+00
         0.00000E+00
         0.00000E+00
         0.00000E+00
         0.00000E+00
         0.00000E+00
         0.00000E+00
         0.00000E+00
         0.00000E+00
         0.00000E+00
         0.00000E+00
         0.00000E+00
         0.00000E+00
         0.00000E+00
         0.00000E+00
         0.00000E+00
         0.00000E+00
         0.00000E+00
         0.00000E+00
         0.00000E+00
         0.00000E+00
         0.00000E+00
         0.00000E+00
         0.00000E+00
         0.00000E+00
         0.00000E+00
         0.00000E+00
         0.00000E+00
         0.00000E+00
         0.00000E+00
         0.00000E+00
         0.00000E+00
         0.00000E+00
         0.00000E+00
         0.00000E+00
         0.00000E+00
         0.00000E+00
         0.00000E+00
         0.00000E+00
         0.00000E+00
         0.00000E+00
         0.00000E+00
         0.00000E+00
         0.00000E+00
         0.00000E+00
         0.00000E+00
         0.00000E+00
         0.00000E+00
         0.00000E+00
         0.00000E+00
         0.00000E+00
         0.00000E+00
         0.00000E+00
         0.00000E+00
         0.00000E+00
         0.00000E+00
         0.00000E+00
         0.00000E+00
         0.00000E+00
         0.00000E+00
         0.00000E+00
         0.00000E+00
         0.00000E+00
         0.00000E+00
         0.00000E+00
         0.00000E+00
         0.00000E+00
         0.00000E+00
         0.00000E+00
         0.00000E+00
         0.00000E+00
         0.00000E+00
         0.00000E+00
         0.00000E+00
         0.00000E+00
         0.00000E+00
         0.00000E+00
         0.00000E+00
         0.00000E+00
         0.00000E+00
         0.00000E+00
         0.00000E+00
         0.00000E+00
         0.00000E+00
         0.00000E+00
         0.00000E+00
         0.00000E+00
         0.00000E+00
         0.00000E+00
         0.00000E+00
         0.00000E+00
         0.00000E+00
         0.00000E+00
         0.00000E+00
         0.00000E+00
         0.00000E+00
         0.00000E+00
         0.00000E+00
         0.00000E+00
         0.00000E+00
         0.00000E+00
         0.00000E+00
         0.00000E+00
         0.00000E+00
         0.00000E+00
         0.00000E+00
         0.00000E+00
         0.00000E+00
         0.00000E+00
         0.00000E+00
         0.00000E+00
         0.00000E+00
         0.00000E+00
         0.00000E+00
         0.00000E+00
         0.00000E+00
         0.00000E+00
         0.00000E+00
         0.00000E+00
         0.00000E+00
         0.00000E+00
         0.00000E+00
         0.00000E+00
         0.00000E+00
         0.00000E+00
         0.00000E+00
         0.00000E+00
         0.00000E+00
         0.00000E+00
         0.00000E+00
         0.00000E+00
         0.00000E+00
         0.00000E+00
         0.00000E+00
         0.00000E+00
         0.00000E+00
         0.00000E+00
         0.00000E+00
         0.00000E+00
         0.00000E+00
         0.00000E+00
         0.00000E+00
         0.00000E+00
         0.00000E+00
         0.00000E+00
         0.00000E+00
         0.00000E+00
         0.00000E+00
         0.00000E+00
         0.00000E+00
         0.00000E+00
         0.00000E+00
         0.00000E+00
         0.00000E+00
         0.00000E+00
         0.00000E+00
         0.00000E+00
         0.00000E+00
         0.00000E+00
         0.00000E+00
         0.00000E+00
         0.00000E+00
         0.00000E+00
         0.00000E+00
         0.00000E+00
         0.00000E+00
         0.00000E+00
         0.00000E+00
         0.00000E+00
         0.00000E+00
         0.00000E+00
         0.00000E+00
         0.00000E+00
         0.00000E+00
         0.00000E+00
         0.00000E+00
         0.00000E+00
         0.00000E+00
         0.00000E+00
         0.00000E+00
         0.00000E+00
         0.00000E+00
         0.00000E+00
         0.00000E+00
         0.00000E+00
         0.00000E+00
         0.00000E+00
         0.00000E+00
         0.00000E+00
         0.00000E+00
         0.00000E+00
         0.00000E+00
         0.00000E+00
         0.00000E+00
         0.00000E+00
         0.00000E+00
         0.00000E+00
         0.00000E+00
         0.00000E+00
         0.00000E+00
         0.00000E+00
         0.00000E+00
         0.00000E+00
         0.00000E+00
         0.00000E+00
         0.00000E+00
         0.00000E+00
         0.00000E+00
         0.00000E+00
         0.00000E+00
         0.00000E+00
         0.00000E+00
         0.00000E+00
         0.00000E+00
         0.00000E+00
         0.00000E+00
         0.00000E+00
         0.00000E+00
         0.00000E+00
         0.00000E+00
         0.00000E+00
         0.00000E+00
         0.00000E+00
         0.00000E+00
         0.00000E+00
         0.00000E+00
         0.00000E+00
         0.00000E+00
         0.00000E+00
         0.00000E+00
         0.00000E+00
         0.00000E+00
         0.00000E+00
         0.00000E+00
         0.00000E+00
         0.00000E+00
         0.00000E+00
         0.00000E+00
         0.00000E+00
         0.00000E+00
         0.00000E+00
         0.00000E+00
         0.00000E+00
         0.00000E+00
         0.00000E+00
         0.00000E+00
         0.00000E+00
         0.00000E+00
         0.00000E+00
         0.00000E+00
         0.00000E+00
         0.00000E+00
         0.00000E+00
         0.00000E+00
         0.00000E+00
         0.00000E+00
         0.00000E+00
         0.00000E+00
         0.00000E+00
         0.00000E+00
         0.00000E+00
         0.00000E+00
         0.00000E+00
         0.00000E+00
         0.00000E+00
         0.00000E+00
         0.00000E+00
         0.00000E+00
         0.00000E+00
         0.00000E+00
         0.00000E+00
         0.00000E+00
         0.00000E+00
         0.00000E+00
         0.00000E+00
         0.00000E+00
         0.00000E+00
         0.00000E+00
         0.00000E+00
         0.00000E+00
         0.00000E+00
         0.00000E+00
         0.00000E+00
         0.00000E+00
         0.00000E+00
         0.00000E+00
         0.00000E+00
         0.00000E+00
         0.00000E+00
         0.00000E+00
         0.00000E+00
         0.00000E+00
         0.00000E+00
         0.00000E+00
         0.00000E+00
         0.00000E+00
         0.00000E+00
         0.00000E+00
         0.00000E+00
         0.00000E+00
         0.00000E+00
         0.00000E+00
         0.00000E+00
         0.00000E+00
         0.00000E+00
         0.00000E+00
         0.00000E+00
         0.00000E+00
         0.00000E+00
         0.00000E+00
         0.00000E+00
         0.00000E+00
         0.00000E+00
         0.00000E+00
         0.00000E+00
         0.00000E+00
         0.00000E+00
         0.00000E+00
         0.00000E+00
         0.00000E+00
         0.00000E+00
         0.00000E+00
         0.00000E+00
         0.00000E+00
         0.00000E+00
         0.00000E+00
         0.00000E+00
         0.00000E+00
         0.00000E+00
         0.00000E+00
         0.00000E+00
         0.00000E+00
         0.00000E+00
         0.00000E+00
         0.00000E+00
         0.00000E+00
         0.00000E+00
         0.00000E+00
         0.00000E+00
         0.00000E+00
         0.00000E+00
         0.00000E+00
         0.00000E+00
         0.00000E+00
         0.00000E+00
         0.00000E+00
         0.00000E+00
         0.00000E+00
         0.00000E+00
         0.00000E+00
         0.00000E+00
         0.00000E+00
         0.00000E+00
         0.00000E+00
         0.00000E+00
         0.00000E+00
         0.00000E+00
         0.00000E+00
         0.00000E+00
         0.00000E+00
         0.00000E+00
         0.00000E+00
         0.00000E+00
         0.00000E+00
         0.00000E+00
         0.00000E+00
         0.00000E+00
         0.00000E+00
         0.00000E+00
         0.00000E+00
         0.00000E+00
         0.00000E+00
         0.00000E+00
         0.00000E+00
         0.00000E+00
         0.00000E+00
         0.00000E+00
         0.00000E+00
         0.00000E+00
         0.00000E+00
         0.00000E+00
         0.00000E+00
         0.00000E+00
         0.00000E+00
         0.00000E+00
         0.00000E+00
         0.00000E+00
         0.00000E+00
         0.00000E+00
         0.00000E+00
         0.00000E+00
         0.00000E+00
         0.00000E+00
         0.00000E+00
         0.00000E+00
         0.00000E+00
         0.00000E+00
         0.00000E+00
         0.00000E+00
         0.00000E+00
         0.00000E+00
         0.00000E+00
         0.00000E+00
         0.00000E+00
         0.00000E+00
         0.00000E+00
         0.00000E+00
         0.00000E+00
         0.00000E+00
         0.00000E+00
         0.00000E+00
         0.00000E+00
         0.00000E+00
         0.00000E+00
         0.00000E+00
         0.00000E+00
         0.00000E+00
         0.00000E+00
         0.00000E+00
         0.00000E+00
         0.00000E+00
         0.00000E+00
         0.00000E+00
         0.00000E+00
         0.00000E+00
         0.00000E+00
         0.00000E+00
         0.00000E+00
         0.00000E+00
         0.00000E+00
         0.00000E+00
         0.00000E+00
         0.00000E+00
         0.00000E+00
         0.00000E+00
         0.00000E+00
         0.00000E+00
         0.00000E+00
         0.00000E+00
         0.00000E+00
         0.00000E+00
         0.00000E+00
         0.00000E+00
         0.00000E+00
         0.00000E+00
         0.00000E+00
         0.00000E+00
         0.00000E+00
         0.00000E+00
         0.00000E+00
         0.00000E+00
         0.00000E+00
         0.00000E+00
         0.00000E+00
         0.00000E+00
         0.00000E+00
         0.00000E+00
         0.00000E+00
         0.00000E+00
         0.00000E+00
         0.00000E+00
         0.00000E+00
         0.00000E+00
         0.00000E+00
         0.00000E+00
         0.00000E+00
         0.00000E+00
         0.00000E+00
         0.00000E+00
         0.00000E+00
         0.00000E+00
         0.00000E+00
         0.00000E+00
         0.00000E+00
         0.00000E+00
         0.00000E+00
         0.00000E+00
         0.00000E+00
         0.00000E+00
         0.00000E+00
         0.00000E+00
         0.00000E+00
         0.00000E+00
         0.00000E+00
         0.00000E+00
         0.00000E+00
         0.00000E+00
         0.00000E+00
         0.00000E+00
         0.00000E+00
         0.00000E+00
         0.00000E+00
         0.00000E+00
         0.00000E+00
         0.00000E+00
         0.00000E+00
         0.00000E+00
         0.00000E+00
         0.00000E+00
         0.00000E+00
         0.00000E+00
         0.00000E+00
         0.00000E+00
         0.00000E+00
         0.00000E+00
         0.00000E+00
         0.00000E+00
         0.00000E+00
         0.00000E+00
         0.00000E+00
         0.00000E+00
         0.00000E+00
         0.00000E+00
         0.00000E+00
         0.00000E+00
         0.00000E+00
         0.00000E+00
         0.00000E+00
         0.00000E+00
         0.00000E+00
         0.00000E+00
         0.00000E+00
         0.00000E+00
         0.00000E+00
         0.00000E+00
         0.00000E+00
         0.00000E+00
         0.00000E+00
         0.00000E+00
         0.00000E+00
         0.00000E+00
         0.00000E+00
         0.00000E+00
         0.00000E+00
         0.00000E+00
         0.00000E+00
         0.00000E+00
         0.00000E+00
         0.00000E+00
         0.00000E+00
         0.00000E+00
         0.00000E+00
         0.00000E+00
         0.00000E+00
         0.00000E+00
         0.00000E+00
         0.00000E+00
         0.00000E+00
         0.00000E+00
         0.00000E+00
         0.00000E+00
         0.00000E+00
         0.00000E+00
         0.00000E+00
         0.00000E+00
         0.00000E+00
         0.00000E+00
         0.00000E+00
         0.00000E+00
         0.00000E+00
         0.00000E+00
         0.00000E+00
         0.00000E+00
         0.00000E+00
         0.00000E+00
         0.00000E+00
         0.00000E+00
         0.00000E+00
         0.00000E+00
         0.00000E+00
         0.00000E+00
         0.00000E+00
         0.00000E+00
         0.00000E+00
         0.00000E+00
         0.00000E+00
         0.00000E+00
         0.00000E+00
         0.00000E+00
         0.00000E+00
         0.00000E+00
         0.00000E+00
         0.00000E+00
         0.00000E+00
         0.00000E+00
         0.00000E+00
         0.00000E+00
         0.00000E+00
         0.00000E+00
         0.00000E+00
         0.00000E+00
         0.00000E+00
         0.00000E+00
         0.00000E+00
         0.00000E+00
         0.00000E+00
         0.00000E+00
         0.00000E+00
         0.00000E+00
         0.00000E+00
         0.00000E+00
         0.00000E+00
         0.00000E+00
         0.00000E+00
         0.00000E+00
         0.00000E+00
         0.00000E+00
         0.00000E+00
         0.00000E+00
         0.00000E+00
         0.00000E+00
         0.00000E+00
         0.00000E+00
         0.00000E+00
         0.00000E+00
         0.00000E+00
         0.00000E+00
         0.00000E+00
         0.00000E+00
         0.00000E+00
         0.00000E+00
         0.00000E+00
         0.00000E+00
         0.00000E+00
         0.00000E+00
         0.00000E+00
         0.00000E+00
         0.00000E+00
         0.00000E+00
         0.00000E+00
         0.00000E+00
         0.00000E+00
         0.00000E+00
         0.00000E+00
         0.00000E+00
         0.00000E+00
         0.00000E+00
         0.00000E+00
         0.00000E+00
         0.00000E+00
         0.00000E+00
         0.00000E+00
         0.00000E+00
         0.00000E+00
         0.00000E+00
         0.00000E+00
         0.00000E+00
         0.00000E+00
         0.00000E+00
         0.00000E+00
         0.00000E+00
         0.00000E+00
         0.00000E+00
         0.00000E+00
         0.00000E+00
         0.00000E+00
         0.00000E+00
         0.00000E+00
         0.00000E+00
         0.00000E+00
         0.00000E+00
         0.00000E+00
         0.00000E+00
         0.00000E+00
         0.00000E+00
         0.00000E+00
         0.00000E+00
         0.00000E+00
         0.00000E+00
         0.00000E+00
         0.00000E+00
         0.00000E+00
         0.00000E+00
         0.00000E+00
         0.00000E+00
         0.00000E+00
         0.00000E+00
         0.00000E+00
         0.00000E+00
         0.00000E+00
         0.00000E+00
         0.00000E+00
         0.00000E+00
         0.00000E+00
         0.00000E+00
         0.00000E+00
         0.00000E+00
         0.00000E+00
         0.00000E+00
         0.00000E+00
         0.00000E+00
         0.00000E+00
         0.00000E+00
         0.00000E+00
         0.00000E+00
         0.00000E+00
         0.00000E+00
         0.00000E+00
         0.00000E+00
         0.00000E+00
         0.00000E+00
         0.00000E+00
         0.00000E+00
         0.00000E+00
         0.00000E+00
         0.00000E+00
         0.00000E+00
         0.00000E+00
         0.00000E+00
         0.00000E+00
         0.00000E+00
         0.00000E+00
         0.00000E+00
         0.00000E+00
         0.00000E+00
         0.00000E+00
         0.00000E+00
         0.00000E+00
         0.00000E+00
         0.00000E+00
         0.00000E+00
         0.00000E+00
         0.00000E+00
         0.00000E+00
         0.00000E+00
         0.00000E+00
         0.00000E+00
         0.00000E+00
         0.00000E+00
         0.00000E+00
         0.00000E+00
         0.00000E+00
         0.00000E+00
         0.00000E+00
         0.00000E+00
         0.00000E+00
         0.00000E+00
         0.00000E+00
         0.00000E+00
         0.00000E+00
         0.00000E+00
         0.00000E+00
         0.00000E+00
         0.00000E+00
         0.00000E+00
         0.00000E+00
         0.00000E+00
         0.00000E+00
         0.00000E+00
         0.00000E+00
         0.00000E+00
         0.00000E+00
         0.00000E+00
         0.00000E+00
         0.00000E+00
         0.00000E+00
         0.00000E+00
         0.00000E+00
         0.00000E+00
         0.00000E+00
         0.00000E+00
         0.00000E+00
         0.00000E+00
         0.00000E+00
         0.00000E+00
         0.00000E+00
         0.00000E+00
         0.00000E+00
         0.00000E+00
         0.00000E+00
         0.00000E+00
         0.00000E+00
         0.00000E+00
         0.00000E+00
         0.00000E+00
         0.00000E+00
         0.00000E+00
         0.00000E+00
         0.00000E+00
         0.00000E+00
         0.00000E+00
         0.00000E+00
         0.00000E+00
         0.00000E+00
         0.00000E+00
         0.00000E+00
         0.00000E+00
         0.00000E+00
         0.00000E+00
         0.00000E+00
         0.00000E+00
         0.00000E+00
         0.00000E+00
         0.00000E+00
         0.00000E+00
         0.00000E+00
         0.00000E+00
         0.00000E+00
         0.00000E+00
         0.00000E+00
         0.00000E+00
         0.00000E+00
         0.00000E+00
         0.00000E+00
         0.00000E+00
         0.00000E+00
         0.00000E+00
         0.00000E+00
         0.00000E+00
         0.00000E+00
         0.00000E+00
         0.00000E+00
         0.00000E+00
         0.00000E+00
         0.00000E+00
         0.00000E+00
         0.00000E+00
         0.00000E+00
         0.00000E+00
         0.00000E+00
         0.00000E+00
         0.00000E+00
         0.00000E+00
         0.00000E+00
         0.00000E+00
         0.00000E+00
         0.00000E+00
         0.00000E+00
         0.00000E+00
         0.00000E+00
         0.00000E+00
         0.00000E+00
         0.00000E+00
         0.00000E+00
         0.00000E+00
         0.00000E+00
         0.00000E+00
         0.00000E+00
         0.00000E+00
         0.00000E+00
         0.00000E+00
         0.00000E+00
         0.00000E+00
         0.00000E+00
         0.00000E+00
         0.00000E+00
         0.00000E+00
         0.00000E+00
         0.00000E+00
         0.00000E+00
         0.00000E+00
         0.00000E+00
         0.00000E+00
         0.00000E+00
         0.00000E+00
         0.00000E+00
         0.00000E+00
         0.00000E+00
         0.00000E+00
         0.00000E+00
         0.00000E+00
         0.00000E+00
         0.00000E+00
         0.00000E+00
         0.00000E+00
         0.00000E+00
         0.00000E+00
         0.00000E+00
         0.00000E+00
         0.00000E+00
         0.00000E+00
         0.00000E+00
         0.00000E+00
         0.00000E+00
         0.00000E+00
         0.00000E+00
         0.00000E+00
         0.00000E+00
         0.00000E+00
         0.00000E+00
         0.00000E+00
         0.00000E+00
         0.00000E+00
         0.00000E+00
         0.00000E+00
         0.00000E+00
         0.00000E+00
         0.00000E+00
         0.00000E+00
         0.00000E+00
         0.00000E+00
         0.00000E+00
         0.00000E+00
         0.00000E+00
         0.00000E+00
         0.00000E+00
         0.00000E+00
         0.00000E+00
         0.00000E+00
         0.00000E+00
         0.00000E+00
         0.00000E+00
         0.00000E+00
         0.00000E+00
         0.00000E+00
         0.00000E+00
         0.00000E+00
         0.00000E+00
         0.00000E+00
         0.00000E+00
         0.00000E+00
         0.00000E+00
         0.00000E+00
         0.00000E+00
         0.00000E+00
         0.00000E+00
         0.00000E+00
         0.00000E+00
         0.00000E+00
         0.00000E+00
         0.00000E+00
         0.00000E+00
         0.00000E+00
         0.00000E+00
         0.00000E+00
         0.00000E+00
         0.00000E+00
         0.00000E+00
         0.00000E+00
         0.00000E+00
         0.00000E+00
         0.00000E+00
         0.00000E+00
         0.00000E+00
         0.00000E+00
         0.00000E+00
         0.00000E+00
         0.00000E+00
         0.00000E+00
         0.00000E+00
         0.00000E+00
         0.00000E+00
         0.00000E+00
         0.00000E+00
         0.00000E+00
         0.00000E+00
         0.00000E+00
         0.00000E+00
         0.00000E+00
         0.00000E+00
         0.00000E+00
         0.00000E+00
         0.00000E+00
         0.00000E+00
         0.00000E+00
         0.00000E+00
         0.00000E+00
         0.00000E+00
         0.00000E+00
         0.00000E+00
         0.00000E+00
         0.00000E+00
         0.00000E+00
         0.00000E+00
         0.00000E+00
         0.00000E+00
         0.00000E+00
         0.00000E+00
         0.00000E+00
         0.00000E+00
         0.00000E+00
         0.00000E+00
         0.00000E+00
         0.00000E+00
         0.00000E+00
         0.00000E+00
         0.00000E+00
         0.00000E+00
         0.00000E+00
         0.00000E+00
         0.00000E+00
         0.00000E+00
         0.00000E+00
         0.00000E+00
         0.00000E+00
         0.00000E+00
         0.00000E+00
         0.00000E+00
         0.00000E+00
         0.00000E+00
         0.00000E+00
         0.00000E+00
         0.00000E+00
         0.00000E+00
         0.00000E+00
         0.00000E+00
         0.00000E+00
         0.00000E+00
         0.00000E+00
         0.00000E+00
         0.00000E+00
         0.00000E+00
         0.00000E+00
         0.00000E+00
         0.00000E+00
         0.00000E+00
         0.00000E+00
         0.00000E+00
         0.00000E+00
         0.00000E+00
         0.00000E+00
         0.00000E+00
         0.00000E+00
         0.00000E+00
         0.00000E+00
         0.00000E+00
         0.00000E+00
         0.00000E+00
         0.00000E+00
         0.00000E+00
         0.00000E+00
         0.00000E+00
         0.00000E+00
         0.00000E+00
         0.00000E+00
         0.00000E+00
         0.00000E+00
         0.00000E+00
         0.00000E+00
         0.00000E+00
         0.00000E+00
         0.00000E+00
         0.00000E+00
         0.00000E+00
         0.00000E+00
         0.00000E+00
         0.00000E+00
         0.00000E+00
         0.00000E+00
         0.00000E+00
         0.00000E+00
         0.00000E+00
         0.00000E+00
         0.00000E+00
         0.00000E+00
         0.00000E+00
         0.00000E+00
         0.00000E+00
         0.00000E+00
         0.00000E+00
         0.00000E+00
         0.00000E+00
         0.00000E+00
         0.00000E+00
         0.00000E+00
         0.00000E+00
         0.00000E+00
         0.00000E+00
         0.00000E+00
         0.00000E+00
         0.00000E+00
         0.00000E+00
         0.00000E+00
         0.00000E+00
         0.00000E+00
         0.00000E+00
         0.00000E+00
         0.00000E+00
         0.00000E+00
         0.00000E+00
         0.00000E+00
         0.00000E+00
         0.00000E+00
         0.00000E+00
         0.00000E+00
         0.00000E+00
         0.00000E+00
         0.00000E+00
         0.00000E+00
         0.00000E+00
         0.00000E+00
         0.00000E+00
         0.00000E+00
         0.00000E+00
         0.00000E+00
         0.00000E+00
         0.00000E+00
         0.00000E+00
         0.00000E+00
         0.00000E+00
         0.00000E+00
         0.00000E+00
         0.00000E+00
         0.00000E+00
         0.00000E+00
         0.00000E+00
         0.00000E+00
         0.00000E+00
         0.00000E+00
         0.00000E+00
         0.00000E+00
         0.00000E+00
         0.00000E+00
         0.00000E+00
         0.00000E+00
         0.00000E+00
         0.00000E+00
         0.00000E+00
         0.00000E+00
         0.00000E+00
         0.00000E+00
         0.00000E+00
         0.00000E+00
         0.00000E+00
         0.00000E+00
         0.00000E+00
         0.00000E+00
         0.00000E+00
         0.00000E+00
         0.00000E+00
         0.00000E+00
         0.00000E+00
         0.00000E+00
         0.00000E+00
         0.00000E+00
         0.00000E+00
         0.00000E+00
         0.00000E+00
         0.00000E+00
         0.00000E+00
         0.00000E+00
         0.00000E+00
         0.00000E+00
         0.00000E+00
         0.00000E+00
         0.00000E+00
         0.00000E+00
         0.00000E+00
         0.00000E+00
         0.00000E+00
         0.00000E+00
         0.00000E+00
         0.00000E+00
         0.00000E+00
         0.00000E+00
         0.00000E+00
         0.00000E+00
         0.00000E+00
         0.00000E+00
         0.00000E+00
         0.00000E+00
         0.00000E+00
         0.00000E+00
         0.00000E+00
         0.00000E+00
         0.00000E+00
         0.00000E+00
         0.00000E+00
         0.00000E+00
         0.00000E+00
         0.00000E+00
         0.00000E+00
         0.00000E+00
         0.00000E+00
         0.00000E+00
         0.00000E+00
         0.00000E+00
         0.00000E+00
         0.00000E+00
         0.00000E+00
         0.00000E+00
         0.00000E+00
         0.00000E+00
         0.00000E+00
         0.00000E+00
  
SCALARS                            eps  double 1
LOOKUP_TABLE default
         0.19995E+00
         0.25376E+00
         0.23910E+00
         0.18382E+00
         0.00000E+00
         0.00000E+00
         0.00000E+00
         0.00000E+00
         0.26648E+00
         0.22878E+00
         0.00000E+00
         0.00000E+00
         0.25034E+00
         0.21060E+00
         0.00000E+00
         0.00000E+00
         0.16959E+00
         0.18945E+00
         0.00000E+00
         0.00000E+00
         0.24058E+00
         0.27786E+00
         0.29348E+00
         0.00000E+00
         0.00000E+00
         0.00000E+00
         0.19964E+00
         0.22370E+00
         0.00000E+00
         0.00000E+00
         0.15248E+00
         0.17486E+00
         0.15495E+00
         0.00000E+00
         0.00000E+00
         0.00000E+00
         0.18224E+00
         0.19143E+00
         0.00000E+00
         0.00000E+00
         0.24217E+00
         0.21411E+00
         0.00000E+00
         0.00000E+00
         0.25893E+00
         0.19892E+00
         0.00000E+00
         0.00000E+00
         0.19544E+00
         0.00000E+00
         0.18544E+00
         0.00000E+00
         0.17289E+00
         0.00000E+00
         0.18063E+00
         0.00000E+00
         0.21122E+00
         0.19213E+00
         0.00000E+00
         0.00000E+00
         0.16914E+00
         0.19850E+00
         0.00000E+00
         0.00000E+00
         0.15334E+00
         0.00000E+00
         0.15395E+00
         0.00000E+00
         0.31723E+00
         0.28724E+00
         0.00000E+00
         0.00000E+00
         0.27913E+00
         0.00000E+00
         0.16722E+00
         0.00000E+00
         0.23285E+00
         0.00000E+00
         0.38061E+00
         0.00000E+00
         0.56582E+00
         0.36145E+00
         0.00000E+00
         0.00000E+00
         0.22479E+00
         0.00000E+00
         0.26598E+00
         0.00000E+00
         0.26357E+00
         0.00000E+00
         0.26378E+00
         0.22819E+00
         0.00000E+00
         0.00000E+00
         0.19059E+00
         0.00000E+00
         0.16017E+00
         0.00000E+00
         0.17094E+00
         0.00000E+00
         0.21485E+00
         0.21118E+00
         0.00000E+00
         0.00000E+00
         0.43312E+00
         0.42682E+00
         0.00000E+00
         0.00000E+00
         0.32273E+00
         0.00000E+00
         0.24341E+00
         0.00000E+00
         0.24017E+00
         0.00000E+00
         0.23667E+00
         0.00000E+00
         0.24561E+00
         0.00000E+00
         0.34044E+00
         0.00000E+00
         0.63332E+00
         0.00000E+00
         0.10351E+01
         0.00000E+00
         0.11152E+01
         0.00000E+00
         0.66146E+00
         0.00000E+00
         0.43871E+00
         0.00000E+00
         0.32943E+00
         0.00000E+00
         0.32861E+00
         0.00000E+00
         0.36627E+00
         0.00000E+00
         0.42438E+00
         0.00000E+00
         0.41525E+00
         0.00000E+00
         0.34379E+00
         0.00000E+00
         0.28390E+00
         0.00000E+00
         0.24485E+00
         0.00000E+00
         0.22299E+00
         0.00000E+00
         0.25532E+00
         0.00000E+00
         0.31282E+00
         0.00000E+00
         0.32250E+00
         0.00000E+00
         0.31993E+00
         0.00000E+00
         0.10498E+00
         0.14866E+00
         0.14979E+00
         0.88370E-01
         0.19965E+00
         0.14573E+00
         0.17104E+00
         0.13593E+00
         0.78729E-01
         0.10525E+00
         0.17727E+00
         0.18582E+00
         0.18453E+00
         0.15506E+00
         0.18899E+00
         0.64167E-01
         0.75086E-01
         0.62535E-01
         0.93289E-01
         0.84818E-01
         0.16989E+00
         0.16504E+00
         0.18388E+00
         0.11748E+00
         0.97039E-01
         0.10419E+00
         0.14303E+00
         0.15445E+00
         0.20305E+00
         0.11185E+00
         0.74108E-01
         0.11588E+00
         0.73034E-01
         0.99130E-01
         0.25628E+00
         0.21658E+00
         0.18545E+00
         0.21397E+00
         0.26250E+00
         0.35411E+00
         0.47047E+00
         0.34698E+00
         0.23163E+00
         0.18204E+00
         0.19294E+00
         0.22286E+00
         0.17180E+00
         0.13230E+00
         0.14162E+00
         0.19230E+00
         0.24414E+00
         0.17071E+00
         0.36486E+00
         0.34218E+00
         0.29974E+00
         0.22271E+00
         0.18677E+00
         0.19152E+00
         0.22995E+00
         0.31084E+00
         0.48977E+00
         0.77109E+00
         0.87986E+00
         0.61743E+00
         0.41519E+00
         0.30810E+00
         0.30278E+00
         0.30370E+00
         0.31054E+00
         0.32595E+00
         0.33917E+00
         0.32313E+00
         0.31599E+00
         0.38767E+00
         0.49132E+00
         0.47954E+00
         0.36400E+00
         0.30356E+00
         0.32653E-01
         0.51708E-01
         0.82445E-01
         0.52665E-01
         0.15035E+00
         0.15164E+00
         0.57059E-01
         0.42976E-01
         0.26511E-01
         0.31035E-01
         0.75586E-01
         0.10797E+00
         0.83741E-01
         0.79154E-01
         0.14557E+00
         0.46061E-01
         0.30849E-01
         0.38661E-01
         0.35251E-01
         0.32232E-01
         0.67780E-01
         0.11469E+00
         0.63622E-01
         0.47293E-01
         0.36169E-01
         0.62446E-01
         0.85334E-01
         0.11616E+00
         0.18999E+00
         0.90398E-01
         0.61713E-01
         0.86725E-01
         0.70147E-01
         0.12334E+00
         0.18420E+00
         0.14080E+00
         0.91995E-01
         0.18300E+00
         0.23214E+00
         0.30585E+00
         0.36796E+00
         0.30518E+00
         0.20636E+00
         0.87438E-01
         0.13095E+00
         0.17143E+00
         0.14194E+00
         0.13326E+00
         0.17680E+00
         0.26517E+00
         0.34635E+00
         0.23733E+00
         0.27923E+00
         0.26719E+00
         0.24287E+00
         0.16541E+00
         0.13406E+00
         0.15616E+00
         0.21056E+00
         0.28580E+00
         0.37270E+00
         0.42183E+00
         0.39674E+00
         0.39908E+00
         0.34780E+00
         0.24671E+00
         0.17766E+00
         0.14217E+00
         0.16323E+00
         0.22918E+00
         0.25904E+00
         0.24631E+00
         0.27856E+00
         0.40720E+00
         0.58359E+00
         0.62782E+00
         0.47641E+00
         0.31515E+00
         0.37837E-01
         0.45116E-01
         0.55596E-01
         0.44469E-01
         0.81261E-01
         0.80173E-01
         0.44121E-01
         0.38333E-01
         0.31787E-01
         0.30948E-01
         0.47494E-01
         0.61409E-01
         0.52687E-01
         0.46772E-01
         0.84004E-01
         0.36516E-01
         0.28932E-01
         0.37565E-01
         0.32419E-01
         0.33947E-01
         0.55705E-01
         0.85858E-01
         0.46578E-01
         0.38080E-01
         0.30841E-01
         0.45018E-01
         0.51654E-01
         0.76533E-01
         0.12850E+00
         0.61665E-01
         0.46523E-01
         0.57031E-01
         0.49143E-01
         0.68968E-01
         0.98434E-01
         0.79842E-01
         0.59179E-01
         0.11823E+00
         0.16769E+00
         0.23140E+00
         0.28286E+00
         0.21537E+00
         0.14157E+00
         0.54758E-01
         0.74364E-01
         0.91959E-01
         0.78357E-01
         0.70108E-01
         0.79563E-01
         0.10946E+00
         0.13774E+00
         0.10851E+00
         0.13987E+00
         0.12077E+00
         0.12119E+00
         0.84836E-01
         0.71783E-01
         0.90135E-01
         0.13939E+00
         0.21244E+00
         0.30559E+00
         0.36515E+00
         0.37297E+00
         0.35006E+00
         0.27476E+00
         0.18905E+00
         0.12718E+00
         0.88232E-01
         0.84762E-01
         0.11132E+00
         0.12801E+00
         0.12225E+00
         0.11817E+00
         0.13005E+00
         0.17203E+00
         0.20360E+00
         0.17633E+00
         0.12991E+00
         0.80621E-02
         0.83397E-02
         0.10270E-01
         0.10282E-01
         0.22274E-01
         0.29197E-01
         0.88465E-02
         0.89061E-02
         0.95120E-02
         0.13116E-01
         0.98188E-02
         0.19594E-01
         0.14071E-01
         0.10203E-01
         0.34479E-01
         0.90591E-02
         0.14246E-01
         0.99602E-02
         0.14446E-01
         0.23032E-01
         0.31293E-01
         0.50258E-01
         0.21232E-01
         0.13115E-01
         0.19043E-01
         0.10686E-01
         0.18316E-01
         0.37299E-01
         0.72997E-01
         0.36130E-01
         0.12750E-01
         0.13742E-01
         0.16095E-01
         0.25838E-01
         0.27235E-01
         0.19583E-01
         0.14326E-01
         0.60402E-01
         0.98325E-01
         0.14720E+00
         0.18968E+00
         0.13573E+00
         0.84989E-01
         0.16864E-01
         0.20339E-01
         0.28577E-01
         0.24883E-01
         0.24218E-01
         0.31765E-01
         0.48598E-01
         0.65520E-01
         0.49330E-01
         0.46585E-01
         0.44898E-01
         0.39053E-01
         0.26949E-01
         0.24790E-01
         0.40393E-01
         0.78209E-01
         0.13627E+00
         0.21706E+00
         0.28432E+00
         0.30139E+00
         0.26003E+00
         0.18211E+00
         0.11318E+00
         0.71164E-01
         0.44693E-01
         0.35219E-01
         0.38547E-01
         0.46713E-01
         0.51862E-01
         0.57351E-01
         0.72022E-01
         0.91880E-01
         0.10508E+00
         0.92629E-01
         0.62885E-01
         0.32110E-02
         0.24958E-02
         0.26244E-02
         0.20499E-02
         0.75160E-02
         0.10914E-01
         0.32989E-02
         0.56119E-02
         0.57265E-02
         0.10062E-01
         0.29183E-02
         0.57072E-02
         0.41443E-02
         0.40636E-02
         0.12672E-01
         0.35777E-02
         0.93045E-02
         0.24204E-02
         0.73305E-02
         0.14079E-01
         0.13499E-01
         0.23546E-01
         0.77479E-02
         0.50517E-02
         0.14641E-01
         0.22792E-02
         0.92073E-02
         0.19802E-01
         0.39657E-01
         0.21735E-01
         0.10531E-02
         0.21053E-02
         0.23524E-02
         0.76064E-02
         0.81187E-02
         0.53006E-02
         0.41196E-02
         0.28354E-01
         0.52499E-01
         0.84001E-01
         0.11266E+00
         0.76248E-01
         0.43474E-01
         0.43610E-02
         0.57675E-02
         0.96030E-02
         0.74624E-02
         0.66871E-02
         0.10230E-01
         0.17652E-01
         0.25040E-01
         0.18453E-01
         0.16000E-01
         0.17774E-01
         0.12532E-01
         0.84630E-02
         0.86160E-02
         0.17397E-01
         0.40454E-01
         0.79563E-01
         0.13429E+00
         0.18326E+00
         0.19941E+00
         0.16271E+00
         0.99116E-01
         0.54439E-01
         0.32504E-01
         0.18884E-01
         0.13038E-01
         0.13334E-01
         0.16458E-01
         0.16171E-01
         0.16587E-01
         0.24368E-01
         0.36153E-01
         0.42887E-01
         0.37784E-01
         0.25840E-01
         0.00000E+00
         0.00000E+00
         0.00000E+00
         0.00000E+00
         0.17640E-02
         0.16175E-02
         0.23260E-03
         0.13554E-02
         0.87408E-03
         0.36286E-02
         0.95981E-03
         0.20703E-02
         0.88255E-03
         0.17737E-02
         0.44737E-02
         0.00000E+00
         0.24962E-02
         0.00000E+00
         0.10687E-02
         0.48845E-02
         0.31500E-02
         0.68456E-02
         0.15730E-02
         0.27832E-03
         0.65011E-02
         0.00000E+00
         0.39712E-02
         0.80647E-02
         0.14951E-01
         0.90551E-02
         0.00000E+00
         0.00000E+00
         0.00000E+00
         0.00000E+00
         0.14983E-02
         0.00000E+00
         0.17888E-03
         0.10434E-01
         0.21154E-01
         0.34798E-01
         0.46873E-01
         0.28269E-01
         0.14083E-01
         0.60265E-03
         0.28560E-03
         0.10605E-02
         0.25839E-03
         0.87861E-03
         0.24589E-02
         0.45766E-02
         0.61633E-02
         0.34149E-02
         0.36418E-02
         0.62503E-02
         0.50256E-03
         0.23172E-02
         0.28900E-02
         0.59440E-02
         0.16461E-01
         0.37378E-01
         0.68077E-01
         0.93312E-01
         0.96098E-01
         0.69859E-01
         0.36161E-01
         0.17937E-01
         0.11413E-01
         0.72696E-02
         0.58081E-02
         0.49482E-02
         0.42070E-02
         0.39997E-02
         0.57358E-02
         0.91921E-02
         0.11936E-01
         0.11802E-01
         0.82277E-02
         0.55791E-02
         0.00000E+00
         0.00000E+00
         0.00000E+00
         0.00000E+00
         0.99939E-03
         0.13009E-02
         0.00000E+00
         0.00000E+00
         0.00000E+00
         0.00000E+00
         0.00000E+00
         0.21589E-03
         0.00000E+00
         0.00000E+00
         0.16082E-02
         0.00000E+00
         0.00000E+00
         0.00000E+00
         0.00000E+00
         0.00000E+00
         0.24076E-03
         0.67255E-03
         0.63966E-03
         0.00000E+00
         0.11807E-02
         0.00000E+00
         0.69119E-03
         0.21114E-02
         0.29346E-02
         0.20708E-02
         0.00000E+00
         0.00000E+00
         0.00000E+00
         0.41707E-04
         0.28546E-03
         0.00000E+00
         0.00000E+00
         0.31664E-02
         0.48945E-02
         0.71399E-02
         0.91324E-02
         0.26816E-02
         0.97707E-03
         0.55154E-03
         0.24480E-03
         0.24578E-03
         0.00000E+00
         0.00000E+00
         0.12619E-02
         0.30768E-02
         0.43796E-02
         0.27228E-02
         0.18772E-02
         0.47682E-02
         0.00000E+00
         0.19962E-02
         0.19649E-02
         0.20696E-02
         0.60077E-02
         0.14253E-01
         0.24540E-01
         0.31189E-01
         0.28143E-01
         0.16669E-01
         0.74268E-02
         0.54558E-02
         0.41780E-02
         0.42940E-02
         0.45133E-02
         0.39374E-02
         0.25216E-02
         0.12124E-02
         0.20828E-02
         0.47506E-02
         0.70047E-02
         0.72951E-02
         0.54049E-02
         0.42152E-02
         0.00000E+00
         0.00000E+00
         0.00000E+00
         0.00000E+00
         0.91234E-03
         0.14144E-02
         0.00000E+00
         0.00000E+00
         0.00000E+00
         0.00000E+00
         0.00000E+00
         0.00000E+00
         0.00000E+00
         0.00000E+00
         0.79178E-03
         0.00000E+00
         0.00000E+00
         0.00000E+00
         0.00000E+00
         0.00000E+00
         0.28794E-03
         0.11283E-02
         0.58527E-03
         0.00000E+00
         0.00000E+00
         0.00000E+00
         0.00000E+00
         0.91427E-03
         0.30261E-02
         0.00000E+00
         0.00000E+00
         0.00000E+00
         0.00000E+00
         0.00000E+00
         0.18575E-03
         0.00000E+00
         0.00000E+00
         0.33974E-02
         0.64384E-02
         0.10017E-01
         0.13006E-01
         0.73450E-02
         0.35923E-02
         0.28566E-03
         0.00000E+00
         0.00000E+00
         0.00000E+00
         0.00000E+00
         0.65672E-03
         0.23124E-02
         0.36524E-02
         0.25192E-02
         0.19637E-02
         0.45335E-02
         0.88970E-03
         0.20085E-02
         0.17353E-02
         0.15324E-02
         0.43933E-02
         0.11307E-01
         0.19511E-01
         0.26218E-01
         0.26705E-01
         0.19782E-01
         0.14466E-01
         0.84707E-02
         0.37748E-02
         0.36174E-02
         0.34963E-02
         0.29619E-02
         0.18279E-02
         0.59394E-03
         0.90912E-03
         0.29627E-02
         0.48954E-02
         0.58934E-02
         0.53366E-02
         0.45744E-02
         0.00000E+00
         0.00000E+00
         0.00000E+00
         0.00000E+00
         0.11730E-02
         0.18803E-02
         0.00000E+00
         0.00000E+00
         0.00000E+00
         0.00000E+00
         0.00000E+00
         0.00000E+00
         0.00000E+00
         0.00000E+00
         0.88600E-03
         0.00000E+00
         0.00000E+00
         0.00000E+00
         0.00000E+00
         0.00000E+00
         0.15346E-02
         0.24476E-02
         0.15803E-02
         0.00000E+00
         0.00000E+00
         0.00000E+00
         0.00000E+00
         0.10521E-02
         0.43543E-02
         0.00000E+00
         0.00000E+00
         0.00000E+00
         0.00000E+00
         0.13393E-04
         0.35492E-03
         0.00000E+00
         0.00000E+00
         0.46587E-02
         0.93716E-02
         0.14631E-01
         0.19141E-01
         0.11254E-01
         0.57184E-02
         0.97101E-03
         0.34899E-03
         0.21156E-03
         0.00000E+00
         0.00000E+00
         0.11124E-02
         0.30976E-02
         0.47131E-02
         0.32464E-02
         0.23654E-02
         0.51316E-02
         0.11807E-02
         0.20569E-02
         0.17643E-02
         0.14749E-02
         0.49989E-02
         0.14384E-01
         0.26883E-01
         0.37060E-01
         0.38335E-01
         0.28703E-01
         0.19292E-01
         0.11003E-01
         0.64886E-02
         0.55403E-02
         0.46145E-02
         0.37370E-02
         0.24892E-02
         0.11220E-02
         0.16073E-02
         0.41514E-02
         0.65711E-02
         0.77755E-02
         0.69005E-02
         0.56570E-02
         0.00000E+00
         0.00000E+00
         0.00000E+00
         0.00000E+00
         0.17265E-02
         0.25197E-02
         0.00000E+00
         0.00000E+00
         0.00000E+00
         0.00000E+00
         0.00000E+00
         0.00000E+00
         0.00000E+00
         0.00000E+00
         0.12853E-02
         0.00000E+00
         0.00000E+00
         0.00000E+00
         0.00000E+00
         0.00000E+00
         0.26224E-02
         0.36199E-02
         0.25811E-02
         0.00000E+00
         0.00000E+00
         0.00000E+00
         0.00000E+00
         0.12854E-02
         0.54307E-02
         0.00000E+00
         0.00000E+00
         0.00000E+00
         0.00000E+00
         0.54702E-03
         0.80300E-03
         0.00000E+00
         0.00000E+00
         0.59005E-02
         0.11793E-01
         0.18335E-01
         0.23884E-01
         0.13863E-01
         0.71578E-02
         0.18885E-02
         0.12103E-02
         0.12021E-02
         0.00000E+00
         0.34428E-03
         0.22565E-02
         0.45863E-02
         0.63406E-02
         0.42728E-02
         0.30122E-02
         0.62214E-02
         0.15951E-02
         0.27043E-02
         0.23921E-02
         0.20667E-02
         0.62541E-02
         0.17699E-01
         0.33822E-01
         0.47177E-01
         0.48267E-01
         0.34544E-01
         0.22438E-01
         0.13132E-01
         0.82988E-02
         0.68788E-02
         0.58722E-02
         0.49458E-02
         0.38392E-02
         0.25559E-02
         0.33531E-02
         0.65667E-02
         0.93479E-02
         0.10209E-01
         0.84541E-02
         0.67944E-02
         0.00000E+00
         0.00000E+00
         0.00000E+00
         0.00000E+00
         0.18521E-02
         0.25631E-02
         0.00000E+00
         0.00000E+00
         0.00000E+00
         0.00000E+00
         0.00000E+00
         0.00000E+00
         0.00000E+00
         0.00000E+00
         0.14815E-02
         0.00000E+00
         0.00000E+00
         0.00000E+00
         0.00000E+00
         0.00000E+00
         0.27292E-02
         0.38527E-02
         0.26413E-02
         0.00000E+00
         0.00000E+00
         0.00000E+00
         0.00000E+00
         0.15967E-02
         0.68277E-02
         0.00000E+00
         0.00000E+00
         0.00000E+00
         0.00000E+00
         0.77578E-03
         0.99954E-03
         0.00000E+00
         0.00000E+00
         0.63426E-02
         0.13077E-01
         0.21179E-01
         0.28276E-01
         0.16904E-01
         0.85404E-02
         0.19228E-02
         0.13245E-02
         0.15314E-02
         0.45103E-03
         0.10435E-02
         0.29757E-02
         0.51607E-02
         0.67237E-02
         0.44275E-02
         0.31652E-02
         0.63191E-02
         0.15879E-02
         0.27334E-02
         0.24998E-02
         0.26902E-02
         0.71957E-02
         0.19109E-01
         0.36988E-01
         0.53506E-01
         0.56448E-01
         0.41379E-01
         0.25530E-01
         0.13773E-01
         0.84908E-02
         0.68887E-02
         0.58642E-02
         0.49819E-02
         0.41491E-02
         0.32176E-02
         0.44463E-02
         0.77895E-02
         0.10274E-01
         0.10631E-01
         0.84044E-02
         0.66233E-02
         0.00000E+00
         0.00000E+00
         0.00000E+00
         0.00000E+00
         0.19974E-02
         0.26902E-02
         0.00000E+00
         0.00000E+00
         0.00000E+00
         0.00000E+00
         0.00000E+00
         0.00000E+00
         0.00000E+00
         0.00000E+00
         0.15596E-02
         0.00000E+00
         0.00000E+00
         0.00000E+00
         0.00000E+00
         0.00000E+00
         0.27601E-02
         0.40970E-02
         0.25212E-02
         0.00000E+00
         0.00000E+00
         0.00000E+00
         0.00000E+00
         0.18027E-02
         0.74221E-02
         0.00000E+00
         0.00000E+00
         0.00000E+00
         0.00000E+00
         0.89765E-03
         0.12000E-02
         0.00000E+00
         0.00000E+00
         0.64843E-02
         0.13399E-01
         0.22078E-01
         0.30082E-01
         0.18414E-01
         0.93346E-02
         0.18043E-02
         0.13748E-02
         0.17871E-02
         0.80723E-03
         0.13377E-02
         0.31292E-02
         0.52018E-02
         0.67306E-02
         0.45500E-02
         0.34724E-02
         0.65334E-02
         0.14249E-02
         0.25938E-02
         0.24031E-02
         0.25407E-02
         0.76172E-02
         0.19497E-01
         0.37136E-01
         0.54596E-01
         0.59718E-01
         0.45414E-01
         0.27794E-01
         0.14511E-01
         0.86328E-02
         0.67779E-02
         0.57437E-02
         0.50490E-02
         0.43998E-02
         0.35467E-02
         0.46518E-02
         0.77711E-02
         0.10004E-01
         0.10374E-01
         0.85080E-02
         0.67513E-02
         0.00000E+00
         0.00000E+00
         0.00000E+00
         0.00000E+00
         0.23319E-02
         0.32148E-02
         0.00000E+00
         0.00000E+00
         0.00000E+00
         0.00000E+00
         0.00000E+00
         0.00000E+00
         0.00000E+00
         0.00000E+00
         0.16415E-02
         0.00000E+00
         0.00000E+00
         0.00000E+00
         0.00000E+00
         0.00000E+00
         0.28714E-02
         0.45628E-02
         0.24010E-02
         0.00000E+00
         0.00000E+00
         0.00000E+00
         0.00000E+00
         0.14236E-02
         0.66703E-02
         0.00000E+00
         0.00000E+00
         0.00000E+00
         0.00000E+00
         0.10817E-02
         0.13477E-02
         0.00000E+00
         0.00000E+00
         0.64355E-02
         0.12658E-01
         0.20574E-01
         0.28385E-01
         0.17509E-01
         0.92983E-02
         0.16708E-02
         0.12618E-02
         0.16939E-02
         0.79207E-03
         0.12214E-02
         0.29543E-02
         0.52666E-02
         0.71327E-02
         0.51102E-02
         0.38059E-02
         0.72721E-02
         0.13117E-02
         0.25755E-02
         0.23136E-02
         0.23592E-02
         0.79494E-02
         0.19624E-01
         0.35471E-01
         0.51183E-01
         0.57115E-01
         0.44366E-01
         0.28521E-01
         0.15665E-01
         0.89480E-02
         0.67076E-02
         0.55618E-02
         0.47493E-02
         0.41320E-02
         0.33040E-02
         0.41023E-02
         0.71458E-02
         0.98961E-02
         0.10916E-01
         0.95729E-02
         0.78071E-02
         0.00000E+00
         0.00000E+00
         0.00000E+00
         0.00000E+00
         0.21685E-02
         0.30557E-02
         0.00000E+00
         0.00000E+00
         0.00000E+00
         0.00000E+00
         0.00000E+00
         0.00000E+00
         0.00000E+00
         0.00000E+00
         0.14980E-02
         0.00000E+00
         0.00000E+00
         0.00000E+00
         0.00000E+00
         0.00000E+00
         0.24381E-02
         0.44359E-02
         0.19090E-02
         0.00000E+00
         0.00000E+00
         0.00000E+00
         0.00000E+00
         0.11226E-02
         0.59765E-02
         0.00000E+00
         0.00000E+00
         0.00000E+00
         0.00000E+00
         0.93093E-03
         0.11441E-02
         0.00000E+00
         0.00000E+00
         0.61518E-02
         0.11853E-01
         0.18942E-01
         0.26045E-01
         0.16197E-01
         0.89475E-02
         0.12510E-02
         0.89354E-03
         0.13937E-02
         0.64858E-03
         0.10864E-02
         0.27481E-02
         0.50829E-02
         0.69984E-02
         0.49330E-02
         0.36076E-02
         0.71103E-02
         0.10572E-02
         0.22460E-02
         0.20000E-02
         0.20039E-02
         0.74461E-02
         0.19038E-01
         0.33769E-01
         0.47763E-01
         0.52655E-01
         0.41208E-01
         0.27472E-01
         0.15071E-01
         0.79418E-02
         0.58612E-02
         0.48475E-02
         0.41395E-02
         0.37163E-02
         0.30669E-02
         0.38136E-02
         0.67691E-02
         0.97948E-02
         0.10961E-01
         0.93773E-02
         0.76079E-02
         0.00000E+00
         0.00000E+00
         0.00000E+00
         0.00000E+00
         0.17791E-02
         0.24593E-02
         0.00000E+00
         0.00000E+00
         0.00000E+00
         0.00000E+00
         0.00000E+00
         0.00000E+00
         0.00000E+00
         0.00000E+00
         0.13476E-02
         0.00000E+00
         0.00000E+00
         0.00000E+00
         0.00000E+00
         0.00000E+00
         0.20321E-02
         0.40266E-02
         0.16260E-02
         0.00000E+00
         0.00000E+00
         0.00000E+00
         0.00000E+00
         0.12769E-02
         0.61153E-02
         0.00000E+00
         0.00000E+00
         0.00000E+00
         0.00000E+00
         0.67187E-03
         0.94823E-03
         0.00000E+00
         0.00000E+00
         0.58559E-02
         0.11734E-01
         0.18990E-01
         0.25957E-01
         0.16112E-01
         0.86895E-02
         0.11475E-02
         0.96134E-03
         0.15354E-02
         0.72655E-03
         0.11093E-02
         0.26430E-02
         0.46686E-02
         0.62513E-02
         0.41830E-02
         0.32350E-02
         0.62033E-02
         0.79998E-03
         0.18974E-02
         0.16886E-02
         0.16904E-02
         0.65799E-02
         0.17789E-01
         0.33063E-01
         0.47730E-01
         0.52084E-01
         0.40774E-01
         0.26719E-01
         0.14283E-01
         0.69680E-02
         0.52232E-02
         0.46637E-02
         0.44081E-02
         0.40169E-02
         0.32575E-02
         0.38944E-02
         0.66201E-02
         0.92443E-02
         0.99507E-02
         0.80707E-02
         0.63710E-02
         0.00000E+00
         0.00000E+00
         0.00000E+00
         0.00000E+00
         0.15331E-02
         0.20897E-02
         0.00000E+00
         0.00000E+00
         0.00000E+00
         0.00000E+00
         0.00000E+00
         0.00000E+00
         0.00000E+00
         0.00000E+00
         0.14748E-02
         0.00000E+00
         0.00000E+00
         0.00000E+00
         0.00000E+00
         0.00000E+00
         0.24332E-02
         0.39684E-02
         0.21337E-02
         0.00000E+00
         0.00000E+00
         0.00000E+00
         0.00000E+00
         0.17162E-02
         0.68461E-02
         0.00000E+00
         0.00000E+00
         0.00000E+00
         0.00000E+00
         0.54049E-03
         0.78849E-03
         0.00000E+00
         0.00000E+00
         0.62313E-02
         0.12677E-01
         0.20692E-01
         0.28332E-01
         0.17333E-01
         0.88157E-02
         0.15455E-02
         0.12091E-02
         0.15449E-02
         0.53783E-03
         0.81177E-03
         0.23047E-02
         0.42448E-02
         0.57012E-02
         0.37126E-02
         0.29525E-02
         0.56337E-02
         0.59425E-03
         0.16697E-02
         0.15201E-02
         0.17531E-02
         0.66201E-02
         0.18208E-01
         0.35188E-01
         0.51854E-01
         0.57170E-01
         0.44171E-01
         0.26666E-01
         0.13912E-01
         0.77588E-02
         0.61222E-02
         0.52490E-02
         0.47341E-02
         0.40160E-02
         0.29690E-02
         0.34733E-02
         0.61138E-02
         0.85766E-02
         0.91502E-02
         0.71906E-02
         0.55462E-02
         0.00000E+00
         0.00000E+00
         0.00000E+00
         0.00000E+00
         0.11701E-02
         0.16090E-02
         0.00000E+00
         0.00000E+00
         0.00000E+00
         0.00000E+00
         0.00000E+00
         0.00000E+00
         0.00000E+00
         0.00000E+00
         0.85077E-03
         0.00000E+00
         0.00000E+00
         0.00000E+00
         0.00000E+00
         0.00000E+00
         0.27337E-02
         0.41449E-02
         0.24492E-02
         0.00000E+00
         0.00000E+00
         0.00000E+00
         0.00000E+00
         0.15137E-02
         0.69486E-02
         0.00000E+00
         0.00000E+00
         0.00000E+00
         0.00000E+00
         0.13224E-03
         0.43510E-03
         0.00000E+00
         0.00000E+00
         0.56044E-02
         0.12378E-01
         0.21095E-01
         0.29509E-01
         0.17905E-01
         0.89312E-02
         0.17388E-02
         0.11535E-02
         0.12135E-02
         0.82096E-04
         0.20911E-03
         0.15504E-02
         0.33556E-02
         0.47220E-02
         0.29767E-02
         0.25148E-02
         0.51211E-02
         0.46710E-03
         0.16235E-02
         0.14995E-02
         0.14968E-02
         0.58171E-02
         0.17359E-01
         0.35168E-01
         0.53759E-01
         0.60547E-01
         0.46124E-01
         0.26461E-01
         0.13907E-01
         0.83150E-02
         0.66777E-02
         0.54985E-02
         0.45544E-02
         0.35781E-02
         0.23460E-02
         0.26679E-02
         0.51434E-02
         0.74517E-02
         0.79692E-02
         0.61738E-02
         0.48933E-02
         0.00000E+00
         0.00000E+00
         0.00000E+00
         0.00000E+00
         0.36687E-03
         0.60850E-03
         0.00000E+00
         0.00000E+00
         0.00000E+00
         0.00000E+00
         0.00000E+00
         0.00000E+00
         0.00000E+00
         0.00000E+00
         0.00000E+00
         0.00000E+00
         0.00000E+00
         0.00000E+00
         0.00000E+00
         0.00000E+00
         0.23112E-02
         0.35614E-02
         0.21949E-02
         0.00000E+00
         0.00000E+00
         0.00000E+00
         0.00000E+00
         0.62612E-03
         0.59168E-02
         0.00000E+00
         0.00000E+00
         0.00000E+00
         0.00000E+00
         0.00000E+00
         0.00000E+00
         0.00000E+00
         0.00000E+00
         0.39272E-02
         0.10077E-01
         0.18465E-01
         0.26784E-01
         0.16453E-01
         0.81803E-02
         0.15972E-02
         0.99249E-03
         0.93288E-03
         0.00000E+00
         0.00000E+00
         0.33384E-03
         0.16476E-02
         0.27033E-02
         0.14749E-02
         0.16390E-02
         0.39818E-02
         0.21660E-03
         0.11988E-02
         0.91455E-03
         0.60715E-03
         0.37953E-02
         0.13758E-01
         0.30013E-01
         0.47866E-01
         0.55387E-01
         0.42774E-01
         0.24425E-01
         0.12475E-01
         0.74334E-02
         0.61562E-02
         0.51815E-02
         0.42208E-02
         0.32390E-02
         0.19310E-02
         0.16857E-02
         0.33617E-02
         0.50872E-02
         0.53685E-02
         0.41671E-02
         0.36122E-02
         0.00000E+00
         0.00000E+00
         0.00000E+00
         0.00000E+00
         0.00000E+00
         0.00000E+00
         0.00000E+00
         0.00000E+00
         0.00000E+00
         0.00000E+00
         0.00000E+00
         0.00000E+00
         0.00000E+00
         0.00000E+00
         0.76870E-04
         0.00000E+00
         0.00000E+00
         0.00000E+00
         0.00000E+00
         0.00000E+00
         0.15169E-02
         0.27364E-02
         0.15894E-02
         0.00000E+00
         0.00000E+00
         0.00000E+00
         0.00000E+00
         0.84984E-03
         0.64136E-02
         0.31496E-04
         0.00000E+00
         0.00000E+00
         0.00000E+00
         0.00000E+00
         0.00000E+00
         0.00000E+00
         0.00000E+00
         0.37937E-02
         0.99343E-02
         0.18640E-01
         0.27473E-01
         0.17349E-01
         0.83170E-02
         0.12539E-02
         0.78056E-03
         0.70487E-03
         0.00000E+00
         0.00000E+00
         0.00000E+00
         0.00000E+00
         0.12041E-03
         0.00000E+00
         0.11977E-02
         0.28640E-02
         0.81402E-03
         0.10578E-02
         0.61057E-03
         0.49845E-03
         0.32777E-02
         0.12422E-01
         0.28741E-01
         0.47173E-01
         0.55959E-01
         0.44857E-01
         0.24488E-01
         0.10180E-01
         0.55021E-02
         0.50000E-02
         0.45559E-02
         0.38378E-02
         0.30883E-02
         0.23258E-02
         0.19075E-02
         0.24823E-02
         0.32824E-02
         0.30099E-02
         0.21630E-02
         0.21842E-02
         0.00000E+00
         0.00000E+00
         0.00000E+00
         0.00000E+00
         0.32989E-04
         0.00000E+00
         0.00000E+00
         0.00000E+00
         0.00000E+00
         0.00000E+00
         0.00000E+00
         0.00000E+00
         0.00000E+00
         0.00000E+00
         0.13194E-02
         0.00000E+00
         0.00000E+00
         0.00000E+00
         0.00000E+00
         0.00000E+00
         0.14012E-02
         0.36005E-02
         0.10800E-02
         0.00000E+00
         0.00000E+00
         0.00000E+00
         0.00000E+00
         0.18970E-02
         0.80114E-02
         0.10274E-02
         0.00000E+00
         0.00000E+00
         0.00000E+00
         0.00000E+00
         0.10351E-02
         0.17482E-03
         0.00000E+00
         0.47432E-02
         0.10852E-01
         0.20180E-01
         0.30271E-01
         0.20361E-01
         0.10533E-01
         0.10658E-02
         0.12480E-02
         0.19946E-02
         0.10775E-02
         0.56668E-03
         0.68506E-03
         0.14833E-02
         0.24825E-02
         0.76334E-03
         0.41992E-02
         0.41437E-02
         0.42414E-02
         0.17756E-02
         0.92492E-03
         0.17586E-02
         0.49497E-02
         0.13146E-01
         0.28878E-01
         0.48197E-01
         0.60011E-01
         0.51767E-01
         0.29622E-01
         0.12288E-01
         0.55008E-02
         0.38833E-02
         0.39743E-02
         0.44848E-02
         0.52357E-02
         0.61538E-02
         0.62918E-02
         0.67016E-02
         0.77024E-02
         0.74185E-02
         0.57973E-02
         0.41583E-02
         0.00000E+00
         0.00000E+00
         0.00000E+00
         0.00000E+00
         0.10585E-02
         0.11410E-02
         0.00000E+00
         0.00000E+00
         0.00000E+00
         0.00000E+00
         0.00000E+00
         0.81596E-03
         0.00000E+00
         0.00000E+00
         0.28570E-02
         0.00000E+00
         0.00000E+00
         0.00000E+00
         0.00000E+00
         0.00000E+00
         0.44246E-02
         0.64195E-02
         0.36010E-02
         0.30787E-04
         0.00000E+00
         0.00000E+00
         0.17960E-03
         0.34429E-02
         0.10545E-01
         0.25159E-02
         0.00000E+00
         0.00000E+00
         0.00000E+00
         0.36167E-03
         0.25953E-02
         0.18502E-02
         0.00000E+00
         0.63273E-02
         0.12953E-01
         0.23368E-01
         0.34762E-01
         0.24691E-01
         0.13964E-01
         0.29582E-02
         0.36769E-02
         0.55521E-02
         0.38528E-02
         0.27454E-02
         0.23351E-02
         0.29426E-02
         0.42487E-02
         0.25751E-02
         0.55368E-02
         0.47093E-02
         0.70910E-02
         0.37727E-02
         0.24203E-02
         0.40131E-02
         0.79632E-02
         0.15995E-01
         0.31474E-01
         0.51882E-01
         0.65648E-01
         0.59945E-01
         0.38356E-01
         0.21005E-01
         0.14096E-01
         0.10243E-01
         0.87594E-02
         0.98602E-02
         0.11363E-01
         0.12832E-01
         0.12749E-01
         0.11372E-01
         0.10614E-01
         0.96214E-02
         0.82297E-02
         0.65440E-02
         0.34208E-02
         0.39764E-02
         0.57114E-02
         0.46776E-02
         0.74952E-02
         0.63489E-02
         0.33704E-02
         0.34548E-02
         0.32112E-02
         0.32282E-02
         0.21900E-02
         0.98014E-03
         0.20428E-02
         0.15205E-02
         0.19556E-02
         0.58091E-02
         0.45467E-02
         0.39310E-02
         0.10924E-01
         0.70635E-02
         0.26995E-01
         0.23790E-01
         0.29233E-01
         0.16429E-01
         0.30182E-02
         0.13618E-01
         0.98031E-03
         0.43825E-02
         0.14543E-01
         0.55342E-02
         0.70545E-02
         0.14338E-01
         0.62272E-02
         0.79879E-02
         0.98238E-02
         0.76562E-02
         0.41117E-02
         0.80013E-02
         0.18669E-01
         0.33903E-01
         0.50889E-01
         0.37195E-01
         0.25896E-01
         0.27498E-01
         0.26990E-01
         0.28985E-01
         0.21278E-01
         0.16250E-01
         0.15587E-01
         0.16187E-01
         0.16326E-01
         0.10195E-01
         0.12559E-01
         0.74458E-02
         0.10599E-01
         0.55885E-02
         0.38108E-02
         0.59114E-02
         0.12155E-01
         0.25358E-01
         0.48787E-01
         0.77163E-01
         0.96227E-01
         0.93079E-01
         0.73931E-01
         0.64779E-01
         0.62161E-01
         0.55994E-01
         0.48880E-01
         0.45048E-01
         0.42837E-01
         0.39690E-01
         0.37755E-01
         0.35834E-01
         0.32327E-01
         0.24790E-01
         0.14506E-01
         0.67847E-02
         0.13073E-01
         0.14853E-01
         0.18282E-01
         0.15661E-01
         0.21758E-01
         0.18781E-01
         0.14158E-01
         0.13741E-01
         0.12869E-01
         0.13277E-01
         0.12557E-01
         0.10002E-01
         0.13024E-01
         0.11678E-01
         0.81940E-02
         0.20945E-01
         0.16977E-01
         0.14256E-01
         0.34236E-01
         0.25643E-01
         0.68221E-01
         0.64673E-01
         0.70595E-01
         0.45761E-01
         0.13475E-01
         0.38962E-01
         0.95749E-02
         0.11609E-01
         0.31156E-01
         0.21811E-01
         0.21940E-01
         0.38056E-01
         0.20880E-01
         0.24765E-01
         0.26259E-01
         0.23134E-01
         0.16502E-01
         0.13859E-01
         0.31273E-01
         0.56433E-01
         0.84426E-01
         0.71924E-01
         0.64402E-01
         0.65213E-01
         0.61048E-01
         0.61603E-01
         0.46921E-01
         0.36690E-01
         0.38379E-01
         0.40426E-01
         0.39105E-01
         0.27394E-01
         0.30952E-01
         0.24576E-01
         0.29297E-01
         0.16970E-01
         0.91965E-02
         0.66949E-02
         0.13635E-01
         0.36057E-01
         0.71836E-01
         0.11196E+00
         0.14371E+00
         0.15494E+00
         0.14617E+00
         0.14079E+00
         0.13210E+00
         0.11567E+00
         0.98773E-01
         0.86963E-01
         0.80511E-01
         0.71650E-01
         0.67178E-01
         0.67814E-01
         0.63369E-01
         0.50485E-01
         0.33269E-01
         0.19718E-01
  
SCALARS                            dam  double 1
LOOKUP_TABLE default
         0.00000E+00
         0.00000E+00
         0.00000E+00
         0.00000E+00
         0.00000E+00
         0.00000E+00
         0.00000E+00
         0.00000E+00
         0.00000E+00
         0.00000E+00
         0.00000E+00
         0.00000E+00
         0.00000E+00
         0.00000E+00
         0.00000E+00
         0.00000E+00
         0.00000E+00
         0.00000E+00
         0.00000E+00
         0.00000E+00
         0.00000E+00
         0.00000E+00
         0.00000E+00
         0.00000E+00
         0.00000E+00
         0.00000E+00
         0.00000E+00
         0.00000E+00
         0.00000E+00
         0.00000E+00
         0.00000E+00
         0.00000E+00
         0.00000E+00
         0.00000E+00
         0.00000E+00
         0.00000E+00
         0.00000E+00
         0.00000E+00
         0.00000E+00
         0.00000E+00
         0.00000E+00
         0.00000E+00
         0.00000E+00
         0.00000E+00
         0.00000E+00
         0.00000E+00
         0.00000E+00
         0.00000E+00
         0.00000E+00
         0.00000E+00
         0.00000E+00
         0.00000E+00
         0.00000E+00
         0.00000E+00
         0.00000E+00
         0.00000E+00
         0.00000E+00
         0.00000E+00
         0.00000E+00
         0.00000E+00
         0.00000E+00
         0.00000E+00
         0.00000E+00
         0.00000E+00
         0.00000E+00
         0.00000E+00
         0.00000E+00
         0.00000E+00
         0.00000E+00
         0.00000E+00
         0.00000E+00
         0.00000E+00
         0.00000E+00
         0.00000E+00
         0.00000E+00
         0.00000E+00
         0.00000E+00
         0.00000E+00
         0.00000E+00
         0.00000E+00
         0.00000E+00
         0.00000E+00
         0.00000E+00
         0.00000E+00
         0.00000E+00
         0.00000E+00
         0.00000E+00
         0.00000E+00
         0.00000E+00
         0.00000E+00
         0.00000E+00
         0.00000E+00
         0.00000E+00
         0.00000E+00
         0.00000E+00
         0.00000E+00
         0.00000E+00
         0.00000E+00
         0.00000E+00
         0.00000E+00
         0.00000E+00
         0.00000E+00
         0.00000E+00
         0.00000E+00
         0.00000E+00
         0.00000E+00
         0.00000E+00
         0.00000E+00
         0.00000E+00
         0.00000E+00
         0.00000E+00
         0.00000E+00
         0.00000E+00
         0.00000E+00
         0.00000E+00
         0.00000E+00
         0.00000E+00
         0.00000E+00
         0.00000E+00
         0.00000E+00
         0.00000E+00
         0.00000E+00
         0.00000E+00
         0.00000E+00
         0.00000E+00
         0.00000E+00
         0.00000E+00
         0.00000E+00
         0.00000E+00
         0.00000E+00
         0.00000E+00
         0.00000E+00
         0.00000E+00
         0.00000E+00
         0.00000E+00
         0.00000E+00
         0.00000E+00
         0.00000E+00
         0.00000E+00
         0.00000E+00
         0.00000E+00
         0.00000E+00
         0.00000E+00
         0.00000E+00
         0.00000E+00
         0.00000E+00
         0.00000E+00
         0.00000E+00
         0.00000E+00
         0.00000E+00
         0.00000E+00
         0.00000E+00
         0.00000E+00
         0.00000E+00
         0.00000E+00
         0.00000E+00
         0.00000E+00
         0.00000E+00
         0.00000E+00
         0.00000E+00
         0.00000E+00
         0.00000E+00
         0.00000E+00
         0.00000E+00
         0.00000E+00
         0.00000E+00
         0.00000E+00
         0.00000E+00
         0.00000E+00
         0.00000E+00
         0.00000E+00
         0.00000E+00
         0.00000E+00
         0.00000E+00
         0.00000E+00
         0.00000E+00
         0.00000E+00
         0.00000E+00
         0.00000E+00
         0.00000E+00
         0.00000E+00
         0.00000E+00
         0.00000E+00
         0.00000E+00
         0.00000E+00
         0.00000E+00
         0.00000E+00
         0.00000E+00
         0.00000E+00
         0.00000E+00
         0.00000E+00
         0.00000E+00
         0.00000E+00
         0.00000E+00
         0.00000E+00
         0.00000E+00
         0.00000E+00
         0.00000E+00
         0.00000E+00
         0.00000E+00
         0.00000E+00
         0.00000E+00
         0.00000E+00
         0.00000E+00
         0.00000E+00
         0.00000E+00
         0.00000E+00
         0.00000E+00
         0.00000E+00
         0.00000E+00
         0.00000E+00
         0.00000E+00
         0.00000E+00
         0.00000E+00
         0.00000E+00
         0.00000E+00
         0.00000E+00
         0.00000E+00
         0.00000E+00
         0.00000E+00
         0.00000E+00
         0.00000E+00
         0.00000E+00
         0.00000E+00
         0.00000E+00
         0.00000E+00
         0.00000E+00
         0.00000E+00
         0.00000E+00
         0.00000E+00
         0.00000E+00
         0.00000E+00
         0.00000E+00
         0.00000E+00
         0.00000E+00
         0.00000E+00
         0.00000E+00
         0.00000E+00
         0.00000E+00
         0.00000E+00
         0.00000E+00
         0.00000E+00
         0.00000E+00
         0.00000E+00
         0.00000E+00
         0.00000E+00
         0.00000E+00
         0.00000E+00
         0.00000E+00
         0.00000E+00
         0.00000E+00
         0.00000E+00
         0.00000E+00
         0.00000E+00
         0.00000E+00
         0.00000E+00
         0.00000E+00
         0.00000E+00
         0.00000E+00
         0.00000E+00
         0.00000E+00
         0.00000E+00
         0.00000E+00
         0.00000E+00
         0.00000E+00
         0.00000E+00
         0.00000E+00
         0.00000E+00
         0.00000E+00
         0.00000E+00
         0.00000E+00
         0.00000E+00
         0.00000E+00
         0.00000E+00
         0.00000E+00
         0.00000E+00
         0.00000E+00
         0.00000E+00
         0.00000E+00
         0.00000E+00
         0.00000E+00
         0.00000E+00
         0.00000E+00
         0.00000E+00
         0.00000E+00
         0.00000E+00
         0.00000E+00
         0.00000E+00
         0.00000E+00
         0.00000E+00
         0.00000E+00
         0.00000E+00
         0.00000E+00
         0.00000E+00
         0.00000E+00
         0.00000E+00
         0.00000E+00
         0.00000E+00
         0.00000E+00
         0.00000E+00
         0.00000E+00
         0.00000E+00
         0.00000E+00
         0.00000E+00
         0.00000E+00
         0.00000E+00
         0.00000E+00
         0.00000E+00
         0.00000E+00
         0.00000E+00
         0.00000E+00
         0.00000E+00
         0.00000E+00
         0.00000E+00
         0.00000E+00
         0.00000E+00
         0.00000E+00
         0.00000E+00
         0.00000E+00
         0.00000E+00
         0.00000E+00
         0.00000E+00
         0.00000E+00
         0.00000E+00
         0.00000E+00
         0.00000E+00
         0.00000E+00
         0.00000E+00
         0.00000E+00
         0.00000E+00
         0.00000E+00
         0.00000E+00
         0.00000E+00
         0.00000E+00
         0.00000E+00
         0.00000E+00
         0.00000E+00
         0.00000E+00
         0.00000E+00
         0.00000E+00
         0.00000E+00
         0.00000E+00
         0.00000E+00
         0.00000E+00
         0.00000E+00
         0.00000E+00
         0.00000E+00
         0.00000E+00
         0.00000E+00
         0.00000E+00
         0.00000E+00
         0.00000E+00
         0.00000E+00
         0.00000E+00
         0.00000E+00
         0.00000E+00
         0.00000E+00
         0.00000E+00
         0.00000E+00
         0.00000E+00
         0.00000E+00
         0.00000E+00
         0.00000E+00
         0.00000E+00
         0.00000E+00
         0.00000E+00
         0.00000E+00
         0.00000E+00
         0.00000E+00
         0.00000E+00
         0.00000E+00
         0.00000E+00
         0.00000E+00
         0.00000E+00
         0.00000E+00
         0.00000E+00
         0.00000E+00
         0.00000E+00
         0.00000E+00
         0.00000E+00
         0.00000E+00
         0.00000E+00
         0.00000E+00
         0.00000E+00
         0.00000E+00
         0.00000E+00
         0.00000E+00
         0.00000E+00
         0.00000E+00
         0.00000E+00
         0.00000E+00
         0.00000E+00
         0.00000E+00
         0.00000E+00
         0.00000E+00
         0.00000E+00
         0.00000E+00
         0.00000E+00
         0.00000E+00
         0.00000E+00
         0.00000E+00
         0.00000E+00
         0.00000E+00
         0.00000E+00
         0.00000E+00
         0.00000E+00
         0.00000E+00
         0.00000E+00
         0.00000E+00
         0.00000E+00
         0.00000E+00
         0.00000E+00
         0.00000E+00
         0.00000E+00
         0.00000E+00
         0.00000E+00
         0.00000E+00
         0.00000E+00
         0.00000E+00
         0.00000E+00
         0.00000E+00
         0.00000E+00
         0.00000E+00
         0.00000E+00
         0.00000E+00
         0.00000E+00
         0.00000E+00
         0.00000E+00
         0.00000E+00
         0.00000E+00
         0.00000E+00
         0.00000E+00
         0.00000E+00
         0.00000E+00
         0.00000E+00
         0.00000E+00
         0.00000E+00
         0.00000E+00
         0.00000E+00
         0.00000E+00
         0.00000E+00
         0.00000E+00
         0.00000E+00
         0.00000E+00
         0.00000E+00
         0.00000E+00
         0.00000E+00
         0.00000E+00
         0.00000E+00
         0.00000E+00
         0.00000E+00
         0.00000E+00
         0.00000E+00
         0.00000E+00
         0.00000E+00
         0.00000E+00
         0.00000E+00
         0.00000E+00
         0.00000E+00
         0.00000E+00
         0.00000E+00
         0.00000E+00
         0.00000E+00
         0.00000E+00
         0.00000E+00
         0.00000E+00
         0.00000E+00
         0.00000E+00
         0.00000E+00
         0.00000E+00
         0.00000E+00
         0.00000E+00
         0.00000E+00
         0.00000E+00
         0.00000E+00
         0.00000E+00
         0.00000E+00
         0.00000E+00
         0.00000E+00
         0.00000E+00
         0.00000E+00
         0.00000E+00
         0.00000E+00
         0.00000E+00
         0.00000E+00
         0.00000E+00
         0.00000E+00
         0.00000E+00
         0.00000E+00
         0.00000E+00
         0.00000E+00
         0.00000E+00
         0.00000E+00
         0.00000E+00
         0.00000E+00
         0.00000E+00
         0.00000E+00
         0.00000E+00
         0.00000E+00
         0.00000E+00
         0.00000E+00
         0.00000E+00
         0.00000E+00
         0.00000E+00
         0.00000E+00
         0.00000E+00
         0.00000E+00
         0.00000E+00
         0.00000E+00
         0.00000E+00
         0.00000E+00
         0.00000E+00
         0.00000E+00
         0.00000E+00
         0.00000E+00
         0.00000E+00
         0.00000E+00
         0.00000E+00
         0.00000E+00
         0.00000E+00
         0.00000E+00
         0.00000E+00
         0.00000E+00
         0.00000E+00
         0.00000E+00
         0.00000E+00
         0.00000E+00
         0.00000E+00
         0.00000E+00
         0.00000E+00
         0.00000E+00
         0.00000E+00
         0.00000E+00
         0.00000E+00
         0.00000E+00
         0.00000E+00
         0.00000E+00
         0.00000E+00
         0.00000E+00
         0.00000E+00
         0.00000E+00
         0.00000E+00
         0.00000E+00
         0.00000E+00
         0.00000E+00
         0.00000E+00
         0.00000E+00
         0.00000E+00
         0.00000E+00
         0.00000E+00
         0.00000E+00
         0.00000E+00
         0.00000E+00
         0.00000E+00
         0.00000E+00
         0.00000E+00
         0.00000E+00
         0.00000E+00
         0.00000E+00
         0.00000E+00
         0.00000E+00
         0.00000E+00
         0.00000E+00
         0.00000E+00
         0.00000E+00
         0.00000E+00
         0.00000E+00
         0.00000E+00
         0.00000E+00
         0.00000E+00
         0.00000E+00
         0.00000E+00
         0.00000E+00
         0.00000E+00
         0.00000E+00
         0.00000E+00
         0.00000E+00
         0.00000E+00
         0.00000E+00
         0.00000E+00
         0.00000E+00
         0.00000E+00
         0.00000E+00
         0.00000E+00
         0.00000E+00
         0.00000E+00
         0.00000E+00
         0.00000E+00
         0.00000E+00
         0.00000E+00
         0.00000E+00
         0.00000E+00
         0.00000E+00
         0.00000E+00
         0.00000E+00
         0.00000E+00
         0.00000E+00
         0.00000E+00
         0.00000E+00
         0.00000E+00
         0.00000E+00
         0.00000E+00
         0.00000E+00
         0.00000E+00
         0.00000E+00
         0.00000E+00
         0.00000E+00
         0.00000E+00
         0.00000E+00
         0.00000E+00
         0.00000E+00
         0.00000E+00
         0.00000E+00
         0.00000E+00
         0.00000E+00
         0.00000E+00
         0.00000E+00
         0.00000E+00
         0.00000E+00
         0.00000E+00
         0.00000E+00
         0.00000E+00
         0.00000E+00
         0.00000E+00
         0.00000E+00
         0.00000E+00
         0.00000E+00
         0.00000E+00
         0.00000E+00
         0.00000E+00
         0.00000E+00
         0.00000E+00
         0.00000E+00
         0.00000E+00
         0.00000E+00
         0.00000E+00
         0.00000E+00
         0.00000E+00
         0.00000E+00
         0.00000E+00
         0.00000E+00
         0.00000E+00
         0.00000E+00
         0.00000E+00
         0.00000E+00
         0.00000E+00
         0.00000E+00
         0.00000E+00
         0.00000E+00
         0.00000E+00
         0.00000E+00
         0.00000E+00
         0.00000E+00
         0.00000E+00
         0.00000E+00
         0.00000E+00
         0.00000E+00
         0.00000E+00
         0.00000E+00
         0.00000E+00
         0.00000E+00
         0.00000E+00
         0.00000E+00
         0.00000E+00
         0.00000E+00
         0.00000E+00
         0.00000E+00
         0.00000E+00
         0.00000E+00
         0.00000E+00
         0.00000E+00
         0.00000E+00
         0.00000E+00
         0.00000E+00
         0.00000E+00
         0.00000E+00
         0.00000E+00
         0.00000E+00
         0.00000E+00
         0.00000E+00
         0.00000E+00
         0.00000E+00
         0.00000E+00
         0.00000E+00
         0.00000E+00
         0.00000E+00
         0.00000E+00
         0.00000E+00
         0.00000E+00
         0.00000E+00
         0.00000E+00
         0.00000E+00
         0.00000E+00
         0.00000E+00
         0.00000E+00
         0.00000E+00
         0.00000E+00
         0.00000E+00
         0.00000E+00
         0.00000E+00
         0.00000E+00
         0.00000E+00
         0.00000E+00
         0.00000E+00
         0.00000E+00
         0.00000E+00
         0.00000E+00
         0.00000E+00
         0.00000E+00
         0.00000E+00
         0.00000E+00
         0.00000E+00
         0.00000E+00
         0.00000E+00
         0.00000E+00
         0.00000E+00
         0.00000E+00
         0.00000E+00
         0.00000E+00
         0.00000E+00
         0.00000E+00
         0.00000E+00
         0.00000E+00
         0.00000E+00
         0.00000E+00
         0.00000E+00
         0.00000E+00
         0.00000E+00
         0.00000E+00
         0.00000E+00
         0.00000E+00
         0.00000E+00
         0.00000E+00
         0.00000E+00
         0.00000E+00
         0.00000E+00
         0.00000E+00
         0.00000E+00
         0.00000E+00
         0.00000E+00
         0.00000E+00
         0.00000E+00
         0.00000E+00
         0.00000E+00
         0.00000E+00
         0.00000E+00
         0.00000E+00
         0.00000E+00
         0.00000E+00
         0.00000E+00
         0.00000E+00
         0.00000E+00
         0.00000E+00
         0.00000E+00
         0.00000E+00
         0.00000E+00
         0.00000E+00
         0.00000E+00
         0.00000E+00
         0.00000E+00
         0.00000E+00
         0.00000E+00
         0.00000E+00
         0.00000E+00
         0.00000E+00
         0.00000E+00
         0.00000E+00
         0.00000E+00
         0.00000E+00
         0.00000E+00
         0.00000E+00
         0.00000E+00
         0.00000E+00
         0.00000E+00
         0.00000E+00
         0.00000E+00
         0.00000E+00
         0.00000E+00
         0.00000E+00
         0.00000E+00
         0.00000E+00
         0.00000E+00
         0.00000E+00
         0.00000E+00
         0.00000E+00
         0.00000E+00
         0.00000E+00
         0.00000E+00
         0.00000E+00
         0.00000E+00
         0.00000E+00
         0.00000E+00
         0.00000E+00
         0.00000E+00
         0.00000E+00
         0.00000E+00
         0.00000E+00
         0.00000E+00
         0.00000E+00
         0.00000E+00
         0.00000E+00
         0.00000E+00
         0.00000E+00
         0.00000E+00
         0.00000E+00
         0.00000E+00
         0.00000E+00
         0.00000E+00
         0.00000E+00
         0.00000E+00
         0.00000E+00
         0.00000E+00
         0.00000E+00
         0.00000E+00
         0.00000E+00
         0.00000E+00
         0.00000E+00
         0.00000E+00
         0.00000E+00
         0.00000E+00
         0.00000E+00
         0.00000E+00
         0.00000E+00
         0.00000E+00
         0.00000E+00
         0.00000E+00
         0.00000E+00
         0.00000E+00
         0.00000E+00
         0.00000E+00
         0.00000E+00
         0.00000E+00
         0.00000E+00
         0.00000E+00
         0.00000E+00
         0.00000E+00
         0.00000E+00
         0.00000E+00
         0.00000E+00
         0.00000E+00
         0.00000E+00
         0.00000E+00
         0.00000E+00
         0.00000E+00
         0.00000E+00
         0.00000E+00
         0.00000E+00
         0.00000E+00
         0.00000E+00
         0.00000E+00
         0.00000E+00
         0.00000E+00
         0.00000E+00
         0.00000E+00
         0.00000E+00
         0.00000E+00
         0.00000E+00
         0.00000E+00
         0.00000E+00
         0.00000E+00
         0.00000E+00
         0.00000E+00
         0.00000E+00
         0.00000E+00
         0.00000E+00
         0.00000E+00
         0.00000E+00
         0.00000E+00
         0.00000E+00
         0.00000E+00
         0.00000E+00
         0.00000E+00
         0.00000E+00
         0.00000E+00
         0.00000E+00
         0.00000E+00
         0.00000E+00
         0.00000E+00
         0.00000E+00
         0.00000E+00
         0.00000E+00
         0.00000E+00
         0.00000E+00
         0.00000E+00
         0.00000E+00
         0.00000E+00
         0.00000E+00
         0.00000E+00
         0.00000E+00
         0.00000E+00
         0.00000E+00
         0.00000E+00
         0.00000E+00
         0.00000E+00
         0.00000E+00
         0.00000E+00
         0.00000E+00
         0.00000E+00
         0.00000E+00
         0.00000E+00
         0.00000E+00
         0.00000E+00
         0.00000E+00
         0.00000E+00
         0.00000E+00
         0.00000E+00
         0.00000E+00
         0.00000E+00
         0.00000E+00
         0.00000E+00
         0.00000E+00
         0.00000E+00
         0.00000E+00
         0.00000E+00
         0.00000E+00
         0.00000E+00
         0.00000E+00
         0.00000E+00
         0.00000E+00
         0.00000E+00
         0.00000E+00
         0.00000E+00
         0.00000E+00
         0.00000E+00
         0.00000E+00
         0.00000E+00
         0.00000E+00
         0.00000E+00
         0.00000E+00
         0.00000E+00
         0.00000E+00
         0.00000E+00
         0.00000E+00
         0.00000E+00
         0.00000E+00
         0.00000E+00
         0.00000E+00
         0.00000E+00
         0.00000E+00
         0.00000E+00
         0.00000E+00
         0.00000E+00
         0.00000E+00
         0.00000E+00
         0.00000E+00
         0.00000E+00
         0.00000E+00
         0.00000E+00
         0.00000E+00
         0.00000E+00
         0.00000E+00
         0.00000E+00
         0.00000E+00
         0.00000E+00
         0.00000E+00
         0.00000E+00
         0.00000E+00
         0.00000E+00
         0.00000E+00
         0.00000E+00
         0.00000E+00
         0.00000E+00
         0.00000E+00
         0.00000E+00
         0.00000E+00
         0.00000E+00
         0.00000E+00
         0.00000E+00
         0.00000E+00
         0.00000E+00
         0.00000E+00
         0.00000E+00
         0.00000E+00
         0.00000E+00
         0.00000E+00
         0.00000E+00
         0.00000E+00
         0.00000E+00
         0.00000E+00
         0.00000E+00
         0.00000E+00
         0.00000E+00
         0.00000E+00
         0.00000E+00
         0.00000E+00
         0.00000E+00
         0.00000E+00
         0.00000E+00
         0.00000E+00
         0.00000E+00
         0.00000E+00
         0.00000E+00
         0.00000E+00
         0.00000E+00
         0.00000E+00
         0.00000E+00
         0.00000E+00
         0.00000E+00
         0.00000E+00
         0.00000E+00
         0.00000E+00
         0.00000E+00
         0.00000E+00
         0.00000E+00
         0.00000E+00
         0.00000E+00
         0.00000E+00
         0.00000E+00
         0.00000E+00
         0.00000E+00
         0.00000E+00
         0.00000E+00
         0.00000E+00
         0.00000E+00
         0.00000E+00
         0.00000E+00
         0.00000E+00
         0.00000E+00
         0.00000E+00
         0.00000E+00
         0.00000E+00
         0.00000E+00
         0.00000E+00
         0.00000E+00
         0.00000E+00
         0.00000E+00
         0.00000E+00
         0.00000E+00
         0.00000E+00
         0.00000E+00
         0.00000E+00
         0.00000E+00
         0.00000E+00
         0.00000E+00
         0.00000E+00
         0.00000E+00
         0.00000E+00
         0.00000E+00
         0.00000E+00
         0.00000E+00
         0.00000E+00
         0.00000E+00
         0.00000E+00
         0.00000E+00
         0.00000E+00
         0.00000E+00
         0.00000E+00
         0.00000E+00
         0.00000E+00
         0.00000E+00
         0.00000E+00
         0.00000E+00
         0.00000E+00
         0.00000E+00
         0.00000E+00
         0.00000E+00
         0.00000E+00
         0.00000E+00
         0.00000E+00
         0.00000E+00
         0.00000E+00
         0.00000E+00
         0.00000E+00
         0.00000E+00
         0.00000E+00
         0.00000E+00
         0.00000E+00
         0.00000E+00
         0.00000E+00
         0.00000E+00
         0.00000E+00
         0.00000E+00
         0.00000E+00
         0.00000E+00
         0.00000E+00
         0.00000E+00
         0.00000E+00
         0.00000E+00
         0.00000E+00
         0.00000E+00
         0.00000E+00
         0.00000E+00
         0.00000E+00
         0.00000E+00
         0.00000E+00
         0.00000E+00
         0.00000E+00
         0.00000E+00
         0.00000E+00
         0.00000E+00
         0.00000E+00
         0.00000E+00
         0.00000E+00
         0.00000E+00
         0.00000E+00
         0.00000E+00
         0.00000E+00
         0.00000E+00
         0.00000E+00
         0.00000E+00
         0.00000E+00
         0.00000E+00
         0.00000E+00
         0.00000E+00
         0.00000E+00
         0.00000E+00
         0.00000E+00
         0.00000E+00
         0.00000E+00
         0.00000E+00
         0.00000E+00
         0.00000E+00
         0.00000E+00
         0.00000E+00
         0.00000E+00
         0.00000E+00
         0.00000E+00
         0.00000E+00
         0.00000E+00
         0.00000E+00
         0.00000E+00
         0.00000E+00
         0.00000E+00
         0.00000E+00
         0.00000E+00
         0.00000E+00
         0.00000E+00
         0.00000E+00
         0.00000E+00
         0.00000E+00
         0.00000E+00
         0.00000E+00
         0.00000E+00
         0.00000E+00
         0.00000E+00
         0.00000E+00
         0.00000E+00
         0.00000E+00
         0.00000E+00
         0.00000E+00
         0.00000E+00
         0.00000E+00
         0.00000E+00
         0.00000E+00
         0.00000E+00
         0.00000E+00
         0.00000E+00
         0.00000E+00
         0.00000E+00
         0.00000E+00
         0.00000E+00
         0.00000E+00
         0.00000E+00
         0.00000E+00
         0.00000E+00
         0.00000E+00
         0.00000E+00
         0.00000E+00
         0.00000E+00
         0.00000E+00
         0.00000E+00
         0.00000E+00
         0.00000E+00
         0.00000E+00
         0.00000E+00
         0.00000E+00
         0.00000E+00
         0.00000E+00
         0.00000E+00
         0.00000E+00
         0.00000E+00
         0.00000E+00
         0.00000E+00
         0.00000E+00
         0.00000E+00
         0.00000E+00
         0.00000E+00
         0.00000E+00
         0.00000E+00
         0.00000E+00
         0.00000E+00
         0.00000E+00
         0.00000E+00
         0.00000E+00
         0.00000E+00
         0.00000E+00
         0.00000E+00
         0.00000E+00
         0.00000E+00
         0.00000E+00
         0.00000E+00
         0.00000E+00
         0.00000E+00
         0.00000E+00
         0.00000E+00
         0.00000E+00
         0.00000E+00
         0.00000E+00
         0.00000E+00
         0.00000E+00
         0.00000E+00
         0.00000E+00
         0.00000E+00
         0.00000E+00
         0.00000E+00
         0.00000E+00
         0.00000E+00
         0.00000E+00
         0.00000E+00
         0.00000E+00
         0.00000E+00
         0.00000E+00
         0.00000E+00
         0.00000E+00
         0.00000E+00
         0.00000E+00
         0.00000E+00
         0.00000E+00
         0.00000E+00
         0.00000E+00
         0.00000E+00
         0.00000E+00
         0.00000E+00
         0.00000E+00
         0.00000E+00
         0.00000E+00
         0.00000E+00
         0.00000E+00
         0.00000E+00
         0.00000E+00
         0.00000E+00
         0.00000E+00
         0.00000E+00
         0.00000E+00
         0.00000E+00
         0.00000E+00
         0.00000E+00
         0.00000E+00
         0.00000E+00
         0.00000E+00
         0.00000E+00
         0.00000E+00
         0.00000E+00
         0.00000E+00
         0.00000E+00
         0.00000E+00
         0.00000E+00
         0.00000E+00
         0.00000E+00
         0.00000E+00
         0.00000E+00
         0.00000E+00
         0.00000E+00
         0.00000E+00
         0.00000E+00
         0.00000E+00
         0.00000E+00
         0.00000E+00
         0.00000E+00
         0.00000E+00
         0.00000E+00
         0.00000E+00
         0.00000E+00
         0.00000E+00
         0.00000E+00
         0.00000E+00
         0.00000E+00
         0.00000E+00
         0.00000E+00
         0.00000E+00
         0.00000E+00
         0.00000E+00
         0.00000E+00
         0.00000E+00
         0.00000E+00
         0.00000E+00
         0.00000E+00
         0.00000E+00
         0.00000E+00
         0.00000E+00
         0.00000E+00
         0.00000E+00
         0.00000E+00
         0.00000E+00
         0.00000E+00
         0.00000E+00
         0.00000E+00
         0.00000E+00
         0.00000E+00
         0.00000E+00
         0.00000E+00
         0.00000E+00
         0.00000E+00
         0.00000E+00
         0.00000E+00
         0.00000E+00
         0.00000E+00
         0.00000E+00
         0.00000E+00
         0.00000E+00
         0.00000E+00
         0.00000E+00
         0.00000E+00
         0.00000E+00
         0.00000E+00
         0.00000E+00
         0.00000E+00
         0.00000E+00
         0.00000E+00
         0.00000E+00
         0.00000E+00
         0.00000E+00
         0.00000E+00
         0.00000E+00
         0.00000E+00
         0.00000E+00
         0.00000E+00
         0.00000E+00
         0.00000E+00
         0.00000E+00
         0.00000E+00
         0.00000E+00
         0.00000E+00
         0.00000E+00
         0.00000E+00
         0.00000E+00
         0.00000E+00
         0.00000E+00
         0.00000E+00
         0.00000E+00
         0.00000E+00
         0.00000E+00
         0.00000E+00
         0.00000E+00
         0.00000E+00
         0.00000E+00
         0.00000E+00
         0.00000E+00
         0.00000E+00
         0.00000E+00
         0.00000E+00
         0.00000E+00
         0.00000E+00
         0.00000E+00
         0.00000E+00
         0.00000E+00
         0.00000E+00
         0.00000E+00
         0.00000E+00
         0.00000E+00
         0.00000E+00
         0.00000E+00
         0.00000E+00
         0.00000E+00
         0.00000E+00
         0.00000E+00
         0.00000E+00
         0.00000E+00
         0.00000E+00
         0.00000E+00
         0.00000E+00
         0.00000E+00
         0.00000E+00
         0.00000E+00
         0.00000E+00
         0.00000E+00
         0.00000E+00
         0.00000E+00
         0.00000E+00
         0.00000E+00
         0.00000E+00
         0.00000E+00
         0.00000E+00
         0.00000E+00
         0.00000E+00
         0.00000E+00
         0.00000E+00
         0.00000E+00
         0.00000E+00
         0.00000E+00
         0.00000E+00
         0.00000E+00
         0.00000E+00
         0.00000E+00
         0.00000E+00
         0.00000E+00
         0.00000E+00
         0.00000E+00
         0.00000E+00
         0.00000E+00
         0.00000E+00
         0.00000E+00
         0.00000E+00
         0.00000E+00
         0.00000E+00
         0.00000E+00
         0.00000E+00
         0.00000E+00
         0.00000E+00
         0.00000E+00
         0.00000E+00
         0.00000E+00
         0.00000E+00
         0.00000E+00
         0.00000E+00
         0.00000E+00
         0.00000E+00
         0.00000E+00
         0.00000E+00
         0.00000E+00
         0.00000E+00
         0.00000E+00
         0.00000E+00
         0.00000E+00
         0.00000E+00
         0.00000E+00
         0.00000E+00
         0.00000E+00
         0.00000E+00
         0.00000E+00
         0.00000E+00
         0.00000E+00
         0.00000E+00
         0.00000E+00
         0.00000E+00
         0.00000E+00
         0.00000E+00
         0.00000E+00
         0.00000E+00
         0.00000E+00
         0.00000E+00
         0.00000E+00
         0.00000E+00
         0.00000E+00
         0.00000E+00
         0.00000E+00
         0.00000E+00
         0.00000E+00
         0.00000E+00
         0.00000E+00
         0.00000E+00
         0.00000E+00
         0.00000E+00
         0.00000E+00
         0.00000E+00
         0.00000E+00
         0.00000E+00
         0.00000E+00
         0.00000E+00
         0.00000E+00
         0.00000E+00
         0.00000E+00
         0.00000E+00
         0.00000E+00
         0.00000E+00
         0.00000E+00
         0.00000E+00
         0.00000E+00
         0.00000E+00
         0.00000E+00
         0.00000E+00
         0.00000E+00
         0.00000E+00
         0.00000E+00
         0.00000E+00
         0.00000E+00
         0.00000E+00
         0.00000E+00
         0.00000E+00
         0.00000E+00
         0.00000E+00
         0.00000E+00
         0.00000E+00
         0.00000E+00
         0.00000E+00
         0.00000E+00
         0.00000E+00
         0.00000E+00
         0.00000E+00
         0.00000E+00
         0.00000E+00
         0.00000E+00
         0.00000E+00
         0.00000E+00
         0.00000E+00
         0.00000E+00
         0.00000E+00
         0.00000E+00
         0.00000E+00
         0.00000E+00
         0.00000E+00
         0.00000E+00
         0.00000E+00
         0.00000E+00
         0.00000E+00
         0.00000E+00
         0.00000E+00
         0.00000E+00
         0.00000E+00
         0.00000E+00
         0.00000E+00
         0.00000E+00
         0.00000E+00
         0.00000E+00
         0.00000E+00
         0.00000E+00
         0.00000E+00
         0.00000E+00
         0.00000E+00
         0.00000E+00
         0.00000E+00
         0.00000E+00
         0.00000E+00
         0.00000E+00
         0.00000E+00
         0.00000E+00
         0.00000E+00
         0.00000E+00
         0.00000E+00
         0.00000E+00
         0.00000E+00
         0.00000E+00
         0.00000E+00
         0.00000E+00
         0.00000E+00
         0.00000E+00
         0.00000E+00
         0.00000E+00
         0.00000E+00
         0.00000E+00
         0.00000E+00
         0.00000E+00
         0.00000E+00
         0.00000E+00
         0.00000E+00
         0.00000E+00
         0.00000E+00
         0.00000E+00
         0.00000E+00
         0.00000E+00
         0.00000E+00
         0.00000E+00
         0.00000E+00
         0.00000E+00
         0.00000E+00
         0.00000E+00
         0.00000E+00
         0.00000E+00
         0.00000E+00
         0.00000E+00
         0.00000E+00
         0.00000E+00
         0.00000E+00
         0.00000E+00
         0.00000E+00
         0.00000E+00
         0.00000E+00
         0.00000E+00
         0.00000E+00
         0.00000E+00
         0.00000E+00
         0.00000E+00
         0.00000E+00
         0.00000E+00
         0.00000E+00
         0.00000E+00
         0.00000E+00
         0.00000E+00
         0.00000E+00
         0.00000E+00
         0.00000E+00
         0.00000E+00
         0.00000E+00
         0.00000E+00
         0.00000E+00
         0.00000E+00
         0.00000E+00
         0.00000E+00
         0.00000E+00
         0.00000E+00
         0.00000E+00
         0.00000E+00
         0.00000E+00
         0.00000E+00
         0.00000E+00
         0.00000E+00
         0.00000E+00
         0.00000E+00
         0.00000E+00
         0.00000E+00
         0.00000E+00
         0.00000E+00
         0.00000E+00
         0.00000E+00
         0.00000E+00
         0.00000E+00
         0.00000E+00
         0.00000E+00
         0.00000E+00
         0.00000E+00
         0.00000E+00
         0.00000E+00
         0.00000E+00
         0.00000E+00
         0.00000E+00
         0.00000E+00
         0.00000E+00
         0.00000E+00
         0.00000E+00
         0.00000E+00
         0.00000E+00
         0.00000E+00
         0.00000E+00
         0.00000E+00
         0.00000E+00
         0.00000E+00
         0.00000E+00
         0.00000E+00
         0.00000E+00
         0.00000E+00
         0.00000E+00
         0.00000E+00
         0.00000E+00
         0.00000E+00
         0.00000E+00
         0.00000E+00
         0.00000E+00
         0.00000E+00
         0.00000E+00
         0.00000E+00
         0.00000E+00
         0.00000E+00
         0.00000E+00
         0.00000E+00
         0.00000E+00
         0.00000E+00
         0.00000E+00
         0.00000E+00
         0.00000E+00
         0.00000E+00
         0.00000E+00
         0.00000E+00
         0.00000E+00
         0.00000E+00
         0.00000E+00
         0.00000E+00
         0.00000E+00
         0.00000E+00
         0.00000E+00
         0.00000E+00
         0.00000E+00
         0.00000E+00
         0.00000E+00
         0.00000E+00
         0.00000E+00
         0.00000E+00
         0.00000E+00
         0.00000E+00
         0.00000E+00
         0.00000E+00
         0.00000E+00
         0.00000E+00
         0.00000E+00
         0.00000E+00
         0.00000E+00
         0.00000E+00
         0.00000E+00
         0.00000E+00
         0.00000E+00
         0.00000E+00
         0.00000E+00
         0.00000E+00
         0.00000E+00
         0.00000E+00
         0.00000E+00
         0.00000E+00
         0.00000E+00
         0.00000E+00
         0.00000E+00
         0.00000E+00
         0.00000E+00
         0.00000E+00
         0.00000E+00
         0.00000E+00
         0.00000E+00
         0.00000E+00
         0.00000E+00
         0.00000E+00
         0.00000E+00
         0.00000E+00
         0.00000E+00
         0.00000E+00
         0.00000E+00
         0.00000E+00
         0.00000E+00
         0.00000E+00
         0.00000E+00
         0.00000E+00
         0.00000E+00
         0.00000E+00
         0.00000E+00
         0.00000E+00
         0.00000E+00
         0.00000E+00
         0.00000E+00
         0.00000E+00
         0.00000E+00
         0.00000E+00
         0.00000E+00
         0.00000E+00
         0.00000E+00
         0.00000E+00
         0.00000E+00
         0.00000E+00
         0.00000E+00
         0.00000E+00
         0.00000E+00
         0.00000E+00
         0.00000E+00
         0.00000E+00
         0.00000E+00
         0.00000E+00
         0.00000E+00
         0.00000E+00
         0.00000E+00
         0.00000E+00
         0.00000E+00
         0.00000E+00
         0.00000E+00
         0.00000E+00
         0.00000E+00
         0.00000E+00
         0.00000E+00
         0.00000E+00
         0.00000E+00
         0.00000E+00
         0.00000E+00
         0.00000E+00
         0.00000E+00
         0.00000E+00
         0.00000E+00
         0.00000E+00
         0.00000E+00
         0.00000E+00
         0.00000E+00
         0.00000E+00
         0.00000E+00
         0.00000E+00
         0.00000E+00
         0.00000E+00
         0.00000E+00
         0.00000E+00
         0.00000E+00
         0.00000E+00
         0.00000E+00
         0.00000E+00
         0.00000E+00
         0.00000E+00
         0.00000E+00
         0.00000E+00
         0.00000E+00
         0.00000E+00
         0.00000E+00
         0.00000E+00
         0.00000E+00
         0.00000E+00
         0.00000E+00
         0.00000E+00
         0.00000E+00
         0.00000E+00
         0.00000E+00
         0.00000E+00
         0.00000E+00
         0.00000E+00
         0.00000E+00
         0.00000E+00
         0.00000E+00
         0.00000E+00
         0.00000E+00
         0.00000E+00
         0.00000E+00
         0.00000E+00
         0.00000E+00
         0.00000E+00
         0.00000E+00
         0.00000E+00
         0.00000E+00
         0.00000E+00
         0.00000E+00
         0.00000E+00
         0.00000E+00
         0.00000E+00
         0.00000E+00
         0.00000E+00
         0.00000E+00
         0.00000E+00
         0.00000E+00
         0.00000E+00
         0.00000E+00
         0.00000E+00
         0.00000E+00
         0.00000E+00
         0.00000E+00
         0.00000E+00
         0.00000E+00
         0.00000E+00
         0.00000E+00
         0.00000E+00
         0.00000E+00
         0.00000E+00
         0.00000E+00
         0.00000E+00
         0.00000E+00
         0.00000E+00
         0.00000E+00
         0.00000E+00
         0.00000E+00
         0.00000E+00
         0.00000E+00
         0.00000E+00
         0.00000E+00
         0.00000E+00
         0.00000E+00
         0.00000E+00
         0.00000E+00
         0.00000E+00
         0.00000E+00
         0.00000E+00
         0.00000E+00
         0.00000E+00
         0.00000E+00
         0.00000E+00
         0.00000E+00
         0.00000E+00
         0.00000E+00
         0.00000E+00
         0.00000E+00
         0.00000E+00
         0.00000E+00
         0.00000E+00
         0.00000E+00
         0.00000E+00
         0.00000E+00
         0.00000E+00
         0.00000E+00
         0.00000E+00
         0.00000E+00
         0.00000E+00
         0.00000E+00
         0.00000E+00
         0.00000E+00
         0.00000E+00
         0.00000E+00
         0.00000E+00
         0.00000E+00
         0.00000E+00
         0.00000E+00
         0.00000E+00
         0.00000E+00
         0.00000E+00
         0.00000E+00
         0.00000E+00
         0.00000E+00
         0.00000E+00
         0.00000E+00
         0.00000E+00
         0.00000E+00
         0.00000E+00
         0.00000E+00
         0.00000E+00
         0.00000E+00
         0.00000E+00
         0.00000E+00
         0.00000E+00
         0.00000E+00
         0.00000E+00
         0.00000E+00
         0.00000E+00
         0.00000E+00
         0.00000E+00
         0.00000E+00
         0.00000E+00
         0.00000E+00
         0.00000E+00
         0.00000E+00
         0.00000E+00
         0.00000E+00
         0.00000E+00
         0.00000E+00
         0.00000E+00
         0.00000E+00
         0.00000E+00
         0.00000E+00
         0.00000E+00
         0.00000E+00
         0.00000E+00
         0.00000E+00
         0.00000E+00
         0.00000E+00
         0.00000E+00
         0.00000E+00
         0.00000E+00
         0.00000E+00
         0.00000E+00
         0.00000E+00
         0.00000E+00
         0.00000E+00
         0.00000E+00
         0.00000E+00
         0.00000E+00
         0.00000E+00
         0.00000E+00
         0.00000E+00
         0.00000E+00
         0.00000E+00
         0.00000E+00
         0.00000E+00
         0.00000E+00
         0.00000E+00
         0.00000E+00
         0.00000E+00
         0.00000E+00
         0.00000E+00
         0.00000E+00
         0.00000E+00
         0.00000E+00
         0.00000E+00
         0.00000E+00
         0.00000E+00
         0.00000E+00
         0.00000E+00
         0.00000E+00
         0.00000E+00
         0.00000E+00
         0.00000E+00
         0.00000E+00
         0.00000E+00
         0.00000E+00
         0.00000E+00
         0.00000E+00
         0.00000E+00
         0.00000E+00
         0.00000E+00
         0.00000E+00
         0.00000E+00
         0.00000E+00
         0.00000E+00
         0.00000E+00
         0.00000E+00
         0.00000E+00
  
SCALARS           initial_coordinate_x  double 1
LOOKUP_TABLE default
         0.10378E-02
         0.17452E-02
         0.23177E-02
         0.16698E-02
         0.10379E-02
         0.17453E-02
         0.23178E-02
         0.16700E-02
         0.30377E-02
         0.27791E-02
         0.30377E-02
         0.27788E-02
         0.12850E-02
         0.65139E-03
         0.12851E-02
         0.65164E-03
         0.12757E-03
        -0.12822E-03
         0.12783E-03
        -0.12804E-03
         0.94500E-03
         0.11327E-02
         0.17490E-02
         0.94533E-03
         0.11330E-02
         0.17494E-02
         0.40588E-03
         0.39779E-03
         0.40594E-03
         0.39781E-03
        -0.76303E-03
        -0.86604E-03
         0.46119E-03
        -0.76268E-03
        -0.86593E-03
         0.46164E-03
        -0.18300E-02
        -0.18440E-02
        -0.18297E-02
        -0.18441E-02
        -0.27238E-02
        -0.28028E-02
        -0.27238E-02
        -0.28031E-02
        -0.25365E-02
        -0.19287E-02
        -0.25363E-02
        -0.19283E-02
        -0.99363E-03
        -0.99377E-03
        -0.14380E-02
        -0.14377E-02
        -0.31574E-03
        -0.31594E-03
        -0.11068E-02
        -0.11071E-02
        -0.18845E-02
        -0.18713E-02
        -0.18846E-02
        -0.18714E-02
        -0.15871E-03
        -0.94089E-03
        -0.15844E-03
        -0.94029E-03
         0.78856E-03
         0.78922E-03
         0.17211E-02
         0.17211E-02
         0.32050E-02
         0.28046E-02
         0.32047E-02
         0.28047E-02
         0.23059E-02
         0.23060E-02
        -0.40614E-03
        -0.40627E-03
        -0.12092E-02
        -0.12092E-02
        -0.19448E-02
        -0.19448E-02
        -0.25029E-02
        -0.26371E-02
        -0.25029E-02
        -0.26372E-02
        -0.27671E-02
        -0.27674E-02
        -0.21123E-02
        -0.21122E-02
        -0.16087E-02
        -0.16087E-02
        -0.11939E-02
        -0.58641E-03
        -0.11937E-02
        -0.58606E-03
         0.20912E-03
         0.20952E-03
         0.10586E-02
         0.10589E-02
         0.18413E-02
         0.18413E-02
         0.24544E-02
         0.26022E-02
         0.24543E-02
         0.26021E-02
         0.37964E-02
         0.39100E-02
         0.37964E-02
         0.39100E-02
         0.34621E-02
         0.34621E-02
         0.29267E-02
         0.29267E-02
         0.22211E-02
         0.22211E-02
         0.13865E-02
         0.13865E-02
         0.47130E-03
         0.47130E-03
        -0.47130E-03
        -0.47130E-03
        -0.13865E-02
        -0.13865E-02
        -0.22211E-02
        -0.22211E-02
        -0.29267E-02
        -0.29267E-02
        -0.34621E-02
        -0.34621E-02
        -0.37964E-02
        -0.37964E-02
        -0.39100E-02
        -0.39100E-02
        -0.37964E-02
        -0.37964E-02
        -0.34621E-02
        -0.34621E-02
        -0.29267E-02
        -0.29267E-02
        -0.22211E-02
        -0.22211E-02
        -0.13865E-02
        -0.13865E-02
        -0.47130E-03
        -0.47130E-03
         0.47130E-03
         0.47130E-03
         0.13865E-02
         0.13865E-02
         0.22211E-02
         0.22211E-02
         0.29267E-02
         0.29267E-02
         0.34621E-02
         0.34621E-02
         0.37964E-02
         0.37964E-02
         0.10376E-02
         0.17450E-02
         0.23175E-02
         0.16696E-02
         0.30377E-02
         0.27795E-02
         0.12849E-02
         0.65115E-03
         0.12731E-03
        -0.12841E-03
         0.94467E-03
         0.11323E-02
         0.17487E-02
         0.40583E-03
         0.39777E-03
        -0.76338E-03
        -0.86615E-03
         0.46074E-03
        -0.18303E-02
        -0.18439E-02
        -0.27238E-02
        -0.28025E-02
        -0.25366E-02
        -0.19292E-02
        -0.99349E-03
        -0.14384E-02
        -0.31554E-03
        -0.11064E-02
        -0.18845E-02
        -0.18712E-02
        -0.15899E-03
        -0.94149E-03
         0.78790E-03
         0.17210E-02
         0.32053E-02
         0.28046E-02
         0.23058E-02
        -0.40600E-03
        -0.12092E-02
        -0.19447E-02
        -0.25028E-02
        -0.26370E-02
        -0.27668E-02
        -0.21125E-02
        -0.16088E-02
        -0.11940E-02
        -0.58676E-03
         0.20871E-03
         0.10583E-02
         0.18413E-02
         0.24545E-02
         0.26022E-02
         0.37964E-02
         0.39100E-02
         0.34621E-02
         0.29267E-02
         0.22211E-02
         0.13865E-02
         0.47130E-03
        -0.47130E-03
        -0.13865E-02
        -0.22211E-02
        -0.29267E-02
        -0.34621E-02
        -0.37964E-02
        -0.39100E-02
        -0.37964E-02
        -0.34621E-02
        -0.29267E-02
        -0.22211E-02
        -0.13865E-02
        -0.47130E-03
         0.47130E-03
         0.13865E-02
         0.22211E-02
         0.29267E-02
         0.34621E-02
         0.37964E-02
         0.10375E-02
         0.17448E-02
         0.23174E-02
         0.16694E-02
         0.30377E-02
         0.27798E-02
         0.12848E-02
         0.65090E-03
         0.12705E-03
        -0.12859E-03
         0.94434E-03
         0.11320E-02
         0.17483E-02
         0.40577E-03
         0.39776E-03
        -0.76374E-03
        -0.86626E-03
         0.46029E-03
        -0.18306E-02
        -0.18438E-02
        -0.27238E-02
        -0.28022E-02
        -0.25368E-02
        -0.19296E-02
        -0.99334E-03
        -0.14387E-02
        -0.31534E-03
        -0.11061E-02
        -0.18844E-02
        -0.18710E-02
        -0.15926E-03
        -0.94209E-03
         0.78724E-03
         0.17210E-02
         0.32056E-02
         0.28046E-02
         0.23057E-02
        -0.40586E-03
        -0.12092E-02
        -0.19447E-02
        -0.25028E-02
        -0.26369E-02
        -0.27665E-02
        -0.21126E-02
        -0.16088E-02
        -0.11941E-02
        -0.58711E-03
         0.20830E-03
         0.10580E-02
         0.18414E-02
         0.24546E-02
         0.26023E-02
         0.37964E-02
         0.39100E-02
         0.34621E-02
         0.29267E-02
         0.22211E-02
         0.13865E-02
         0.47130E-03
        -0.47130E-03
        -0.13865E-02
        -0.22211E-02
        -0.29267E-02
        -0.34621E-02
        -0.37964E-02
        -0.39100E-02
        -0.37964E-02
        -0.34621E-02
        -0.29267E-02
        -0.22211E-02
        -0.13865E-02
        -0.47130E-03
         0.47130E-03
         0.13865E-02
         0.22211E-02
         0.29267E-02
         0.34621E-02
         0.37964E-02
         0.10374E-02
         0.17446E-02
         0.23173E-02
         0.16692E-02
         0.30376E-02
         0.27801E-02
         0.12847E-02
         0.65065E-03
         0.12678E-03
        -0.12878E-03
         0.94401E-03
         0.11316E-02
         0.17479E-02
         0.40572E-03
         0.39774E-03
        -0.76409E-03
        -0.86637E-03
         0.45985E-03
        -0.18309E-02
        -0.18437E-02
        -0.27237E-02
        -0.28020E-02
        -0.25369E-02
        -0.19300E-02
        -0.99320E-03
        -0.14391E-02
        -0.31514E-03
        -0.11057E-02
        -0.18844E-02
        -0.18709E-02
        -0.15954E-03
        -0.94269E-03
         0.78658E-03
         0.17209E-02
         0.32060E-02
         0.28046E-02
         0.23056E-02
        -0.40572E-03
        -0.12092E-02
        -0.19446E-02
        -0.25028E-02
        -0.26368E-02
        -0.27662E-02
        -0.21128E-02
        -0.16088E-02
        -0.11942E-02
        -0.58746E-03
         0.20790E-03
         0.10577E-02
         0.18414E-02
         0.24548E-02
         0.26024E-02
         0.37964E-02
         0.39100E-02
         0.34621E-02
         0.29267E-02
         0.22211E-02
         0.13865E-02
         0.47130E-03
        -0.47130E-03
        -0.13865E-02
        -0.22211E-02
        -0.29267E-02
        -0.34621E-02
        -0.37964E-02
        -0.39100E-02
        -0.37964E-02
        -0.34621E-02
        -0.29267E-02
        -0.22211E-02
        -0.13865E-02
        -0.47130E-03
         0.47130E-03
         0.13865E-02
         0.22211E-02
         0.29267E-02
         0.34621E-02
         0.37964E-02
         0.10373E-02
         0.17445E-02
         0.23172E-02
         0.16689E-02
         0.30376E-02
         0.27805E-02
         0.12846E-02
         0.65041E-03
         0.12652E-03
        -0.12896E-03
         0.94367E-03
         0.11313E-02
         0.17475E-02
         0.40566E-03
         0.39772E-03
        -0.76444E-03
        -0.86648E-03
         0.45940E-03
        -0.18312E-02
        -0.18436E-02
        -0.27237E-02
        -0.28017E-02
        -0.25371E-02
        -0.19305E-02
        -0.99305E-03
        -0.14394E-02
        -0.31494E-03
        -0.11054E-02
        -0.18843E-02
        -0.18708E-02
        -0.15981E-03
        -0.94328E-03
         0.78592E-03
         0.17209E-02
         0.32063E-02
         0.28045E-02
         0.23055E-02
        -0.40558E-03
        -0.12092E-02
        -0.19446E-02
        -0.25027E-02
        -0.26367E-02
        -0.27658E-02
        -0.21129E-02
        -0.16089E-02
        -0.11943E-02
        -0.58781E-03
         0.20749E-03
         0.10574E-02
         0.18415E-02
         0.24549E-02
         0.26025E-02
         0.37964E-02
         0.39100E-02
         0.34621E-02
         0.29267E-02
         0.22211E-02
         0.13865E-02
         0.47130E-03
        -0.47130E-03
        -0.13865E-02
        -0.22211E-02
        -0.29267E-02
        -0.34621E-02
        -0.37964E-02
        -0.39100E-02
        -0.37964E-02
        -0.34621E-02
        -0.29267E-02
        -0.22211E-02
        -0.13865E-02
        -0.47130E-03
         0.47130E-03
         0.13865E-02
         0.22211E-02
         0.29267E-02
         0.34621E-02
         0.37964E-02
         0.10372E-02
         0.17443E-02
         0.23171E-02
         0.16687E-02
         0.30376E-02
         0.27808E-02
         0.12845E-02
         0.65016E-03
         0.12626E-03
        -0.12915E-03
         0.94334E-03
         0.11310E-02
         0.17471E-02
         0.40561E-03
         0.39770E-03
        -0.76480E-03
        -0.86659E-03
         0.45895E-03
        -0.18315E-02
        -0.18435E-02
        -0.27237E-02
        -0.28014E-02
        -0.25372E-02
        -0.19309E-02
        -0.99291E-03
        -0.14398E-02
        -0.31474E-03
        -0.11051E-02
        -0.18843E-02
        -0.18706E-02
        -0.16009E-03
        -0.94388E-03
         0.78526E-03
         0.17208E-02
         0.32066E-02
         0.28045E-02
         0.23053E-02
        -0.40545E-03
        -0.12092E-02
        -0.19446E-02
        -0.25027E-02
        -0.26366E-02
        -0.27655E-02
        -0.21130E-02
        -0.16089E-02
        -0.11944E-02
        -0.58816E-03
         0.20709E-03
         0.10571E-02
         0.18415E-02
         0.24550E-02
         0.26025E-02
         0.37964E-02
         0.39100E-02
         0.34621E-02
         0.29267E-02
         0.22211E-02
         0.13865E-02
         0.47130E-03
        -0.47130E-03
        -0.13865E-02
        -0.22211E-02
        -0.29267E-02
        -0.34621E-02
        -0.37964E-02
        -0.39100E-02
        -0.37964E-02
        -0.34621E-02
        -0.29267E-02
        -0.22211E-02
        -0.13865E-02
        -0.47130E-03
         0.47130E-03
         0.13865E-02
         0.22211E-02
         0.29267E-02
         0.34621E-02
         0.37964E-02
         0.10371E-02
         0.17441E-02
         0.23169E-02
         0.16685E-02
         0.30376E-02
         0.27812E-02
         0.12844E-02
         0.64992E-03
         0.12600E-03
        -0.12933E-03
         0.94301E-03
         0.11306E-02
         0.17467E-02
         0.40556E-03
         0.39769E-03
        -0.76515E-03
        -0.86670E-03
         0.45850E-03
        -0.18318E-02
        -0.18434E-02
        -0.27236E-02
        -0.28011E-02
        -0.25374E-02
        -0.19313E-02
        -0.99277E-03
        -0.14401E-02
        -0.31454E-03
        -0.11047E-02
        -0.18842E-02
        -0.18705E-02
        -0.16036E-03
        -0.94448E-03
         0.78460E-03
         0.17208E-02
         0.32070E-02
         0.28045E-02
         0.23052E-02
        -0.40531E-03
        -0.12092E-02
        -0.19445E-02
        -0.25027E-02
        -0.26366E-02
        -0.27652E-02
        -0.21132E-02
        -0.16090E-02
        -0.11946E-02
        -0.58851E-03
         0.20668E-03
         0.10567E-02
         0.18416E-02
         0.24551E-02
         0.26026E-02
         0.37964E-02
         0.39100E-02
         0.34621E-02
         0.29267E-02
         0.22211E-02
         0.13865E-02
         0.47130E-03
        -0.47130E-03
        -0.13865E-02
        -0.22211E-02
        -0.29267E-02
        -0.34621E-02
        -0.37964E-02
        -0.39100E-02
        -0.37964E-02
        -0.34621E-02
        -0.29267E-02
        -0.22211E-02
        -0.13865E-02
        -0.47130E-03
         0.47130E-03
         0.13865E-02
         0.22211E-02
         0.29267E-02
         0.34621E-02
         0.37964E-02
         0.10370E-02
         0.17439E-02
         0.23168E-02
         0.16683E-02
         0.30375E-02
         0.27815E-02
         0.12843E-02
         0.64967E-03
         0.12573E-03
        -0.12952E-03
         0.94268E-03
         0.11303E-02
         0.17463E-02
         0.40550E-03
         0.39767E-03
        -0.76551E-03
        -0.86680E-03
         0.45806E-03
        -0.18321E-02
        -0.18433E-02
        -0.27236E-02
        -0.28009E-02
        -0.25375E-02
        -0.19317E-02
        -0.99262E-03
        -0.14405E-02
        -0.31434E-03
        -0.11044E-02
        -0.18842E-02
        -0.18704E-02
        -0.16064E-03
        -0.94508E-03
         0.78394E-03
         0.17208E-02
         0.32073E-02
         0.28045E-02
         0.23051E-02
        -0.40517E-03
        -0.12092E-02
        -0.19445E-02
        -0.25026E-02
        -0.26365E-02
        -0.27649E-02
        -0.21133E-02
        -0.16090E-02
        -0.11947E-02
        -0.58886E-03
         0.20627E-03
         0.10564E-02
         0.18416E-02
         0.24553E-02
         0.26027E-02
         0.37964E-02
         0.39100E-02
         0.34621E-02
         0.29267E-02
         0.22211E-02
         0.13865E-02
         0.47130E-03
        -0.47130E-03
        -0.13865E-02
        -0.22211E-02
        -0.29267E-02
        -0.34621E-02
        -0.37964E-02
        -0.39100E-02
        -0.37964E-02
        -0.34621E-02
        -0.29267E-02
        -0.22211E-02
        -0.13865E-02
        -0.47130E-03
         0.47130E-03
         0.13865E-02
         0.22211E-02
         0.29267E-02
         0.34621E-02
         0.37964E-02
         0.10368E-02
         0.17438E-02
         0.23167E-02
         0.16681E-02
         0.30375E-02
         0.27819E-02
         0.12842E-02
         0.64943E-03
         0.12547E-03
        -0.12970E-03
         0.94235E-03
         0.11300E-02
         0.17459E-02
         0.40545E-03
         0.39766E-03
        -0.76586E-03
        -0.86691E-03
         0.45761E-03
        -0.18324E-02
        -0.18432E-02
        -0.27236E-02
        -0.28006E-02
        -0.25377E-02
        -0.19322E-02
        -0.99248E-03
        -0.14408E-02
        -0.31414E-03
        -0.11040E-02
        -0.18841E-02
        -0.18703E-02
        -0.16091E-03
        -0.94568E-03
         0.78328E-03
         0.17207E-02
         0.32076E-02
         0.28044E-02
         0.23050E-02
        -0.40503E-03
        -0.12092E-02
        -0.19445E-02
        -0.25026E-02
        -0.26364E-02
        -0.27646E-02
        -0.21134E-02
        -0.16091E-02
        -0.11948E-02
        -0.58921E-03
         0.20587E-03
         0.10561E-02
         0.18416E-02
         0.24554E-02
         0.26027E-02
         0.37964E-02
         0.39100E-02
         0.34621E-02
         0.29267E-02
         0.22211E-02
         0.13865E-02
         0.47130E-03
        -0.47130E-03
        -0.13865E-02
        -0.22211E-02
        -0.29267E-02
        -0.34621E-02
        -0.37964E-02
        -0.39100E-02
        -0.37964E-02
        -0.34621E-02
        -0.29267E-02
        -0.22211E-02
        -0.13865E-02
        -0.47130E-03
         0.47130E-03
         0.13865E-02
         0.22211E-02
         0.29267E-02
         0.34621E-02
         0.37964E-02
         0.10367E-02
         0.17436E-02
         0.23166E-02
         0.16679E-02
         0.30375E-02
         0.27822E-02
         0.12841E-02
         0.64918E-03
         0.12521E-03
        -0.12989E-03
         0.94202E-03
         0.11296E-02
         0.17455E-02
         0.40539E-03
         0.39764E-03
        -0.76621E-03
        -0.86702E-03
         0.45716E-03
        -0.18326E-02
        -0.18431E-02
        -0.27235E-02
        -0.28003E-02
        -0.25379E-02
        -0.19326E-02
        -0.99233E-03
        -0.14412E-02
        -0.31394E-03
        -0.11037E-02
        -0.18841E-02
        -0.18701E-02
        -0.16119E-03
        -0.94628E-03
         0.78262E-03
         0.17207E-02
         0.32079E-02
         0.28044E-02
         0.23049E-02
        -0.40490E-03
        -0.12093E-02
        -0.19444E-02
        -0.25026E-02
        -0.26363E-02
        -0.27643E-02
        -0.21136E-02
        -0.16091E-02
        -0.11949E-02
        -0.58956E-03
         0.20546E-03
         0.10558E-02
         0.18417E-02
         0.24555E-02
         0.26028E-02
         0.37964E-02
         0.39100E-02
         0.34621E-02
         0.29267E-02
         0.22211E-02
         0.13865E-02
         0.47130E-03
        -0.47130E-03
        -0.13865E-02
        -0.22211E-02
        -0.29267E-02
        -0.34621E-02
        -0.37964E-02
        -0.39100E-02
        -0.37964E-02
        -0.34621E-02
        -0.29267E-02
        -0.22211E-02
        -0.13865E-02
        -0.47130E-03
         0.47130E-03
         0.13865E-02
         0.22211E-02
         0.29267E-02
         0.34621E-02
         0.37964E-02
         0.10366E-02
         0.17434E-02
         0.23164E-02
         0.16677E-02
         0.30375E-02
         0.27825E-02
         0.12840E-02
         0.64894E-03
         0.12495E-03
        -0.13007E-03
         0.94169E-03
         0.11293E-02
         0.17451E-02
         0.40534E-03
         0.39762E-03
        -0.76657E-03
        -0.86713E-03
         0.45671E-03
        -0.18329E-02
        -0.18430E-02
        -0.27235E-02
        -0.28001E-02
        -0.25380E-02
        -0.19330E-02
        -0.99219E-03
        -0.14415E-02
        -0.31374E-03
        -0.11033E-02
        -0.18840E-02
        -0.18700E-02
        -0.16146E-03
        -0.94687E-03
         0.78195E-03
         0.17207E-02
         0.32083E-02
         0.28044E-02
         0.23048E-02
        -0.40476E-03
        -0.12093E-02
        -0.19444E-02
        -0.25026E-02
        -0.26362E-02
        -0.27640E-02
        -0.21137E-02
        -0.16091E-02
        -0.11950E-02
        -0.58991E-03
         0.20505E-03
         0.10555E-02
         0.18417E-02
         0.24556E-02
         0.26029E-02
         0.37964E-02
         0.39100E-02
         0.34621E-02
         0.29267E-02
         0.22211E-02
         0.13865E-02
         0.47130E-03
        -0.47130E-03
        -0.13865E-02
        -0.22211E-02
        -0.29267E-02
        -0.34621E-02
        -0.37964E-02
        -0.39100E-02
        -0.37964E-02
        -0.34621E-02
        -0.29267E-02
        -0.22211E-02
        -0.13865E-02
        -0.47130E-03
         0.47130E-03
         0.13865E-02
         0.22211E-02
         0.29267E-02
         0.34621E-02
         0.37964E-02
         0.10365E-02
         0.17432E-02
         0.23163E-02
         0.16675E-02
         0.30374E-02
         0.27829E-02
         0.12839E-02
         0.64869E-03
         0.12468E-03
        -0.13026E-03
         0.94135E-03
         0.11289E-02
         0.17447E-02
         0.40528E-03
         0.39760E-03
        -0.76692E-03
        -0.86724E-03
         0.45626E-03
        -0.18332E-02
        -0.18430E-02
        -0.27235E-02
        -0.27998E-02
        -0.25382E-02
        -0.19334E-02
        -0.99205E-03
        -0.14419E-02
        -0.31354E-03
        -0.11030E-02
        -0.18840E-02
        -0.18699E-02
        -0.16174E-03
        -0.94747E-03
         0.78129E-03
         0.17206E-02
         0.32086E-02
         0.28044E-02
         0.23047E-02
        -0.40462E-03
        -0.12093E-02
        -0.19444E-02
        -0.25025E-02
        -0.26361E-02
        -0.27637E-02
        -0.21139E-02
        -0.16092E-02
        -0.11951E-02
        -0.59025E-03
         0.20465E-03
         0.10552E-02
         0.18418E-02
         0.24558E-02
         0.26030E-02
         0.37964E-02
         0.39100E-02
         0.34621E-02
         0.29267E-02
         0.22211E-02
         0.13865E-02
         0.47130E-03
        -0.47130E-03
        -0.13865E-02
        -0.22211E-02
        -0.29267E-02
        -0.34621E-02
        -0.37964E-02
        -0.39100E-02
        -0.37964E-02
        -0.34621E-02
        -0.29267E-02
        -0.22211E-02
        -0.13865E-02
        -0.47130E-03
         0.47130E-03
         0.13865E-02
         0.22211E-02
         0.29267E-02
         0.34621E-02
         0.37964E-02
         0.10364E-02
         0.17430E-02
         0.23162E-02
         0.16672E-02
         0.30374E-02
         0.27832E-02
         0.12838E-02
         0.64845E-03
         0.12442E-03
        -0.13044E-03
         0.94102E-03
         0.11286E-02
         0.17443E-02
         0.40523E-03
         0.39759E-03
        -0.76727E-03
        -0.86735E-03
         0.45582E-03
        -0.18335E-02
        -0.18429E-02
        -0.27235E-02
        -0.27995E-02
        -0.25383E-02
        -0.19339E-02
        -0.99190E-03
        -0.14422E-02
        -0.31334E-03
        -0.11026E-02
        -0.18839E-02
        -0.18697E-02
        -0.16201E-03
        -0.94807E-03
         0.78063E-03
         0.17206E-02
         0.32089E-02
         0.28043E-02
         0.23046E-02
        -0.40448E-03
        -0.12093E-02
        -0.19443E-02
        -0.25025E-02
        -0.26360E-02
        -0.27633E-02
        -0.21140E-02
        -0.16092E-02
        -0.11953E-02
        -0.59060E-03
         0.20424E-03
         0.10549E-02
         0.18418E-02
         0.24559E-02
         0.26030E-02
         0.37964E-02
         0.39100E-02
         0.34621E-02
         0.29267E-02
         0.22211E-02
         0.13865E-02
         0.47130E-03
        -0.47130E-03
        -0.13865E-02
        -0.22211E-02
        -0.29267E-02
        -0.34621E-02
        -0.37964E-02
        -0.39100E-02
        -0.37964E-02
        -0.34621E-02
        -0.29267E-02
        -0.22211E-02
        -0.13865E-02
        -0.47130E-03
         0.47130E-03
         0.13865E-02
         0.22211E-02
         0.29267E-02
         0.34621E-02
         0.37964E-02
         0.10363E-02
         0.17429E-02
         0.23161E-02
         0.16670E-02
         0.30374E-02
         0.27836E-02
         0.12837E-02
         0.64820E-03
         0.12416E-03
        -0.13063E-03
         0.94069E-03
         0.11282E-02
         0.17439E-02
         0.40518E-03
         0.39757E-03
        -0.76763E-03
        -0.86746E-03
         0.45537E-03
        -0.18338E-02
        -0.18428E-02
        -0.27234E-02
        -0.27992E-02
        -0.25385E-02
        -0.19343E-02
        -0.99176E-03
        -0.14425E-02
        -0.31314E-03
        -0.11023E-02
        -0.18839E-02
        -0.18696E-02
        -0.16229E-03
        -0.94867E-03
         0.77997E-03
         0.17205E-02
         0.32092E-02
         0.28043E-02
         0.23044E-02
        -0.40434E-03
        -0.12093E-02
        -0.19443E-02
        -0.25025E-02
        -0.26359E-02
        -0.27630E-02
        -0.21141E-02
        -0.16093E-02
        -0.11954E-02
        -0.59095E-03
         0.20384E-03
         0.10546E-02
         0.18419E-02
         0.24560E-02
         0.26031E-02
         0.37964E-02
         0.39100E-02
         0.34621E-02
         0.29267E-02
         0.22211E-02
         0.13865E-02
         0.47130E-03
        -0.47130E-03
        -0.13865E-02
        -0.22211E-02
        -0.29267E-02
        -0.34621E-02
        -0.37964E-02
        -0.39100E-02
        -0.37964E-02
        -0.34621E-02
        -0.29267E-02
        -0.22211E-02
        -0.13865E-02
        -0.47130E-03
         0.47130E-03
         0.13865E-02
         0.22211E-02
         0.29267E-02
         0.34621E-02
         0.37964E-02
         0.10362E-02
         0.17427E-02
         0.23160E-02
         0.16668E-02
         0.30373E-02
         0.27839E-02
         0.12836E-02
         0.64796E-03
         0.12390E-03
        -0.13082E-03
         0.94036E-03
         0.11279E-02
         0.17435E-02
         0.40512E-03
         0.39755E-03
        -0.76798E-03
        -0.86756E-03
         0.45492E-03
        -0.18341E-02
        -0.18427E-02
        -0.27234E-02
        -0.27990E-02
        -0.25386E-02
        -0.19347E-02
        -0.99161E-03
        -0.14429E-02
        -0.31294E-03
        -0.11019E-02
        -0.18838E-02
        -0.18695E-02
        -0.16256E-03
        -0.94927E-03
         0.77931E-03
         0.17205E-02
         0.32096E-02
         0.28043E-02
         0.23043E-02
        -0.40420E-03
        -0.12093E-02
        -0.19443E-02
        -0.25024E-02
        -0.26358E-02
        -0.27627E-02
        -0.21143E-02
        -0.16093E-02
        -0.11955E-02
        -0.59130E-03
         0.20343E-03
         0.10543E-02
         0.18419E-02
         0.24561E-02
         0.26032E-02
         0.37964E-02
         0.39100E-02
         0.34621E-02
         0.29267E-02
         0.22211E-02
         0.13865E-02
         0.47130E-03
        -0.47130E-03
        -0.13865E-02
        -0.22211E-02
        -0.29267E-02
        -0.34621E-02
        -0.37964E-02
        -0.39100E-02
        -0.37964E-02
        -0.34621E-02
        -0.29267E-02
        -0.22211E-02
        -0.13865E-02
        -0.47130E-03
         0.47130E-03
         0.13865E-02
         0.22211E-02
         0.29267E-02
         0.34621E-02
         0.37964E-02
         0.10360E-02
         0.17425E-02
         0.23158E-02
         0.16666E-02
         0.30373E-02
         0.27842E-02
         0.12835E-02
         0.64771E-03
         0.12363E-03
        -0.13100E-03
         0.94003E-03
         0.11276E-02
         0.17432E-02
         0.40507E-03
         0.39754E-03
        -0.76834E-03
        -0.86767E-03
         0.45447E-03
        -0.18344E-02
        -0.18426E-02
        -0.27234E-02
        -0.27987E-02
        -0.25388E-02
        -0.19352E-02
        -0.99147E-03
        -0.14433E-02
        -0.31274E-03
        -0.11016E-02
        -0.18838E-02
        -0.18694E-02
        -0.16284E-03
        -0.94986E-03
         0.77865E-03
         0.17205E-02
         0.32099E-02
         0.28042E-02
         0.23042E-02
        -0.40407E-03
        -0.12093E-02
        -0.19442E-02
        -0.25024E-02
        -0.26358E-02
        -0.27624E-02
        -0.21144E-02
        -0.16094E-02
        -0.11956E-02
        -0.59165E-03
         0.20302E-03
         0.10540E-02
         0.18419E-02
         0.24563E-02
         0.26033E-02
         0.37964E-02
         0.39100E-02
         0.34621E-02
         0.29267E-02
         0.22211E-02
         0.13865E-02
         0.47130E-03
        -0.47130E-03
        -0.13865E-02
        -0.22211E-02
        -0.29267E-02
        -0.34621E-02
        -0.37964E-02
        -0.39100E-02
        -0.37964E-02
        -0.34621E-02
        -0.29267E-02
        -0.22211E-02
        -0.13865E-02
        -0.47130E-03
         0.47130E-03
         0.13865E-02
         0.22211E-02
         0.29267E-02
         0.34621E-02
         0.37964E-02
         0.10359E-02
         0.17423E-02
         0.23157E-02
         0.16664E-02
         0.30373E-02
         0.27846E-02
         0.12834E-02
         0.64747E-03
         0.12337E-03
        -0.13118E-03
         0.93970E-03
         0.11272E-02
         0.17428E-02
         0.40501E-03
         0.39752E-03
        -0.76869E-03
        -0.86778E-03
         0.45402E-03
        -0.18347E-02
        -0.18425E-02
        -0.27234E-02
        -0.27984E-02
        -0.25389E-02
        -0.19356E-02
        -0.99133E-03
        -0.14436E-02
        -0.31254E-03
        -0.11013E-02
        -0.18837E-02
        -0.18692E-02
        -0.16311E-03
        -0.95046E-03
         0.77799E-03
         0.17204E-02
         0.32102E-02
         0.28042E-02
         0.23041E-02
        -0.40393E-03
        -0.12093E-02
        -0.19442E-02
        -0.25024E-02
        -0.26357E-02
        -0.27621E-02
        -0.21146E-02
        -0.16094E-02
        -0.11957E-02
        -0.59200E-03
         0.20262E-03
         0.10536E-02
         0.18420E-02
         0.24564E-02
         0.26033E-02
         0.37964E-02
         0.39100E-02
         0.34621E-02
         0.29267E-02
         0.22211E-02
         0.13865E-02
         0.47130E-03
        -0.47130E-03
        -0.13865E-02
        -0.22211E-02
        -0.29267E-02
        -0.34621E-02
        -0.37964E-02
        -0.39100E-02
        -0.37964E-02
        -0.34621E-02
        -0.29267E-02
        -0.22211E-02
        -0.13865E-02
        -0.47130E-03
         0.47130E-03
         0.13865E-02
         0.22211E-02
         0.29267E-02
         0.34621E-02
         0.37964E-02
         0.10358E-02
         0.17422E-02
         0.23156E-02
         0.16662E-02
         0.30373E-02
         0.27849E-02
         0.12833E-02
         0.64722E-03
         0.12311E-03
        -0.13137E-03
         0.93937E-03
         0.11269E-02
         0.17424E-02
         0.40496E-03
         0.39750E-03
        -0.76904E-03
        -0.86789E-03
         0.45358E-03
        -0.18350E-02
        -0.18424E-02
        -0.27233E-02
        -0.27981E-02
        -0.25391E-02
        -0.19360E-02
        -0.99118E-03
        -0.14440E-02
        -0.31234E-03
        -0.11009E-02
        -0.18836E-02
        -0.18691E-02
        -0.16339E-03
        -0.95106E-03
         0.77733E-03
         0.17204E-02
         0.32105E-02
         0.28042E-02
         0.23040E-02
        -0.40379E-03
        -0.12093E-02
        -0.19441E-02
        -0.25023E-02
        -0.26356E-02
        -0.27618E-02
        -0.21147E-02
        -0.16094E-02
        -0.11958E-02
        -0.59235E-03
         0.20221E-03
         0.10533E-02
         0.18420E-02
         0.24565E-02
         0.26034E-02
         0.37964E-02
         0.39100E-02
         0.34621E-02
         0.29267E-02
         0.22211E-02
         0.13865E-02
         0.47130E-03
        -0.47130E-03
        -0.13865E-02
        -0.22211E-02
        -0.29267E-02
        -0.34621E-02
        -0.37964E-02
        -0.39100E-02
        -0.37964E-02
        -0.34621E-02
        -0.29267E-02
        -0.22211E-02
        -0.13865E-02
        -0.47130E-03
         0.47130E-03
         0.13865E-02
         0.22211E-02
         0.29267E-02
         0.34621E-02
         0.37964E-02
         0.10357E-02
         0.17420E-02
         0.23155E-02
         0.16660E-02
         0.30372E-02
         0.27853E-02
         0.12832E-02
         0.64698E-03
         0.12285E-03
        -0.13155E-03
         0.93903E-03
         0.11266E-02
         0.17420E-02
         0.40490E-03
         0.39749E-03
        -0.76940E-03
        -0.86800E-03
         0.45313E-03
        -0.18353E-02
        -0.18423E-02
        -0.27233E-02
        -0.27979E-02
        -0.25393E-02
        -0.19365E-02
        -0.99104E-03
        -0.14443E-02
        -0.31214E-03
        -0.11006E-02
        -0.18836E-02
        -0.18690E-02
        -0.16366E-03
        -0.95166E-03
         0.77667E-03
         0.17203E-02
         0.32109E-02
         0.28042E-02
         0.23039E-02
        -0.40365E-03
        -0.12093E-02
        -0.19441E-02
        -0.25023E-02
        -0.26355E-02
        -0.27615E-02
        -0.21148E-02
        -0.16095E-02
        -0.11960E-02
        -0.59270E-03
         0.20180E-03
         0.10530E-02
         0.18421E-02
         0.24566E-02
         0.26035E-02
         0.37964E-02
         0.39100E-02
         0.34621E-02
         0.29267E-02
         0.22211E-02
         0.13865E-02
         0.47130E-03
        -0.47130E-03
        -0.13865E-02
        -0.22211E-02
        -0.29267E-02
        -0.34621E-02
        -0.37964E-02
        -0.39100E-02
        -0.37964E-02
        -0.34621E-02
        -0.29267E-02
        -0.22211E-02
        -0.13865E-02
        -0.47130E-03
         0.47130E-03
         0.13865E-02
         0.22211E-02
         0.29267E-02
         0.34621E-02
         0.37964E-02
         0.10356E-02
         0.17418E-02
         0.23153E-02
         0.16657E-02
         0.30372E-02
         0.27856E-02
         0.12830E-02
         0.64673E-03
         0.12259E-03
        -0.13174E-03
         0.93870E-03
         0.11262E-02
         0.17416E-02
         0.40485E-03
         0.39747E-03
        -0.76975E-03
        -0.86811E-03
         0.45268E-03
        -0.18356E-02
        -0.18422E-02
        -0.27233E-02
        -0.27976E-02
        -0.25394E-02
        -0.19369E-02
        -0.99090E-03
        -0.14446E-02
        -0.31194E-03
        -0.11002E-02
        -0.18835E-02
        -0.18689E-02
        -0.16394E-03
        -0.95226E-03
         0.77601E-03
         0.17203E-02
         0.32112E-02
         0.28042E-02
         0.23038E-02
        -0.40352E-03
        -0.12093E-02
        -0.19441E-02
        -0.25023E-02
        -0.26354E-02
        -0.27612E-02
        -0.21150E-02
        -0.16095E-02
        -0.11961E-02
        -0.59305E-03
         0.20140E-03
         0.10527E-02
         0.18421E-02
         0.24568E-02
         0.26036E-02
         0.37964E-02
         0.39100E-02
         0.34621E-02
         0.29267E-02
         0.22211E-02
         0.13865E-02
         0.47130E-03
        -0.47130E-03
        -0.13865E-02
        -0.22211E-02
        -0.29267E-02
        -0.34621E-02
        -0.37964E-02
        -0.39100E-02
        -0.37964E-02
        -0.34621E-02
        -0.29267E-02
        -0.22211E-02
        -0.13865E-02
        -0.47130E-03
         0.47130E-03
         0.13865E-02
         0.22211E-02
         0.29267E-02
         0.34621E-02
         0.37964E-02
         0.10355E-02
         0.17416E-02
         0.23152E-02
         0.16655E-02
         0.30372E-02
         0.27860E-02
         0.12829E-02
         0.64649E-03
         0.12232E-03
        -0.13193E-03
         0.93837E-03
         0.11259E-02
         0.17412E-02
         0.40480E-03
         0.39745E-03
        -0.77011E-03
        -0.86822E-03
         0.45223E-03
        -0.18359E-02
        -0.18421E-02
        -0.27232E-02
        -0.27973E-02
        -0.25396E-02
        -0.19373E-02
        -0.99075E-03
        -0.14450E-02
        -0.31173E-03
        -0.10999E-02
        -0.18835E-02
        -0.18687E-02
        -0.16421E-03
        -0.95285E-03
         0.77535E-03
         0.17202E-02
         0.32115E-02
         0.28041E-02
         0.23037E-02
        -0.40338E-03
        -0.12093E-02
        -0.19440E-02
        -0.25023E-02
        -0.26353E-02
        -0.27609E-02
        -0.21151E-02
        -0.16096E-02
        -0.11962E-02
        -0.59340E-03
         0.20099E-03
         0.10524E-02
         0.18422E-02
         0.24569E-02
         0.26036E-02
         0.37964E-02
         0.39100E-02
         0.34621E-02
         0.29267E-02
         0.22211E-02
         0.13865E-02
         0.47130E-03
        -0.47130E-03
        -0.13865E-02
        -0.22211E-02
        -0.29267E-02
        -0.34621E-02
        -0.37964E-02
        -0.39100E-02
        -0.37964E-02
        -0.34621E-02
        -0.29267E-02
        -0.22211E-02
        -0.13865E-02
        -0.47130E-03
         0.47130E-03
         0.13865E-02
         0.22211E-02
         0.29267E-02
         0.34621E-02
         0.37964E-02
         0.10354E-02
         0.17414E-02
         0.23151E-02
         0.16653E-02
         0.30372E-02
         0.27863E-02
         0.12829E-02
         0.64624E-03
         0.12206E-03
        -0.13211E-03
         0.93804E-03
         0.11255E-02
         0.17408E-02
         0.40474E-03
         0.39744E-03
        -0.77046E-03
        -0.86832E-03
         0.45179E-03
        -0.18362E-02
        -0.18420E-02
        -0.27232E-02
        -0.27970E-02
        -0.25397E-02
        -0.19377E-02
        -0.99061E-03
        -0.14453E-02
        -0.31153E-03
        -0.10995E-02
        -0.18834E-02
        -0.18686E-02
        -0.16449E-03
        -0.95345E-03
         0.77469E-03
         0.17202E-02
         0.32119E-02
         0.28041E-02
         0.23036E-02
        -0.40324E-03
        -0.12093E-02
        -0.19440E-02
        -0.25022E-02
        -0.26352E-02
        -0.27606E-02
        -0.21152E-02
        -0.16096E-02
        -0.11963E-02
        -0.59375E-03
         0.20059E-03
         0.10521E-02
         0.18422E-02
         0.24570E-02
         0.26037E-02
         0.37964E-02
         0.39100E-02
         0.34621E-02
         0.29267E-02
         0.22211E-02
         0.13865E-02
         0.47130E-03
        -0.47130E-03
        -0.13865E-02
        -0.22211E-02
        -0.29267E-02
        -0.34621E-02
        -0.37964E-02
        -0.39100E-02
        -0.37964E-02
        -0.34621E-02
        -0.29267E-02
        -0.22211E-02
        -0.13865E-02
        -0.47130E-03
         0.47130E-03
         0.13865E-02
         0.22211E-02
         0.29267E-02
         0.34621E-02
         0.37964E-02
         0.10352E-02
         0.17413E-02
         0.23150E-02
         0.16651E-02
         0.30371E-02
         0.27866E-02
         0.12827E-02
         0.64600E-03
         0.12180E-03
        -0.13230E-03
         0.93771E-03
         0.11252E-02
         0.17404E-02
         0.40469E-03
         0.39742E-03
        -0.77081E-03
        -0.86843E-03
         0.45134E-03
        -0.18365E-02
        -0.18419E-02
        -0.27232E-02
        -0.27968E-02
        -0.25399E-02
        -0.19382E-02
        -0.99046E-03
        -0.14457E-02
        -0.31133E-03
        -0.10992E-02
        -0.18834E-02
        -0.18685E-02
        -0.16476E-03
        -0.95405E-03
         0.77402E-03
         0.17202E-02
         0.32122E-02
         0.28041E-02
         0.23034E-02
        -0.40310E-03
        -0.12093E-02
        -0.19440E-02
        -0.25022E-02
        -0.26351E-02
        -0.27602E-02
        -0.21154E-02
        -0.16097E-02
        -0.11964E-02
        -0.59409E-03
         0.20018E-03
         0.10518E-02
         0.18422E-02
         0.24571E-02
         0.26038E-02
         0.37964E-02
         0.39100E-02
         0.34621E-02
         0.29267E-02
         0.22211E-02
         0.13865E-02
         0.47130E-03
        -0.47130E-03
        -0.13865E-02
        -0.22211E-02
        -0.29267E-02
        -0.34621E-02
        -0.37964E-02
        -0.39100E-02
        -0.37964E-02
        -0.34621E-02
        -0.29267E-02
        -0.22211E-02
        -0.13865E-02
        -0.47130E-03
         0.47130E-03
         0.13865E-02
         0.22211E-02
         0.29267E-02
         0.34621E-02
         0.37964E-02
         0.10351E-02
         0.17411E-02
         0.23149E-02
         0.16649E-02
         0.30371E-02
         0.27870E-02
         0.12826E-02
         0.64575E-03
         0.12154E-03
        -0.13248E-03
         0.93738E-03
         0.11249E-02
         0.17400E-02
         0.40463E-03
         0.39740E-03
        -0.77117E-03
        -0.86854E-03
         0.45089E-03
        -0.18368E-02
        -0.18418E-02
        -0.27232E-02
        -0.27965E-02
        -0.25400E-02
        -0.19386E-02
        -0.99032E-03
        -0.14460E-02
        -0.31113E-03
        -0.10988E-02
        -0.18833E-02
        -0.18683E-02
        -0.16504E-03
        -0.95465E-03
         0.77336E-03
         0.17201E-02
         0.32125E-02
         0.28041E-02
         0.23033E-02
        -0.40296E-03
        -0.12093E-02
        -0.19439E-02
        -0.25022E-02
        -0.26350E-02
        -0.27599E-02
        -0.21155E-02
        -0.16097E-02
        -0.11965E-02
        -0.59444E-03
         0.19977E-03
         0.10515E-02
         0.18423E-02
         0.24573E-02
         0.26039E-02
         0.37964E-02
         0.39100E-02
         0.34621E-02
         0.29267E-02
         0.22211E-02
         0.13865E-02
         0.47130E-03
        -0.47130E-03
        -0.13865E-02
        -0.22211E-02
        -0.29267E-02
        -0.34621E-02
        -0.37964E-02
        -0.39100E-02
        -0.37964E-02
        -0.34621E-02
        -0.29267E-02
        -0.22211E-02
        -0.13865E-02
        -0.47130E-03
         0.47130E-03
         0.13865E-02
         0.22211E-02
         0.29267E-02
         0.34621E-02
         0.37964E-02
  
SCALARS           initial_coordinate_y  double 1
LOOKUP_TABLE default
         0.67292E-03
         0.12308E-02
         0.59151E-03
        -0.33775E-03
         0.67237E-03
         0.12301E-02
         0.59098E-03
        -0.33851E-03
         0.14882E-03
        -0.67643E-03
         0.14846E-03
        -0.67692E-03
         0.18412E-02
         0.14576E-02
         0.18410E-02
         0.14566E-02
         0.29933E-03
         0.11672E-02
         0.29819E-03
         0.11655E-02
         0.22748E-02
         0.28286E-02
         0.24238E-02
         0.22746E-02
         0.28291E-02
         0.24236E-02
         0.21685E-02
         0.29366E-02
         0.21684E-02
         0.29369E-02
        -0.10033E-02
         0.78969E-04
        -0.70318E-03
        -0.10032E-02
         0.78160E-04
        -0.70391E-03
        -0.71196E-03
         0.82749E-04
        -0.71210E-03
         0.82626E-04
        -0.77865E-03
         0.40713E-04
        -0.77882E-03
         0.40439E-04
        -0.15195E-02
        -0.13230E-02
        -0.15195E-02
        -0.13231E-02
         0.98847E-03
         0.98712E-03
        -0.17325E-02
        -0.17325E-02
         0.20220E-02
         0.20217E-02
         0.18615E-02
         0.18616E-02
         0.17175E-02
         0.90940E-03
         0.17175E-02
         0.90916E-03
        -0.19800E-02
        -0.23489E-02
        -0.19800E-02
        -0.23489E-02
        -0.17074E-02
        -0.17074E-02
        -0.14894E-02
        -0.14892E-02
         0.76036E-03
         0.12477E-02
         0.75936E-03
         0.12473E-02
         0.18665E-02
         0.18664E-02
         0.29038E-02
         0.29049E-02
         0.27207E-02
         0.27212E-02
         0.24642E-02
         0.24645E-02
         0.22359E-02
         0.16503E-02
         0.22359E-02
         0.16503E-02
         0.87493E-03
         0.87466E-03
        -0.21373E-02
        -0.21373E-02
        -0.26931E-02
        -0.26931E-02
        -0.31291E-02
        -0.30382E-02
        -0.31291E-02
        -0.30382E-02
        -0.28748E-02
        -0.28748E-02
        -0.26423E-02
        -0.26420E-02
        -0.23707E-02
        -0.23705E-02
        -0.21445E-02
        -0.15105E-02
        -0.21439E-02
        -0.15106E-02
         0.93572E-03
         0.00000E+00
         0.93572E-03
         0.00000E+00
         0.18171E-02
         0.18171E-02
         0.25928E-02
         0.25928E-02
         0.32179E-02
         0.32179E-02
         0.36559E-02
         0.36559E-02
         0.38815E-02
         0.38815E-02
         0.38815E-02
         0.38815E-02
         0.36559E-02
         0.36559E-02
         0.32179E-02
         0.32179E-02
         0.25928E-02
         0.25928E-02
         0.18171E-02
         0.18171E-02
         0.93572E-03
         0.93572E-03
         0.22152E-17
        -0.47884E-18
        -0.93572E-03
        -0.93572E-03
        -0.18171E-02
        -0.18171E-02
        -0.25928E-02
        -0.25928E-02
        -0.32179E-02
        -0.32179E-02
        -0.36559E-02
        -0.36559E-02
        -0.38815E-02
        -0.38815E-02
        -0.38815E-02
        -0.38815E-02
        -0.36559E-02
        -0.36559E-02
        -0.32179E-02
        -0.32179E-02
        -0.25928E-02
        -0.25928E-02
        -0.18171E-02
        -0.18171E-02
        -0.93572E-03
        -0.93572E-03
         0.67348E-03
         0.12314E-02
         0.59203E-03
        -0.33700E-03
         0.14918E-03
        -0.67594E-03
         0.18414E-02
         0.14586E-02
         0.30048E-03
         0.11690E-02
         0.22749E-02
         0.28282E-02
         0.24239E-02
         0.21685E-02
         0.29364E-02
        -0.10035E-02
         0.79778E-04
        -0.70245E-03
        -0.71182E-03
         0.82873E-04
        -0.77848E-03
         0.40986E-04
        -0.15194E-02
        -0.13228E-02
         0.98983E-03
        -0.17324E-02
         0.20223E-02
         0.18614E-02
         0.17175E-02
         0.90964E-03
        -0.19800E-02
        -0.23489E-02
        -0.17074E-02
        -0.14896E-02
         0.76137E-03
         0.12481E-02
         0.18665E-02
         0.29027E-02
         0.27202E-02
         0.24640E-02
         0.22359E-02
         0.16503E-02
         0.87519E-03
        -0.21373E-02
        -0.26932E-02
        -0.31291E-02
        -0.30382E-02
        -0.28748E-02
        -0.26426E-02
        -0.23709E-02
        -0.21450E-02
        -0.15104E-02
         0.93572E-03
         0.00000E+00
         0.18171E-02
         0.25928E-02
         0.32179E-02
         0.36559E-02
         0.38815E-02
         0.38815E-02
         0.36559E-02
         0.32179E-02
         0.25928E-02
         0.18171E-02
         0.93572E-03
        -0.47884E-18
        -0.93572E-03
        -0.18171E-02
        -0.25928E-02
        -0.32179E-02
        -0.36559E-02
        -0.38815E-02
        -0.38815E-02
        -0.36559E-02
        -0.32179E-02
        -0.25928E-02
        -0.18171E-02
        -0.93572E-03
         0.67403E-03
         0.12321E-02
         0.59255E-03
        -0.33624E-03
         0.14955E-03
        -0.67544E-03
         0.18415E-02
         0.14596E-02
         0.30163E-03
         0.11707E-02
         0.22750E-02
         0.28277E-02
         0.24241E-02
         0.21685E-02
         0.29361E-02
        -0.10036E-02
         0.80588E-04
        -0.70173E-03
        -0.71168E-03
         0.82996E-04
        -0.77831E-03
         0.41259E-04
        -0.15194E-02
        -0.13227E-02
         0.99119E-03
        -0.17324E-02
         0.20226E-02
         0.18613E-02
         0.17175E-02
         0.90988E-03
        -0.19801E-02
        -0.23490E-02
        -0.17074E-02
        -0.14899E-02
         0.76237E-03
         0.12485E-02
         0.18666E-02
         0.29017E-02
         0.27198E-02
         0.24638E-02
         0.22359E-02
         0.16503E-02
         0.87545E-03
        -0.21374E-02
        -0.26932E-02
        -0.31291E-02
        -0.30382E-02
        -0.28748E-02
        -0.26428E-02
        -0.23711E-02
        -0.21456E-02
        -0.15103E-02
         0.93572E-03
         0.00000E+00
         0.18171E-02
         0.25928E-02
         0.32179E-02
         0.36559E-02
         0.38815E-02
         0.38815E-02
         0.36559E-02
         0.32179E-02
         0.25928E-02
         0.18171E-02
         0.93572E-03
         0.39516E-17
        -0.93572E-03
        -0.18171E-02
        -0.25928E-02
        -0.32179E-02
        -0.36559E-02
        -0.38815E-02
        -0.38815E-02
        -0.36559E-02
        -0.32179E-02
        -0.25928E-02
        -0.18171E-02
        -0.93572E-03
         0.67459E-03
         0.12328E-02
         0.59308E-03
        -0.33549E-03
         0.14991E-03
        -0.67495E-03
         0.18417E-02
         0.14606E-02
         0.30278E-03
         0.11725E-02
         0.22752E-02
         0.28273E-02
         0.24242E-02
         0.21686E-02
         0.29359E-02
        -0.10038E-02
         0.81397E-04
        -0.70100E-03
        -0.71154E-03
         0.83120E-04
        -0.77814E-03
         0.41533E-04
        -0.15193E-02
        -0.13227E-02
         0.99254E-03
        -0.17324E-02
         0.20228E-02
         0.18611E-02
         0.17175E-02
         0.91012E-03
        -0.19801E-02
        -0.23490E-02
        -0.17074E-02
        -0.14901E-02
         0.76338E-03
         0.12490E-02
         0.18666E-02
         0.29006E-02
         0.27193E-02
         0.24636E-02
         0.22359E-02
         0.16503E-02
         0.87571E-03
        -0.21374E-02
        -0.26932E-02
        -0.31291E-02
        -0.30382E-02
        -0.28748E-02
        -0.26431E-02
        -0.23713E-02
        -0.21461E-02
        -0.15102E-02
         0.93572E-03
         0.00000E+00
         0.18171E-02
         0.25928E-02
         0.32179E-02
         0.36559E-02
         0.38815E-02
         0.38815E-02
         0.36559E-02
         0.32179E-02
         0.25928E-02
         0.18171E-02
         0.93572E-03
        -0.47884E-18
        -0.93572E-03
        -0.18171E-02
        -0.25928E-02
        -0.32179E-02
        -0.36559E-02
        -0.38815E-02
        -0.38815E-02
        -0.36559E-02
        -0.32179E-02
        -0.25928E-02
        -0.18171E-02
        -0.93572E-03
         0.67514E-03
         0.12334E-02
         0.59360E-03
        -0.33474E-03
         0.15027E-03
        -0.67446E-03
         0.18419E-02
         0.14616E-02
         0.30393E-03
         0.11742E-02
         0.22753E-02
         0.28269E-02
         0.24244E-02
         0.21686E-02
         0.29356E-02
        -0.10039E-02
         0.82206E-04
        -0.70028E-03
        -0.71140E-03
         0.83243E-04
        -0.77797E-03
         0.41806E-04
        -0.15193E-02
        -0.13226E-02
         0.99390E-03
        -0.17323E-02
         0.20231E-02
         0.18610E-02
         0.17175E-02
         0.91036E-03
        -0.19801E-02
        -0.23490E-02
        -0.17074E-02
        -0.14904E-02
         0.76439E-03
         0.12494E-02
         0.18666E-02
         0.28995E-02
         0.27188E-02
         0.24633E-02
         0.22359E-02
         0.16503E-02
         0.87597E-03
        -0.21374E-02
        -0.26932E-02
        -0.31291E-02
        -0.30382E-02
        -0.28748E-02
        -0.26434E-02
        -0.23715E-02
        -0.21467E-02
        -0.15101E-02
         0.93572E-03
         0.00000E+00
         0.18171E-02
         0.25928E-02
         0.32179E-02
         0.36559E-02
         0.38815E-02
         0.38815E-02
         0.36559E-02
         0.32179E-02
         0.25928E-02
         0.18171E-02
         0.93572E-03
        -0.47884E-18
        -0.93572E-03
        -0.18171E-02
        -0.25928E-02
        -0.32179E-02
        -0.36559E-02
        -0.38815E-02
        -0.38815E-02
        -0.36559E-02
        -0.32179E-02
        -0.25928E-02
        -0.18171E-02
        -0.93572E-03
         0.67570E-03
         0.12341E-02
         0.59412E-03
        -0.33398E-03
         0.15064E-03
        -0.67396E-03
         0.18421E-02
         0.14626E-02
         0.30507E-03
         0.11760E-02
         0.22754E-02
         0.28264E-02
         0.24245E-02
         0.21686E-02
         0.29353E-02
        -0.10040E-02
         0.83015E-04
        -0.69955E-03
        -0.71126E-03
         0.83367E-04
        -0.77780E-03
         0.42080E-04
        -0.15192E-02
        -0.13224E-02
         0.99526E-03
        -0.17323E-02
         0.20234E-02
         0.18609E-02
         0.17175E-02
         0.91060E-03
        -0.19801E-02
        -0.23490E-02
        -0.17074E-02
        -0.14906E-02
         0.76539E-03
         0.12498E-02
         0.18667E-02
         0.28984E-02
         0.27184E-02
         0.24631E-02
         0.22359E-02
         0.16503E-02
         0.87623E-03
        -0.21374E-02
        -0.26932E-02
        -0.31291E-02
        -0.30382E-02
        -0.28748E-02
        -0.26436E-02
        -0.23717E-02
        -0.21472E-02
        -0.15100E-02
         0.93572E-03
         0.00000E+00
         0.18171E-02
         0.25928E-02
         0.32179E-02
         0.36559E-02
         0.38815E-02
         0.38815E-02
         0.36559E-02
         0.32179E-02
         0.25928E-02
         0.18171E-02
         0.93572E-03
        -0.47884E-18
        -0.93572E-03
        -0.18171E-02
        -0.25928E-02
        -0.32179E-02
        -0.36559E-02
        -0.38815E-02
        -0.38815E-02
        -0.36559E-02
        -0.32179E-02
        -0.25928E-02
        -0.18171E-02
        -0.93572E-03
         0.67625E-03
         0.12348E-02
         0.59465E-03
        -0.33323E-03
         0.15100E-03
        -0.67347E-03
         0.18423E-02
         0.14636E-02
         0.30622E-03
         0.11777E-02
         0.22755E-02
         0.28260E-02
         0.24247E-02
         0.21687E-02
         0.29351E-02
        -0.10042E-02
         0.83825E-04
        -0.69882E-03
        -0.71112E-03
         0.83490E-04
        -0.77763E-03
         0.42353E-04
        -0.15192E-02
        -0.13223E-02
         0.99661E-03
        -0.17322E-02
         0.20237E-02
         0.18607E-02
         0.17175E-02
         0.91084E-03
        -0.19801E-02
        -0.23491E-02
        -0.17074E-02
        -0.14909E-02
         0.76640E-03
         0.12503E-02
         0.18667E-02
         0.28974E-02
         0.27179E-02
         0.24629E-02
         0.22359E-02
         0.16503E-02
         0.87650E-03
        -0.21374E-02
        -0.26933E-02
        -0.31291E-02
        -0.30382E-02
        -0.28749E-02
        -0.26439E-02
        -0.23719E-02
        -0.21478E-02
        -0.15099E-02
         0.93572E-03
         0.00000E+00
         0.18171E-02
         0.25928E-02
         0.32179E-02
         0.36559E-02
         0.38815E-02
         0.38815E-02
         0.36559E-02
         0.32179E-02
         0.25928E-02
         0.18171E-02
         0.93572E-03
        -0.47884E-18
        -0.93572E-03
        -0.18171E-02
        -0.25928E-02
        -0.32179E-02
        -0.36559E-02
        -0.38815E-02
        -0.38815E-02
        -0.36559E-02
        -0.32179E-02
        -0.25928E-02
        -0.18171E-02
        -0.93572E-03
         0.67680E-03
         0.12354E-02
         0.59517E-03
        -0.33247E-03
         0.15136E-03
        -0.67298E-03
         0.18425E-02
         0.14646E-02
         0.30737E-03
         0.11795E-02
         0.22757E-02
         0.28255E-02
         0.24248E-02
         0.21687E-02
         0.29348E-02
        -0.10043E-02
         0.84634E-04
        -0.69810E-03
        -0.71098E-03
         0.83614E-04
        -0.77746E-03
         0.42626E-04
        -0.15191E-02
        -0.13223E-02
         0.99797E-03
        -0.17322E-02
         0.20240E-02
         0.18606E-02
         0.17175E-02
         0.91108E-03
        -0.19802E-02
        -0.23491E-02
        -0.17074E-02
        -0.14911E-02
         0.76740E-03
         0.12507E-02
         0.18668E-02
         0.28963E-02
         0.27174E-02
         0.24627E-02
         0.22358E-02
         0.16503E-02
         0.87676E-03
        -0.21374E-02
        -0.26933E-02
        -0.31291E-02
        -0.30382E-02
        -0.28749E-02
        -0.26442E-02
        -0.23721E-02
        -0.21483E-02
        -0.15097E-02
         0.93572E-03
         0.00000E+00
         0.18171E-02
         0.25928E-02
         0.32179E-02
         0.36559E-02
         0.38815E-02
         0.38815E-02
         0.36559E-02
         0.32179E-02
         0.25928E-02
         0.18171E-02
         0.93572E-03
        -0.47884E-18
        -0.93572E-03
        -0.18171E-02
        -0.25928E-02
        -0.32179E-02
        -0.36559E-02
        -0.38815E-02
        -0.38815E-02
        -0.36559E-02
        -0.32179E-02
        -0.25928E-02
        -0.18171E-02
        -0.93572E-03
         0.67736E-03
         0.12361E-02
         0.59570E-03
        -0.33172E-03
         0.15173E-03
        -0.67248E-03
         0.18427E-02
         0.14656E-02
         0.30852E-03
         0.11812E-02
         0.22758E-02
         0.28251E-02
         0.24249E-02
         0.21688E-02
         0.29345E-02
        -0.10044E-02
         0.85443E-04
        -0.69737E-03
        -0.71084E-03
         0.83737E-04
        -0.77729E-03
         0.42899E-04
        -0.15191E-02
        -0.13222E-02
         0.99932E-03
        -0.17322E-02
         0.20243E-02
         0.18605E-02
         0.17175E-02
         0.91132E-03
        -0.19802E-02
        -0.23491E-02
        -0.17074E-02
        -0.14914E-02
         0.76841E-03
         0.12511E-02
         0.18668E-02
         0.28952E-02
         0.27170E-02
         0.24624E-02
         0.22358E-02
         0.16503E-02
         0.87702E-03
        -0.21374E-02
        -0.26933E-02
        -0.31291E-02
        -0.30382E-02
        -0.28749E-02
        -0.26444E-02
        -0.23723E-02
        -0.21489E-02
        -0.15096E-02
         0.93572E-03
         0.00000E+00
         0.18171E-02
         0.25928E-02
         0.32179E-02
         0.36559E-02
         0.38815E-02
         0.38815E-02
         0.36559E-02
         0.32179E-02
         0.25928E-02
         0.18171E-02
         0.93572E-03
        -0.47884E-18
        -0.93572E-03
        -0.18171E-02
        -0.25928E-02
        -0.32179E-02
        -0.36559E-02
        -0.38815E-02
        -0.38815E-02
        -0.36559E-02
        -0.32179E-02
        -0.25928E-02
        -0.18171E-02
        -0.93572E-03
         0.67791E-03
         0.12368E-02
         0.59622E-03
        -0.33096E-03
         0.15209E-03
        -0.67199E-03
         0.18429E-02
         0.14666E-02
         0.30967E-03
         0.11830E-02
         0.22759E-02
         0.28247E-02
         0.24251E-02
         0.21688E-02
         0.29343E-02
        -0.10046E-02
         0.86253E-04
        -0.69665E-03
        -0.71070E-03
         0.83861E-04
        -0.77712E-03
         0.43173E-04
        -0.15190E-02
        -0.13220E-02
         0.10007E-02
        -0.17321E-02
         0.20245E-02
         0.18603E-02
         0.17175E-02
         0.91156E-03
        -0.19802E-02
        -0.23491E-02
        -0.17074E-02
        -0.14916E-02
         0.76941E-03
         0.12515E-02
         0.18668E-02
         0.28942E-02
         0.27165E-02
         0.24622E-02
         0.22358E-02
         0.16503E-02
         0.87728E-03
        -0.21374E-02
        -0.26933E-02
        -0.31291E-02
        -0.30382E-02
        -0.28749E-02
        -0.26447E-02
        -0.23725E-02
        -0.21494E-02
        -0.15095E-02
         0.93572E-03
         0.00000E+00
         0.18171E-02
         0.25928E-02
         0.32179E-02
         0.36559E-02
         0.38815E-02
         0.38815E-02
         0.36559E-02
         0.32179E-02
         0.25928E-02
         0.18171E-02
         0.93572E-03
        -0.47884E-18
        -0.93572E-03
        -0.18171E-02
        -0.25928E-02
        -0.32179E-02
        -0.36559E-02
        -0.38815E-02
        -0.38815E-02
        -0.36559E-02
        -0.32179E-02
        -0.25928E-02
        -0.18171E-02
        -0.93572E-03
         0.67847E-03
         0.12374E-02
         0.59674E-03
        -0.33021E-03
         0.15245E-03
        -0.67150E-03
         0.18430E-02
         0.14676E-02
         0.31081E-03
         0.11847E-02
         0.22761E-02
         0.28242E-02
         0.24252E-02
         0.21688E-02
         0.29340E-02
        -0.10047E-02
         0.87062E-04
        -0.69592E-03
        -0.71056E-03
         0.83985E-04
        -0.77695E-03
         0.43446E-04
        -0.15190E-02
        -0.13219E-02
         0.10020E-02
        -0.17321E-02
         0.20248E-02
         0.18602E-02
         0.17175E-02
         0.91180E-03
        -0.19803E-02
        -0.23491E-02
        -0.17073E-02
        -0.14919E-02
         0.77042E-03
         0.12520E-02
         0.18669E-02
         0.28931E-02
         0.27160E-02
         0.24620E-02
         0.22358E-02
         0.16503E-02
         0.87754E-03
        -0.21374E-02
        -0.26933E-02
        -0.31291E-02
        -0.30382E-02
        -0.28749E-02
        -0.26450E-02
        -0.23727E-02
        -0.21500E-02
        -0.15094E-02
         0.93572E-03
         0.00000E+00
         0.18171E-02
         0.25928E-02
         0.32179E-02
         0.36559E-02
         0.38815E-02
         0.38815E-02
         0.36559E-02
         0.32179E-02
         0.25928E-02
         0.18171E-02
         0.93572E-03
         0.39516E-17
        -0.93572E-03
        -0.18171E-02
        -0.25928E-02
        -0.32179E-02
        -0.36559E-02
        -0.38815E-02
        -0.38815E-02
        -0.36559E-02
        -0.32179E-02
        -0.25928E-02
        -0.18171E-02
        -0.93572E-03
         0.67902E-03
         0.12381E-02
         0.59727E-03
        -0.32945E-03
         0.15282E-03
        -0.67100E-03
         0.18432E-02
         0.14686E-02
         0.31196E-03
         0.11865E-02
         0.22762E-02
         0.28238E-02
         0.24254E-02
         0.21688E-02
         0.29337E-02
        -0.10049E-02
         0.87871E-04
        -0.69519E-03
        -0.71042E-03
         0.84108E-04
        -0.77678E-03
         0.43720E-04
        -0.15189E-02
        -0.13219E-02
         0.10034E-02
        -0.17320E-02
         0.20251E-02
         0.18601E-02
         0.17175E-02
         0.91204E-03
        -0.19803E-02
        -0.23492E-02
        -0.17073E-02
        -0.14921E-02
         0.77142E-03
         0.12524E-02
         0.18669E-02
         0.28920E-02
         0.27155E-02
         0.24618E-02
         0.22358E-02
         0.16503E-02
         0.87781E-03
        -0.21374E-02
        -0.26934E-02
        -0.31291E-02
        -0.30382E-02
        -0.28749E-02
        -0.26452E-02
        -0.23729E-02
        -0.21505E-02
        -0.15093E-02
         0.93572E-03
         0.00000E+00
         0.18171E-02
         0.25928E-02
         0.32179E-02
         0.36559E-02
         0.38815E-02
         0.38815E-02
         0.36559E-02
         0.32179E-02
         0.25928E-02
         0.18171E-02
         0.93572E-03
        -0.47884E-18
        -0.93572E-03
        -0.18171E-02
        -0.25928E-02
        -0.32179E-02
        -0.36559E-02
        -0.38815E-02
        -0.38815E-02
        -0.36559E-02
        -0.32179E-02
        -0.25928E-02
        -0.18171E-02
        -0.93572E-03
         0.67958E-03
         0.12387E-02
         0.59779E-03
        -0.32870E-03
         0.15318E-03
        -0.67051E-03
         0.18434E-02
         0.14696E-02
         0.31311E-03
         0.11882E-02
         0.22763E-02
         0.28233E-02
         0.24255E-02
         0.21689E-02
         0.29335E-02
        -0.10050E-02
         0.88681E-04
        -0.69447E-03
        -0.71028E-03
         0.84232E-04
        -0.77661E-03
         0.43993E-04
        -0.15189E-02
        -0.13218E-02
         0.10048E-02
        -0.17320E-02
         0.20254E-02
         0.18599E-02
         0.17175E-02
         0.91228E-03
        -0.19803E-02
        -0.23492E-02
        -0.17073E-02
        -0.14923E-02
         0.77243E-03
         0.12528E-02
         0.18670E-02
         0.28910E-02
         0.27151E-02
         0.24615E-02
         0.22358E-02
         0.16503E-02
         0.87807E-03
        -0.21374E-02
        -0.26934E-02
        -0.31291E-02
        -0.30382E-02
        -0.28749E-02
        -0.26455E-02
        -0.23732E-02
        -0.21511E-02
        -0.15092E-02
         0.93572E-03
         0.00000E+00
         0.18171E-02
         0.25928E-02
         0.32179E-02
         0.36559E-02
         0.38815E-02
         0.38815E-02
         0.36559E-02
         0.32179E-02
         0.25928E-02
         0.18171E-02
         0.93572E-03
         0.22152E-17
        -0.93572E-03
        -0.18171E-02
        -0.25928E-02
        -0.32179E-02
        -0.36559E-02
        -0.38815E-02
        -0.38815E-02
        -0.36559E-02
        -0.32179E-02
        -0.25928E-02
        -0.18171E-02
        -0.93572E-03
         0.68013E-03
         0.12394E-02
         0.59831E-03
        -0.32794E-03
         0.15354E-03
        -0.67002E-03
         0.18436E-02
         0.14706E-02
         0.31426E-03
         0.11900E-02
         0.22765E-02
         0.28229E-02
         0.24257E-02
         0.21689E-02
         0.29332E-02
        -0.10051E-02
         0.89490E-04
        -0.69374E-03
        -0.71013E-03
         0.84355E-04
        -0.77644E-03
         0.44266E-04
        -0.15188E-02
        -0.13216E-02
         0.10061E-02
        -0.17320E-02
         0.20257E-02
         0.18598E-02
         0.17175E-02
         0.91252E-03
        -0.19803E-02
        -0.23492E-02
        -0.17073E-02
        -0.14926E-02
         0.77343E-03
         0.12533E-02
         0.18670E-02
         0.28899E-02
         0.27146E-02
         0.24613E-02
         0.22358E-02
         0.16503E-02
         0.87833E-03
        -0.21374E-02
        -0.26934E-02
        -0.31291E-02
        -0.30382E-02
        -0.28750E-02
        -0.26458E-02
        -0.23734E-02
        -0.21516E-02
        -0.15091E-02
         0.93572E-03
         0.00000E+00
         0.18171E-02
         0.25928E-02
         0.32179E-02
         0.36559E-02
         0.38815E-02
         0.38815E-02
         0.36559E-02
         0.32179E-02
         0.25928E-02
         0.18171E-02
         0.93572E-03
        -0.47884E-18
        -0.93572E-03
        -0.18171E-02
        -0.25928E-02
        -0.32179E-02
        -0.36559E-02
        -0.38815E-02
        -0.38815E-02
        -0.36559E-02
        -0.32179E-02
        -0.25928E-02
        -0.18171E-02
        -0.93572E-03
         0.68068E-03
         0.12401E-02
         0.59884E-03
        -0.32719E-03
         0.15391E-03
        -0.66953E-03
         0.18438E-02
         0.14716E-02
         0.31541E-03
         0.11917E-02
         0.22766E-02
         0.28225E-02
         0.24258E-02
         0.21690E-02
         0.29330E-02
        -0.10053E-02
         0.90299E-04
        -0.69302E-03
        -0.70999E-03
         0.84479E-04
        -0.77627E-03
         0.44540E-04
        -0.15188E-02
        -0.13215E-02
         0.10075E-02
        -0.17319E-02
         0.20260E-02
         0.18597E-02
         0.17175E-02
         0.91276E-03
        -0.19804E-02
        -0.23493E-02
        -0.17073E-02
        -0.14928E-02
         0.77444E-03
         0.12537E-02
         0.18670E-02
         0.28888E-02
         0.27141E-02
         0.24611E-02
         0.22358E-02
         0.16503E-02
         0.87859E-03
        -0.21374E-02
        -0.26934E-02
        -0.31291E-02
        -0.30382E-02
        -0.28750E-02
        -0.26460E-02
        -0.23736E-02
        -0.21521E-02
        -0.15090E-02
         0.93572E-03
         0.00000E+00
         0.18171E-02
         0.25928E-02
         0.32179E-02
         0.36559E-02
         0.38815E-02
         0.38815E-02
         0.36559E-02
         0.32179E-02
         0.25928E-02
         0.18171E-02
         0.93572E-03
         0.22152E-17
        -0.93572E-03
        -0.18171E-02
        -0.25928E-02
        -0.32179E-02
        -0.36559E-02
        -0.38815E-02
        -0.38815E-02
        -0.36559E-02
        -0.32179E-02
        -0.25928E-02
        -0.18171E-02
        -0.93572E-03
         0.68124E-03
         0.12407E-02
         0.59936E-03
        -0.32643E-03
         0.15427E-03
        -0.66903E-03
         0.18440E-02
         0.14727E-02
         0.31656E-03
         0.11935E-02
         0.22767E-02
         0.28220E-02
         0.24260E-02
         0.21690E-02
         0.29327E-02
        -0.10054E-02
         0.91108E-04
        -0.69229E-03
        -0.70985E-03
         0.84602E-04
        -0.77610E-03
         0.44813E-04
        -0.15187E-02
        -0.13215E-02
         0.10088E-02
        -0.17319E-02
         0.20262E-02
         0.18595E-02
         0.17175E-02
         0.91300E-03
        -0.19804E-02
        -0.23493E-02
        -0.17073E-02
        -0.14931E-02
         0.77544E-03
         0.12541E-02
         0.18671E-02
         0.28877E-02
         0.27137E-02
         0.24609E-02
         0.22358E-02
         0.16503E-02
         0.87885E-03
        -0.21374E-02
        -0.26934E-02
        -0.31291E-02
        -0.30382E-02
        -0.28750E-02
        -0.26463E-02
        -0.23738E-02
        -0.21527E-02
        -0.15088E-02
         0.93572E-03
         0.00000E+00
         0.18171E-02
         0.25928E-02
         0.32179E-02
         0.36559E-02
         0.38815E-02
         0.38815E-02
         0.36559E-02
         0.32179E-02
         0.25928E-02
         0.18171E-02
         0.93572E-03
        -0.47884E-18
        -0.93572E-03
        -0.18171E-02
        -0.25928E-02
        -0.32179E-02
        -0.36559E-02
        -0.38815E-02
        -0.38815E-02
        -0.36559E-02
        -0.32179E-02
        -0.25928E-02
        -0.18171E-02
        -0.93572E-03
         0.68179E-03
         0.12414E-02
         0.59988E-03
        -0.32568E-03
         0.15463E-03
        -0.66854E-03
         0.18442E-02
         0.14736E-02
         0.31770E-03
         0.11952E-02
         0.22768E-02
         0.28216E-02
         0.24261E-02
         0.21690E-02
         0.29324E-02
        -0.10056E-02
         0.91918E-04
        -0.69156E-03
        -0.70971E-03
         0.84726E-04
        -0.77593E-03
         0.45086E-04
        -0.15187E-02
        -0.13213E-02
         0.10102E-02
        -0.17318E-02
         0.20265E-02
         0.18594E-02
         0.17175E-02
         0.91324E-03
        -0.19804E-02
        -0.23493E-02
        -0.17073E-02
        -0.14933E-02
         0.77645E-03
         0.12545E-02
         0.18671E-02
         0.28867E-02
         0.27132E-02
         0.24606E-02
         0.22358E-02
         0.16503E-02
         0.87912E-03
        -0.21374E-02
        -0.26935E-02
        -0.31291E-02
        -0.30381E-02
        -0.28750E-02
        -0.26466E-02
        -0.23740E-02
        -0.21533E-02
        -0.15087E-02
         0.93572E-03
         0.00000E+00
         0.18171E-02
         0.25928E-02
         0.32179E-02
         0.36559E-02
         0.38815E-02
         0.38815E-02
         0.36559E-02
         0.32179E-02
         0.25928E-02
         0.18171E-02
         0.93572E-03
        -0.47884E-18
        -0.93572E-03
        -0.18171E-02
        -0.25928E-02
        -0.32179E-02
        -0.36559E-02
        -0.38815E-02
        -0.38815E-02
        -0.36559E-02
        -0.32179E-02
        -0.25928E-02
        -0.18171E-02
        -0.93572E-03
         0.68235E-03
         0.12421E-02
         0.60041E-03
        -0.32493E-03
         0.15500E-03
        -0.66805E-03
         0.18444E-02
         0.14747E-02
         0.31885E-03
         0.11970E-02
         0.22770E-02
         0.28211E-02
         0.24262E-02
         0.21691E-02
         0.29322E-02
        -0.10057E-02
         0.92727E-04
        -0.69084E-03
        -0.70957E-03
         0.84849E-04
        -0.77576E-03
         0.45359E-04
        -0.15186E-02
        -0.13212E-02
         0.10115E-02
        -0.17318E-02
         0.20268E-02
         0.18593E-02
         0.17175E-02
         0.91347E-03
        -0.19804E-02
        -0.23493E-02
        -0.17073E-02
        -0.14936E-02
         0.77745E-03
         0.12550E-02
         0.18671E-02
         0.28856E-02
         0.27127E-02
         0.24604E-02
         0.22358E-02
         0.16503E-02
         0.87938E-03
        -0.21374E-02
        -0.26935E-02
        -0.31291E-02
        -0.30381E-02
        -0.28750E-02
        -0.26468E-02
        -0.23742E-02
        -0.21538E-02
        -0.15086E-02
         0.93572E-03
         0.00000E+00
         0.18171E-02
         0.25928E-02
         0.32179E-02
         0.36559E-02
         0.38815E-02
         0.38815E-02
         0.36559E-02
         0.32179E-02
         0.25928E-02
         0.18171E-02
         0.93572E-03
        -0.47884E-18
        -0.93572E-03
        -0.18171E-02
        -0.25928E-02
        -0.32179E-02
        -0.36559E-02
        -0.38815E-02
        -0.38815E-02
        -0.36559E-02
        -0.32179E-02
        -0.25928E-02
        -0.18171E-02
        -0.93572E-03
         0.68290E-03
         0.12427E-02
         0.60093E-03
        -0.32417E-03
         0.15536E-03
        -0.66755E-03
         0.18445E-02
         0.14757E-02
         0.32000E-03
         0.11987E-02
         0.22771E-02
         0.28207E-02
         0.24264E-02
         0.21691E-02
         0.29319E-02
        -0.10058E-02
         0.93536E-04
        -0.69011E-03
        -0.70943E-03
         0.84973E-04
        -0.77559E-03
         0.45633E-04
        -0.15186E-02
        -0.13212E-02
         0.10129E-02
        -0.17318E-02
         0.20271E-02
         0.18592E-02
         0.17175E-02
         0.91371E-03
        -0.19805E-02
        -0.23493E-02
        -0.17073E-02
        -0.14938E-02
         0.77846E-03
         0.12554E-02
         0.18672E-02
         0.28845E-02
         0.27122E-02
         0.24602E-02
         0.22358E-02
         0.16502E-02
         0.87964E-03
        -0.21374E-02
        -0.26935E-02
        -0.31291E-02
        -0.30381E-02
        -0.28750E-02
        -0.26471E-02
        -0.23744E-02
        -0.21543E-02
        -0.15085E-02
         0.93572E-03
         0.00000E+00
         0.18171E-02
         0.25928E-02
         0.32179E-02
         0.36559E-02
         0.38815E-02
         0.38815E-02
         0.36559E-02
         0.32179E-02
         0.25928E-02
         0.18171E-02
         0.93572E-03
        -0.47884E-18
        -0.93572E-03
        -0.18171E-02
        -0.25928E-02
        -0.32179E-02
        -0.36559E-02
        -0.38815E-02
        -0.38815E-02
        -0.36559E-02
        -0.32179E-02
        -0.25928E-02
        -0.18171E-02
        -0.93572E-03
         0.68346E-03
         0.12434E-02
         0.60145E-03
        -0.32342E-03
         0.15572E-03
        -0.66706E-03
         0.18447E-02
         0.14767E-02
         0.32115E-03
         0.12005E-02
         0.22772E-02
         0.28203E-02
         0.24265E-02
         0.21691E-02
         0.29316E-02
        -0.10060E-02
         0.94345E-04
        -0.68939E-03
        -0.70929E-03
         0.85096E-04
        -0.77542E-03
         0.45906E-04
        -0.15185E-02
        -0.13211E-02
         0.10142E-02
        -0.17317E-02
         0.20274E-02
         0.18590E-02
         0.17175E-02
         0.91395E-03
        -0.19805E-02
        -0.23494E-02
        -0.17073E-02
        -0.14941E-02
         0.77946E-03
         0.12558E-02
         0.18672E-02
         0.28835E-02
         0.27118E-02
         0.24600E-02
         0.22358E-02
         0.16502E-02
         0.87990E-03
        -0.21374E-02
        -0.26935E-02
        -0.31291E-02
        -0.30381E-02
        -0.28750E-02
        -0.26474E-02
        -0.23746E-02
        -0.21549E-02
        -0.15084E-02
         0.93572E-03
         0.00000E+00
         0.18171E-02
         0.25928E-02
         0.32179E-02
         0.36559E-02
         0.38815E-02
         0.38815E-02
         0.36559E-02
         0.32179E-02
         0.25928E-02
         0.18171E-02
         0.93572E-03
         0.22152E-17
        -0.93572E-03
        -0.18171E-02
        -0.25928E-02
        -0.32179E-02
        -0.36559E-02
        -0.38815E-02
        -0.38815E-02
        -0.36559E-02
        -0.32179E-02
        -0.25928E-02
        -0.18171E-02
        -0.93572E-03
         0.68401E-03
         0.12440E-02
         0.60198E-03
        -0.32266E-03
         0.15609E-03
        -0.66657E-03
         0.18449E-02
         0.14777E-02
         0.32230E-03
         0.12022E-02
         0.22774E-02
         0.28198E-02
         0.24267E-02
         0.21692E-02
         0.29314E-02
        -0.10061E-02
         0.95155E-04
        -0.68866E-03
        -0.70915E-03
         0.85220E-04
        -0.77525E-03
         0.46180E-04
        -0.15185E-02
        -0.13210E-02
         0.10156E-02
        -0.17317E-02
         0.20277E-02
         0.18589E-02
         0.17175E-02
         0.91419E-03
        -0.19805E-02
        -0.23494E-02
        -0.17073E-02
        -0.14943E-02
         0.78047E-03
         0.12563E-02
         0.18672E-02
         0.28824E-02
         0.27113E-02
         0.24597E-02
         0.22358E-02
         0.16502E-02
         0.88016E-03
        -0.21374E-02
        -0.26935E-02
        -0.31291E-02
        -0.30381E-02
        -0.28751E-02
        -0.26476E-02
        -0.23748E-02
        -0.21554E-02
        -0.15083E-02
         0.93572E-03
         0.00000E+00
         0.18171E-02
         0.25928E-02
         0.32179E-02
         0.36559E-02
         0.38815E-02
         0.38815E-02
         0.36559E-02
         0.32179E-02
         0.25928E-02
         0.18171E-02
         0.93572E-03
        -0.47884E-18
        -0.93572E-03
        -0.18171E-02
        -0.25928E-02
        -0.32179E-02
        -0.36559E-02
        -0.38815E-02
        -0.38815E-02
        -0.36559E-02
        -0.32179E-02
        -0.25928E-02
        -0.18171E-02
        -0.93572E-03
         0.68457E-03
         0.12447E-02
         0.60250E-03
        -0.32191E-03
         0.15645E-03
        -0.66607E-03
         0.18451E-02
         0.14787E-02
         0.32345E-03
         0.12040E-02
         0.22775E-02
         0.28194E-02
         0.24268E-02
         0.21692E-02
         0.29311E-02
        -0.10062E-02
         0.95964E-04
        -0.68793E-03
        -0.70901E-03
         0.85343E-04
        -0.77507E-03
         0.46453E-04
        -0.15184E-02
        -0.13209E-02
         0.10169E-02
        -0.17316E-02
         0.20280E-02
         0.18588E-02
         0.17175E-02
         0.91443E-03
        -0.19806E-02
        -0.23494E-02
        -0.17073E-02
        -0.14945E-02
         0.78148E-03
         0.12567E-02
         0.18673E-02
         0.28813E-02
         0.27108E-02
         0.24595E-02
         0.22358E-02
         0.16502E-02
         0.88043E-03
        -0.21374E-02
        -0.26936E-02
        -0.31291E-02
        -0.30381E-02
        -0.28751E-02
        -0.26479E-02
        -0.23750E-02
        -0.21560E-02
        -0.15082E-02
         0.93572E-03
         0.00000E+00
         0.18171E-02
         0.25928E-02
         0.32179E-02
         0.36559E-02
         0.38815E-02
         0.38815E-02
         0.36559E-02
         0.32179E-02
         0.25928E-02
         0.18171E-02
         0.93572E-03
        -0.47884E-18
        -0.93572E-03
        -0.18171E-02
        -0.25928E-02
        -0.32179E-02
        -0.36559E-02
        -0.38815E-02
        -0.38815E-02
        -0.36559E-02
        -0.32179E-02
        -0.25928E-02
        -0.18171E-02
        -0.93572E-03
         0.68512E-03
         0.12454E-02
         0.60302E-03
        -0.32115E-03
         0.15681E-03
        -0.66558E-03
         0.18453E-02
         0.14797E-02
         0.32459E-03
         0.12058E-02
         0.22776E-02
         0.28189E-02
         0.24270E-02
         0.21693E-02
         0.29308E-02
        -0.10064E-02
         0.96773E-04
        -0.68721E-03
        -0.70887E-03
         0.85467E-04
        -0.77490E-03
         0.46726E-04
        -0.15184E-02
        -0.13208E-02
         0.10183E-02
        -0.17316E-02
         0.20283E-02
         0.18586E-02
         0.17175E-02
         0.91467E-03
        -0.19806E-02
        -0.23494E-02
        -0.17073E-02
        -0.14948E-02
         0.78248E-03
         0.12571E-02
         0.18673E-02
         0.28802E-02
         0.27103E-02
         0.24593E-02
         0.22358E-02
         0.16502E-02
         0.88069E-03
        -0.21374E-02
        -0.26936E-02
        -0.31291E-02
        -0.30381E-02
        -0.28751E-02
        -0.26482E-02
        -0.23752E-02
        -0.21565E-02
        -0.15081E-02
         0.93572E-03
         0.00000E+00
         0.18171E-02
         0.25928E-02
         0.32179E-02
         0.36559E-02
         0.38815E-02
         0.38815E-02
         0.36559E-02
         0.32179E-02
         0.25928E-02
         0.18171E-02
         0.93572E-03
        -0.47884E-18
        -0.93572E-03
        -0.18171E-02
        -0.25928E-02
        -0.32179E-02
        -0.36559E-02
        -0.38815E-02
        -0.38815E-02
        -0.36559E-02
        -0.32179E-02
        -0.25928E-02
        -0.18171E-02
        -0.93572E-03
         0.68567E-03
         0.12460E-02
         0.60355E-03
        -0.32040E-03
         0.15718E-03
        -0.66509E-03
         0.18455E-02
         0.14807E-02
         0.32574E-03
         0.12075E-02
         0.22777E-02
         0.28185E-02
         0.24271E-02
         0.21693E-02
         0.29306E-02
        -0.10065E-02
         0.97583E-04
        -0.68648E-03
        -0.70873E-03
         0.85591E-04
        -0.77474E-03
         0.47000E-04
        -0.15183E-02
        -0.13207E-02
         0.10197E-02
        -0.17316E-02
         0.20285E-02
         0.18585E-02
         0.17175E-02
         0.91491E-03
        -0.19806E-02
        -0.23495E-02
        -0.17073E-02
        -0.14950E-02
         0.78348E-03
         0.12576E-02
         0.18674E-02
         0.28792E-02
         0.27099E-02
         0.24591E-02
         0.22358E-02
         0.16502E-02
         0.88095E-03
        -0.21374E-02
        -0.26936E-02
        -0.31290E-02
        -0.30381E-02
        -0.28751E-02
        -0.26484E-02
        -0.23754E-02
        -0.21571E-02
        -0.15080E-02
         0.93572E-03
         0.00000E+00
         0.18171E-02
         0.25928E-02
         0.32179E-02
         0.36559E-02
         0.38815E-02
         0.38815E-02
         0.36559E-02
         0.32179E-02
         0.25928E-02
         0.18171E-02
         0.93572E-03
         0.47884E-18
        -0.93572E-03
        -0.18171E-02
        -0.25928E-02
        -0.32179E-02
        -0.36559E-02
        -0.38815E-02
        -0.38815E-02
        -0.36559E-02
        -0.32179E-02
        -0.25928E-02
        -0.18171E-02
        -0.93572E-03
  
SCALARS           initial_coordinate_z  double 1
LOOKUP_TABLE default
        -0.10771E-01
        -0.10771E-01
        -0.10771E-01
        -0.10771E-01
        -0.11750E-01
        -0.11750E-01
        -0.11750E-01
        -0.11750E-01
        -0.10771E-01
        -0.10771E-01
        -0.11750E-01
        -0.11750E-01
        -0.10771E-01
        -0.10771E-01
        -0.11750E-01
        -0.11750E-01
        -0.10771E-01
        -0.10771E-01
        -0.11750E-01
        -0.11750E-01
        -0.10771E-01
        -0.10771E-01
        -0.10771E-01
        -0.11750E-01
        -0.11750E-01
        -0.11750E-01
        -0.10771E-01
        -0.10771E-01
        -0.11750E-01
        -0.11750E-01
        -0.10771E-01
        -0.10771E-01
        -0.10771E-01
        -0.11750E-01
        -0.11750E-01
        -0.11750E-01
        -0.10771E-01
        -0.10771E-01
        -0.11750E-01
        -0.11750E-01
        -0.10771E-01
        -0.10771E-01
        -0.11750E-01
        -0.11750E-01
        -0.10771E-01
        -0.10771E-01
        -0.11750E-01
        -0.11750E-01
        -0.10771E-01
        -0.11750E-01
        -0.10771E-01
        -0.11750E-01
        -0.10771E-01
        -0.11750E-01
        -0.10771E-01
        -0.11750E-01
        -0.10771E-01
        -0.10771E-01
        -0.11750E-01
        -0.11750E-01
        -0.10771E-01
        -0.10771E-01
        -0.11750E-01
        -0.11750E-01
        -0.10771E-01
        -0.11750E-01
        -0.10771E-01
        -0.11750E-01
        -0.10771E-01
        -0.10771E-01
        -0.11750E-01
        -0.11750E-01
        -0.10771E-01
        -0.11750E-01
        -0.10771E-01
        -0.11750E-01
        -0.10771E-01
        -0.11750E-01
        -0.10771E-01
        -0.11750E-01
        -0.10771E-01
        -0.10771E-01
        -0.11750E-01
        -0.11750E-01
        -0.10771E-01
        -0.11750E-01
        -0.10771E-01
        -0.11750E-01
        -0.10771E-01
        -0.11750E-01
        -0.10771E-01
        -0.10771E-01
        -0.11750E-01
        -0.11750E-01
        -0.10771E-01
        -0.11750E-01
        -0.10771E-01
        -0.11750E-01
        -0.10771E-01
        -0.11750E-01
        -0.10771E-01
        -0.10771E-01
        -0.11750E-01
        -0.11750E-01
        -0.10771E-01
        -0.10771E-01
        -0.11750E-01
        -0.11750E-01
        -0.10771E-01
        -0.11750E-01
        -0.10771E-01
        -0.11750E-01
        -0.10771E-01
        -0.11750E-01
        -0.10771E-01
        -0.11750E-01
        -0.10771E-01
        -0.11750E-01
        -0.10771E-01
        -0.11750E-01
        -0.10771E-01
        -0.11750E-01
        -0.10771E-01
        -0.11750E-01
        -0.10771E-01
        -0.11750E-01
        -0.10771E-01
        -0.11750E-01
        -0.10771E-01
        -0.11750E-01
        -0.10771E-01
        -0.11750E-01
        -0.10771E-01
        -0.11750E-01
        -0.10771E-01
        -0.11750E-01
        -0.10771E-01
        -0.11750E-01
        -0.10771E-01
        -0.11750E-01
        -0.10771E-01
        -0.11750E-01
        -0.10771E-01
        -0.11750E-01
        -0.10771E-01
        -0.11750E-01
        -0.10771E-01
        -0.11750E-01
        -0.10771E-01
        -0.11750E-01
        -0.10771E-01
        -0.11750E-01
        -0.10771E-01
        -0.11750E-01
        -0.10771E-01
        -0.11750E-01
        -0.97917E-02
        -0.97917E-02
        -0.97917E-02
        -0.97917E-02
        -0.97917E-02
        -0.97917E-02
        -0.97917E-02
        -0.97917E-02
        -0.97917E-02
        -0.97917E-02
        -0.97917E-02
        -0.97917E-02
        -0.97917E-02
        -0.97917E-02
        -0.97917E-02
        -0.97917E-02
        -0.97917E-02
        -0.97917E-02
        -0.97917E-02
        -0.97917E-02
        -0.97917E-02
        -0.97917E-02
        -0.97917E-02
        -0.97917E-02
        -0.97917E-02
        -0.97917E-02
        -0.97917E-02
        -0.97917E-02
        -0.97917E-02
        -0.97917E-02
        -0.97917E-02
        -0.97917E-02
        -0.97917E-02
        -0.97917E-02
        -0.97917E-02
        -0.97917E-02
        -0.97917E-02
        -0.97917E-02
        -0.97917E-02
        -0.97917E-02
        -0.97917E-02
        -0.97917E-02
        -0.97917E-02
        -0.97917E-02
        -0.97917E-02
        -0.97917E-02
        -0.97917E-02
        -0.97917E-02
        -0.97917E-02
        -0.97917E-02
        -0.97917E-02
        -0.97917E-02
        -0.97917E-02
        -0.97917E-02
        -0.97917E-02
        -0.97917E-02
        -0.97917E-02
        -0.97917E-02
        -0.97917E-02
        -0.97917E-02
        -0.97917E-02
        -0.97917E-02
        -0.97917E-02
        -0.97917E-02
        -0.97917E-02
        -0.97917E-02
        -0.97917E-02
        -0.97917E-02
        -0.97917E-02
        -0.97917E-02
        -0.97917E-02
        -0.97917E-02
        -0.97917E-02
        -0.97917E-02
        -0.97917E-02
        -0.97917E-02
        -0.97917E-02
        -0.97917E-02
        -0.88125E-02
        -0.88125E-02
        -0.88125E-02
        -0.88125E-02
        -0.88125E-02
        -0.88125E-02
        -0.88125E-02
        -0.88125E-02
        -0.88125E-02
        -0.88125E-02
        -0.88125E-02
        -0.88125E-02
        -0.88125E-02
        -0.88125E-02
        -0.88125E-02
        -0.88125E-02
        -0.88125E-02
        -0.88125E-02
        -0.88125E-02
        -0.88125E-02
        -0.88125E-02
        -0.88125E-02
        -0.88125E-02
        -0.88125E-02
        -0.88125E-02
        -0.88125E-02
        -0.88125E-02
        -0.88125E-02
        -0.88125E-02
        -0.88125E-02
        -0.88125E-02
        -0.88125E-02
        -0.88125E-02
        -0.88125E-02
        -0.88125E-02
        -0.88125E-02
        -0.88125E-02
        -0.88125E-02
        -0.88125E-02
        -0.88125E-02
        -0.88125E-02
        -0.88125E-02
        -0.88125E-02
        -0.88125E-02
        -0.88125E-02
        -0.88125E-02
        -0.88125E-02
        -0.88125E-02
        -0.88125E-02
        -0.88125E-02
        -0.88125E-02
        -0.88125E-02
        -0.88125E-02
        -0.88125E-02
        -0.88125E-02
        -0.88125E-02
        -0.88125E-02
        -0.88125E-02
        -0.88125E-02
        -0.88125E-02
        -0.88125E-02
        -0.88125E-02
        -0.88125E-02
        -0.88125E-02
        -0.88125E-02
        -0.88125E-02
        -0.88125E-02
        -0.88125E-02
        -0.88125E-02
        -0.88125E-02
        -0.88125E-02
        -0.88125E-02
        -0.88125E-02
        -0.88125E-02
        -0.88125E-02
        -0.88125E-02
        -0.88125E-02
        -0.88125E-02
        -0.78333E-02
        -0.78333E-02
        -0.78333E-02
        -0.78333E-02
        -0.78333E-02
        -0.78333E-02
        -0.78333E-02
        -0.78333E-02
        -0.78333E-02
        -0.78333E-02
        -0.78333E-02
        -0.78333E-02
        -0.78333E-02
        -0.78333E-02
        -0.78333E-02
        -0.78333E-02
        -0.78333E-02
        -0.78333E-02
        -0.78333E-02
        -0.78333E-02
        -0.78333E-02
        -0.78333E-02
        -0.78333E-02
        -0.78333E-02
        -0.78333E-02
        -0.78333E-02
        -0.78333E-02
        -0.78333E-02
        -0.78333E-02
        -0.78333E-02
        -0.78333E-02
        -0.78333E-02
        -0.78333E-02
        -0.78333E-02
        -0.78333E-02
        -0.78333E-02
        -0.78333E-02
        -0.78333E-02
        -0.78333E-02
        -0.78333E-02
        -0.78333E-02
        -0.78333E-02
        -0.78333E-02
        -0.78333E-02
        -0.78333E-02
        -0.78333E-02
        -0.78333E-02
        -0.78333E-02
        -0.78333E-02
        -0.78333E-02
        -0.78333E-02
        -0.78333E-02
        -0.78333E-02
        -0.78333E-02
        -0.78333E-02
        -0.78333E-02
        -0.78333E-02
        -0.78333E-02
        -0.78333E-02
        -0.78333E-02
        -0.78333E-02
        -0.78333E-02
        -0.78333E-02
        -0.78333E-02
        -0.78333E-02
        -0.78333E-02
        -0.78333E-02
        -0.78333E-02
        -0.78333E-02
        -0.78333E-02
        -0.78333E-02
        -0.78333E-02
        -0.78333E-02
        -0.78333E-02
        -0.78333E-02
        -0.78333E-02
        -0.78333E-02
        -0.78333E-02
        -0.68542E-02
        -0.68542E-02
        -0.68542E-02
        -0.68542E-02
        -0.68542E-02
        -0.68542E-02
        -0.68542E-02
        -0.68542E-02
        -0.68542E-02
        -0.68542E-02
        -0.68542E-02
        -0.68542E-02
        -0.68542E-02
        -0.68542E-02
        -0.68542E-02
        -0.68542E-02
        -0.68542E-02
        -0.68542E-02
        -0.68542E-02
        -0.68542E-02
        -0.68542E-02
        -0.68542E-02
        -0.68542E-02
        -0.68542E-02
        -0.68542E-02
        -0.68542E-02
        -0.68542E-02
        -0.68542E-02
        -0.68542E-02
        -0.68542E-02
        -0.68542E-02
        -0.68542E-02
        -0.68542E-02
        -0.68542E-02
        -0.68542E-02
        -0.68542E-02
        -0.68542E-02
        -0.68542E-02
        -0.68542E-02
        -0.68542E-02
        -0.68542E-02
        -0.68542E-02
        -0.68542E-02
        -0.68542E-02
        -0.68542E-02
        -0.68542E-02
        -0.68542E-02
        -0.68542E-02
        -0.68542E-02
        -0.68542E-02
        -0.68542E-02
        -0.68542E-02
        -0.68542E-02
        -0.68542E-02
        -0.68542E-02
        -0.68542E-02
        -0.68542E-02
        -0.68542E-02
        -0.68542E-02
        -0.68542E-02
        -0.68542E-02
        -0.68542E-02
        -0.68542E-02
        -0.68542E-02
        -0.68542E-02
        -0.68542E-02
        -0.68542E-02
        -0.68542E-02
        -0.68542E-02
        -0.68542E-02
        -0.68542E-02
        -0.68542E-02
        -0.68542E-02
        -0.68542E-02
        -0.68542E-02
        -0.68542E-02
        -0.68542E-02
        -0.68542E-02
        -0.58750E-02
        -0.58750E-02
        -0.58750E-02
        -0.58750E-02
        -0.58750E-02
        -0.58750E-02
        -0.58750E-02
        -0.58750E-02
        -0.58750E-02
        -0.58750E-02
        -0.58750E-02
        -0.58750E-02
        -0.58750E-02
        -0.58750E-02
        -0.58750E-02
        -0.58750E-02
        -0.58750E-02
        -0.58750E-02
        -0.58750E-02
        -0.58750E-02
        -0.58750E-02
        -0.58750E-02
        -0.58750E-02
        -0.58750E-02
        -0.58750E-02
        -0.58750E-02
        -0.58750E-02
        -0.58750E-02
        -0.58750E-02
        -0.58750E-02
        -0.58750E-02
        -0.58750E-02
        -0.58750E-02
        -0.58750E-02
        -0.58750E-02
        -0.58750E-02
        -0.58750E-02
        -0.58750E-02
        -0.58750E-02
        -0.58750E-02
        -0.58750E-02
        -0.58750E-02
        -0.58750E-02
        -0.58750E-02
        -0.58750E-02
        -0.58750E-02
        -0.58750E-02
        -0.58750E-02
        -0.58750E-02
        -0.58750E-02
        -0.58750E-02
        -0.58750E-02
        -0.58750E-02
        -0.58750E-02
        -0.58750E-02
        -0.58750E-02
        -0.58750E-02
        -0.58750E-02
        -0.58750E-02
        -0.58750E-02
        -0.58750E-02
        -0.58750E-02
        -0.58750E-02
        -0.58750E-02
        -0.58750E-02
        -0.58750E-02
        -0.58750E-02
        -0.58750E-02
        -0.58750E-02
        -0.58750E-02
        -0.58750E-02
        -0.58750E-02
        -0.58750E-02
        -0.58750E-02
        -0.58750E-02
        -0.58750E-02
        -0.58750E-02
        -0.58750E-02
        -0.48958E-02
        -0.48958E-02
        -0.48958E-02
        -0.48958E-02
        -0.48958E-02
        -0.48958E-02
        -0.48958E-02
        -0.48958E-02
        -0.48958E-02
        -0.48958E-02
        -0.48958E-02
        -0.48958E-02
        -0.48958E-02
        -0.48958E-02
        -0.48958E-02
        -0.48958E-02
        -0.48958E-02
        -0.48958E-02
        -0.48958E-02
        -0.48958E-02
        -0.48958E-02
        -0.48958E-02
        -0.48958E-02
        -0.48958E-02
        -0.48958E-02
        -0.48958E-02
        -0.48958E-02
        -0.48958E-02
        -0.48958E-02
        -0.48958E-02
        -0.48958E-02
        -0.48958E-02
        -0.48958E-02
        -0.48958E-02
        -0.48958E-02
        -0.48958E-02
        -0.48958E-02
        -0.48958E-02
        -0.48958E-02
        -0.48958E-02
        -0.48958E-02
        -0.48958E-02
        -0.48958E-02
        -0.48958E-02
        -0.48958E-02
        -0.48958E-02
        -0.48958E-02
        -0.48958E-02
        -0.48958E-02
        -0.48958E-02
        -0.48958E-02
        -0.48958E-02
        -0.48958E-02
        -0.48958E-02
        -0.48958E-02
        -0.48958E-02
        -0.48958E-02
        -0.48958E-02
        -0.48958E-02
        -0.48958E-02
        -0.48958E-02
        -0.48958E-02
        -0.48958E-02
        -0.48958E-02
        -0.48958E-02
        -0.48958E-02
        -0.48958E-02
        -0.48958E-02
        -0.48958E-02
        -0.48958E-02
        -0.48958E-02
        -0.48958E-02
        -0.48958E-02
        -0.48958E-02
        -0.48958E-02
        -0.48958E-02
        -0.48958E-02
        -0.48958E-02
        -0.39167E-02
        -0.39167E-02
        -0.39167E-02
        -0.39167E-02
        -0.39167E-02
        -0.39167E-02
        -0.39167E-02
        -0.39167E-02
        -0.39167E-02
        -0.39167E-02
        -0.39167E-02
        -0.39167E-02
        -0.39167E-02
        -0.39167E-02
        -0.39167E-02
        -0.39167E-02
        -0.39167E-02
        -0.39167E-02
        -0.39167E-02
        -0.39167E-02
        -0.39167E-02
        -0.39167E-02
        -0.39167E-02
        -0.39167E-02
        -0.39167E-02
        -0.39167E-02
        -0.39167E-02
        -0.39167E-02
        -0.39167E-02
        -0.39167E-02
        -0.39167E-02
        -0.39167E-02
        -0.39167E-02
        -0.39167E-02
        -0.39167E-02
        -0.39167E-02
        -0.39167E-02
        -0.39167E-02
        -0.39167E-02
        -0.39167E-02
        -0.39167E-02
        -0.39167E-02
        -0.39167E-02
        -0.39167E-02
        -0.39167E-02
        -0.39167E-02
        -0.39167E-02
        -0.39167E-02
        -0.39167E-02
        -0.39167E-02
        -0.39167E-02
        -0.39167E-02
        -0.39167E-02
        -0.39167E-02
        -0.39167E-02
        -0.39167E-02
        -0.39167E-02
        -0.39167E-02
        -0.39167E-02
        -0.39167E-02
        -0.39167E-02
        -0.39167E-02
        -0.39167E-02
        -0.39167E-02
        -0.39167E-02
        -0.39167E-02
        -0.39167E-02
        -0.39167E-02
        -0.39167E-02
        -0.39167E-02
        -0.39167E-02
        -0.39167E-02
        -0.39167E-02
        -0.39167E-02
        -0.39167E-02
        -0.39167E-02
        -0.39167E-02
        -0.39167E-02
        -0.29375E-02
        -0.29375E-02
        -0.29375E-02
        -0.29375E-02
        -0.29375E-02
        -0.29375E-02
        -0.29375E-02
        -0.29375E-02
        -0.29375E-02
        -0.29375E-02
        -0.29375E-02
        -0.29375E-02
        -0.29375E-02
        -0.29375E-02
        -0.29375E-02
        -0.29375E-02
        -0.29375E-02
        -0.29375E-02
        -0.29375E-02
        -0.29375E-02
        -0.29375E-02
        -0.29375E-02
        -0.29375E-02
        -0.29375E-02
        -0.29375E-02
        -0.29375E-02
        -0.29375E-02
        -0.29375E-02
        -0.29375E-02
        -0.29375E-02
        -0.29375E-02
        -0.29375E-02
        -0.29375E-02
        -0.29375E-02
        -0.29375E-02
        -0.29375E-02
        -0.29375E-02
        -0.29375E-02
        -0.29375E-02
        -0.29375E-02
        -0.29375E-02
        -0.29375E-02
        -0.29375E-02
        -0.29375E-02
        -0.29375E-02
        -0.29375E-02
        -0.29375E-02
        -0.29375E-02
        -0.29375E-02
        -0.29375E-02
        -0.29375E-02
        -0.29375E-02
        -0.29375E-02
        -0.29375E-02
        -0.29375E-02
        -0.29375E-02
        -0.29375E-02
        -0.29375E-02
        -0.29375E-02
        -0.29375E-02
        -0.29375E-02
        -0.29375E-02
        -0.29375E-02
        -0.29375E-02
        -0.29375E-02
        -0.29375E-02
        -0.29375E-02
        -0.29375E-02
        -0.29375E-02
        -0.29375E-02
        -0.29375E-02
        -0.29375E-02
        -0.29375E-02
        -0.29375E-02
        -0.29375E-02
        -0.29375E-02
        -0.29375E-02
        -0.29375E-02
        -0.19583E-02
        -0.19583E-02
        -0.19583E-02
        -0.19583E-02
        -0.19583E-02
        -0.19583E-02
        -0.19583E-02
        -0.19583E-02
        -0.19583E-02
        -0.19583E-02
        -0.19583E-02
        -0.19583E-02
        -0.19583E-02
        -0.19583E-02
        -0.19583E-02
        -0.19583E-02
        -0.19583E-02
        -0.19583E-02
        -0.19583E-02
        -0.19583E-02
        -0.19583E-02
        -0.19583E-02
        -0.19583E-02
        -0.19583E-02
        -0.19583E-02
        -0.19583E-02
        -0.19583E-02
        -0.19583E-02
        -0.19583E-02
        -0.19583E-02
        -0.19583E-02
        -0.19583E-02
        -0.19583E-02
        -0.19583E-02
        -0.19583E-02
        -0.19583E-02
        -0.19583E-02
        -0.19583E-02
        -0.19583E-02
        -0.19583E-02
        -0.19583E-02
        -0.19583E-02
        -0.19583E-02
        -0.19583E-02
        -0.19583E-02
        -0.19583E-02
        -0.19583E-02
        -0.19583E-02
        -0.19583E-02
        -0.19583E-02
        -0.19583E-02
        -0.19583E-02
        -0.19583E-02
        -0.19583E-02
        -0.19583E-02
        -0.19583E-02
        -0.19583E-02
        -0.19583E-02
        -0.19583E-02
        -0.19583E-02
        -0.19583E-02
        -0.19583E-02
        -0.19583E-02
        -0.19583E-02
        -0.19583E-02
        -0.19583E-02
        -0.19583E-02
        -0.19583E-02
        -0.19583E-02
        -0.19583E-02
        -0.19583E-02
        -0.19583E-02
        -0.19583E-02
        -0.19583E-02
        -0.19583E-02
        -0.19583E-02
        -0.19583E-02
        -0.19583E-02
        -0.97917E-03
        -0.97917E-03
        -0.97917E-03
        -0.97917E-03
        -0.97917E-03
        -0.97917E-03
        -0.97917E-03
        -0.97917E-03
        -0.97917E-03
        -0.97917E-03
        -0.97917E-03
        -0.97917E-03
        -0.97917E-03
        -0.97917E-03
        -0.97917E-03
        -0.97917E-03
        -0.97917E-03
        -0.97917E-03
        -0.97917E-03
        -0.97917E-03
        -0.97917E-03
        -0.97917E-03
        -0.97917E-03
        -0.97917E-03
        -0.97917E-03
        -0.97917E-03
        -0.97917E-03
        -0.97917E-03
        -0.97917E-03
        -0.97917E-03
        -0.97917E-03
        -0.97917E-03
        -0.97917E-03
        -0.97917E-03
        -0.97917E-03
        -0.97917E-03
        -0.97917E-03
        -0.97917E-03
        -0.97917E-03
        -0.97917E-03
        -0.97917E-03
        -0.97917E-03
        -0.97917E-03
        -0.97917E-03
        -0.97917E-03
        -0.97917E-03
        -0.97917E-03
        -0.97917E-03
        -0.97917E-03
        -0.97917E-03
        -0.97917E-03
        -0.97917E-03
        -0.97917E-03
        -0.97917E-03
        -0.97917E-03
        -0.97917E-03
        -0.97917E-03
        -0.97917E-03
        -0.97917E-03
        -0.97917E-03
        -0.97917E-03
        -0.97917E-03
        -0.97917E-03
        -0.97917E-03
        -0.97917E-03
        -0.97917E-03
        -0.97917E-03
        -0.97917E-03
        -0.97917E-03
        -0.97917E-03
        -0.97917E-03
        -0.97917E-03
        -0.97917E-03
        -0.97917E-03
        -0.97917E-03
        -0.97917E-03
        -0.97917E-03
        -0.97917E-03
         0.38917E-18
         0.44621E-18
         0.34485E-18
         0.23671E-18
         0.26613E-18
         0.16162E-18
         0.53980E-18
         0.50579E-18
         0.36337E-18
         0.48798E-18
         0.60712E-18
         0.67611E-18
         0.60634E-18
         0.60658E-18
         0.70997E-18
         0.20892E-18
         0.35894E-18
         0.21887E-18
         0.27638E-18
         0.38382E-18
         0.29058E-18
         0.40326E-18
         0.18564E-18
         0.19650E-18
         0.48570E-18
         0.12837E-18
         0.60589E-18
         0.60416E-18
         0.60524E-18
         0.49621E-18
         0.61582E-19
         0.32255E-19
         0.73874E-19
         0.78478E-19
         0.34514E-18
         0.42054E-18
         0.51644E-18
         0.72521E-18
         0.72233E-18
         0.70722E-18
         0.69126E-18
         0.61573E-18
         0.51484E-18
         0.91170E-19
         0.30347E-20
        -0.66516E-19
        -0.69988E-19
        -0.68643E-19
        -0.59779E-19
        -0.43507E-19
        -0.29471E-19
         0.53205E-19
         0.86819E-18
         0.00000E+00
         0.86819E-18
         0.86819E-18
         0.00000E+00
         0.00000E+00
         0.00000E+00
         0.17364E-17
         0.17364E-17
         0.17364E-17
         0.43410E-18
         0.43410E-18
         0.43410E-18
         0.00000E+00
         0.00000E+00
         0.00000E+00
         0.00000E+00
         0.00000E+00
         0.21705E-18
        -0.21705E-18
         0.00000E+00
         0.00000E+00
         0.00000E+00
        -0.32557E-18
         0.54262E-19
        -0.40697E-18
         0.97917E-03
         0.97917E-03
         0.97917E-03
         0.97917E-03
         0.97917E-03
         0.97917E-03
         0.97917E-03
         0.97917E-03
         0.97917E-03
         0.97917E-03
         0.97917E-03
         0.97917E-03
         0.97917E-03
         0.97917E-03
         0.97917E-03
         0.97917E-03
         0.97917E-03
         0.97917E-03
         0.97917E-03
         0.97917E-03
         0.97917E-03
         0.97917E-03
         0.97917E-03
         0.97917E-03
         0.97917E-03
         0.97917E-03
         0.97917E-03
         0.97917E-03
         0.97917E-03
         0.97917E-03
         0.97917E-03
         0.97917E-03
         0.97917E-03
         0.97917E-03
         0.97917E-03
         0.97917E-03
         0.97917E-03
         0.97917E-03
         0.97917E-03
         0.97917E-03
         0.97917E-03
         0.97917E-03
         0.97917E-03
         0.97917E-03
         0.97917E-03
         0.97917E-03
         0.97917E-03
         0.97917E-03
         0.97917E-03
         0.97917E-03
         0.97917E-03
         0.97917E-03
         0.97917E-03
         0.97917E-03
         0.97917E-03
         0.97917E-03
         0.97917E-03
         0.97917E-03
         0.97917E-03
         0.97917E-03
         0.97917E-03
         0.97917E-03
         0.97917E-03
         0.97917E-03
         0.97917E-03
         0.97917E-03
         0.97917E-03
         0.97917E-03
         0.97917E-03
         0.97917E-03
         0.97917E-03
         0.97917E-03
         0.97917E-03
         0.97917E-03
         0.97917E-03
         0.97917E-03
         0.97917E-03
         0.97917E-03
         0.19583E-02
         0.19583E-02
         0.19583E-02
         0.19583E-02
         0.19583E-02
         0.19583E-02
         0.19583E-02
         0.19583E-02
         0.19583E-02
         0.19583E-02
         0.19583E-02
         0.19583E-02
         0.19583E-02
         0.19583E-02
         0.19583E-02
         0.19583E-02
         0.19583E-02
         0.19583E-02
         0.19583E-02
         0.19583E-02
         0.19583E-02
         0.19583E-02
         0.19583E-02
         0.19583E-02
         0.19583E-02
         0.19583E-02
         0.19583E-02
         0.19583E-02
         0.19583E-02
         0.19583E-02
         0.19583E-02
         0.19583E-02
         0.19583E-02
         0.19583E-02
         0.19583E-02
         0.19583E-02
         0.19583E-02
         0.19583E-02
         0.19583E-02
         0.19583E-02
         0.19583E-02
         0.19583E-02
         0.19583E-02
         0.19583E-02
         0.19583E-02
         0.19583E-02
         0.19583E-02
         0.19583E-02
         0.19583E-02
         0.19583E-02
         0.19583E-02
         0.19583E-02
         0.19583E-02
         0.19583E-02
         0.19583E-02
         0.19583E-02
         0.19583E-02
         0.19583E-02
         0.19583E-02
         0.19583E-02
         0.19583E-02
         0.19583E-02
         0.19583E-02
         0.19583E-02
         0.19583E-02
         0.19583E-02
         0.19583E-02
         0.19583E-02
         0.19583E-02
         0.19583E-02
         0.19583E-02
         0.19583E-02
         0.19583E-02
         0.19583E-02
         0.19583E-02
         0.19583E-02
         0.19583E-02
         0.19583E-02
         0.29375E-02
         0.29375E-02
         0.29375E-02
         0.29375E-02
         0.29375E-02
         0.29375E-02
         0.29375E-02
         0.29375E-02
         0.29375E-02
         0.29375E-02
         0.29375E-02
         0.29375E-02
         0.29375E-02
         0.29375E-02
         0.29375E-02
         0.29375E-02
         0.29375E-02
         0.29375E-02
         0.29375E-02
         0.29375E-02
         0.29375E-02
         0.29375E-02
         0.29375E-02
         0.29375E-02
         0.29375E-02
         0.29375E-02
         0.29375E-02
         0.29375E-02
         0.29375E-02
         0.29375E-02
         0.29375E-02
         0.29375E-02
         0.29375E-02
         0.29375E-02
         0.29375E-02
         0.29375E-02
         0.29375E-02
         0.29375E-02
         0.29375E-02
         0.29375E-02
         0.29375E-02
         0.29375E-02
         0.29375E-02
         0.29375E-02
         0.29375E-02
         0.29375E-02
         0.29375E-02
         0.29375E-02
         0.29375E-02
         0.29375E-02
         0.29375E-02
         0.29375E-02
         0.29375E-02
         0.29375E-02
         0.29375E-02
         0.29375E-02
         0.29375E-02
         0.29375E-02
         0.29375E-02
         0.29375E-02
         0.29375E-02
         0.29375E-02
         0.29375E-02
         0.29375E-02
         0.29375E-02
         0.29375E-02
         0.29375E-02
         0.29375E-02
         0.29375E-02
         0.29375E-02
         0.29375E-02
         0.29375E-02
         0.29375E-02
         0.29375E-02
         0.29375E-02
         0.29375E-02
         0.29375E-02
         0.29375E-02
         0.39167E-02
         0.39167E-02
         0.39167E-02
         0.39167E-02
         0.39167E-02
         0.39167E-02
         0.39167E-02
         0.39167E-02
         0.39167E-02
         0.39167E-02
         0.39167E-02
         0.39167E-02
         0.39167E-02
         0.39167E-02
         0.39167E-02
         0.39167E-02
         0.39167E-02
         0.39167E-02
         0.39167E-02
         0.39167E-02
         0.39167E-02
         0.39167E-02
         0.39167E-02
         0.39167E-02
         0.39167E-02
         0.39167E-02
         0.39167E-02
         0.39167E-02
         0.39167E-02
         0.39167E-02
         0.39167E-02
         0.39167E-02
         0.39167E-02
         0.39167E-02
         0.39167E-02
         0.39167E-02
         0.39167E-02
         0.39167E-02
         0.39167E-02
         0.39167E-02
         0.39167E-02
         0.39167E-02
         0.39167E-02
         0.39167E-02
         0.39167E-02
         0.39167E-02
         0.39167E-02
         0.39167E-02
         0.39167E-02
         0.39167E-02
         0.39167E-02
         0.39167E-02
         0.39167E-02
         0.39167E-02
         0.39167E-02
         0.39167E-02
         0.39167E-02
         0.39167E-02
         0.39167E-02
         0.39167E-02
         0.39167E-02
         0.39167E-02
         0.39167E-02
         0.39167E-02
         0.39167E-02
         0.39167E-02
         0.39167E-02
         0.39167E-02
         0.39167E-02
         0.39167E-02
         0.39167E-02
         0.39167E-02
         0.39167E-02
         0.39167E-02
         0.39167E-02
         0.39167E-02
         0.39167E-02
         0.39167E-02
         0.48958E-02
         0.48958E-02
         0.48958E-02
         0.48958E-02
         0.48958E-02
         0.48958E-02
         0.48958E-02
         0.48958E-02
         0.48958E-02
         0.48958E-02
         0.48958E-02
         0.48958E-02
         0.48958E-02
         0.48958E-02
         0.48958E-02
         0.48958E-02
         0.48958E-02
         0.48958E-02
         0.48958E-02
         0.48958E-02
         0.48958E-02
         0.48958E-02
         0.48958E-02
         0.48958E-02
         0.48958E-02
         0.48958E-02
         0.48958E-02
         0.48958E-02
         0.48958E-02
         0.48958E-02
         0.48958E-02
         0.48958E-02
         0.48958E-02
         0.48958E-02
         0.48958E-02
         0.48958E-02
         0.48958E-02
         0.48958E-02
         0.48958E-02
         0.48958E-02
         0.48958E-02
         0.48958E-02
         0.48958E-02
         0.48958E-02
         0.48958E-02
         0.48958E-02
         0.48958E-02
         0.48958E-02
         0.48958E-02
         0.48958E-02
         0.48958E-02
         0.48958E-02
         0.48958E-02
         0.48958E-02
         0.48958E-02
         0.48958E-02
         0.48958E-02
         0.48958E-02
         0.48958E-02
         0.48958E-02
         0.48958E-02
         0.48958E-02
         0.48958E-02
         0.48958E-02
         0.48958E-02
         0.48958E-02
         0.48958E-02
         0.48958E-02
         0.48958E-02
         0.48958E-02
         0.48958E-02
         0.48958E-02
         0.48958E-02
         0.48958E-02
         0.48958E-02
         0.48958E-02
         0.48958E-02
         0.48958E-02
         0.58750E-02
         0.58750E-02
         0.58750E-02
         0.58750E-02
         0.58750E-02
         0.58750E-02
         0.58750E-02
         0.58750E-02
         0.58750E-02
         0.58750E-02
         0.58750E-02
         0.58750E-02
         0.58750E-02
         0.58750E-02
         0.58750E-02
         0.58750E-02
         0.58750E-02
         0.58750E-02
         0.58750E-02
         0.58750E-02
         0.58750E-02
         0.58750E-02
         0.58750E-02
         0.58750E-02
         0.58750E-02
         0.58750E-02
         0.58750E-02
         0.58750E-02
         0.58750E-02
         0.58750E-02
         0.58750E-02
         0.58750E-02
         0.58750E-02
         0.58750E-02
         0.58750E-02
         0.58750E-02
         0.58750E-02
         0.58750E-02
         0.58750E-02
         0.58750E-02
         0.58750E-02
         0.58750E-02
         0.58750E-02
         0.58750E-02
         0.58750E-02
         0.58750E-02
         0.58750E-02
         0.58750E-02
         0.58750E-02
         0.58750E-02
         0.58750E-02
         0.58750E-02
         0.58750E-02
         0.58750E-02
         0.58750E-02
         0.58750E-02
         0.58750E-02
         0.58750E-02
         0.58750E-02
         0.58750E-02
         0.58750E-02
         0.58750E-02
         0.58750E-02
         0.58750E-02
         0.58750E-02
         0.58750E-02
         0.58750E-02
         0.58750E-02
         0.58750E-02
         0.58750E-02
         0.58750E-02
         0.58750E-02
         0.58750E-02
         0.58750E-02
         0.58750E-02
         0.58750E-02
         0.58750E-02
         0.58750E-02
         0.68542E-02
         0.68542E-02
         0.68542E-02
         0.68542E-02
         0.68542E-02
         0.68542E-02
         0.68542E-02
         0.68542E-02
         0.68542E-02
         0.68542E-02
         0.68542E-02
         0.68542E-02
         0.68542E-02
         0.68542E-02
         0.68542E-02
         0.68542E-02
         0.68542E-02
         0.68542E-02
         0.68542E-02
         0.68542E-02
         0.68542E-02
         0.68542E-02
         0.68542E-02
         0.68542E-02
         0.68542E-02
         0.68542E-02
         0.68542E-02
         0.68542E-02
         0.68542E-02
         0.68542E-02
         0.68542E-02
         0.68542E-02
         0.68542E-02
         0.68542E-02
         0.68542E-02
         0.68542E-02
         0.68542E-02
         0.68542E-02
         0.68542E-02
         0.68542E-02
         0.68542E-02
         0.68542E-02
         0.68542E-02
         0.68542E-02
         0.68542E-02
         0.68542E-02
         0.68542E-02
         0.68542E-02
         0.68542E-02
         0.68542E-02
         0.68542E-02
         0.68542E-02
         0.68542E-02
         0.68542E-02
         0.68542E-02
         0.68542E-02
         0.68542E-02
         0.68542E-02
         0.68542E-02
         0.68542E-02
         0.68542E-02
         0.68542E-02
         0.68542E-02
         0.68542E-02
         0.68542E-02
         0.68542E-02
         0.68542E-02
         0.68542E-02
         0.68542E-02
         0.68542E-02
         0.68542E-02
         0.68542E-02
         0.68542E-02
         0.68542E-02
         0.68542E-02
         0.68542E-02
         0.68542E-02
         0.68542E-02
         0.78333E-02
         0.78333E-02
         0.78333E-02
         0.78333E-02
         0.78333E-02
         0.78333E-02
         0.78333E-02
         0.78333E-02
         0.78333E-02
         0.78333E-02
         0.78333E-02
         0.78333E-02
         0.78333E-02
         0.78333E-02
         0.78333E-02
         0.78333E-02
         0.78333E-02
         0.78333E-02
         0.78333E-02
         0.78333E-02
         0.78333E-02
         0.78333E-02
         0.78333E-02
         0.78333E-02
         0.78333E-02
         0.78333E-02
         0.78333E-02
         0.78333E-02
         0.78333E-02
         0.78333E-02
         0.78333E-02
         0.78333E-02
         0.78333E-02
         0.78333E-02
         0.78333E-02
         0.78333E-02
         0.78333E-02
         0.78333E-02
         0.78333E-02
         0.78333E-02
         0.78333E-02
         0.78333E-02
         0.78333E-02
         0.78333E-02
         0.78333E-02
         0.78333E-02
         0.78333E-02
         0.78333E-02
         0.78333E-02
         0.78333E-02
         0.78333E-02
         0.78333E-02
         0.78333E-02
         0.78333E-02
         0.78333E-02
         0.78333E-02
         0.78333E-02
         0.78333E-02
         0.78333E-02
         0.78333E-02
         0.78333E-02
         0.78333E-02
         0.78333E-02
         0.78333E-02
         0.78333E-02
         0.78333E-02
         0.78333E-02
         0.78333E-02
         0.78333E-02
         0.78333E-02
         0.78333E-02
         0.78333E-02
         0.78333E-02
         0.78333E-02
         0.78333E-02
         0.78333E-02
         0.78333E-02
         0.78333E-02
         0.88125E-02
         0.88125E-02
         0.88125E-02
         0.88125E-02
         0.88125E-02
         0.88125E-02
         0.88125E-02
         0.88125E-02
         0.88125E-02
         0.88125E-02
         0.88125E-02
         0.88125E-02
         0.88125E-02
         0.88125E-02
         0.88125E-02
         0.88125E-02
         0.88125E-02
         0.88125E-02
         0.88125E-02
         0.88125E-02
         0.88125E-02
         0.88125E-02
         0.88125E-02
         0.88125E-02
         0.88125E-02
         0.88125E-02
         0.88125E-02
         0.88125E-02
         0.88125E-02
         0.88125E-02
         0.88125E-02
         0.88125E-02
         0.88125E-02
         0.88125E-02
         0.88125E-02
         0.88125E-02
         0.88125E-02
         0.88125E-02
         0.88125E-02
         0.88125E-02
         0.88125E-02
         0.88125E-02
         0.88125E-02
         0.88125E-02
         0.88125E-02
         0.88125E-02
         0.88125E-02
         0.88125E-02
         0.88125E-02
         0.88125E-02
         0.88125E-02
         0.88125E-02
         0.88125E-02
         0.88125E-02
         0.88125E-02
         0.88125E-02
         0.88125E-02
         0.88125E-02
         0.88125E-02
         0.88125E-02
         0.88125E-02
         0.88125E-02
         0.88125E-02
         0.88125E-02
         0.88125E-02
         0.88125E-02
         0.88125E-02
         0.88125E-02
         0.88125E-02
         0.88125E-02
         0.88125E-02
         0.88125E-02
         0.88125E-02
         0.88125E-02
         0.88125E-02
         0.88125E-02
         0.88125E-02
         0.88125E-02
         0.97917E-02
         0.97917E-02
         0.97917E-02
         0.97917E-02
         0.97917E-02
         0.97917E-02
         0.97917E-02
         0.97917E-02
         0.97917E-02
         0.97917E-02
         0.97917E-02
         0.97917E-02
         0.97917E-02
         0.97917E-02
         0.97917E-02
         0.97917E-02
         0.97917E-02
         0.97917E-02
         0.97917E-02
         0.97917E-02
         0.97917E-02
         0.97917E-02
         0.97917E-02
         0.97917E-02
         0.97917E-02
         0.97917E-02
         0.97917E-02
         0.97917E-02
         0.97917E-02
         0.97917E-02
         0.97917E-02
         0.97917E-02
         0.97917E-02
         0.97917E-02
         0.97917E-02
         0.97917E-02
         0.97917E-02
         0.97917E-02
         0.97917E-02
         0.97917E-02
         0.97917E-02
         0.97917E-02
         0.97917E-02
         0.97917E-02
         0.97917E-02
         0.97917E-02
         0.97917E-02
         0.97917E-02
         0.97917E-02
         0.97917E-02
         0.97917E-02
         0.97917E-02
         0.97917E-02
         0.97917E-02
         0.97917E-02
         0.97917E-02
         0.97917E-02
         0.97917E-02
         0.97917E-02
         0.97917E-02
         0.97917E-02
         0.97917E-02
         0.97917E-02
         0.97917E-02
         0.97917E-02
         0.97917E-02
         0.97917E-02
         0.97917E-02
         0.97917E-02
         0.97917E-02
         0.97917E-02
         0.97917E-02
         0.97917E-02
         0.97917E-02
         0.97917E-02
         0.97917E-02
         0.97917E-02
         0.97917E-02
         0.10771E-01
         0.10771E-01
         0.10771E-01
         0.10771E-01
         0.10771E-01
         0.10771E-01
         0.10771E-01
         0.10771E-01
         0.10771E-01
         0.10771E-01
         0.10771E-01
         0.10771E-01
         0.10771E-01
         0.10771E-01
         0.10771E-01
         0.10771E-01
         0.10771E-01
         0.10771E-01
         0.10771E-01
         0.10771E-01
         0.10771E-01
         0.10771E-01
         0.10771E-01
         0.10771E-01
         0.10771E-01
         0.10771E-01
         0.10771E-01
         0.10771E-01
         0.10771E-01
         0.10771E-01
         0.10771E-01
         0.10771E-01
         0.10771E-01
         0.10771E-01
         0.10771E-01
         0.10771E-01
         0.10771E-01
         0.10771E-01
         0.10771E-01
         0.10771E-01
         0.10771E-01
         0.10771E-01
         0.10771E-01
         0.10771E-01
         0.10771E-01
         0.10771E-01
         0.10771E-01
         0.10771E-01
         0.10771E-01
         0.10771E-01
         0.10771E-01
         0.10771E-01
         0.10771E-01
         0.10771E-01
         0.10771E-01
         0.10771E-01
         0.10771E-01
         0.10771E-01
         0.10771E-01
         0.10771E-01
         0.10771E-01
         0.10771E-01
         0.10771E-01
         0.10771E-01
         0.10771E-01
         0.10771E-01
         0.10771E-01
         0.10771E-01
         0.10771E-01
         0.10771E-01
         0.10771E-01
         0.10771E-01
         0.10771E-01
         0.10771E-01
         0.10771E-01
         0.10771E-01
         0.10771E-01
         0.10771E-01
         0.11750E-01
         0.11750E-01
         0.11750E-01
         0.11750E-01
         0.11750E-01
         0.11750E-01
         0.11750E-01
         0.11750E-01
         0.11750E-01
         0.11750E-01
         0.11750E-01
         0.11750E-01
         0.11750E-01
         0.11750E-01
         0.11750E-01
         0.11750E-01
         0.11750E-01
         0.11750E-01
         0.11750E-01
         0.11750E-01
         0.11750E-01
         0.11750E-01
         0.11750E-01
         0.11750E-01
         0.11750E-01
         0.11750E-01
         0.11750E-01
         0.11750E-01
         0.11750E-01
         0.11750E-01
         0.11750E-01
         0.11750E-01
         0.11750E-01
         0.11750E-01
         0.11750E-01
         0.11750E-01
         0.11750E-01
         0.11750E-01
         0.11750E-01
         0.11750E-01
         0.11750E-01
         0.11750E-01
         0.11750E-01
         0.11750E-01
         0.11750E-01
         0.11750E-01
         0.11750E-01
         0.11750E-01
         0.11750E-01
         0.11750E-01
         0.11750E-01
         0.11750E-01
         0.11750E-01
         0.11750E-01
         0.11750E-01
         0.11750E-01
         0.11750E-01
         0.11750E-01
         0.11750E-01
         0.11750E-01
         0.11750E-01
         0.11750E-01
         0.11750E-01
         0.11750E-01
         0.11750E-01
         0.11750E-01
         0.11750E-01
         0.11750E-01
         0.11750E-01
         0.11750E-01
         0.11750E-01
         0.11750E-01
         0.11750E-01
         0.11750E-01
         0.11750E-01
         0.11750E-01
         0.11750E-01
         0.11750E-01
  
SCALARS                init_velocity_x  double 1
LOOKUP_TABLE default
         0.00000E+00
         0.00000E+00
         0.00000E+00
         0.00000E+00
         0.00000E+00
         0.00000E+00
         0.00000E+00
         0.00000E+00
         0.00000E+00
         0.00000E+00
         0.00000E+00
         0.00000E+00
         0.00000E+00
         0.00000E+00
         0.00000E+00
         0.00000E+00
         0.00000E+00
         0.00000E+00
         0.00000E+00
         0.00000E+00
         0.00000E+00
         0.00000E+00
         0.00000E+00
         0.00000E+00
         0.00000E+00
         0.00000E+00
         0.00000E+00
         0.00000E+00
         0.00000E+00
         0.00000E+00
         0.00000E+00
         0.00000E+00
         0.00000E+00
         0.00000E+00
         0.00000E+00
         0.00000E+00
         0.00000E+00
         0.00000E+00
         0.00000E+00
         0.00000E+00
         0.00000E+00
         0.00000E+00
         0.00000E+00
         0.00000E+00
         0.00000E+00
         0.00000E+00
         0.00000E+00
         0.00000E+00
         0.00000E+00
         0.00000E+00
         0.00000E+00
         0.00000E+00
         0.00000E+00
         0.00000E+00
         0.00000E+00
         0.00000E+00
         0.00000E+00
         0.00000E+00
         0.00000E+00
         0.00000E+00
         0.00000E+00
         0.00000E+00
         0.00000E+00
         0.00000E+00
         0.00000E+00
         0.00000E+00
         0.00000E+00
         0.00000E+00
         0.00000E+00
         0.00000E+00
         0.00000E+00
         0.00000E+00
         0.00000E+00
         0.00000E+00
         0.00000E+00
         0.00000E+00
         0.00000E+00
         0.00000E+00
         0.00000E+00
         0.00000E+00
         0.00000E+00
         0.00000E+00
         0.00000E+00
         0.00000E+00
         0.00000E+00
         0.00000E+00
         0.00000E+00
         0.00000E+00
         0.00000E+00
         0.00000E+00
         0.00000E+00
         0.00000E+00
         0.00000E+00
         0.00000E+00
         0.00000E+00
         0.00000E+00
         0.00000E+00
         0.00000E+00
         0.00000E+00
         0.00000E+00
         0.00000E+00
         0.00000E+00
         0.00000E+00
         0.00000E+00
         0.00000E+00
         0.00000E+00
         0.00000E+00
         0.00000E+00
         0.00000E+00
         0.00000E+00
         0.00000E+00
         0.00000E+00
         0.00000E+00
         0.00000E+00
         0.00000E+00
         0.00000E+00
         0.00000E+00
         0.00000E+00
         0.00000E+00
         0.00000E+00
         0.00000E+00
         0.00000E+00
         0.00000E+00
         0.00000E+00
         0.00000E+00
         0.00000E+00
         0.00000E+00
         0.00000E+00
         0.00000E+00
         0.00000E+00
         0.00000E+00
         0.00000E+00
         0.00000E+00
         0.00000E+00
         0.00000E+00
         0.00000E+00
         0.00000E+00
         0.00000E+00
         0.00000E+00
         0.00000E+00
         0.00000E+00
         0.00000E+00
         0.00000E+00
         0.00000E+00
         0.00000E+00
         0.00000E+00
         0.00000E+00
         0.00000E+00
         0.00000E+00
         0.00000E+00
         0.00000E+00
         0.00000E+00
         0.00000E+00
         0.00000E+00
         0.00000E+00
         0.00000E+00
         0.00000E+00
         0.00000E+00
         0.00000E+00
         0.00000E+00
         0.00000E+00
         0.00000E+00
         0.00000E+00
         0.00000E+00
         0.00000E+00
         0.00000E+00
         0.00000E+00
         0.00000E+00
         0.00000E+00
         0.00000E+00
         0.00000E+00
         0.00000E+00
         0.00000E+00
         0.00000E+00
         0.00000E+00
         0.00000E+00
         0.00000E+00
         0.00000E+00
         0.00000E+00
         0.00000E+00
         0.00000E+00
         0.00000E+00
         0.00000E+00
         0.00000E+00
         0.00000E+00
         0.00000E+00
         0.00000E+00
         0.00000E+00
         0.00000E+00
         0.00000E+00
         0.00000E+00
         0.00000E+00
         0.00000E+00
         0.00000E+00
         0.00000E+00
         0.00000E+00
         0.00000E+00
         0.00000E+00
         0.00000E+00
         0.00000E+00
         0.00000E+00
         0.00000E+00
         0.00000E+00
         0.00000E+00
         0.00000E+00
         0.00000E+00
         0.00000E+00
         0.00000E+00
         0.00000E+00
         0.00000E+00
         0.00000E+00
         0.00000E+00
         0.00000E+00
         0.00000E+00
         0.00000E+00
         0.00000E+00
         0.00000E+00
         0.00000E+00
         0.00000E+00
         0.00000E+00
         0.00000E+00
         0.00000E+00
         0.00000E+00
         0.00000E+00
         0.00000E+00
         0.00000E+00
         0.00000E+00
         0.00000E+00
         0.00000E+00
         0.00000E+00
         0.00000E+00
         0.00000E+00
         0.00000E+00
         0.00000E+00
         0.00000E+00
         0.00000E+00
         0.00000E+00
         0.00000E+00
         0.00000E+00
         0.00000E+00
         0.00000E+00
         0.00000E+00
         0.00000E+00
         0.00000E+00
         0.00000E+00
         0.00000E+00
         0.00000E+00
         0.00000E+00
         0.00000E+00
         0.00000E+00
         0.00000E+00
         0.00000E+00
         0.00000E+00
         0.00000E+00
         0.00000E+00
         0.00000E+00
         0.00000E+00
         0.00000E+00
         0.00000E+00
         0.00000E+00
         0.00000E+00
         0.00000E+00
         0.00000E+00
         0.00000E+00
         0.00000E+00
         0.00000E+00
         0.00000E+00
         0.00000E+00
         0.00000E+00
         0.00000E+00
         0.00000E+00
         0.00000E+00
         0.00000E+00
         0.00000E+00
         0.00000E+00
         0.00000E+00
         0.00000E+00
         0.00000E+00
         0.00000E+00
         0.00000E+00
         0.00000E+00
         0.00000E+00
         0.00000E+00
         0.00000E+00
         0.00000E+00
         0.00000E+00
         0.00000E+00
         0.00000E+00
         0.00000E+00
         0.00000E+00
         0.00000E+00
         0.00000E+00
         0.00000E+00
         0.00000E+00
         0.00000E+00
         0.00000E+00
         0.00000E+00
         0.00000E+00
         0.00000E+00
         0.00000E+00
         0.00000E+00
         0.00000E+00
         0.00000E+00
         0.00000E+00
         0.00000E+00
         0.00000E+00
         0.00000E+00
         0.00000E+00
         0.00000E+00
         0.00000E+00
         0.00000E+00
         0.00000E+00
         0.00000E+00
         0.00000E+00
         0.00000E+00
         0.00000E+00
         0.00000E+00
         0.00000E+00
         0.00000E+00
         0.00000E+00
         0.00000E+00
         0.00000E+00
         0.00000E+00
         0.00000E+00
         0.00000E+00
         0.00000E+00
         0.00000E+00
         0.00000E+00
         0.00000E+00
         0.00000E+00
         0.00000E+00
         0.00000E+00
         0.00000E+00
         0.00000E+00
         0.00000E+00
         0.00000E+00
         0.00000E+00
         0.00000E+00
         0.00000E+00
         0.00000E+00
         0.00000E+00
         0.00000E+00
         0.00000E+00
         0.00000E+00
         0.00000E+00
         0.00000E+00
         0.00000E+00
         0.00000E+00
         0.00000E+00
         0.00000E+00
         0.00000E+00
         0.00000E+00
         0.00000E+00
         0.00000E+00
         0.00000E+00
         0.00000E+00
         0.00000E+00
         0.00000E+00
         0.00000E+00
         0.00000E+00
         0.00000E+00
         0.00000E+00
         0.00000E+00
         0.00000E+00
         0.00000E+00
         0.00000E+00
         0.00000E+00
         0.00000E+00
         0.00000E+00
         0.00000E+00
         0.00000E+00
         0.00000E+00
         0.00000E+00
         0.00000E+00
         0.00000E+00
         0.00000E+00
         0.00000E+00
         0.00000E+00
         0.00000E+00
         0.00000E+00
         0.00000E+00
         0.00000E+00
         0.00000E+00
         0.00000E+00
         0.00000E+00
         0.00000E+00
         0.00000E+00
         0.00000E+00
         0.00000E+00
         0.00000E+00
         0.00000E+00
         0.00000E+00
         0.00000E+00
         0.00000E+00
         0.00000E+00
         0.00000E+00
         0.00000E+00
         0.00000E+00
         0.00000E+00
         0.00000E+00
         0.00000E+00
         0.00000E+00
         0.00000E+00
         0.00000E+00
         0.00000E+00
         0.00000E+00
         0.00000E+00
         0.00000E+00
         0.00000E+00
         0.00000E+00
         0.00000E+00
         0.00000E+00
         0.00000E+00
         0.00000E+00
         0.00000E+00
         0.00000E+00
         0.00000E+00
         0.00000E+00
         0.00000E+00
         0.00000E+00
         0.00000E+00
         0.00000E+00
         0.00000E+00
         0.00000E+00
         0.00000E+00
         0.00000E+00
         0.00000E+00
         0.00000E+00
         0.00000E+00
         0.00000E+00
         0.00000E+00
         0.00000E+00
         0.00000E+00
         0.00000E+00
         0.00000E+00
         0.00000E+00
         0.00000E+00
         0.00000E+00
         0.00000E+00
         0.00000E+00
         0.00000E+00
         0.00000E+00
         0.00000E+00
         0.00000E+00
         0.00000E+00
         0.00000E+00
         0.00000E+00
         0.00000E+00
         0.00000E+00
         0.00000E+00
         0.00000E+00
         0.00000E+00
         0.00000E+00
         0.00000E+00
         0.00000E+00
         0.00000E+00
         0.00000E+00
         0.00000E+00
         0.00000E+00
         0.00000E+00
         0.00000E+00
         0.00000E+00
         0.00000E+00
         0.00000E+00
         0.00000E+00
         0.00000E+00
         0.00000E+00
         0.00000E+00
         0.00000E+00
         0.00000E+00
         0.00000E+00
         0.00000E+00
         0.00000E+00
         0.00000E+00
         0.00000E+00
         0.00000E+00
         0.00000E+00
         0.00000E+00
         0.00000E+00
         0.00000E+00
         0.00000E+00
         0.00000E+00
         0.00000E+00
         0.00000E+00
         0.00000E+00
         0.00000E+00
         0.00000E+00
         0.00000E+00
         0.00000E+00
         0.00000E+00
         0.00000E+00
         0.00000E+00
         0.00000E+00
         0.00000E+00
         0.00000E+00
         0.00000E+00
         0.00000E+00
         0.00000E+00
         0.00000E+00
         0.00000E+00
         0.00000E+00
         0.00000E+00
         0.00000E+00
         0.00000E+00
         0.00000E+00
         0.00000E+00
         0.00000E+00
         0.00000E+00
         0.00000E+00
         0.00000E+00
         0.00000E+00
         0.00000E+00
         0.00000E+00
         0.00000E+00
         0.00000E+00
         0.00000E+00
         0.00000E+00
         0.00000E+00
         0.00000E+00
         0.00000E+00
         0.00000E+00
         0.00000E+00
         0.00000E+00
         0.00000E+00
         0.00000E+00
         0.00000E+00
         0.00000E+00
         0.00000E+00
         0.00000E+00
         0.00000E+00
         0.00000E+00
         0.00000E+00
         0.00000E+00
         0.00000E+00
         0.00000E+00
         0.00000E+00
         0.00000E+00
         0.00000E+00
         0.00000E+00
         0.00000E+00
         0.00000E+00
         0.00000E+00
         0.00000E+00
         0.00000E+00
         0.00000E+00
         0.00000E+00
         0.00000E+00
         0.00000E+00
         0.00000E+00
         0.00000E+00
         0.00000E+00
         0.00000E+00
         0.00000E+00
         0.00000E+00
         0.00000E+00
         0.00000E+00
         0.00000E+00
         0.00000E+00
         0.00000E+00
         0.00000E+00
         0.00000E+00
         0.00000E+00
         0.00000E+00
         0.00000E+00
         0.00000E+00
         0.00000E+00
         0.00000E+00
         0.00000E+00
         0.00000E+00
         0.00000E+00
         0.00000E+00
         0.00000E+00
         0.00000E+00
         0.00000E+00
         0.00000E+00
         0.00000E+00
         0.00000E+00
         0.00000E+00
         0.00000E+00
         0.00000E+00
         0.00000E+00
         0.00000E+00
         0.00000E+00
         0.00000E+00
         0.00000E+00
         0.00000E+00
         0.00000E+00
         0.00000E+00
         0.00000E+00
         0.00000E+00
         0.00000E+00
         0.00000E+00
         0.00000E+00
         0.00000E+00
         0.00000E+00
         0.00000E+00
         0.00000E+00
         0.00000E+00
         0.00000E+00
         0.00000E+00
         0.00000E+00
         0.00000E+00
         0.00000E+00
         0.00000E+00
         0.00000E+00
         0.00000E+00
         0.00000E+00
         0.00000E+00
         0.00000E+00
         0.00000E+00
         0.00000E+00
         0.00000E+00
         0.00000E+00
         0.00000E+00
         0.00000E+00
         0.00000E+00
         0.00000E+00
         0.00000E+00
         0.00000E+00
         0.00000E+00
         0.00000E+00
         0.00000E+00
         0.00000E+00
         0.00000E+00
         0.00000E+00
         0.00000E+00
         0.00000E+00
         0.00000E+00
         0.00000E+00
         0.00000E+00
         0.00000E+00
         0.00000E+00
         0.00000E+00
         0.00000E+00
         0.00000E+00
         0.00000E+00
         0.00000E+00
         0.00000E+00
         0.00000E+00
         0.00000E+00
         0.00000E+00
         0.00000E+00
         0.00000E+00
         0.00000E+00
         0.00000E+00
         0.00000E+00
         0.00000E+00
         0.00000E+00
         0.00000E+00
         0.00000E+00
         0.00000E+00
         0.00000E+00
         0.00000E+00
         0.00000E+00
         0.00000E+00
         0.00000E+00
         0.00000E+00
         0.00000E+00
         0.00000E+00
         0.00000E+00
         0.00000E+00
         0.00000E+00
         0.00000E+00
         0.00000E+00
         0.00000E+00
         0.00000E+00
         0.00000E+00
         0.00000E+00
         0.00000E+00
         0.00000E+00
         0.00000E+00
         0.00000E+00
         0.00000E+00
         0.00000E+00
         0.00000E+00
         0.00000E+00
         0.00000E+00
         0.00000E+00
         0.00000E+00
         0.00000E+00
         0.00000E+00
         0.00000E+00
         0.00000E+00
         0.00000E+00
         0.00000E+00
         0.00000E+00
         0.00000E+00
         0.00000E+00
         0.00000E+00
         0.00000E+00
         0.00000E+00
         0.00000E+00
         0.00000E+00
         0.00000E+00
         0.00000E+00
         0.00000E+00
         0.00000E+00
         0.00000E+00
         0.00000E+00
         0.00000E+00
         0.00000E+00
         0.00000E+00
         0.00000E+00
         0.00000E+00
         0.00000E+00
         0.00000E+00
         0.00000E+00
         0.00000E+00
         0.00000E+00
         0.00000E+00
         0.00000E+00
         0.00000E+00
         0.00000E+00
         0.00000E+00
         0.00000E+00
         0.00000E+00
         0.00000E+00
         0.00000E+00
         0.00000E+00
         0.00000E+00
         0.00000E+00
         0.00000E+00
         0.00000E+00
         0.00000E+00
         0.00000E+00
         0.00000E+00
         0.00000E+00
         0.00000E+00
         0.00000E+00
         0.00000E+00
         0.00000E+00
         0.00000E+00
         0.00000E+00
         0.00000E+00
         0.00000E+00
         0.00000E+00
         0.00000E+00
         0.00000E+00
         0.00000E+00
         0.00000E+00
         0.00000E+00
         0.00000E+00
         0.00000E+00
         0.00000E+00
         0.00000E+00
         0.00000E+00
         0.00000E+00
         0.00000E+00
         0.00000E+00
         0.00000E+00
         0.00000E+00
         0.00000E+00
         0.00000E+00
         0.00000E+00
         0.00000E+00
         0.00000E+00
         0.00000E+00
         0.00000E+00
         0.00000E+00
         0.00000E+00
         0.00000E+00
         0.00000E+00
         0.00000E+00
         0.00000E+00
         0.00000E+00
         0.00000E+00
         0.00000E+00
         0.00000E+00
         0.00000E+00
         0.00000E+00
         0.00000E+00
         0.00000E+00
         0.00000E+00
         0.00000E+00
         0.00000E+00
         0.00000E+00
         0.00000E+00
         0.00000E+00
         0.00000E+00
         0.00000E+00
         0.00000E+00
         0.00000E+00
         0.00000E+00
         0.00000E+00
         0.00000E+00
         0.00000E+00
         0.00000E+00
         0.00000E+00
         0.00000E+00
         0.00000E+00
         0.00000E+00
         0.00000E+00
         0.00000E+00
         0.00000E+00
         0.00000E+00
         0.00000E+00
         0.00000E+00
         0.00000E+00
         0.00000E+00
         0.00000E+00
         0.00000E+00
         0.00000E+00
         0.00000E+00
         0.00000E+00
         0.00000E+00
         0.00000E+00
         0.00000E+00
         0.00000E+00
         0.00000E+00
         0.00000E+00
         0.00000E+00
         0.00000E+00
         0.00000E+00
         0.00000E+00
         0.00000E+00
         0.00000E+00
         0.00000E+00
         0.00000E+00
         0.00000E+00
         0.00000E+00
         0.00000E+00
         0.00000E+00
         0.00000E+00
         0.00000E+00
         0.00000E+00
         0.00000E+00
         0.00000E+00
         0.00000E+00
         0.00000E+00
         0.00000E+00
         0.00000E+00
         0.00000E+00
         0.00000E+00
         0.00000E+00
         0.00000E+00
         0.00000E+00
         0.00000E+00
         0.00000E+00
         0.00000E+00
         0.00000E+00
         0.00000E+00
         0.00000E+00
         0.00000E+00
         0.00000E+00
         0.00000E+00
         0.00000E+00
         0.00000E+00
         0.00000E+00
         0.00000E+00
         0.00000E+00
         0.00000E+00
         0.00000E+00
         0.00000E+00
         0.00000E+00
         0.00000E+00
         0.00000E+00
         0.00000E+00
         0.00000E+00
         0.00000E+00
         0.00000E+00
         0.00000E+00
         0.00000E+00
         0.00000E+00
         0.00000E+00
         0.00000E+00
         0.00000E+00
         0.00000E+00
         0.00000E+00
         0.00000E+00
         0.00000E+00
         0.00000E+00
         0.00000E+00
         0.00000E+00
         0.00000E+00
         0.00000E+00
         0.00000E+00
         0.00000E+00
         0.00000E+00
         0.00000E+00
         0.00000E+00
         0.00000E+00
         0.00000E+00
         0.00000E+00
         0.00000E+00
         0.00000E+00
         0.00000E+00
         0.00000E+00
         0.00000E+00
         0.00000E+00
         0.00000E+00
         0.00000E+00
         0.00000E+00
         0.00000E+00
         0.00000E+00
         0.00000E+00
         0.00000E+00
         0.00000E+00
         0.00000E+00
         0.00000E+00
         0.00000E+00
         0.00000E+00
         0.00000E+00
         0.00000E+00
         0.00000E+00
         0.00000E+00
         0.00000E+00
         0.00000E+00
         0.00000E+00
         0.00000E+00
         0.00000E+00
         0.00000E+00
         0.00000E+00
         0.00000E+00
         0.00000E+00
         0.00000E+00
         0.00000E+00
         0.00000E+00
         0.00000E+00
         0.00000E+00
         0.00000E+00
         0.00000E+00
         0.00000E+00
         0.00000E+00
         0.00000E+00
         0.00000E+00
         0.00000E+00
         0.00000E+00
         0.00000E+00
         0.00000E+00
         0.00000E+00
         0.00000E+00
         0.00000E+00
         0.00000E+00
         0.00000E+00
         0.00000E+00
         0.00000E+00
         0.00000E+00
         0.00000E+00
         0.00000E+00
         0.00000E+00
         0.00000E+00
         0.00000E+00
         0.00000E+00
         0.00000E+00
         0.00000E+00
         0.00000E+00
         0.00000E+00
         0.00000E+00
         0.00000E+00
         0.00000E+00
         0.00000E+00
         0.00000E+00
         0.00000E+00
         0.00000E+00
         0.00000E+00
         0.00000E+00
         0.00000E+00
         0.00000E+00
         0.00000E+00
         0.00000E+00
         0.00000E+00
         0.00000E+00
         0.00000E+00
         0.00000E+00
         0.00000E+00
         0.00000E+00
         0.00000E+00
         0.00000E+00
         0.00000E+00
         0.00000E+00
         0.00000E+00
         0.00000E+00
         0.00000E+00
         0.00000E+00
         0.00000E+00
         0.00000E+00
         0.00000E+00
         0.00000E+00
         0.00000E+00
         0.00000E+00
         0.00000E+00
         0.00000E+00
         0.00000E+00
         0.00000E+00
         0.00000E+00
         0.00000E+00
         0.00000E+00
         0.00000E+00
         0.00000E+00
         0.00000E+00
         0.00000E+00
         0.00000E+00
         0.00000E+00
         0.00000E+00
         0.00000E+00
         0.00000E+00
         0.00000E+00
         0.00000E+00
         0.00000E+00
         0.00000E+00
         0.00000E+00
         0.00000E+00
         0.00000E+00
         0.00000E+00
         0.00000E+00
         0.00000E+00
         0.00000E+00
         0.00000E+00
         0.00000E+00
         0.00000E+00
         0.00000E+00
         0.00000E+00
         0.00000E+00
         0.00000E+00
         0.00000E+00
         0.00000E+00
         0.00000E+00
         0.00000E+00
         0.00000E+00
         0.00000E+00
         0.00000E+00
         0.00000E+00
         0.00000E+00
         0.00000E+00
         0.00000E+00
         0.00000E+00
         0.00000E+00
         0.00000E+00
         0.00000E+00
         0.00000E+00
         0.00000E+00
         0.00000E+00
         0.00000E+00
         0.00000E+00
         0.00000E+00
         0.00000E+00
         0.00000E+00
         0.00000E+00
         0.00000E+00
         0.00000E+00
         0.00000E+00
         0.00000E+00
         0.00000E+00
         0.00000E+00
         0.00000E+00
         0.00000E+00
         0.00000E+00
         0.00000E+00
         0.00000E+00
         0.00000E+00
         0.00000E+00
         0.00000E+00
         0.00000E+00
         0.00000E+00
         0.00000E+00
         0.00000E+00
         0.00000E+00
         0.00000E+00
         0.00000E+00
         0.00000E+00
         0.00000E+00
         0.00000E+00
         0.00000E+00
         0.00000E+00
         0.00000E+00
         0.00000E+00
         0.00000E+00
         0.00000E+00
         0.00000E+00
         0.00000E+00
         0.00000E+00
         0.00000E+00
         0.00000E+00
         0.00000E+00
         0.00000E+00
         0.00000E+00
         0.00000E+00
         0.00000E+00
         0.00000E+00
         0.00000E+00
         0.00000E+00
         0.00000E+00
         0.00000E+00
         0.00000E+00
         0.00000E+00
         0.00000E+00
         0.00000E+00
         0.00000E+00
         0.00000E+00
         0.00000E+00
         0.00000E+00
         0.00000E+00
         0.00000E+00
         0.00000E+00
         0.00000E+00
         0.00000E+00
         0.00000E+00
         0.00000E+00
         0.00000E+00
         0.00000E+00
         0.00000E+00
         0.00000E+00
         0.00000E+00
         0.00000E+00
         0.00000E+00
         0.00000E+00
         0.00000E+00
         0.00000E+00
         0.00000E+00
         0.00000E+00
         0.00000E+00
         0.00000E+00
         0.00000E+00
         0.00000E+00
         0.00000E+00
         0.00000E+00
         0.00000E+00
         0.00000E+00
         0.00000E+00
         0.00000E+00
         0.00000E+00
         0.00000E+00
         0.00000E+00
         0.00000E+00
         0.00000E+00
         0.00000E+00
         0.00000E+00
         0.00000E+00
         0.00000E+00
         0.00000E+00
         0.00000E+00
         0.00000E+00
         0.00000E+00
         0.00000E+00
         0.00000E+00
         0.00000E+00
         0.00000E+00
         0.00000E+00
         0.00000E+00
         0.00000E+00
         0.00000E+00
         0.00000E+00
         0.00000E+00
         0.00000E+00
         0.00000E+00
         0.00000E+00
         0.00000E+00
         0.00000E+00
         0.00000E+00
         0.00000E+00
         0.00000E+00
         0.00000E+00
         0.00000E+00
         0.00000E+00
         0.00000E+00
         0.00000E+00
         0.00000E+00
         0.00000E+00
         0.00000E+00
         0.00000E+00
         0.00000E+00
         0.00000E+00
         0.00000E+00
         0.00000E+00
         0.00000E+00
         0.00000E+00
         0.00000E+00
         0.00000E+00
         0.00000E+00
         0.00000E+00
         0.00000E+00
         0.00000E+00
         0.00000E+00
         0.00000E+00
         0.00000E+00
         0.00000E+00
         0.00000E+00
         0.00000E+00
         0.00000E+00
         0.00000E+00
         0.00000E+00
         0.00000E+00
         0.00000E+00
         0.00000E+00
         0.00000E+00
         0.00000E+00
         0.00000E+00
         0.00000E+00
         0.00000E+00
         0.00000E+00
         0.00000E+00
         0.00000E+00
         0.00000E+00
         0.00000E+00
         0.00000E+00
         0.00000E+00
         0.00000E+00
         0.00000E+00
         0.00000E+00
         0.00000E+00
         0.00000E+00
         0.00000E+00
         0.00000E+00
         0.00000E+00
         0.00000E+00
         0.00000E+00
         0.00000E+00
         0.00000E+00
         0.00000E+00
         0.00000E+00
         0.00000E+00
         0.00000E+00
         0.00000E+00
         0.00000E+00
         0.00000E+00
         0.00000E+00
         0.00000E+00
         0.00000E+00
         0.00000E+00
         0.00000E+00
         0.00000E+00
         0.00000E+00
         0.00000E+00
         0.00000E+00
         0.00000E+00
         0.00000E+00
         0.00000E+00
         0.00000E+00
         0.00000E+00
         0.00000E+00
         0.00000E+00
         0.00000E+00
         0.00000E+00
         0.00000E+00
         0.00000E+00
         0.00000E+00
         0.00000E+00
         0.00000E+00
         0.00000E+00
         0.00000E+00
         0.00000E+00
         0.00000E+00
         0.00000E+00
         0.00000E+00
         0.00000E+00
         0.00000E+00
         0.00000E+00
         0.00000E+00
         0.00000E+00
         0.00000E+00
         0.00000E+00
         0.00000E+00
         0.00000E+00
         0.00000E+00
         0.00000E+00
         0.00000E+00
         0.00000E+00
         0.00000E+00
         0.00000E+00
         0.00000E+00
         0.00000E+00
         0.00000E+00
         0.00000E+00
         0.00000E+00
         0.00000E+00
         0.00000E+00
         0.00000E+00
         0.00000E+00
         0.00000E+00
         0.00000E+00
         0.00000E+00
         0.00000E+00
         0.00000E+00
         0.00000E+00
         0.00000E+00
         0.00000E+00
         0.00000E+00
         0.00000E+00
         0.00000E+00
         0.00000E+00
         0.00000E+00
         0.00000E+00
         0.00000E+00
         0.00000E+00
         0.00000E+00
         0.00000E+00
         0.00000E+00
         0.00000E+00
         0.00000E+00
         0.00000E+00
         0.00000E+00
         0.00000E+00
         0.00000E+00
         0.00000E+00
         0.00000E+00
         0.00000E+00
         0.00000E+00
         0.00000E+00
         0.00000E+00
         0.00000E+00
         0.00000E+00
         0.00000E+00
         0.00000E+00
         0.00000E+00
         0.00000E+00
         0.00000E+00
         0.00000E+00
         0.00000E+00
         0.00000E+00
         0.00000E+00
         0.00000E+00
         0.00000E+00
         0.00000E+00
         0.00000E+00
         0.00000E+00
         0.00000E+00
         0.00000E+00
         0.00000E+00
         0.00000E+00
         0.00000E+00
         0.00000E+00
         0.00000E+00
         0.00000E+00
         0.00000E+00
         0.00000E+00
         0.00000E+00
         0.00000E+00
         0.00000E+00
         0.00000E+00
         0.00000E+00
         0.00000E+00
         0.00000E+00
         0.00000E+00
         0.00000E+00
         0.00000E+00
         0.00000E+00
         0.00000E+00
         0.00000E+00
         0.00000E+00
         0.00000E+00
         0.00000E+00
         0.00000E+00
         0.00000E+00
         0.00000E+00
         0.00000E+00
         0.00000E+00
         0.00000E+00
         0.00000E+00
         0.00000E+00
         0.00000E+00
         0.00000E+00
         0.00000E+00
         0.00000E+00
         0.00000E+00
         0.00000E+00
         0.00000E+00
         0.00000E+00
         0.00000E+00
         0.00000E+00
         0.00000E+00
         0.00000E+00
         0.00000E+00
         0.00000E+00
         0.00000E+00
         0.00000E+00
         0.00000E+00
         0.00000E+00
         0.00000E+00
         0.00000E+00
         0.00000E+00
         0.00000E+00
         0.00000E+00
         0.00000E+00
         0.00000E+00
         0.00000E+00
         0.00000E+00
         0.00000E+00
         0.00000E+00
         0.00000E+00
         0.00000E+00
         0.00000E+00
         0.00000E+00
         0.00000E+00
         0.00000E+00
         0.00000E+00
         0.00000E+00
         0.00000E+00
         0.00000E+00
         0.00000E+00
         0.00000E+00
         0.00000E+00
         0.00000E+00
         0.00000E+00
         0.00000E+00
         0.00000E+00
         0.00000E+00
         0.00000E+00
         0.00000E+00
         0.00000E+00
         0.00000E+00
         0.00000E+00
         0.00000E+00
         0.00000E+00
         0.00000E+00
         0.00000E+00
         0.00000E+00
         0.00000E+00
         0.00000E+00
         0.00000E+00
         0.00000E+00
         0.00000E+00
         0.00000E+00
         0.00000E+00
         0.00000E+00
         0.00000E+00
         0.00000E+00
         0.00000E+00
         0.00000E+00
         0.00000E+00
         0.00000E+00
         0.00000E+00
         0.00000E+00
         0.00000E+00
         0.00000E+00
         0.00000E+00
         0.00000E+00
         0.00000E+00
         0.00000E+00
         0.00000E+00
         0.00000E+00
         0.00000E+00
         0.00000E+00
         0.00000E+00
         0.00000E+00
         0.00000E+00
         0.00000E+00
         0.00000E+00
         0.00000E+00
         0.00000E+00
         0.00000E+00
         0.00000E+00
         0.00000E+00
         0.00000E+00
         0.00000E+00
         0.00000E+00
         0.00000E+00
         0.00000E+00
         0.00000E+00
         0.00000E+00
         0.00000E+00
         0.00000E+00
         0.00000E+00
         0.00000E+00
         0.00000E+00
         0.00000E+00
         0.00000E+00
         0.00000E+00
         0.00000E+00
         0.00000E+00
         0.00000E+00
         0.00000E+00
         0.00000E+00
         0.00000E+00
         0.00000E+00
         0.00000E+00
         0.00000E+00
         0.00000E+00
         0.00000E+00
         0.00000E+00
         0.00000E+00
         0.00000E+00
         0.00000E+00
         0.00000E+00
         0.00000E+00
         0.00000E+00
         0.00000E+00
         0.00000E+00
         0.00000E+00
         0.00000E+00
         0.00000E+00
         0.00000E+00
         0.00000E+00
         0.00000E+00
         0.00000E+00
         0.00000E+00
         0.00000E+00
         0.00000E+00
         0.00000E+00
         0.00000E+00
         0.00000E+00
         0.00000E+00
         0.00000E+00
         0.00000E+00
         0.00000E+00
         0.00000E+00
         0.00000E+00
         0.00000E+00
         0.00000E+00
         0.00000E+00
         0.00000E+00
         0.00000E+00
         0.00000E+00
         0.00000E+00
         0.00000E+00
         0.00000E+00
         0.00000E+00
         0.00000E+00
         0.00000E+00
         0.00000E+00
         0.00000E+00
         0.00000E+00
         0.00000E+00
         0.00000E+00
         0.00000E+00
         0.00000E+00
         0.00000E+00
         0.00000E+00
         0.00000E+00
         0.00000E+00
         0.00000E+00
         0.00000E+00
         0.00000E+00
         0.00000E+00
         0.00000E+00
         0.00000E+00
         0.00000E+00
         0.00000E+00
         0.00000E+00
         0.00000E+00
         0.00000E+00
         0.00000E+00
         0.00000E+00
         0.00000E+00
         0.00000E+00
         0.00000E+00
         0.00000E+00
         0.00000E+00
         0.00000E+00
         0.00000E+00
         0.00000E+00
         0.00000E+00
         0.00000E+00
         0.00000E+00
         0.00000E+00
         0.00000E+00
         0.00000E+00
         0.00000E+00
         0.00000E+00
         0.00000E+00
         0.00000E+00
         0.00000E+00
         0.00000E+00
         0.00000E+00
         0.00000E+00
         0.00000E+00
         0.00000E+00
         0.00000E+00
         0.00000E+00
         0.00000E+00
         0.00000E+00
         0.00000E+00
         0.00000E+00
         0.00000E+00
         0.00000E+00
         0.00000E+00
         0.00000E+00
         0.00000E+00
         0.00000E+00
         0.00000E+00
         0.00000E+00
         0.00000E+00
         0.00000E+00
         0.00000E+00
         0.00000E+00
         0.00000E+00
         0.00000E+00
         0.00000E+00
         0.00000E+00
         0.00000E+00
         0.00000E+00
         0.00000E+00
         0.00000E+00
         0.00000E+00
         0.00000E+00
         0.00000E+00
         0.00000E+00
         0.00000E+00
         0.00000E+00
         0.00000E+00
         0.00000E+00
         0.00000E+00
         0.00000E+00
         0.00000E+00
         0.00000E+00
         0.00000E+00
         0.00000E+00
         0.00000E+00
         0.00000E+00
         0.00000E+00
         0.00000E+00
         0.00000E+00
         0.00000E+00
         0.00000E+00
         0.00000E+00
         0.00000E+00
         0.00000E+00
         0.00000E+00
         0.00000E+00
         0.00000E+00
         0.00000E+00
         0.00000E+00
         0.00000E+00
         0.00000E+00
         0.00000E+00
         0.00000E+00
         0.00000E+00
         0.00000E+00
         0.00000E+00
         0.00000E+00
         0.00000E+00
         0.00000E+00
         0.00000E+00
         0.00000E+00
         0.00000E+00
         0.00000E+00
         0.00000E+00
         0.00000E+00
         0.00000E+00
         0.00000E+00
         0.00000E+00
         0.00000E+00
         0.00000E+00
         0.00000E+00
         0.00000E+00
         0.00000E+00
         0.00000E+00
         0.00000E+00
         0.00000E+00
         0.00000E+00
         0.00000E+00
         0.00000E+00
         0.00000E+00
         0.00000E+00
         0.00000E+00
         0.00000E+00
         0.00000E+00
         0.00000E+00
         0.00000E+00
         0.00000E+00
         0.00000E+00
         0.00000E+00
         0.00000E+00
         0.00000E+00
         0.00000E+00
         0.00000E+00
         0.00000E+00
         0.00000E+00
         0.00000E+00
         0.00000E+00
         0.00000E+00
         0.00000E+00
         0.00000E+00
         0.00000E+00
         0.00000E+00
         0.00000E+00
         0.00000E+00
         0.00000E+00
         0.00000E+00
         0.00000E+00
         0.00000E+00
         0.00000E+00
         0.00000E+00
         0.00000E+00
         0.00000E+00
         0.00000E+00
         0.00000E+00
         0.00000E+00
         0.00000E+00
         0.00000E+00
         0.00000E+00
         0.00000E+00
         0.00000E+00
         0.00000E+00
         0.00000E+00
         0.00000E+00
         0.00000E+00
         0.00000E+00
         0.00000E+00
         0.00000E+00
         0.00000E+00
         0.00000E+00
         0.00000E+00
         0.00000E+00
         0.00000E+00
         0.00000E+00
         0.00000E+00
         0.00000E+00
         0.00000E+00
         0.00000E+00
         0.00000E+00
         0.00000E+00
         0.00000E+00
         0.00000E+00
         0.00000E+00
         0.00000E+00
         0.00000E+00
         0.00000E+00
         0.00000E+00
         0.00000E+00
         0.00000E+00
         0.00000E+00
         0.00000E+00
         0.00000E+00
         0.00000E+00
         0.00000E+00
         0.00000E+00
         0.00000E+00
         0.00000E+00
         0.00000E+00
         0.00000E+00
         0.00000E+00
         0.00000E+00
         0.00000E+00
         0.00000E+00
         0.00000E+00
         0.00000E+00
         0.00000E+00
         0.00000E+00
         0.00000E+00
         0.00000E+00
         0.00000E+00
         0.00000E+00
         0.00000E+00
         0.00000E+00
         0.00000E+00
         0.00000E+00
         0.00000E+00
         0.00000E+00
         0.00000E+00
         0.00000E+00
         0.00000E+00
         0.00000E+00
         0.00000E+00
         0.00000E+00
         0.00000E+00
         0.00000E+00
         0.00000E+00
         0.00000E+00
         0.00000E+00
         0.00000E+00
         0.00000E+00
         0.00000E+00
         0.00000E+00
         0.00000E+00
         0.00000E+00
         0.00000E+00
         0.00000E+00
         0.00000E+00
         0.00000E+00
         0.00000E+00
         0.00000E+00
         0.00000E+00
         0.00000E+00
         0.00000E+00
         0.00000E+00
         0.00000E+00
         0.00000E+00
         0.00000E+00
         0.00000E+00
         0.00000E+00
         0.00000E+00
         0.00000E+00
         0.00000E+00
         0.00000E+00
         0.00000E+00
         0.00000E+00
         0.00000E+00
         0.00000E+00
         0.00000E+00
         0.00000E+00
         0.00000E+00
         0.00000E+00
         0.00000E+00
         0.00000E+00
         0.00000E+00
         0.00000E+00
         0.00000E+00
         0.00000E+00
         0.00000E+00
         0.00000E+00
         0.00000E+00
         0.00000E+00
         0.00000E+00
         0.00000E+00
         0.00000E+00
         0.00000E+00
         0.00000E+00
         0.00000E+00
         0.00000E+00
         0.00000E+00
         0.00000E+00
         0.00000E+00
         0.00000E+00
         0.00000E+00
         0.00000E+00
         0.00000E+00
         0.00000E+00
         0.00000E+00
         0.00000E+00
         0.00000E+00
         0.00000E+00
         0.00000E+00
         0.00000E+00
         0.00000E+00
         0.00000E+00
         0.00000E+00
         0.00000E+00
         0.00000E+00
         0.00000E+00
         0.00000E+00
         0.00000E+00
         0.00000E+00
         0.00000E+00
         0.00000E+00
         0.00000E+00
         0.00000E+00
         0.00000E+00
         0.00000E+00
         0.00000E+00
         0.00000E+00
         0.00000E+00
         0.00000E+00
         0.00000E+00
         0.00000E+00
         0.00000E+00
         0.00000E+00
         0.00000E+00
         0.00000E+00
         0.00000E+00
         0.00000E+00
         0.00000E+00
         0.00000E+00
         0.00000E+00
         0.00000E+00
         0.00000E+00
         0.00000E+00
         0.00000E+00
         0.00000E+00
         0.00000E+00
         0.00000E+00
         0.00000E+00
         0.00000E+00
         0.00000E+00
         0.00000E+00
         0.00000E+00
         0.00000E+00
         0.00000E+00
         0.00000E+00
         0.00000E+00
         0.00000E+00
         0.00000E+00
         0.00000E+00
         0.00000E+00
         0.00000E+00
         0.00000E+00
         0.00000E+00
         0.00000E+00
         0.00000E+00
         0.00000E+00
         0.00000E+00
         0.00000E+00
         0.00000E+00
         0.00000E+00
         0.00000E+00
         0.00000E+00
         0.00000E+00
         0.00000E+00
         0.00000E+00
         0.00000E+00
         0.00000E+00
         0.00000E+00
         0.00000E+00
         0.00000E+00
         0.00000E+00
         0.00000E+00
         0.00000E+00
         0.00000E+00
         0.00000E+00
         0.00000E+00
         0.00000E+00
         0.00000E+00
         0.00000E+00
         0.00000E+00
         0.00000E+00
         0.00000E+00
         0.00000E+00
         0.00000E+00
         0.00000E+00
         0.00000E+00
         0.00000E+00
         0.00000E+00
         0.00000E+00
         0.00000E+00
         0.00000E+00
         0.00000E+00
         0.00000E+00
         0.00000E+00
         0.00000E+00
         0.00000E+00
         0.00000E+00
         0.00000E+00
         0.00000E+00
         0.00000E+00
         0.00000E+00
         0.00000E+00
         0.00000E+00
         0.00000E+00
         0.00000E+00
         0.00000E+00
         0.00000E+00
         0.00000E+00
         0.00000E+00
         0.00000E+00
         0.00000E+00
         0.00000E+00
         0.00000E+00
         0.00000E+00
         0.00000E+00
         0.00000E+00
         0.00000E+00
         0.00000E+00
         0.00000E+00
         0.00000E+00
         0.00000E+00
         0.00000E+00
         0.00000E+00
         0.00000E+00
         0.00000E+00
         0.00000E+00
         0.00000E+00
         0.00000E+00
         0.00000E+00
         0.00000E+00
         0.00000E+00
         0.00000E+00
         0.00000E+00
         0.00000E+00
         0.00000E+00
         0.00000E+00
         0.00000E+00
  
SCALARS                init_velocity_y  double 1
LOOKUP_TABLE default
         0.00000E+00
         0.00000E+00
         0.00000E+00
         0.00000E+00
         0.00000E+00
         0.00000E+00
         0.00000E+00
         0.00000E+00
         0.00000E+00
         0.00000E+00
         0.00000E+00
         0.00000E+00
         0.00000E+00
         0.00000E+00
         0.00000E+00
         0.00000E+00
         0.00000E+00
         0.00000E+00
         0.00000E+00
         0.00000E+00
         0.00000E+00
         0.00000E+00
         0.00000E+00
         0.00000E+00
         0.00000E+00
         0.00000E+00
         0.00000E+00
         0.00000E+00
         0.00000E+00
         0.00000E+00
         0.00000E+00
         0.00000E+00
         0.00000E+00
         0.00000E+00
         0.00000E+00
         0.00000E+00
         0.00000E+00
         0.00000E+00
         0.00000E+00
         0.00000E+00
         0.00000E+00
         0.00000E+00
         0.00000E+00
         0.00000E+00
         0.00000E+00
         0.00000E+00
         0.00000E+00
         0.00000E+00
         0.00000E+00
         0.00000E+00
         0.00000E+00
         0.00000E+00
         0.00000E+00
         0.00000E+00
         0.00000E+00
         0.00000E+00
         0.00000E+00
         0.00000E+00
         0.00000E+00
         0.00000E+00
         0.00000E+00
         0.00000E+00
         0.00000E+00
         0.00000E+00
         0.00000E+00
         0.00000E+00
         0.00000E+00
         0.00000E+00
         0.00000E+00
         0.00000E+00
         0.00000E+00
         0.00000E+00
         0.00000E+00
         0.00000E+00
         0.00000E+00
         0.00000E+00
         0.00000E+00
         0.00000E+00
         0.00000E+00
         0.00000E+00
         0.00000E+00
         0.00000E+00
         0.00000E+00
         0.00000E+00
         0.00000E+00
         0.00000E+00
         0.00000E+00
         0.00000E+00
         0.00000E+00
         0.00000E+00
         0.00000E+00
         0.00000E+00
         0.00000E+00
         0.00000E+00
         0.00000E+00
         0.00000E+00
         0.00000E+00
         0.00000E+00
         0.00000E+00
         0.00000E+00
         0.00000E+00
         0.00000E+00
         0.00000E+00
         0.00000E+00
         0.00000E+00
         0.00000E+00
         0.00000E+00
         0.00000E+00
         0.00000E+00
         0.00000E+00
         0.00000E+00
         0.00000E+00
         0.00000E+00
         0.00000E+00
         0.00000E+00
         0.00000E+00
         0.00000E+00
         0.00000E+00
         0.00000E+00
         0.00000E+00
         0.00000E+00
         0.00000E+00
         0.00000E+00
         0.00000E+00
         0.00000E+00
         0.00000E+00
         0.00000E+00
         0.00000E+00
         0.00000E+00
         0.00000E+00
         0.00000E+00
         0.00000E+00
         0.00000E+00
         0.00000E+00
         0.00000E+00
         0.00000E+00
         0.00000E+00
         0.00000E+00
         0.00000E+00
         0.00000E+00
         0.00000E+00
         0.00000E+00
         0.00000E+00
         0.00000E+00
         0.00000E+00
         0.00000E+00
         0.00000E+00
         0.00000E+00
         0.00000E+00
         0.00000E+00
         0.00000E+00
         0.00000E+00
         0.00000E+00
         0.00000E+00
         0.00000E+00
         0.00000E+00
         0.00000E+00
         0.00000E+00
         0.00000E+00
         0.00000E+00
         0.00000E+00
         0.00000E+00
         0.00000E+00
         0.00000E+00
         0.00000E+00
         0.00000E+00
         0.00000E+00
         0.00000E+00
         0.00000E+00
         0.00000E+00
         0.00000E+00
         0.00000E+00
         0.00000E+00
         0.00000E+00
         0.00000E+00
         0.00000E+00
         0.00000E+00
         0.00000E+00
         0.00000E+00
         0.00000E+00
         0.00000E+00
         0.00000E+00
         0.00000E+00
         0.00000E+00
         0.00000E+00
         0.00000E+00
         0.00000E+00
         0.00000E+00
         0.00000E+00
         0.00000E+00
         0.00000E+00
         0.00000E+00
         0.00000E+00
         0.00000E+00
         0.00000E+00
         0.00000E+00
         0.00000E+00
         0.00000E+00
         0.00000E+00
         0.00000E+00
         0.00000E+00
         0.00000E+00
         0.00000E+00
         0.00000E+00
         0.00000E+00
         0.00000E+00
         0.00000E+00
         0.00000E+00
         0.00000E+00
         0.00000E+00
         0.00000E+00
         0.00000E+00
         0.00000E+00
         0.00000E+00
         0.00000E+00
         0.00000E+00
         0.00000E+00
         0.00000E+00
         0.00000E+00
         0.00000E+00
         0.00000E+00
         0.00000E+00
         0.00000E+00
         0.00000E+00
         0.00000E+00
         0.00000E+00
         0.00000E+00
         0.00000E+00
         0.00000E+00
         0.00000E+00
         0.00000E+00
         0.00000E+00
         0.00000E+00
         0.00000E+00
         0.00000E+00
         0.00000E+00
         0.00000E+00
         0.00000E+00
         0.00000E+00
         0.00000E+00
         0.00000E+00
         0.00000E+00
         0.00000E+00
         0.00000E+00
         0.00000E+00
         0.00000E+00
         0.00000E+00
         0.00000E+00
         0.00000E+00
         0.00000E+00
         0.00000E+00
         0.00000E+00
         0.00000E+00
         0.00000E+00
         0.00000E+00
         0.00000E+00
         0.00000E+00
         0.00000E+00
         0.00000E+00
         0.00000E+00
         0.00000E+00
         0.00000E+00
         0.00000E+00
         0.00000E+00
         0.00000E+00
         0.00000E+00
         0.00000E+00
         0.00000E+00
         0.00000E+00
         0.00000E+00
         0.00000E+00
         0.00000E+00
         0.00000E+00
         0.00000E+00
         0.00000E+00
         0.00000E+00
         0.00000E+00
         0.00000E+00
         0.00000E+00
         0.00000E+00
         0.00000E+00
         0.00000E+00
         0.00000E+00
         0.00000E+00
         0.00000E+00
         0.00000E+00
         0.00000E+00
         0.00000E+00
         0.00000E+00
         0.00000E+00
         0.00000E+00
         0.00000E+00
         0.00000E+00
         0.00000E+00
         0.00000E+00
         0.00000E+00
         0.00000E+00
         0.00000E+00
         0.00000E+00
         0.00000E+00
         0.00000E+00
         0.00000E+00
         0.00000E+00
         0.00000E+00
         0.00000E+00
         0.00000E+00
         0.00000E+00
         0.00000E+00
         0.00000E+00
         0.00000E+00
         0.00000E+00
         0.00000E+00
         0.00000E+00
         0.00000E+00
         0.00000E+00
         0.00000E+00
         0.00000E+00
         0.00000E+00
         0.00000E+00
         0.00000E+00
         0.00000E+00
         0.00000E+00
         0.00000E+00
         0.00000E+00
         0.00000E+00
         0.00000E+00
         0.00000E+00
         0.00000E+00
         0.00000E+00
         0.00000E+00
         0.00000E+00
         0.00000E+00
         0.00000E+00
         0.00000E+00
         0.00000E+00
         0.00000E+00
         0.00000E+00
         0.00000E+00
         0.00000E+00
         0.00000E+00
         0.00000E+00
         0.00000E+00
         0.00000E+00
         0.00000E+00
         0.00000E+00
         0.00000E+00
         0.00000E+00
         0.00000E+00
         0.00000E+00
         0.00000E+00
         0.00000E+00
         0.00000E+00
         0.00000E+00
         0.00000E+00
         0.00000E+00
         0.00000E+00
         0.00000E+00
         0.00000E+00
         0.00000E+00
         0.00000E+00
         0.00000E+00
         0.00000E+00
         0.00000E+00
         0.00000E+00
         0.00000E+00
         0.00000E+00
         0.00000E+00
         0.00000E+00
         0.00000E+00
         0.00000E+00
         0.00000E+00
         0.00000E+00
         0.00000E+00
         0.00000E+00
         0.00000E+00
         0.00000E+00
         0.00000E+00
         0.00000E+00
         0.00000E+00
         0.00000E+00
         0.00000E+00
         0.00000E+00
         0.00000E+00
         0.00000E+00
         0.00000E+00
         0.00000E+00
         0.00000E+00
         0.00000E+00
         0.00000E+00
         0.00000E+00
         0.00000E+00
         0.00000E+00
         0.00000E+00
         0.00000E+00
         0.00000E+00
         0.00000E+00
         0.00000E+00
         0.00000E+00
         0.00000E+00
         0.00000E+00
         0.00000E+00
         0.00000E+00
         0.00000E+00
         0.00000E+00
         0.00000E+00
         0.00000E+00
         0.00000E+00
         0.00000E+00
         0.00000E+00
         0.00000E+00
         0.00000E+00
         0.00000E+00
         0.00000E+00
         0.00000E+00
         0.00000E+00
         0.00000E+00
         0.00000E+00
         0.00000E+00
         0.00000E+00
         0.00000E+00
         0.00000E+00
         0.00000E+00
         0.00000E+00
         0.00000E+00
         0.00000E+00
         0.00000E+00
         0.00000E+00
         0.00000E+00
         0.00000E+00
         0.00000E+00
         0.00000E+00
         0.00000E+00
         0.00000E+00
         0.00000E+00
         0.00000E+00
         0.00000E+00
         0.00000E+00
         0.00000E+00
         0.00000E+00
         0.00000E+00
         0.00000E+00
         0.00000E+00
         0.00000E+00
         0.00000E+00
         0.00000E+00
         0.00000E+00
         0.00000E+00
         0.00000E+00
         0.00000E+00
         0.00000E+00
         0.00000E+00
         0.00000E+00
         0.00000E+00
         0.00000E+00
         0.00000E+00
         0.00000E+00
         0.00000E+00
         0.00000E+00
         0.00000E+00
         0.00000E+00
         0.00000E+00
         0.00000E+00
         0.00000E+00
         0.00000E+00
         0.00000E+00
         0.00000E+00
         0.00000E+00
         0.00000E+00
         0.00000E+00
         0.00000E+00
         0.00000E+00
         0.00000E+00
         0.00000E+00
         0.00000E+00
         0.00000E+00
         0.00000E+00
         0.00000E+00
         0.00000E+00
         0.00000E+00
         0.00000E+00
         0.00000E+00
         0.00000E+00
         0.00000E+00
         0.00000E+00
         0.00000E+00
         0.00000E+00
         0.00000E+00
         0.00000E+00
         0.00000E+00
         0.00000E+00
         0.00000E+00
         0.00000E+00
         0.00000E+00
         0.00000E+00
         0.00000E+00
         0.00000E+00
         0.00000E+00
         0.00000E+00
         0.00000E+00
         0.00000E+00
         0.00000E+00
         0.00000E+00
         0.00000E+00
         0.00000E+00
         0.00000E+00
         0.00000E+00
         0.00000E+00
         0.00000E+00
         0.00000E+00
         0.00000E+00
         0.00000E+00
         0.00000E+00
         0.00000E+00
         0.00000E+00
         0.00000E+00
         0.00000E+00
         0.00000E+00
         0.00000E+00
         0.00000E+00
         0.00000E+00
         0.00000E+00
         0.00000E+00
         0.00000E+00
         0.00000E+00
         0.00000E+00
         0.00000E+00
         0.00000E+00
         0.00000E+00
         0.00000E+00
         0.00000E+00
         0.00000E+00
         0.00000E+00
         0.00000E+00
         0.00000E+00
         0.00000E+00
         0.00000E+00
         0.00000E+00
         0.00000E+00
         0.00000E+00
         0.00000E+00
         0.00000E+00
         0.00000E+00
         0.00000E+00
         0.00000E+00
         0.00000E+00
         0.00000E+00
         0.00000E+00
         0.00000E+00
         0.00000E+00
         0.00000E+00
         0.00000E+00
         0.00000E+00
         0.00000E+00
         0.00000E+00
         0.00000E+00
         0.00000E+00
         0.00000E+00
         0.00000E+00
         0.00000E+00
         0.00000E+00
         0.00000E+00
         0.00000E+00
         0.00000E+00
         0.00000E+00
         0.00000E+00
         0.00000E+00
         0.00000E+00
         0.00000E+00
         0.00000E+00
         0.00000E+00
         0.00000E+00
         0.00000E+00
         0.00000E+00
         0.00000E+00
         0.00000E+00
         0.00000E+00
         0.00000E+00
         0.00000E+00
         0.00000E+00
         0.00000E+00
         0.00000E+00
         0.00000E+00
         0.00000E+00
         0.00000E+00
         0.00000E+00
         0.00000E+00
         0.00000E+00
         0.00000E+00
         0.00000E+00
         0.00000E+00
         0.00000E+00
         0.00000E+00
         0.00000E+00
         0.00000E+00
         0.00000E+00
         0.00000E+00
         0.00000E+00
         0.00000E+00
         0.00000E+00
         0.00000E+00
         0.00000E+00
         0.00000E+00
         0.00000E+00
         0.00000E+00
         0.00000E+00
         0.00000E+00
         0.00000E+00
         0.00000E+00
         0.00000E+00
         0.00000E+00
         0.00000E+00
         0.00000E+00
         0.00000E+00
         0.00000E+00
         0.00000E+00
         0.00000E+00
         0.00000E+00
         0.00000E+00
         0.00000E+00
         0.00000E+00
         0.00000E+00
         0.00000E+00
         0.00000E+00
         0.00000E+00
         0.00000E+00
         0.00000E+00
         0.00000E+00
         0.00000E+00
         0.00000E+00
         0.00000E+00
         0.00000E+00
         0.00000E+00
         0.00000E+00
         0.00000E+00
         0.00000E+00
         0.00000E+00
         0.00000E+00
         0.00000E+00
         0.00000E+00
         0.00000E+00
         0.00000E+00
         0.00000E+00
         0.00000E+00
         0.00000E+00
         0.00000E+00
         0.00000E+00
         0.00000E+00
         0.00000E+00
         0.00000E+00
         0.00000E+00
         0.00000E+00
         0.00000E+00
         0.00000E+00
         0.00000E+00
         0.00000E+00
         0.00000E+00
         0.00000E+00
         0.00000E+00
         0.00000E+00
         0.00000E+00
         0.00000E+00
         0.00000E+00
         0.00000E+00
         0.00000E+00
         0.00000E+00
         0.00000E+00
         0.00000E+00
         0.00000E+00
         0.00000E+00
         0.00000E+00
         0.00000E+00
         0.00000E+00
         0.00000E+00
         0.00000E+00
         0.00000E+00
         0.00000E+00
         0.00000E+00
         0.00000E+00
         0.00000E+00
         0.00000E+00
         0.00000E+00
         0.00000E+00
         0.00000E+00
         0.00000E+00
         0.00000E+00
         0.00000E+00
         0.00000E+00
         0.00000E+00
         0.00000E+00
         0.00000E+00
         0.00000E+00
         0.00000E+00
         0.00000E+00
         0.00000E+00
         0.00000E+00
         0.00000E+00
         0.00000E+00
         0.00000E+00
         0.00000E+00
         0.00000E+00
         0.00000E+00
         0.00000E+00
         0.00000E+00
         0.00000E+00
         0.00000E+00
         0.00000E+00
         0.00000E+00
         0.00000E+00
         0.00000E+00
         0.00000E+00
         0.00000E+00
         0.00000E+00
         0.00000E+00
         0.00000E+00
         0.00000E+00
         0.00000E+00
         0.00000E+00
         0.00000E+00
         0.00000E+00
         0.00000E+00
         0.00000E+00
         0.00000E+00
         0.00000E+00
         0.00000E+00
         0.00000E+00
         0.00000E+00
         0.00000E+00
         0.00000E+00
         0.00000E+00
         0.00000E+00
         0.00000E+00
         0.00000E+00
         0.00000E+00
         0.00000E+00
         0.00000E+00
         0.00000E+00
         0.00000E+00
         0.00000E+00
         0.00000E+00
         0.00000E+00
         0.00000E+00
         0.00000E+00
         0.00000E+00
         0.00000E+00
         0.00000E+00
         0.00000E+00
         0.00000E+00
         0.00000E+00
         0.00000E+00
         0.00000E+00
         0.00000E+00
         0.00000E+00
         0.00000E+00
         0.00000E+00
         0.00000E+00
         0.00000E+00
         0.00000E+00
         0.00000E+00
         0.00000E+00
         0.00000E+00
         0.00000E+00
         0.00000E+00
         0.00000E+00
         0.00000E+00
         0.00000E+00
         0.00000E+00
         0.00000E+00
         0.00000E+00
         0.00000E+00
         0.00000E+00
         0.00000E+00
         0.00000E+00
         0.00000E+00
         0.00000E+00
         0.00000E+00
         0.00000E+00
         0.00000E+00
         0.00000E+00
         0.00000E+00
         0.00000E+00
         0.00000E+00
         0.00000E+00
         0.00000E+00
         0.00000E+00
         0.00000E+00
         0.00000E+00
         0.00000E+00
         0.00000E+00
         0.00000E+00
         0.00000E+00
         0.00000E+00
         0.00000E+00
         0.00000E+00
         0.00000E+00
         0.00000E+00
         0.00000E+00
         0.00000E+00
         0.00000E+00
         0.00000E+00
         0.00000E+00
         0.00000E+00
         0.00000E+00
         0.00000E+00
         0.00000E+00
         0.00000E+00
         0.00000E+00
         0.00000E+00
         0.00000E+00
         0.00000E+00
         0.00000E+00
         0.00000E+00
         0.00000E+00
         0.00000E+00
         0.00000E+00
         0.00000E+00
         0.00000E+00
         0.00000E+00
         0.00000E+00
         0.00000E+00
         0.00000E+00
         0.00000E+00
         0.00000E+00
         0.00000E+00
         0.00000E+00
         0.00000E+00
         0.00000E+00
         0.00000E+00
         0.00000E+00
         0.00000E+00
         0.00000E+00
         0.00000E+00
         0.00000E+00
         0.00000E+00
         0.00000E+00
         0.00000E+00
         0.00000E+00
         0.00000E+00
         0.00000E+00
         0.00000E+00
         0.00000E+00
         0.00000E+00
         0.00000E+00
         0.00000E+00
         0.00000E+00
         0.00000E+00
         0.00000E+00
         0.00000E+00
         0.00000E+00
         0.00000E+00
         0.00000E+00
         0.00000E+00
         0.00000E+00
         0.00000E+00
         0.00000E+00
         0.00000E+00
         0.00000E+00
         0.00000E+00
         0.00000E+00
         0.00000E+00
         0.00000E+00
         0.00000E+00
         0.00000E+00
         0.00000E+00
         0.00000E+00
         0.00000E+00
         0.00000E+00
         0.00000E+00
         0.00000E+00
         0.00000E+00
         0.00000E+00
         0.00000E+00
         0.00000E+00
         0.00000E+00
         0.00000E+00
         0.00000E+00
         0.00000E+00
         0.00000E+00
         0.00000E+00
         0.00000E+00
         0.00000E+00
         0.00000E+00
         0.00000E+00
         0.00000E+00
         0.00000E+00
         0.00000E+00
         0.00000E+00
         0.00000E+00
         0.00000E+00
         0.00000E+00
         0.00000E+00
         0.00000E+00
         0.00000E+00
         0.00000E+00
         0.00000E+00
         0.00000E+00
         0.00000E+00
         0.00000E+00
         0.00000E+00
         0.00000E+00
         0.00000E+00
         0.00000E+00
         0.00000E+00
         0.00000E+00
         0.00000E+00
         0.00000E+00
         0.00000E+00
         0.00000E+00
         0.00000E+00
         0.00000E+00
         0.00000E+00
         0.00000E+00
         0.00000E+00
         0.00000E+00
         0.00000E+00
         0.00000E+00
         0.00000E+00
         0.00000E+00
         0.00000E+00
         0.00000E+00
         0.00000E+00
         0.00000E+00
         0.00000E+00
         0.00000E+00
         0.00000E+00
         0.00000E+00
         0.00000E+00
         0.00000E+00
         0.00000E+00
         0.00000E+00
         0.00000E+00
         0.00000E+00
         0.00000E+00
         0.00000E+00
         0.00000E+00
         0.00000E+00
         0.00000E+00
         0.00000E+00
         0.00000E+00
         0.00000E+00
         0.00000E+00
         0.00000E+00
         0.00000E+00
         0.00000E+00
         0.00000E+00
         0.00000E+00
         0.00000E+00
         0.00000E+00
         0.00000E+00
         0.00000E+00
         0.00000E+00
         0.00000E+00
         0.00000E+00
         0.00000E+00
         0.00000E+00
         0.00000E+00
         0.00000E+00
         0.00000E+00
         0.00000E+00
         0.00000E+00
         0.00000E+00
         0.00000E+00
         0.00000E+00
         0.00000E+00
         0.00000E+00
         0.00000E+00
         0.00000E+00
         0.00000E+00
         0.00000E+00
         0.00000E+00
         0.00000E+00
         0.00000E+00
         0.00000E+00
         0.00000E+00
         0.00000E+00
         0.00000E+00
         0.00000E+00
         0.00000E+00
         0.00000E+00
         0.00000E+00
         0.00000E+00
         0.00000E+00
         0.00000E+00
         0.00000E+00
         0.00000E+00
         0.00000E+00
         0.00000E+00
         0.00000E+00
         0.00000E+00
         0.00000E+00
         0.00000E+00
         0.00000E+00
         0.00000E+00
         0.00000E+00
         0.00000E+00
         0.00000E+00
         0.00000E+00
         0.00000E+00
         0.00000E+00
         0.00000E+00
         0.00000E+00
         0.00000E+00
         0.00000E+00
         0.00000E+00
         0.00000E+00
         0.00000E+00
         0.00000E+00
         0.00000E+00
         0.00000E+00
         0.00000E+00
         0.00000E+00
         0.00000E+00
         0.00000E+00
         0.00000E+00
         0.00000E+00
         0.00000E+00
         0.00000E+00
         0.00000E+00
         0.00000E+00
         0.00000E+00
         0.00000E+00
         0.00000E+00
         0.00000E+00
         0.00000E+00
         0.00000E+00
         0.00000E+00
         0.00000E+00
         0.00000E+00
         0.00000E+00
         0.00000E+00
         0.00000E+00
         0.00000E+00
         0.00000E+00
         0.00000E+00
         0.00000E+00
         0.00000E+00
         0.00000E+00
         0.00000E+00
         0.00000E+00
         0.00000E+00
         0.00000E+00
         0.00000E+00
         0.00000E+00
         0.00000E+00
         0.00000E+00
         0.00000E+00
         0.00000E+00
         0.00000E+00
         0.00000E+00
         0.00000E+00
         0.00000E+00
         0.00000E+00
         0.00000E+00
         0.00000E+00
         0.00000E+00
         0.00000E+00
         0.00000E+00
         0.00000E+00
         0.00000E+00
         0.00000E+00
         0.00000E+00
         0.00000E+00
         0.00000E+00
         0.00000E+00
         0.00000E+00
         0.00000E+00
         0.00000E+00
         0.00000E+00
         0.00000E+00
         0.00000E+00
         0.00000E+00
         0.00000E+00
         0.00000E+00
         0.00000E+00
         0.00000E+00
         0.00000E+00
         0.00000E+00
         0.00000E+00
         0.00000E+00
         0.00000E+00
         0.00000E+00
         0.00000E+00
         0.00000E+00
         0.00000E+00
         0.00000E+00
         0.00000E+00
         0.00000E+00
         0.00000E+00
         0.00000E+00
         0.00000E+00
         0.00000E+00
         0.00000E+00
         0.00000E+00
         0.00000E+00
         0.00000E+00
         0.00000E+00
         0.00000E+00
         0.00000E+00
         0.00000E+00
         0.00000E+00
         0.00000E+00
         0.00000E+00
         0.00000E+00
         0.00000E+00
         0.00000E+00
         0.00000E+00
         0.00000E+00
         0.00000E+00
         0.00000E+00
         0.00000E+00
         0.00000E+00
         0.00000E+00
         0.00000E+00
         0.00000E+00
         0.00000E+00
         0.00000E+00
         0.00000E+00
         0.00000E+00
         0.00000E+00
         0.00000E+00
         0.00000E+00
         0.00000E+00
         0.00000E+00
         0.00000E+00
         0.00000E+00
         0.00000E+00
         0.00000E+00
         0.00000E+00
         0.00000E+00
         0.00000E+00
         0.00000E+00
         0.00000E+00
         0.00000E+00
         0.00000E+00
         0.00000E+00
         0.00000E+00
         0.00000E+00
         0.00000E+00
         0.00000E+00
         0.00000E+00
         0.00000E+00
         0.00000E+00
         0.00000E+00
         0.00000E+00
         0.00000E+00
         0.00000E+00
         0.00000E+00
         0.00000E+00
         0.00000E+00
         0.00000E+00
         0.00000E+00
         0.00000E+00
         0.00000E+00
         0.00000E+00
         0.00000E+00
         0.00000E+00
         0.00000E+00
         0.00000E+00
         0.00000E+00
         0.00000E+00
         0.00000E+00
         0.00000E+00
         0.00000E+00
         0.00000E+00
         0.00000E+00
         0.00000E+00
         0.00000E+00
         0.00000E+00
         0.00000E+00
         0.00000E+00
         0.00000E+00
         0.00000E+00
         0.00000E+00
         0.00000E+00
         0.00000E+00
         0.00000E+00
         0.00000E+00
         0.00000E+00
         0.00000E+00
         0.00000E+00
         0.00000E+00
         0.00000E+00
         0.00000E+00
         0.00000E+00
         0.00000E+00
         0.00000E+00
         0.00000E+00
         0.00000E+00
         0.00000E+00
         0.00000E+00
         0.00000E+00
         0.00000E+00
         0.00000E+00
         0.00000E+00
         0.00000E+00
         0.00000E+00
         0.00000E+00
         0.00000E+00
         0.00000E+00
         0.00000E+00
         0.00000E+00
         0.00000E+00
         0.00000E+00
         0.00000E+00
         0.00000E+00
         0.00000E+00
         0.00000E+00
         0.00000E+00
         0.00000E+00
         0.00000E+00
         0.00000E+00
         0.00000E+00
         0.00000E+00
         0.00000E+00
         0.00000E+00
         0.00000E+00
         0.00000E+00
         0.00000E+00
         0.00000E+00
         0.00000E+00
         0.00000E+00
         0.00000E+00
         0.00000E+00
         0.00000E+00
         0.00000E+00
         0.00000E+00
         0.00000E+00
         0.00000E+00
         0.00000E+00
         0.00000E+00
         0.00000E+00
         0.00000E+00
         0.00000E+00
         0.00000E+00
         0.00000E+00
         0.00000E+00
         0.00000E+00
         0.00000E+00
         0.00000E+00
         0.00000E+00
         0.00000E+00
         0.00000E+00
         0.00000E+00
         0.00000E+00
         0.00000E+00
         0.00000E+00
         0.00000E+00
         0.00000E+00
         0.00000E+00
         0.00000E+00
         0.00000E+00
         0.00000E+00
         0.00000E+00
         0.00000E+00
         0.00000E+00
         0.00000E+00
         0.00000E+00
         0.00000E+00
         0.00000E+00
         0.00000E+00
         0.00000E+00
         0.00000E+00
         0.00000E+00
         0.00000E+00
         0.00000E+00
         0.00000E+00
         0.00000E+00
         0.00000E+00
         0.00000E+00
         0.00000E+00
         0.00000E+00
         0.00000E+00
         0.00000E+00
         0.00000E+00
         0.00000E+00
         0.00000E+00
         0.00000E+00
         0.00000E+00
         0.00000E+00
         0.00000E+00
         0.00000E+00
         0.00000E+00
         0.00000E+00
         0.00000E+00
         0.00000E+00
         0.00000E+00
         0.00000E+00
         0.00000E+00
         0.00000E+00
         0.00000E+00
         0.00000E+00
         0.00000E+00
         0.00000E+00
         0.00000E+00
         0.00000E+00
         0.00000E+00
         0.00000E+00
         0.00000E+00
         0.00000E+00
         0.00000E+00
         0.00000E+00
         0.00000E+00
         0.00000E+00
         0.00000E+00
         0.00000E+00
         0.00000E+00
         0.00000E+00
         0.00000E+00
         0.00000E+00
         0.00000E+00
         0.00000E+00
         0.00000E+00
         0.00000E+00
         0.00000E+00
         0.00000E+00
         0.00000E+00
         0.00000E+00
         0.00000E+00
         0.00000E+00
         0.00000E+00
         0.00000E+00
         0.00000E+00
         0.00000E+00
         0.00000E+00
         0.00000E+00
         0.00000E+00
         0.00000E+00
         0.00000E+00
         0.00000E+00
         0.00000E+00
         0.00000E+00
         0.00000E+00
         0.00000E+00
         0.00000E+00
         0.00000E+00
         0.00000E+00
         0.00000E+00
         0.00000E+00
         0.00000E+00
         0.00000E+00
         0.00000E+00
         0.00000E+00
         0.00000E+00
         0.00000E+00
         0.00000E+00
         0.00000E+00
         0.00000E+00
         0.00000E+00
         0.00000E+00
         0.00000E+00
         0.00000E+00
         0.00000E+00
         0.00000E+00
         0.00000E+00
         0.00000E+00
         0.00000E+00
         0.00000E+00
         0.00000E+00
         0.00000E+00
         0.00000E+00
         0.00000E+00
         0.00000E+00
         0.00000E+00
         0.00000E+00
         0.00000E+00
         0.00000E+00
         0.00000E+00
         0.00000E+00
         0.00000E+00
         0.00000E+00
         0.00000E+00
         0.00000E+00
         0.00000E+00
         0.00000E+00
         0.00000E+00
         0.00000E+00
         0.00000E+00
         0.00000E+00
         0.00000E+00
         0.00000E+00
         0.00000E+00
         0.00000E+00
         0.00000E+00
         0.00000E+00
         0.00000E+00
         0.00000E+00
         0.00000E+00
         0.00000E+00
         0.00000E+00
         0.00000E+00
         0.00000E+00
         0.00000E+00
         0.00000E+00
         0.00000E+00
         0.00000E+00
         0.00000E+00
         0.00000E+00
         0.00000E+00
         0.00000E+00
         0.00000E+00
         0.00000E+00
         0.00000E+00
         0.00000E+00
         0.00000E+00
         0.00000E+00
         0.00000E+00
         0.00000E+00
         0.00000E+00
         0.00000E+00
         0.00000E+00
         0.00000E+00
         0.00000E+00
         0.00000E+00
         0.00000E+00
         0.00000E+00
         0.00000E+00
         0.00000E+00
         0.00000E+00
         0.00000E+00
         0.00000E+00
         0.00000E+00
         0.00000E+00
         0.00000E+00
         0.00000E+00
         0.00000E+00
         0.00000E+00
         0.00000E+00
         0.00000E+00
         0.00000E+00
         0.00000E+00
         0.00000E+00
         0.00000E+00
         0.00000E+00
         0.00000E+00
         0.00000E+00
         0.00000E+00
         0.00000E+00
         0.00000E+00
         0.00000E+00
         0.00000E+00
         0.00000E+00
         0.00000E+00
         0.00000E+00
         0.00000E+00
         0.00000E+00
         0.00000E+00
         0.00000E+00
         0.00000E+00
         0.00000E+00
         0.00000E+00
         0.00000E+00
         0.00000E+00
         0.00000E+00
         0.00000E+00
         0.00000E+00
         0.00000E+00
         0.00000E+00
         0.00000E+00
         0.00000E+00
         0.00000E+00
         0.00000E+00
         0.00000E+00
         0.00000E+00
         0.00000E+00
         0.00000E+00
         0.00000E+00
         0.00000E+00
         0.00000E+00
         0.00000E+00
         0.00000E+00
         0.00000E+00
         0.00000E+00
         0.00000E+00
         0.00000E+00
         0.00000E+00
         0.00000E+00
         0.00000E+00
         0.00000E+00
         0.00000E+00
         0.00000E+00
         0.00000E+00
         0.00000E+00
         0.00000E+00
         0.00000E+00
         0.00000E+00
         0.00000E+00
         0.00000E+00
         0.00000E+00
         0.00000E+00
         0.00000E+00
         0.00000E+00
         0.00000E+00
         0.00000E+00
         0.00000E+00
         0.00000E+00
         0.00000E+00
         0.00000E+00
         0.00000E+00
         0.00000E+00
         0.00000E+00
         0.00000E+00
         0.00000E+00
         0.00000E+00
         0.00000E+00
         0.00000E+00
         0.00000E+00
         0.00000E+00
         0.00000E+00
         0.00000E+00
         0.00000E+00
         0.00000E+00
         0.00000E+00
         0.00000E+00
         0.00000E+00
         0.00000E+00
         0.00000E+00
         0.00000E+00
         0.00000E+00
         0.00000E+00
         0.00000E+00
         0.00000E+00
         0.00000E+00
         0.00000E+00
         0.00000E+00
         0.00000E+00
         0.00000E+00
         0.00000E+00
         0.00000E+00
         0.00000E+00
         0.00000E+00
         0.00000E+00
         0.00000E+00
         0.00000E+00
         0.00000E+00
         0.00000E+00
         0.00000E+00
         0.00000E+00
         0.00000E+00
         0.00000E+00
         0.00000E+00
         0.00000E+00
         0.00000E+00
         0.00000E+00
         0.00000E+00
         0.00000E+00
         0.00000E+00
         0.00000E+00
         0.00000E+00
         0.00000E+00
         0.00000E+00
         0.00000E+00
         0.00000E+00
         0.00000E+00
         0.00000E+00
         0.00000E+00
         0.00000E+00
         0.00000E+00
         0.00000E+00
         0.00000E+00
         0.00000E+00
         0.00000E+00
         0.00000E+00
         0.00000E+00
         0.00000E+00
         0.00000E+00
         0.00000E+00
         0.00000E+00
         0.00000E+00
         0.00000E+00
         0.00000E+00
         0.00000E+00
         0.00000E+00
         0.00000E+00
         0.00000E+00
         0.00000E+00
         0.00000E+00
         0.00000E+00
         0.00000E+00
         0.00000E+00
         0.00000E+00
         0.00000E+00
         0.00000E+00
         0.00000E+00
         0.00000E+00
         0.00000E+00
         0.00000E+00
         0.00000E+00
         0.00000E+00
         0.00000E+00
         0.00000E+00
         0.00000E+00
         0.00000E+00
         0.00000E+00
         0.00000E+00
         0.00000E+00
         0.00000E+00
         0.00000E+00
         0.00000E+00
         0.00000E+00
         0.00000E+00
         0.00000E+00
         0.00000E+00
         0.00000E+00
         0.00000E+00
         0.00000E+00
         0.00000E+00
         0.00000E+00
         0.00000E+00
         0.00000E+00
         0.00000E+00
         0.00000E+00
         0.00000E+00
         0.00000E+00
         0.00000E+00
         0.00000E+00
         0.00000E+00
         0.00000E+00
         0.00000E+00
         0.00000E+00
         0.00000E+00
         0.00000E+00
         0.00000E+00
         0.00000E+00
         0.00000E+00
         0.00000E+00
         0.00000E+00
         0.00000E+00
         0.00000E+00
         0.00000E+00
         0.00000E+00
         0.00000E+00
         0.00000E+00
         0.00000E+00
         0.00000E+00
         0.00000E+00
         0.00000E+00
         0.00000E+00
         0.00000E+00
         0.00000E+00
         0.00000E+00
         0.00000E+00
         0.00000E+00
         0.00000E+00
         0.00000E+00
         0.00000E+00
         0.00000E+00
         0.00000E+00
         0.00000E+00
         0.00000E+00
         0.00000E+00
         0.00000E+00
         0.00000E+00
         0.00000E+00
         0.00000E+00
         0.00000E+00
         0.00000E+00
         0.00000E+00
         0.00000E+00
         0.00000E+00
         0.00000E+00
         0.00000E+00
         0.00000E+00
         0.00000E+00
         0.00000E+00
         0.00000E+00
         0.00000E+00
         0.00000E+00
         0.00000E+00
         0.00000E+00
         0.00000E+00
         0.00000E+00
         0.00000E+00
         0.00000E+00
         0.00000E+00
         0.00000E+00
         0.00000E+00
         0.00000E+00
         0.00000E+00
         0.00000E+00
         0.00000E+00
         0.00000E+00
         0.00000E+00
         0.00000E+00
         0.00000E+00
         0.00000E+00
         0.00000E+00
         0.00000E+00
         0.00000E+00
         0.00000E+00
         0.00000E+00
         0.00000E+00
         0.00000E+00
         0.00000E+00
         0.00000E+00
         0.00000E+00
         0.00000E+00
         0.00000E+00
         0.00000E+00
         0.00000E+00
         0.00000E+00
         0.00000E+00
         0.00000E+00
         0.00000E+00
         0.00000E+00
         0.00000E+00
         0.00000E+00
         0.00000E+00
         0.00000E+00
         0.00000E+00
         0.00000E+00
         0.00000E+00
         0.00000E+00
         0.00000E+00
         0.00000E+00
         0.00000E+00
         0.00000E+00
         0.00000E+00
         0.00000E+00
         0.00000E+00
         0.00000E+00
         0.00000E+00
         0.00000E+00
         0.00000E+00
         0.00000E+00
         0.00000E+00
         0.00000E+00
         0.00000E+00
         0.00000E+00
         0.00000E+00
         0.00000E+00
         0.00000E+00
         0.00000E+00
         0.00000E+00
         0.00000E+00
         0.00000E+00
         0.00000E+00
         0.00000E+00
         0.00000E+00
         0.00000E+00
         0.00000E+00
         0.00000E+00
         0.00000E+00
         0.00000E+00
         0.00000E+00
         0.00000E+00
         0.00000E+00
         0.00000E+00
         0.00000E+00
         0.00000E+00
         0.00000E+00
         0.00000E+00
         0.00000E+00
         0.00000E+00
         0.00000E+00
         0.00000E+00
         0.00000E+00
         0.00000E+00
         0.00000E+00
         0.00000E+00
         0.00000E+00
         0.00000E+00
         0.00000E+00
         0.00000E+00
         0.00000E+00
         0.00000E+00
         0.00000E+00
         0.00000E+00
         0.00000E+00
         0.00000E+00
         0.00000E+00
         0.00000E+00
         0.00000E+00
         0.00000E+00
         0.00000E+00
         0.00000E+00
         0.00000E+00
         0.00000E+00
         0.00000E+00
         0.00000E+00
         0.00000E+00
         0.00000E+00
         0.00000E+00
         0.00000E+00
         0.00000E+00
         0.00000E+00
         0.00000E+00
         0.00000E+00
         0.00000E+00
         0.00000E+00
         0.00000E+00
         0.00000E+00
         0.00000E+00
         0.00000E+00
         0.00000E+00
         0.00000E+00
         0.00000E+00
         0.00000E+00
         0.00000E+00
         0.00000E+00
         0.00000E+00
         0.00000E+00
         0.00000E+00
         0.00000E+00
         0.00000E+00
         0.00000E+00
         0.00000E+00
         0.00000E+00
         0.00000E+00
         0.00000E+00
         0.00000E+00
         0.00000E+00
         0.00000E+00
         0.00000E+00
         0.00000E+00
         0.00000E+00
         0.00000E+00
         0.00000E+00
         0.00000E+00
         0.00000E+00
         0.00000E+00
         0.00000E+00
         0.00000E+00
         0.00000E+00
         0.00000E+00
         0.00000E+00
         0.00000E+00
         0.00000E+00
         0.00000E+00
         0.00000E+00
         0.00000E+00
         0.00000E+00
         0.00000E+00
         0.00000E+00
         0.00000E+00
         0.00000E+00
         0.00000E+00
         0.00000E+00
         0.00000E+00
         0.00000E+00
         0.00000E+00
         0.00000E+00
         0.00000E+00
         0.00000E+00
         0.00000E+00
         0.00000E+00
         0.00000E+00
         0.00000E+00
         0.00000E+00
         0.00000E+00
         0.00000E+00
         0.00000E+00
         0.00000E+00
         0.00000E+00
         0.00000E+00
         0.00000E+00
         0.00000E+00
         0.00000E+00
         0.00000E+00
         0.00000E+00
         0.00000E+00
         0.00000E+00
         0.00000E+00
         0.00000E+00
         0.00000E+00
         0.00000E+00
         0.00000E+00
         0.00000E+00
         0.00000E+00
         0.00000E+00
         0.00000E+00
         0.00000E+00
         0.00000E+00
         0.00000E+00
         0.00000E+00
         0.00000E+00
         0.00000E+00
         0.00000E+00
         0.00000E+00
         0.00000E+00
         0.00000E+00
         0.00000E+00
         0.00000E+00
         0.00000E+00
         0.00000E+00
         0.00000E+00
         0.00000E+00
         0.00000E+00
         0.00000E+00
         0.00000E+00
         0.00000E+00
         0.00000E+00
         0.00000E+00
         0.00000E+00
         0.00000E+00
         0.00000E+00
         0.00000E+00
         0.00000E+00
         0.00000E+00
         0.00000E+00
         0.00000E+00
         0.00000E+00
         0.00000E+00
         0.00000E+00
         0.00000E+00
         0.00000E+00
         0.00000E+00
         0.00000E+00
         0.00000E+00
         0.00000E+00
         0.00000E+00
         0.00000E+00
         0.00000E+00
         0.00000E+00
         0.00000E+00
         0.00000E+00
         0.00000E+00
         0.00000E+00
         0.00000E+00
         0.00000E+00
         0.00000E+00
         0.00000E+00
         0.00000E+00
         0.00000E+00
         0.00000E+00
         0.00000E+00
         0.00000E+00
         0.00000E+00
         0.00000E+00
         0.00000E+00
         0.00000E+00
         0.00000E+00
         0.00000E+00
         0.00000E+00
         0.00000E+00
         0.00000E+00
         0.00000E+00
         0.00000E+00
         0.00000E+00
         0.00000E+00
         0.00000E+00
         0.00000E+00
         0.00000E+00
         0.00000E+00
         0.00000E+00
         0.00000E+00
         0.00000E+00
         0.00000E+00
         0.00000E+00
         0.00000E+00
         0.00000E+00
         0.00000E+00
  
SCALARS                init_velocity_z  double 1
LOOKUP_TABLE default
        -0.37300E+03
        -0.37300E+03
        -0.37300E+03
        -0.37300E+03
        -0.37300E+03
        -0.37300E+03
        -0.37300E+03
        -0.37300E+03
        -0.37300E+03
        -0.37300E+03
        -0.37300E+03
        -0.37300E+03
        -0.37300E+03
        -0.37300E+03
        -0.37300E+03
        -0.37300E+03
        -0.37300E+03
        -0.37300E+03
        -0.37300E+03
        -0.37300E+03
        -0.37300E+03
        -0.37300E+03
        -0.37300E+03
        -0.37300E+03
        -0.37300E+03
        -0.37300E+03
        -0.37300E+03
        -0.37300E+03
        -0.37300E+03
        -0.37300E+03
        -0.37300E+03
        -0.37300E+03
        -0.37300E+03
        -0.37300E+03
        -0.37300E+03
        -0.37300E+03
        -0.37300E+03
        -0.37300E+03
        -0.37300E+03
        -0.37300E+03
        -0.37300E+03
        -0.37300E+03
        -0.37300E+03
        -0.37300E+03
        -0.37300E+03
        -0.37300E+03
        -0.37300E+03
        -0.37300E+03
        -0.37300E+03
        -0.37300E+03
        -0.37300E+03
        -0.37300E+03
        -0.37300E+03
        -0.37300E+03
        -0.37300E+03
        -0.37300E+03
        -0.37300E+03
        -0.37300E+03
        -0.37300E+03
        -0.37300E+03
        -0.37300E+03
        -0.37300E+03
        -0.37300E+03
        -0.37300E+03
        -0.37300E+03
        -0.37300E+03
        -0.37300E+03
        -0.37300E+03
        -0.37300E+03
        -0.37300E+03
        -0.37300E+03
        -0.37300E+03
        -0.37300E+03
        -0.37300E+03
        -0.37300E+03
        -0.37300E+03
        -0.37300E+03
        -0.37300E+03
        -0.37300E+03
        -0.37300E+03
        -0.37300E+03
        -0.37300E+03
        -0.37300E+03
        -0.37300E+03
        -0.37300E+03
        -0.37300E+03
        -0.37300E+03
        -0.37300E+03
        -0.37300E+03
        -0.37300E+03
        -0.37300E+03
        -0.37300E+03
        -0.37300E+03
        -0.37300E+03
        -0.37300E+03
        -0.37300E+03
        -0.37300E+03
        -0.37300E+03
        -0.37300E+03
        -0.37300E+03
        -0.37300E+03
        -0.37300E+03
        -0.37300E+03
        -0.37300E+03
        -0.37300E+03
        -0.37300E+03
        -0.37300E+03
        -0.37300E+03
        -0.37300E+03
        -0.37300E+03
        -0.37300E+03
        -0.37300E+03
        -0.37300E+03
        -0.37300E+03
        -0.37300E+03
        -0.37300E+03
        -0.37300E+03
        -0.37300E+03
        -0.37300E+03
        -0.37300E+03
        -0.37300E+03
        -0.37300E+03
        -0.37300E+03
        -0.37300E+03
        -0.37300E+03
        -0.37300E+03
        -0.37300E+03
        -0.37300E+03
        -0.37300E+03
        -0.37300E+03
        -0.37300E+03
        -0.37300E+03
        -0.37300E+03
        -0.37300E+03
        -0.37300E+03
        -0.37300E+03
        -0.37300E+03
        -0.37300E+03
        -0.37300E+03
        -0.37300E+03
        -0.37300E+03
        -0.37300E+03
        -0.37300E+03
        -0.37300E+03
        -0.37300E+03
        -0.37300E+03
        -0.37300E+03
        -0.37300E+03
        -0.37300E+03
        -0.37300E+03
        -0.37300E+03
        -0.37300E+03
        -0.37300E+03
        -0.37300E+03
        -0.37300E+03
        -0.37300E+03
        -0.37300E+03
        -0.37300E+03
        -0.37300E+03
        -0.37300E+03
        -0.37300E+03
        -0.37300E+03
        -0.37300E+03
        -0.37300E+03
        -0.37300E+03
        -0.37300E+03
        -0.37300E+03
        -0.37300E+03
        -0.37300E+03
        -0.37300E+03
        -0.37300E+03
        -0.37300E+03
        -0.37300E+03
        -0.37300E+03
        -0.37300E+03
        -0.37300E+03
        -0.37300E+03
        -0.37300E+03
        -0.37300E+03
        -0.37300E+03
        -0.37300E+03
        -0.37300E+03
        -0.37300E+03
        -0.37300E+03
        -0.37300E+03
        -0.37300E+03
        -0.37300E+03
        -0.37300E+03
        -0.37300E+03
        -0.37300E+03
        -0.37300E+03
        -0.37300E+03
        -0.37300E+03
        -0.37300E+03
        -0.37300E+03
        -0.37300E+03
        -0.37300E+03
        -0.37300E+03
        -0.37300E+03
        -0.37300E+03
        -0.37300E+03
        -0.37300E+03
        -0.37300E+03
        -0.37300E+03
        -0.37300E+03
        -0.37300E+03
        -0.37300E+03
        -0.37300E+03
        -0.37300E+03
        -0.37300E+03
        -0.37300E+03
        -0.37300E+03
        -0.37300E+03
        -0.37300E+03
        -0.37300E+03
        -0.37300E+03
        -0.37300E+03
        -0.37300E+03
        -0.37300E+03
        -0.37300E+03
        -0.37300E+03
        -0.37300E+03
        -0.37300E+03
        -0.37300E+03
        -0.37300E+03
        -0.37300E+03
        -0.37300E+03
        -0.37300E+03
        -0.37300E+03
        -0.37300E+03
        -0.37300E+03
        -0.37300E+03
        -0.37300E+03
        -0.37300E+03
        -0.37300E+03
        -0.37300E+03
        -0.37300E+03
        -0.37300E+03
        -0.37300E+03
        -0.37300E+03
        -0.37300E+03
        -0.37300E+03
        -0.37300E+03
        -0.37300E+03
        -0.37300E+03
        -0.37300E+03
        -0.37300E+03
        -0.37300E+03
        -0.37300E+03
        -0.37300E+03
        -0.37300E+03
        -0.37300E+03
        -0.37300E+03
        -0.37300E+03
        -0.37300E+03
        -0.37300E+03
        -0.37300E+03
        -0.37300E+03
        -0.37300E+03
        -0.37300E+03
        -0.37300E+03
        -0.37300E+03
        -0.37300E+03
        -0.37300E+03
        -0.37300E+03
        -0.37300E+03
        -0.37300E+03
        -0.37300E+03
        -0.37300E+03
        -0.37300E+03
        -0.37300E+03
        -0.37300E+03
        -0.37300E+03
        -0.37300E+03
        -0.37300E+03
        -0.37300E+03
        -0.37300E+03
        -0.37300E+03
        -0.37300E+03
        -0.37300E+03
        -0.37300E+03
        -0.37300E+03
        -0.37300E+03
        -0.37300E+03
        -0.37300E+03
        -0.37300E+03
        -0.37300E+03
        -0.37300E+03
        -0.37300E+03
        -0.37300E+03
        -0.37300E+03
        -0.37300E+03
        -0.37300E+03
        -0.37300E+03
        -0.37300E+03
        -0.37300E+03
        -0.37300E+03
        -0.37300E+03
        -0.37300E+03
        -0.37300E+03
        -0.37300E+03
        -0.37300E+03
        -0.37300E+03
        -0.37300E+03
        -0.37300E+03
        -0.37300E+03
        -0.37300E+03
        -0.37300E+03
        -0.37300E+03
        -0.37300E+03
        -0.37300E+03
        -0.37300E+03
        -0.37300E+03
        -0.37300E+03
        -0.37300E+03
        -0.37300E+03
        -0.37300E+03
        -0.37300E+03
        -0.37300E+03
        -0.37300E+03
        -0.37300E+03
        -0.37300E+03
        -0.37300E+03
        -0.37300E+03
        -0.37300E+03
        -0.37300E+03
        -0.37300E+03
        -0.37300E+03
        -0.37300E+03
        -0.37300E+03
        -0.37300E+03
        -0.37300E+03
        -0.37300E+03
        -0.37300E+03
        -0.37300E+03
        -0.37300E+03
        -0.37300E+03
        -0.37300E+03
        -0.37300E+03
        -0.37300E+03
        -0.37300E+03
        -0.37300E+03
        -0.37300E+03
        -0.37300E+03
        -0.37300E+03
        -0.37300E+03
        -0.37300E+03
        -0.37300E+03
        -0.37300E+03
        -0.37300E+03
        -0.37300E+03
        -0.37300E+03
        -0.37300E+03
        -0.37300E+03
        -0.37300E+03
        -0.37300E+03
        -0.37300E+03
        -0.37300E+03
        -0.37300E+03
        -0.37300E+03
        -0.37300E+03
        -0.37300E+03
        -0.37300E+03
        -0.37300E+03
        -0.37300E+03
        -0.37300E+03
        -0.37300E+03
        -0.37300E+03
        -0.37300E+03
        -0.37300E+03
        -0.37300E+03
        -0.37300E+03
        -0.37300E+03
        -0.37300E+03
        -0.37300E+03
        -0.37300E+03
        -0.37300E+03
        -0.37300E+03
        -0.37300E+03
        -0.37300E+03
        -0.37300E+03
        -0.37300E+03
        -0.37300E+03
        -0.37300E+03
        -0.37300E+03
        -0.37300E+03
        -0.37300E+03
        -0.37300E+03
        -0.37300E+03
        -0.37300E+03
        -0.37300E+03
        -0.37300E+03
        -0.37300E+03
        -0.37300E+03
        -0.37300E+03
        -0.37300E+03
        -0.37300E+03
        -0.37300E+03
        -0.37300E+03
        -0.37300E+03
        -0.37300E+03
        -0.37300E+03
        -0.37300E+03
        -0.37300E+03
        -0.37300E+03
        -0.37300E+03
        -0.37300E+03
        -0.37300E+03
        -0.37300E+03
        -0.37300E+03
        -0.37300E+03
        -0.37300E+03
        -0.37300E+03
        -0.37300E+03
        -0.37300E+03
        -0.37300E+03
        -0.37300E+03
        -0.37300E+03
        -0.37300E+03
        -0.37300E+03
        -0.37300E+03
        -0.37300E+03
        -0.37300E+03
        -0.37300E+03
        -0.37300E+03
        -0.37300E+03
        -0.37300E+03
        -0.37300E+03
        -0.37300E+03
        -0.37300E+03
        -0.37300E+03
        -0.37300E+03
        -0.37300E+03
        -0.37300E+03
        -0.37300E+03
        -0.37300E+03
        -0.37300E+03
        -0.37300E+03
        -0.37300E+03
        -0.37300E+03
        -0.37300E+03
        -0.37300E+03
        -0.37300E+03
        -0.37300E+03
        -0.37300E+03
        -0.37300E+03
        -0.37300E+03
        -0.37300E+03
        -0.37300E+03
        -0.37300E+03
        -0.37300E+03
        -0.37300E+03
        -0.37300E+03
        -0.37300E+03
        -0.37300E+03
        -0.37300E+03
        -0.37300E+03
        -0.37300E+03
        -0.37300E+03
        -0.37300E+03
        -0.37300E+03
        -0.37300E+03
        -0.37300E+03
        -0.37300E+03
        -0.37300E+03
        -0.37300E+03
        -0.37300E+03
        -0.37300E+03
        -0.37300E+03
        -0.37300E+03
        -0.37300E+03
        -0.37300E+03
        -0.37300E+03
        -0.37300E+03
        -0.37300E+03
        -0.37300E+03
        -0.37300E+03
        -0.37300E+03
        -0.37300E+03
        -0.37300E+03
        -0.37300E+03
        -0.37300E+03
        -0.37300E+03
        -0.37300E+03
        -0.37300E+03
        -0.37300E+03
        -0.37300E+03
        -0.37300E+03
        -0.37300E+03
        -0.37300E+03
        -0.37300E+03
        -0.37300E+03
        -0.37300E+03
        -0.37300E+03
        -0.37300E+03
        -0.37300E+03
        -0.37300E+03
        -0.37300E+03
        -0.37300E+03
        -0.37300E+03
        -0.37300E+03
        -0.37300E+03
        -0.37300E+03
        -0.37300E+03
        -0.37300E+03
        -0.37300E+03
        -0.37300E+03
        -0.37300E+03
        -0.37300E+03
        -0.37300E+03
        -0.37300E+03
        -0.37300E+03
        -0.37300E+03
        -0.37300E+03
        -0.37300E+03
        -0.37300E+03
        -0.37300E+03
        -0.37300E+03
        -0.37300E+03
        -0.37300E+03
        -0.37300E+03
        -0.37300E+03
        -0.37300E+03
        -0.37300E+03
        -0.37300E+03
        -0.37300E+03
        -0.37300E+03
        -0.37300E+03
        -0.37300E+03
        -0.37300E+03
        -0.37300E+03
        -0.37300E+03
        -0.37300E+03
        -0.37300E+03
        -0.37300E+03
        -0.37300E+03
        -0.37300E+03
        -0.37300E+03
        -0.37300E+03
        -0.37300E+03
        -0.37300E+03
        -0.37300E+03
        -0.37300E+03
        -0.37300E+03
        -0.37300E+03
        -0.37300E+03
        -0.37300E+03
        -0.37300E+03
        -0.37300E+03
        -0.37300E+03
        -0.37300E+03
        -0.37300E+03
        -0.37300E+03
        -0.37300E+03
        -0.37300E+03
        -0.37300E+03
        -0.37300E+03
        -0.37300E+03
        -0.37300E+03
        -0.37300E+03
        -0.37300E+03
        -0.37300E+03
        -0.37300E+03
        -0.37300E+03
        -0.37300E+03
        -0.37300E+03
        -0.37300E+03
        -0.37300E+03
        -0.37300E+03
        -0.37300E+03
        -0.37300E+03
        -0.37300E+03
        -0.37300E+03
        -0.37300E+03
        -0.37300E+03
        -0.37300E+03
        -0.37300E+03
        -0.37300E+03
        -0.37300E+03
        -0.37300E+03
        -0.37300E+03
        -0.37300E+03
        -0.37300E+03
        -0.37300E+03
        -0.37300E+03
        -0.37300E+03
        -0.37300E+03
        -0.37300E+03
        -0.37300E+03
        -0.37300E+03
        -0.37300E+03
        -0.37300E+03
        -0.37300E+03
        -0.37300E+03
        -0.37300E+03
        -0.37300E+03
        -0.37300E+03
        -0.37300E+03
        -0.37300E+03
        -0.37300E+03
        -0.37300E+03
        -0.37300E+03
        -0.37300E+03
        -0.37300E+03
        -0.37300E+03
        -0.37300E+03
        -0.37300E+03
        -0.37300E+03
        -0.37300E+03
        -0.37300E+03
        -0.37300E+03
        -0.37300E+03
        -0.37300E+03
        -0.37300E+03
        -0.37300E+03
        -0.37300E+03
        -0.37300E+03
        -0.37300E+03
        -0.37300E+03
        -0.37300E+03
        -0.37300E+03
        -0.37300E+03
        -0.37300E+03
        -0.37300E+03
        -0.37300E+03
        -0.37300E+03
        -0.37300E+03
        -0.37300E+03
        -0.37300E+03
        -0.37300E+03
        -0.37300E+03
        -0.37300E+03
        -0.37300E+03
        -0.37300E+03
        -0.37300E+03
        -0.37300E+03
        -0.37300E+03
        -0.37300E+03
        -0.37300E+03
        -0.37300E+03
        -0.37300E+03
        -0.37300E+03
        -0.37300E+03
        -0.37300E+03
        -0.37300E+03
        -0.37300E+03
        -0.37300E+03
        -0.37300E+03
        -0.37300E+03
        -0.37300E+03
        -0.37300E+03
        -0.37300E+03
        -0.37300E+03
        -0.37300E+03
        -0.37300E+03
        -0.37300E+03
        -0.37300E+03
        -0.37300E+03
        -0.37300E+03
        -0.37300E+03
        -0.37300E+03
        -0.37300E+03
        -0.37300E+03
        -0.37300E+03
        -0.37300E+03
        -0.37300E+03
        -0.37300E+03
        -0.37300E+03
        -0.37300E+03
        -0.37300E+03
        -0.37300E+03
        -0.37300E+03
        -0.37300E+03
        -0.37300E+03
        -0.37300E+03
        -0.37300E+03
        -0.37300E+03
        -0.37300E+03
        -0.37300E+03
        -0.37300E+03
        -0.37300E+03
        -0.37300E+03
        -0.37300E+03
        -0.37300E+03
        -0.37300E+03
        -0.37300E+03
        -0.37300E+03
        -0.37300E+03
        -0.37300E+03
        -0.37300E+03
        -0.37300E+03
        -0.37300E+03
        -0.37300E+03
        -0.37300E+03
        -0.37300E+03
        -0.37300E+03
        -0.37300E+03
        -0.37300E+03
        -0.37300E+03
        -0.37300E+03
        -0.37300E+03
        -0.37300E+03
        -0.37300E+03
        -0.37300E+03
        -0.37300E+03
        -0.37300E+03
        -0.37300E+03
        -0.37300E+03
        -0.37300E+03
        -0.37300E+03
        -0.37300E+03
        -0.37300E+03
        -0.37300E+03
        -0.37300E+03
        -0.37300E+03
        -0.37300E+03
        -0.37300E+03
        -0.37300E+03
        -0.37300E+03
        -0.37300E+03
        -0.37300E+03
        -0.37300E+03
        -0.37300E+03
        -0.37300E+03
        -0.37300E+03
        -0.37300E+03
        -0.37300E+03
        -0.37300E+03
        -0.37300E+03
        -0.37300E+03
        -0.37300E+03
        -0.37300E+03
        -0.37300E+03
        -0.37300E+03
        -0.37300E+03
        -0.37300E+03
        -0.37300E+03
        -0.37300E+03
        -0.37300E+03
        -0.37300E+03
        -0.37300E+03
        -0.37300E+03
        -0.37300E+03
        -0.37300E+03
        -0.37300E+03
        -0.37300E+03
        -0.37300E+03
        -0.37300E+03
        -0.37300E+03
        -0.37300E+03
        -0.37300E+03
        -0.37300E+03
        -0.37300E+03
        -0.37300E+03
        -0.37300E+03
        -0.37300E+03
        -0.37300E+03
        -0.37300E+03
        -0.37300E+03
        -0.37300E+03
        -0.37300E+03
        -0.37300E+03
        -0.37300E+03
        -0.37300E+03
        -0.37300E+03
        -0.37300E+03
        -0.37300E+03
        -0.37300E+03
        -0.37300E+03
        -0.37300E+03
        -0.37300E+03
        -0.37300E+03
        -0.37300E+03
        -0.37300E+03
        -0.37300E+03
        -0.37300E+03
        -0.37300E+03
        -0.37300E+03
        -0.37300E+03
        -0.37300E+03
        -0.37300E+03
        -0.37300E+03
        -0.37300E+03
        -0.37300E+03
        -0.37300E+03
        -0.37300E+03
        -0.37300E+03
        -0.37300E+03
        -0.37300E+03
        -0.37300E+03
        -0.37300E+03
        -0.37300E+03
        -0.37300E+03
        -0.37300E+03
        -0.37300E+03
        -0.37300E+03
        -0.37300E+03
        -0.37300E+03
        -0.37300E+03
        -0.37300E+03
        -0.37300E+03
        -0.37300E+03
        -0.37300E+03
        -0.37300E+03
        -0.37300E+03
        -0.37300E+03
        -0.37300E+03
        -0.37300E+03
        -0.37300E+03
        -0.37300E+03
        -0.37300E+03
        -0.37300E+03
        -0.37300E+03
        -0.37300E+03
        -0.37300E+03
        -0.37300E+03
        -0.37300E+03
        -0.37300E+03
        -0.37300E+03
        -0.37300E+03
        -0.37300E+03
        -0.37300E+03
        -0.37300E+03
        -0.37300E+03
        -0.37300E+03
        -0.37300E+03
        -0.37300E+03
        -0.37300E+03
        -0.37300E+03
        -0.37300E+03
        -0.37300E+03
        -0.37300E+03
        -0.37300E+03
        -0.37300E+03
        -0.37300E+03
        -0.37300E+03
        -0.37300E+03
        -0.37300E+03
        -0.37300E+03
        -0.37300E+03
        -0.37300E+03
        -0.37300E+03
        -0.37300E+03
        -0.37300E+03
        -0.37300E+03
        -0.37300E+03
        -0.37300E+03
        -0.37300E+03
        -0.37300E+03
        -0.37300E+03
        -0.37300E+03
        -0.37300E+03
        -0.37300E+03
        -0.37300E+03
        -0.37300E+03
        -0.37300E+03
        -0.37300E+03
        -0.37300E+03
        -0.37300E+03
        -0.37300E+03
        -0.37300E+03
        -0.37300E+03
        -0.37300E+03
        -0.37300E+03
        -0.37300E+03
        -0.37300E+03
        -0.37300E+03
        -0.37300E+03
        -0.37300E+03
        -0.37300E+03
        -0.37300E+03
        -0.37300E+03
        -0.37300E+03
        -0.37300E+03
        -0.37300E+03
        -0.37300E+03
        -0.37300E+03
        -0.37300E+03
        -0.37300E+03
        -0.37300E+03
        -0.37300E+03
        -0.37300E+03
        -0.37300E+03
        -0.37300E+03
        -0.37300E+03
        -0.37300E+03
        -0.37300E+03
        -0.37300E+03
        -0.37300E+03
        -0.37300E+03
        -0.37300E+03
        -0.37300E+03
        -0.37300E+03
        -0.37300E+03
        -0.37300E+03
        -0.37300E+03
        -0.37300E+03
        -0.37300E+03
        -0.37300E+03
        -0.37300E+03
        -0.37300E+03
        -0.37300E+03
        -0.37300E+03
        -0.37300E+03
        -0.37300E+03
        -0.37300E+03
        -0.37300E+03
        -0.37300E+03
        -0.37300E+03
        -0.37300E+03
        -0.37300E+03
        -0.37300E+03
        -0.37300E+03
        -0.37300E+03
        -0.37300E+03
        -0.37300E+03
        -0.37300E+03
        -0.37300E+03
        -0.37300E+03
        -0.37300E+03
        -0.37300E+03
        -0.37300E+03
        -0.37300E+03
        -0.37300E+03
        -0.37300E+03
        -0.37300E+03
        -0.37300E+03
        -0.37300E+03
        -0.37300E+03
        -0.37300E+03
        -0.37300E+03
        -0.37300E+03
        -0.37300E+03
        -0.37300E+03
        -0.37300E+03
        -0.37300E+03
        -0.37300E+03
        -0.37300E+03
        -0.37300E+03
        -0.37300E+03
        -0.37300E+03
        -0.37300E+03
        -0.37300E+03
        -0.37300E+03
        -0.37300E+03
        -0.37300E+03
        -0.37300E+03
        -0.37300E+03
        -0.37300E+03
        -0.37300E+03
        -0.37300E+03
        -0.37300E+03
        -0.37300E+03
        -0.37300E+03
        -0.37300E+03
        -0.37300E+03
        -0.37300E+03
        -0.37300E+03
        -0.37300E+03
        -0.37300E+03
        -0.37300E+03
        -0.37300E+03
        -0.37300E+03
        -0.37300E+03
        -0.37300E+03
        -0.37300E+03
        -0.37300E+03
        -0.37300E+03
        -0.37300E+03
        -0.37300E+03
        -0.37300E+03
        -0.37300E+03
        -0.37300E+03
        -0.37300E+03
        -0.37300E+03
        -0.37300E+03
        -0.37300E+03
        -0.37300E+03
        -0.37300E+03
        -0.37300E+03
        -0.37300E+03
        -0.37300E+03
        -0.37300E+03
        -0.37300E+03
        -0.37300E+03
        -0.37300E+03
        -0.37300E+03
        -0.37300E+03
        -0.37300E+03
        -0.37300E+03
        -0.37300E+03
        -0.37300E+03
        -0.37300E+03
        -0.37300E+03
        -0.37300E+03
        -0.37300E+03
        -0.37300E+03
        -0.37300E+03
        -0.37300E+03
        -0.37300E+03
        -0.37300E+03
        -0.37300E+03
        -0.37300E+03
        -0.37300E+03
        -0.37300E+03
        -0.37300E+03
        -0.37300E+03
        -0.37300E+03
        -0.37300E+03
        -0.37300E+03
        -0.37300E+03
        -0.37300E+03
        -0.37300E+03
        -0.37300E+03
        -0.37300E+03
        -0.37300E+03
        -0.37300E+03
        -0.37300E+03
        -0.37300E+03
        -0.37300E+03
        -0.37300E+03
        -0.37300E+03
        -0.37300E+03
        -0.37300E+03
        -0.37300E+03
        -0.37300E+03
        -0.37300E+03
        -0.37300E+03
        -0.37300E+03
        -0.37300E+03
        -0.37300E+03
        -0.37300E+03
        -0.37300E+03
        -0.37300E+03
        -0.37300E+03
        -0.37300E+03
        -0.37300E+03
        -0.37300E+03
        -0.37300E+03
        -0.37300E+03
        -0.37300E+03
        -0.37300E+03
        -0.37300E+03
        -0.37300E+03
        -0.37300E+03
        -0.37300E+03
        -0.37300E+03
        -0.37300E+03
        -0.37300E+03
        -0.37300E+03
        -0.37300E+03
        -0.37300E+03
        -0.37300E+03
        -0.37300E+03
        -0.37300E+03
        -0.37300E+03
        -0.37300E+03
        -0.37300E+03
        -0.37300E+03
        -0.37300E+03
        -0.37300E+03
        -0.37300E+03
        -0.37300E+03
        -0.37300E+03
        -0.37300E+03
        -0.37300E+03
        -0.37300E+03
        -0.37300E+03
        -0.37300E+03
        -0.37300E+03
        -0.37300E+03
        -0.37300E+03
        -0.37300E+03
        -0.37300E+03
        -0.37300E+03
        -0.37300E+03
        -0.37300E+03
        -0.37300E+03
        -0.37300E+03
        -0.37300E+03
        -0.37300E+03
        -0.37300E+03
        -0.37300E+03
        -0.37300E+03
        -0.37300E+03
        -0.37300E+03
        -0.37300E+03
        -0.37300E+03
        -0.37300E+03
        -0.37300E+03
        -0.37300E+03
        -0.37300E+03
        -0.37300E+03
        -0.37300E+03
        -0.37300E+03
        -0.37300E+03
        -0.37300E+03
        -0.37300E+03
        -0.37300E+03
        -0.37300E+03
        -0.37300E+03
        -0.37300E+03
        -0.37300E+03
        -0.37300E+03
        -0.37300E+03
        -0.37300E+03
        -0.37300E+03
        -0.37300E+03
        -0.37300E+03
        -0.37300E+03
        -0.37300E+03
        -0.37300E+03
        -0.37300E+03
        -0.37300E+03
        -0.37300E+03
        -0.37300E+03
        -0.37300E+03
        -0.37300E+03
        -0.37300E+03
        -0.37300E+03
        -0.37300E+03
        -0.37300E+03
        -0.37300E+03
        -0.37300E+03
        -0.37300E+03
        -0.37300E+03
        -0.37300E+03
        -0.37300E+03
        -0.37300E+03
        -0.37300E+03
        -0.37300E+03
        -0.37300E+03
        -0.37300E+03
        -0.37300E+03
        -0.37300E+03
        -0.37300E+03
        -0.37300E+03
        -0.37300E+03
        -0.37300E+03
        -0.37300E+03
        -0.37300E+03
        -0.37300E+03
        -0.37300E+03
        -0.37300E+03
        -0.37300E+03
        -0.37300E+03
        -0.37300E+03
        -0.37300E+03
        -0.37300E+03
        -0.37300E+03
        -0.37300E+03
        -0.37300E+03
        -0.37300E+03
        -0.37300E+03
        -0.37300E+03
        -0.37300E+03
        -0.37300E+03
        -0.37300E+03
        -0.37300E+03
        -0.37300E+03
        -0.37300E+03
        -0.37300E+03
        -0.37300E+03
        -0.37300E+03
        -0.37300E+03
        -0.37300E+03
        -0.37300E+03
        -0.37300E+03
        -0.37300E+03
        -0.37300E+03
        -0.37300E+03
        -0.37300E+03
        -0.37300E+03
        -0.37300E+03
        -0.37300E+03
        -0.37300E+03
        -0.37300E+03
        -0.37300E+03
        -0.37300E+03
        -0.37300E+03
        -0.37300E+03
        -0.37300E+03
        -0.37300E+03
        -0.37300E+03
        -0.37300E+03
        -0.37300E+03
        -0.37300E+03
        -0.37300E+03
        -0.37300E+03
        -0.37300E+03
        -0.37300E+03
        -0.37300E+03
        -0.37300E+03
        -0.37300E+03
        -0.37300E+03
        -0.37300E+03
        -0.37300E+03
        -0.37300E+03
        -0.37300E+03
        -0.37300E+03
        -0.37300E+03
        -0.37300E+03
        -0.37300E+03
        -0.37300E+03
        -0.37300E+03
        -0.37300E+03
        -0.37300E+03
        -0.37300E+03
        -0.37300E+03
        -0.37300E+03
        -0.37300E+03
        -0.37300E+03
        -0.37300E+03
        -0.37300E+03
        -0.37300E+03
        -0.37300E+03
        -0.37300E+03
        -0.37300E+03
        -0.37300E+03
        -0.37300E+03
        -0.37300E+03
        -0.37300E+03
        -0.37300E+03
        -0.37300E+03
        -0.37300E+03
        -0.37300E+03
        -0.37300E+03
        -0.37300E+03
        -0.37300E+03
        -0.37300E+03
        -0.37300E+03
        -0.37300E+03
        -0.37300E+03
        -0.37300E+03
        -0.37300E+03
        -0.37300E+03
        -0.37300E+03
        -0.37300E+03
        -0.37300E+03
        -0.37300E+03
        -0.37300E+03
        -0.37300E+03
        -0.37300E+03
        -0.37300E+03
        -0.37300E+03
        -0.37300E+03
        -0.37300E+03
        -0.37300E+03
        -0.37300E+03
        -0.37300E+03
        -0.37300E+03
        -0.37300E+03
        -0.37300E+03
        -0.37300E+03
        -0.37300E+03
        -0.37300E+03
        -0.37300E+03
        -0.37300E+03
        -0.37300E+03
        -0.37300E+03
        -0.37300E+03
        -0.37300E+03
        -0.37300E+03
        -0.37300E+03
        -0.37300E+03
        -0.37300E+03
        -0.37300E+03
        -0.37300E+03
        -0.37300E+03
        -0.37300E+03
        -0.37300E+03
        -0.37300E+03
        -0.37300E+03
        -0.37300E+03
        -0.37300E+03
        -0.37300E+03
        -0.37300E+03
        -0.37300E+03
        -0.37300E+03
        -0.37300E+03
        -0.37300E+03
        -0.37300E+03
        -0.37300E+03
        -0.37300E+03
        -0.37300E+03
        -0.37300E+03
        -0.37300E+03
        -0.37300E+03
        -0.37300E+03
        -0.37300E+03
        -0.37300E+03
        -0.37300E+03
        -0.37300E+03
        -0.37300E+03
        -0.37300E+03
        -0.37300E+03
        -0.37300E+03
        -0.37300E+03
        -0.37300E+03
        -0.37300E+03
        -0.37300E+03
        -0.37300E+03
        -0.37300E+03
        -0.37300E+03
        -0.37300E+03
        -0.37300E+03
        -0.37300E+03
        -0.37300E+03
        -0.37300E+03
        -0.37300E+03
        -0.37300E+03
        -0.37300E+03
        -0.37300E+03
        -0.37300E+03
        -0.37300E+03
        -0.37300E+03
        -0.37300E+03
        -0.37300E+03
        -0.37300E+03
        -0.37300E+03
        -0.37300E+03
        -0.37300E+03
        -0.37300E+03
        -0.37300E+03
        -0.37300E+03
        -0.37300E+03
        -0.37300E+03
        -0.37300E+03
        -0.37300E+03
        -0.37300E+03
        -0.37300E+03
        -0.37300E+03
        -0.37300E+03
        -0.37300E+03
        -0.37300E+03
        -0.37300E+03
        -0.37300E+03
        -0.37300E+03
        -0.37300E+03
        -0.37300E+03
        -0.37300E+03
        -0.37300E+03
        -0.37300E+03
        -0.37300E+03
        -0.37300E+03
        -0.37300E+03
        -0.37300E+03
        -0.37300E+03
        -0.37300E+03
        -0.37300E+03
        -0.37300E+03
        -0.37300E+03
        -0.37300E+03
        -0.37300E+03
        -0.37300E+03
        -0.37300E+03
        -0.37300E+03
        -0.37300E+03
        -0.37300E+03
        -0.37300E+03
        -0.37300E+03
        -0.37300E+03
        -0.37300E+03
        -0.37300E+03
        -0.37300E+03
        -0.37300E+03
        -0.37300E+03
        -0.37300E+03
        -0.37300E+03
        -0.37300E+03
        -0.37300E+03
        -0.37300E+03
        -0.37300E+03
        -0.37300E+03
        -0.37300E+03
        -0.37300E+03
        -0.37300E+03
        -0.37300E+03
        -0.37300E+03
        -0.37300E+03
        -0.37300E+03
        -0.37300E+03
        -0.37300E+03
        -0.37300E+03
        -0.37300E+03
        -0.37300E+03
        -0.37300E+03
        -0.37300E+03
        -0.37300E+03
        -0.37300E+03
        -0.37300E+03
        -0.37300E+03
        -0.37300E+03
        -0.37300E+03
        -0.37300E+03
        -0.37300E+03
        -0.37300E+03
        -0.37300E+03
        -0.37300E+03
        -0.37300E+03
        -0.37300E+03
        -0.37300E+03
        -0.37300E+03
        -0.37300E+03
        -0.37300E+03
        -0.37300E+03
        -0.37300E+03
        -0.37300E+03
        -0.37300E+03
        -0.37300E+03
        -0.37300E+03
        -0.37300E+03
        -0.37300E+03
        -0.37300E+03
        -0.37300E+03
        -0.37300E+03
        -0.37300E+03
        -0.37300E+03
        -0.37300E+03
        -0.37300E+03
        -0.37300E+03
        -0.37300E+03
        -0.37300E+03
        -0.37300E+03
        -0.37300E+03
        -0.37300E+03
        -0.37300E+03
        -0.37300E+03
        -0.37300E+03
        -0.37300E+03
        -0.37300E+03
        -0.37300E+03
        -0.37300E+03
        -0.37300E+03
        -0.37300E+03
        -0.37300E+03
        -0.37300E+03
        -0.37300E+03
        -0.37300E+03
        -0.37300E+03
        -0.37300E+03
        -0.37300E+03
        -0.37300E+03
        -0.37300E+03
        -0.37300E+03
        -0.37300E+03
        -0.37300E+03
        -0.37300E+03
        -0.37300E+03
        -0.37300E+03
        -0.37300E+03
        -0.37300E+03
        -0.37300E+03
        -0.37300E+03
        -0.37300E+03
        -0.37300E+03
        -0.37300E+03
        -0.37300E+03
        -0.37300E+03
        -0.37300E+03
        -0.37300E+03
        -0.37300E+03
        -0.37300E+03
        -0.37300E+03
        -0.37300E+03
        -0.37300E+03
        -0.37300E+03
        -0.37300E+03
        -0.37300E+03
        -0.37300E+03
        -0.37300E+03
        -0.37300E+03
        -0.37300E+03
        -0.37300E+03
        -0.37300E+03
        -0.37300E+03
        -0.37300E+03
        -0.37300E+03
        -0.37300E+03
        -0.37300E+03
        -0.37300E+03
        -0.37300E+03
        -0.37300E+03
        -0.37300E+03
        -0.37300E+03
        -0.37300E+03
        -0.37300E+03
        -0.37300E+03
        -0.37300E+03
        -0.37300E+03
        -0.37300E+03
        -0.37300E+03
        -0.37300E+03
        -0.37300E+03
        -0.37300E+03
        -0.37300E+03
        -0.37300E+03
        -0.37300E+03
        -0.37300E+03
        -0.37300E+03
        -0.37300E+03
        -0.37300E+03
        -0.37300E+03
        -0.37300E+03
        -0.37300E+03
        -0.37300E+03
        -0.37300E+03
        -0.37300E+03
        -0.37300E+03
        -0.37300E+03
        -0.37300E+03
        -0.37300E+03
        -0.37300E+03
        -0.37300E+03
        -0.37300E+03
        -0.37300E+03
        -0.37300E+03
        -0.37300E+03
        -0.37300E+03
        -0.37300E+03
        -0.37300E+03
        -0.37300E+03
        -0.37300E+03
        -0.37300E+03
        -0.37300E+03
        -0.37300E+03
        -0.37300E+03
        -0.37300E+03
        -0.37300E+03
        -0.37300E+03
        -0.37300E+03
        -0.37300E+03
        -0.37300E+03
        -0.37300E+03
        -0.37300E+03
        -0.37300E+03
        -0.37300E+03
        -0.37300E+03
        -0.37300E+03
        -0.37300E+03
        -0.37300E+03
        -0.37300E+03
        -0.37300E+03
        -0.37300E+03
        -0.37300E+03
        -0.37300E+03
        -0.37300E+03
        -0.37300E+03
        -0.37300E+03
        -0.37300E+03
        -0.37300E+03
        -0.37300E+03
        -0.37300E+03
        -0.37300E+03
        -0.37300E+03
        -0.37300E+03
        -0.37300E+03
        -0.37300E+03
        -0.37300E+03
        -0.37300E+03
        -0.37300E+03
        -0.37300E+03
        -0.37300E+03
        -0.37300E+03
        -0.37300E+03
        -0.37300E+03
        -0.37300E+03
        -0.37300E+03
        -0.37300E+03
        -0.37300E+03
        -0.37300E+03
        -0.37300E+03
        -0.37300E+03
        -0.37300E+03
        -0.37300E+03
        -0.37300E+03
        -0.37300E+03
        -0.37300E+03
        -0.37300E+03
        -0.37300E+03
        -0.37300E+03
        -0.37300E+03
        -0.37300E+03
        -0.37300E+03
        -0.37300E+03
        -0.37300E+03
        -0.37300E+03
        -0.37300E+03
        -0.37300E+03
        -0.37300E+03
        -0.37300E+03
        -0.37300E+03
        -0.37300E+03
        -0.37300E+03
        -0.37300E+03
        -0.37300E+03
        -0.37300E+03
        -0.37300E+03
        -0.37300E+03
        -0.37300E+03
        -0.37300E+03
        -0.37300E+03
        -0.37300E+03
        -0.37300E+03
        -0.37300E+03
        -0.37300E+03
        -0.37300E+03
        -0.37300E+03
        -0.37300E+03
        -0.37300E+03
        -0.37300E+03
        -0.37300E+03
        -0.37300E+03
        -0.37300E+03
        -0.37300E+03
        -0.37300E+03
        -0.37300E+03
        -0.37300E+03
        -0.37300E+03
        -0.37300E+03
        -0.37300E+03
        -0.37300E+03
        -0.37300E+03
        -0.37300E+03
        -0.37300E+03
        -0.37300E+03
        -0.37300E+03
        -0.37300E+03
        -0.37300E+03
        -0.37300E+03
        -0.37300E+03
        -0.37300E+03
        -0.37300E+03
        -0.37300E+03
        -0.37300E+03
        -0.37300E+03
        -0.37300E+03
        -0.37300E+03
        -0.37300E+03
        -0.37300E+03
        -0.37300E+03
        -0.37300E+03
        -0.37300E+03
        -0.37300E+03
        -0.37300E+03
        -0.37300E+03
        -0.37300E+03
        -0.37300E+03
        -0.37300E+03
        -0.37300E+03
        -0.37300E+03
        -0.37300E+03
        -0.37300E+03
        -0.37300E+03
        -0.37300E+03
        -0.37300E+03
        -0.37300E+03
        -0.37300E+03
        -0.37300E+03
        -0.37300E+03
        -0.37300E+03
        -0.37300E+03
        -0.37300E+03
        -0.37300E+03
        -0.37300E+03
        -0.37300E+03
        -0.37300E+03
        -0.37300E+03
        -0.37300E+03
        -0.37300E+03
        -0.37300E+03
        -0.37300E+03
        -0.37300E+03
        -0.37300E+03
        -0.37300E+03
        -0.37300E+03
        -0.37300E+03
        -0.37300E+03
        -0.37300E+03
        -0.37300E+03
        -0.37300E+03
        -0.37300E+03
        -0.37300E+03
        -0.37300E+03
        -0.37300E+03
        -0.37300E+03
        -0.37300E+03
        -0.37300E+03
        -0.37300E+03
        -0.37300E+03
        -0.37300E+03
        -0.37300E+03
        -0.37300E+03
        -0.37300E+03
        -0.37300E+03
        -0.37300E+03
        -0.37300E+03
        -0.37300E+03
        -0.37300E+03
        -0.37300E+03
        -0.37300E+03
        -0.37300E+03
        -0.37300E+03
        -0.37300E+03
        -0.37300E+03
        -0.37300E+03
        -0.37300E+03
        -0.37300E+03
        -0.37300E+03
        -0.37300E+03
        -0.37300E+03
        -0.37300E+03
        -0.37300E+03
        -0.37300E+03
        -0.37300E+03
        -0.37300E+03
        -0.37300E+03
        -0.37300E+03
        -0.37300E+03
        -0.37300E+03
        -0.37300E+03
        -0.37300E+03
        -0.37300E+03
        -0.37300E+03
        -0.37300E+03
        -0.37300E+03
        -0.37300E+03
        -0.37300E+03
        -0.37300E+03
        -0.37300E+03
        -0.37300E+03
        -0.37300E+03
        -0.37300E+03
        -0.37300E+03
        -0.37300E+03
        -0.37300E+03
        -0.37300E+03
        -0.37300E+03
        -0.37300E+03
        -0.37300E+03
        -0.37300E+03
        -0.37300E+03
        -0.37300E+03
        -0.37300E+03
        -0.37300E+03
        -0.37300E+03
        -0.37300E+03
        -0.37300E+03
        -0.37300E+03
        -0.37300E+03
        -0.37300E+03
        -0.37300E+03
        -0.37300E+03
        -0.37300E+03
        -0.37300E+03
        -0.37300E+03
        -0.37300E+03
        -0.37300E+03
        -0.37300E+03
        -0.37300E+03
        -0.37300E+03
        -0.37300E+03
        -0.37300E+03
        -0.37300E+03
        -0.37300E+03
        -0.37300E+03
        -0.37300E+03
        -0.37300E+03
        -0.37300E+03
        -0.37300E+03
        -0.37300E+03
        -0.37300E+03
        -0.37300E+03
        -0.37300E+03
        -0.37300E+03
        -0.37300E+03
        -0.37300E+03
        -0.37300E+03
        -0.37300E+03
        -0.37300E+03
        -0.37300E+03
        -0.37300E+03
        -0.37300E+03
        -0.37300E+03
        -0.37300E+03
        -0.37300E+03
        -0.37300E+03
        -0.37300E+03
        -0.37300E+03
        -0.37300E+03
        -0.37300E+03
        -0.37300E+03
        -0.37300E+03
        -0.37300E+03
        -0.37300E+03
        -0.37300E+03
        -0.37300E+03
        -0.37300E+03
        -0.37300E+03
        -0.37300E+03
        -0.37300E+03
        -0.37300E+03
        -0.37300E+03
        -0.37300E+03
        -0.37300E+03
        -0.37300E+03
        -0.37300E+03
        -0.37300E+03
        -0.37300E+03
        -0.37300E+03
        -0.37300E+03
        -0.37300E+03
        -0.37300E+03
        -0.37300E+03
        -0.37300E+03
        -0.37300E+03
        -0.37300E+03
        -0.37300E+03
        -0.37300E+03
        -0.37300E+03
        -0.37300E+03
        -0.37300E+03
        -0.37300E+03
        -0.37300E+03
        -0.37300E+03
        -0.37300E+03
        -0.37300E+03
        -0.37300E+03
        -0.37300E+03
        -0.37300E+03
        -0.37300E+03
        -0.37300E+03
        -0.37300E+03
        -0.37300E+03
        -0.37300E+03
        -0.37300E+03
        -0.37300E+03
        -0.37300E+03
        -0.37300E+03
        -0.37300E+03
        -0.37300E+03
        -0.37300E+03
        -0.37300E+03
        -0.37300E+03
        -0.37300E+03
        -0.37300E+03
        -0.37300E+03
        -0.37300E+03
        -0.37300E+03
        -0.37300E+03
        -0.37300E+03
        -0.37300E+03
        -0.37300E+03
        -0.37300E+03
        -0.37300E+03
        -0.37300E+03
        -0.37300E+03
        -0.37300E+03
        -0.37300E+03
        -0.37300E+03
        -0.37300E+03
        -0.37300E+03
        -0.37300E+03
        -0.37300E+03
        -0.37300E+03
        -0.37300E+03
        -0.37300E+03
        -0.37300E+03
        -0.37300E+03
        -0.37300E+03
        -0.37300E+03
        -0.37300E+03
        -0.37300E+03
        -0.37300E+03
        -0.37300E+03
        -0.37300E+03
        -0.37300E+03
        -0.37300E+03
        -0.37300E+03
        -0.37300E+03
        -0.37300E+03
        -0.37300E+03
        -0.37300E+03
        -0.37300E+03
        -0.37300E+03
        -0.37300E+03
        -0.37300E+03
        -0.37300E+03
        -0.37300E+03
        -0.37300E+03
        -0.37300E+03
        -0.37300E+03
        -0.37300E+03
        -0.37300E+03
        -0.37300E+03
        -0.37300E+03
        -0.37300E+03
        -0.37300E+03
        -0.37300E+03
        -0.37300E+03
        -0.37300E+03
        -0.37300E+03
        -0.37300E+03
        -0.37300E+03
        -0.37300E+03
        -0.37300E+03
        -0.37300E+03
        -0.37300E+03
        -0.37300E+03
        -0.37300E+03
        -0.37300E+03
        -0.37300E+03
        -0.37300E+03
        -0.37300E+03
        -0.37300E+03
        -0.37300E+03
        -0.37300E+03
        -0.37300E+03
        -0.37300E+03
        -0.37300E+03
        -0.37300E+03
        -0.37300E+03
        -0.37300E+03
        -0.37300E+03
        -0.37300E+03
        -0.37300E+03
        -0.37300E+03
        -0.37300E+03
        -0.37300E+03
        -0.37300E+03
        -0.37300E+03
        -0.37300E+03
        -0.37300E+03
        -0.37300E+03
        -0.37300E+03
        -0.37300E+03
        -0.37300E+03
        -0.37300E+03
        -0.37300E+03
        -0.37300E+03
        -0.37300E+03
        -0.37300E+03
        -0.37300E+03
        -0.37300E+03
        -0.37300E+03
        -0.37300E+03
        -0.37300E+03
        -0.37300E+03
        -0.37300E+03
        -0.37300E+03
  
SCALARS              normalized_window  double 1
LOOKUP_TABLE default
         0.27500E+01
         0.27500E+01
         0.27500E+01
         0.27500E+01
         0.27500E+01
         0.27500E+01
         0.27500E+01
         0.27500E+01
         0.27500E+01
         0.27500E+01
         0.27500E+01
         0.27500E+01
         0.27500E+01
         0.27500E+01
         0.27500E+01
         0.27500E+01
         0.27500E+01
         0.27500E+01
         0.27500E+01
         0.27500E+01
         0.27500E+01
         0.27500E+01
         0.27500E+01
         0.27500E+01
         0.27500E+01
         0.27500E+01
         0.27500E+01
         0.27500E+01
         0.27500E+01
         0.27500E+01
         0.27500E+01
         0.27500E+01
         0.27500E+01
         0.27500E+01
         0.27500E+01
         0.27500E+01
         0.27500E+01
         0.27500E+01
         0.27500E+01
         0.27500E+01
         0.27500E+01
         0.27500E+01
         0.27500E+01
         0.27500E+01
         0.27500E+01
         0.27500E+01
         0.27500E+01
         0.27500E+01
         0.27500E+01
         0.27500E+01
         0.27500E+01
         0.27500E+01
         0.27500E+01
         0.27500E+01
         0.27500E+01
         0.27500E+01
         0.27500E+01
         0.27500E+01
         0.27500E+01
         0.27500E+01
         0.27500E+01
         0.27500E+01
         0.27500E+01
         0.27500E+01
         0.27500E+01
         0.27500E+01
         0.27500E+01
         0.27500E+01
         0.27500E+01
         0.27500E+01
         0.27500E+01
         0.27500E+01
         0.27500E+01
         0.27500E+01
         0.27500E+01
         0.27500E+01
         0.27500E+01
         0.27500E+01
         0.27500E+01
         0.27500E+01
         0.27500E+01
         0.27500E+01
         0.27500E+01
         0.27500E+01
         0.27500E+01
         0.27500E+01
         0.27500E+01
         0.27500E+01
         0.27500E+01
         0.27500E+01
         0.27500E+01
         0.27500E+01
         0.27500E+01
         0.27500E+01
         0.27500E+01
         0.27500E+01
         0.27500E+01
         0.27500E+01
         0.27500E+01
         0.27500E+01
         0.27500E+01
         0.27500E+01
         0.27500E+01
         0.27500E+01
         0.27500E+01
         0.27500E+01
         0.27500E+01
         0.27500E+01
         0.27500E+01
         0.27500E+01
         0.27500E+01
         0.27500E+01
         0.27500E+01
         0.27500E+01
         0.27500E+01
         0.27500E+01
         0.27500E+01
         0.27500E+01
         0.27500E+01
         0.27500E+01
         0.27500E+01
         0.27500E+01
         0.27500E+01
         0.27500E+01
         0.27500E+01
         0.27500E+01
         0.27500E+01
         0.27500E+01
         0.27500E+01
         0.27500E+01
         0.27500E+01
         0.27500E+01
         0.27500E+01
         0.27500E+01
         0.27500E+01
         0.27500E+01
         0.27500E+01
         0.27500E+01
         0.27500E+01
         0.27500E+01
         0.27500E+01
         0.27500E+01
         0.27500E+01
         0.27500E+01
         0.27500E+01
         0.27500E+01
         0.27500E+01
         0.27500E+01
         0.27500E+01
         0.27500E+01
         0.27500E+01
         0.27500E+01
         0.27500E+01
         0.27500E+01
         0.27500E+01
         0.27500E+01
         0.27500E+01
         0.27500E+01
         0.27500E+01
         0.27500E+01
         0.27500E+01
         0.27500E+01
         0.27500E+01
         0.27500E+01
         0.27500E+01
         0.27500E+01
         0.27500E+01
         0.27500E+01
         0.27500E+01
         0.27500E+01
         0.27500E+01
         0.27500E+01
         0.27500E+01
         0.27500E+01
         0.27500E+01
         0.27500E+01
         0.27500E+01
         0.27500E+01
         0.27500E+01
         0.27500E+01
         0.27500E+01
         0.27500E+01
         0.27500E+01
         0.27500E+01
         0.27500E+01
         0.27500E+01
         0.27500E+01
         0.27500E+01
         0.27500E+01
         0.27500E+01
         0.27500E+01
         0.27500E+01
         0.27500E+01
         0.27500E+01
         0.27500E+01
         0.27500E+01
         0.27500E+01
         0.27500E+01
         0.27500E+01
         0.27500E+01
         0.27500E+01
         0.27500E+01
         0.27500E+01
         0.27500E+01
         0.27500E+01
         0.27500E+01
         0.27500E+01
         0.27500E+01
         0.27500E+01
         0.27500E+01
         0.27500E+01
         0.27500E+01
         0.27500E+01
         0.27500E+01
         0.27500E+01
         0.27500E+01
         0.27500E+01
         0.27500E+01
         0.27500E+01
         0.27500E+01
         0.27500E+01
         0.27500E+01
         0.27500E+01
         0.27500E+01
         0.27500E+01
         0.27500E+01
         0.27500E+01
         0.27500E+01
         0.27500E+01
         0.27500E+01
         0.27500E+01
         0.27500E+01
         0.27500E+01
         0.27500E+01
         0.27500E+01
         0.27500E+01
         0.27500E+01
         0.27500E+01
         0.27500E+01
         0.27500E+01
         0.27500E+01
         0.27500E+01
         0.27500E+01
         0.27500E+01
         0.27500E+01
         0.27500E+01
         0.27500E+01
         0.27500E+01
         0.27500E+01
         0.27500E+01
         0.27500E+01
         0.27500E+01
         0.27500E+01
         0.27500E+01
         0.27500E+01
         0.27500E+01
         0.27500E+01
         0.27500E+01
         0.27500E+01
         0.27500E+01
         0.27500E+01
         0.27500E+01
         0.27500E+01
         0.27500E+01
         0.27500E+01
         0.27500E+01
         0.27500E+01
         0.27500E+01
         0.27500E+01
         0.27500E+01
         0.27500E+01
         0.27500E+01
         0.27500E+01
         0.27500E+01
         0.27500E+01
         0.27500E+01
         0.27500E+01
         0.27500E+01
         0.27500E+01
         0.27500E+01
         0.27500E+01
         0.27500E+01
         0.27500E+01
         0.27500E+01
         0.27500E+01
         0.27500E+01
         0.27500E+01
         0.27500E+01
         0.27500E+01
         0.27500E+01
         0.27500E+01
         0.27500E+01
         0.27500E+01
         0.27500E+01
         0.27500E+01
         0.27500E+01
         0.27500E+01
         0.27500E+01
         0.27500E+01
         0.27500E+01
         0.27500E+01
         0.27500E+01
         0.27500E+01
         0.27500E+01
         0.27500E+01
         0.27500E+01
         0.27500E+01
         0.27500E+01
         0.27500E+01
         0.27500E+01
         0.27500E+01
         0.27500E+01
         0.27500E+01
         0.27500E+01
         0.27500E+01
         0.27500E+01
         0.27500E+01
         0.27500E+01
         0.27500E+01
         0.27500E+01
         0.27500E+01
         0.27500E+01
         0.27500E+01
         0.27500E+01
         0.27500E+01
         0.27500E+01
         0.27500E+01
         0.27500E+01
         0.27500E+01
         0.27500E+01
         0.27500E+01
         0.27500E+01
         0.27500E+01
         0.27500E+01
         0.27500E+01
         0.27500E+01
         0.27500E+01
         0.27500E+01
         0.27500E+01
         0.27500E+01
         0.27500E+01
         0.27500E+01
         0.27500E+01
         0.27500E+01
         0.27500E+01
         0.27500E+01
         0.27500E+01
         0.27500E+01
         0.27500E+01
         0.27500E+01
         0.27500E+01
         0.27500E+01
         0.27500E+01
         0.27500E+01
         0.27500E+01
         0.27500E+01
         0.27500E+01
         0.27500E+01
         0.27500E+01
         0.27500E+01
         0.27500E+01
         0.27500E+01
         0.27500E+01
         0.27500E+01
         0.27500E+01
         0.27500E+01
         0.27500E+01
         0.27500E+01
         0.27500E+01
         0.27500E+01
         0.27500E+01
         0.27500E+01
         0.27500E+01
         0.27500E+01
         0.27500E+01
         0.27500E+01
         0.27500E+01
         0.27500E+01
         0.27500E+01
         0.27500E+01
         0.27500E+01
         0.27500E+01
         0.27500E+01
         0.27500E+01
         0.27500E+01
         0.27500E+01
         0.27500E+01
         0.27500E+01
         0.27500E+01
         0.27500E+01
         0.27500E+01
         0.27500E+01
         0.27500E+01
         0.27500E+01
         0.27500E+01
         0.27500E+01
         0.27500E+01
         0.27500E+01
         0.27500E+01
         0.27500E+01
         0.27500E+01
         0.27500E+01
         0.27500E+01
         0.27500E+01
         0.27500E+01
         0.27500E+01
         0.27500E+01
         0.27500E+01
         0.27500E+01
         0.27500E+01
         0.27500E+01
         0.27500E+01
         0.27500E+01
         0.27500E+01
         0.27500E+01
         0.27500E+01
         0.27500E+01
         0.27500E+01
         0.27500E+01
         0.27500E+01
         0.27500E+01
         0.27500E+01
         0.27500E+01
         0.27500E+01
         0.27500E+01
         0.27500E+01
         0.27500E+01
         0.27500E+01
         0.27500E+01
         0.27500E+01
         0.27500E+01
         0.27500E+01
         0.27500E+01
         0.27500E+01
         0.27500E+01
         0.27500E+01
         0.27500E+01
         0.27500E+01
         0.27500E+01
         0.27500E+01
         0.27500E+01
         0.27500E+01
         0.27500E+01
         0.27500E+01
         0.27500E+01
         0.27500E+01
         0.27500E+01
         0.27500E+01
         0.27500E+01
         0.27500E+01
         0.27500E+01
         0.27500E+01
         0.27500E+01
         0.27500E+01
         0.27500E+01
         0.27500E+01
         0.27500E+01
         0.27500E+01
         0.27500E+01
         0.27500E+01
         0.27500E+01
         0.27500E+01
         0.27500E+01
         0.27500E+01
         0.27500E+01
         0.27500E+01
         0.27500E+01
         0.27500E+01
         0.27500E+01
         0.27500E+01
         0.27500E+01
         0.27500E+01
         0.27500E+01
         0.27500E+01
         0.27500E+01
         0.27500E+01
         0.27500E+01
         0.27500E+01
         0.27500E+01
         0.27500E+01
         0.27500E+01
         0.27500E+01
         0.27500E+01
         0.27500E+01
         0.27500E+01
         0.27500E+01
         0.27500E+01
         0.27500E+01
         0.27500E+01
         0.27500E+01
         0.27500E+01
         0.27500E+01
         0.27500E+01
         0.27500E+01
         0.27500E+01
         0.27500E+01
         0.27500E+01
         0.27500E+01
         0.27500E+01
         0.27500E+01
         0.27500E+01
         0.27500E+01
         0.27500E+01
         0.27500E+01
         0.27500E+01
         0.27500E+01
         0.27500E+01
         0.27500E+01
         0.27500E+01
         0.27500E+01
         0.27500E+01
         0.27500E+01
         0.27500E+01
         0.27500E+01
         0.27500E+01
         0.27500E+01
         0.27500E+01
         0.27500E+01
         0.27500E+01
         0.27500E+01
         0.27500E+01
         0.27500E+01
         0.27500E+01
         0.27500E+01
         0.27500E+01
         0.27500E+01
         0.27500E+01
         0.27500E+01
         0.27500E+01
         0.27500E+01
         0.27500E+01
         0.27500E+01
         0.27500E+01
         0.27500E+01
         0.27500E+01
         0.27500E+01
         0.27500E+01
         0.27500E+01
         0.27500E+01
         0.27500E+01
         0.27500E+01
         0.27500E+01
         0.27500E+01
         0.27500E+01
         0.27500E+01
         0.27500E+01
         0.27500E+01
         0.27500E+01
         0.27500E+01
         0.27500E+01
         0.27500E+01
         0.27500E+01
         0.27500E+01
         0.27500E+01
         0.27500E+01
         0.27500E+01
         0.27500E+01
         0.27500E+01
         0.27500E+01
         0.27500E+01
         0.27500E+01
         0.27500E+01
         0.27500E+01
         0.27500E+01
         0.27500E+01
         0.27500E+01
         0.27500E+01
         0.27500E+01
         0.27500E+01
         0.27500E+01
         0.27500E+01
         0.27500E+01
         0.27500E+01
         0.27500E+01
         0.27500E+01
         0.27500E+01
         0.27500E+01
         0.27500E+01
         0.27500E+01
         0.27500E+01
         0.27500E+01
         0.27500E+01
         0.27500E+01
         0.27500E+01
         0.27500E+01
         0.27500E+01
         0.27500E+01
         0.27500E+01
         0.27500E+01
         0.27500E+01
         0.27500E+01
         0.27500E+01
         0.27500E+01
         0.27500E+01
         0.27500E+01
         0.27500E+01
         0.27500E+01
         0.27500E+01
         0.27500E+01
         0.27500E+01
         0.27500E+01
         0.27500E+01
         0.27500E+01
         0.27500E+01
         0.27500E+01
         0.27500E+01
         0.27500E+01
         0.27500E+01
         0.27500E+01
         0.27500E+01
         0.27500E+01
         0.27500E+01
         0.27500E+01
         0.27500E+01
         0.27500E+01
         0.27500E+01
         0.27500E+01
         0.27500E+01
         0.27500E+01
         0.27500E+01
         0.27500E+01
         0.27500E+01
         0.27500E+01
         0.27500E+01
         0.27500E+01
         0.27500E+01
         0.27500E+01
         0.27500E+01
         0.27500E+01
         0.27500E+01
         0.27500E+01
         0.27500E+01
         0.27500E+01
         0.27500E+01
         0.27500E+01
         0.27500E+01
         0.27500E+01
         0.27500E+01
         0.27500E+01
         0.27500E+01
         0.27500E+01
         0.27500E+01
         0.27500E+01
         0.27500E+01
         0.27500E+01
         0.27500E+01
         0.27500E+01
         0.27500E+01
         0.27500E+01
         0.27500E+01
         0.27500E+01
         0.27500E+01
         0.27500E+01
         0.27500E+01
         0.27500E+01
         0.27500E+01
         0.27500E+01
         0.27500E+01
         0.27500E+01
         0.27500E+01
         0.27500E+01
         0.27500E+01
         0.27500E+01
         0.27500E+01
         0.27500E+01
         0.27500E+01
         0.27500E+01
         0.27500E+01
         0.27500E+01
         0.27500E+01
         0.27500E+01
         0.27500E+01
         0.27500E+01
         0.27500E+01
         0.27500E+01
         0.27500E+01
         0.27500E+01
         0.27500E+01
         0.27500E+01
         0.27500E+01
         0.27500E+01
         0.27500E+01
         0.27500E+01
         0.27500E+01
         0.27500E+01
         0.27500E+01
         0.27500E+01
         0.27500E+01
         0.27500E+01
         0.27500E+01
         0.27500E+01
         0.27500E+01
         0.27500E+01
         0.27500E+01
         0.27500E+01
         0.27500E+01
         0.27500E+01
         0.27500E+01
         0.27500E+01
         0.27500E+01
         0.27500E+01
         0.27500E+01
         0.27500E+01
         0.27500E+01
         0.27500E+01
         0.27500E+01
         0.27500E+01
         0.27500E+01
         0.27500E+01
         0.27500E+01
         0.27500E+01
         0.27500E+01
         0.27500E+01
         0.27500E+01
         0.27500E+01
         0.27500E+01
         0.27500E+01
         0.27500E+01
         0.27500E+01
         0.27500E+01
         0.27500E+01
         0.27500E+01
         0.27500E+01
         0.27500E+01
         0.27500E+01
         0.27500E+01
         0.27500E+01
         0.27500E+01
         0.27500E+01
         0.27500E+01
         0.27500E+01
         0.27500E+01
         0.27500E+01
         0.27500E+01
         0.27500E+01
         0.27500E+01
         0.27500E+01
         0.27500E+01
         0.27500E+01
         0.27500E+01
         0.27500E+01
         0.27500E+01
         0.27500E+01
         0.27500E+01
         0.27500E+01
         0.27500E+01
         0.27500E+01
         0.27500E+01
         0.27500E+01
         0.27500E+01
         0.27500E+01
         0.27500E+01
         0.27500E+01
         0.27500E+01
         0.27500E+01
         0.27500E+01
         0.27500E+01
         0.27500E+01
         0.27500E+01
         0.27500E+01
         0.27500E+01
         0.27500E+01
         0.27500E+01
         0.27500E+01
         0.27500E+01
         0.27500E+01
         0.27500E+01
         0.27500E+01
         0.27500E+01
         0.27500E+01
         0.27500E+01
         0.27500E+01
         0.27500E+01
         0.27500E+01
         0.27500E+01
         0.27500E+01
         0.27500E+01
         0.27500E+01
         0.27500E+01
         0.27500E+01
         0.27500E+01
         0.27500E+01
         0.27500E+01
         0.27500E+01
         0.27500E+01
         0.27500E+01
         0.27500E+01
         0.27500E+01
         0.27500E+01
         0.27500E+01
         0.27500E+01
         0.27500E+01
         0.27500E+01
         0.27500E+01
         0.27500E+01
         0.27500E+01
         0.27500E+01
         0.27500E+01
         0.27500E+01
         0.27500E+01
         0.27500E+01
         0.27500E+01
         0.27500E+01
         0.27500E+01
         0.27500E+01
         0.27500E+01
         0.27500E+01
         0.27500E+01
         0.27500E+01
         0.27500E+01
         0.27500E+01
         0.27500E+01
         0.27500E+01
         0.27500E+01
         0.27500E+01
         0.27500E+01
         0.27500E+01
         0.27500E+01
         0.27500E+01
         0.27500E+01
         0.27500E+01
         0.27500E+01
         0.27500E+01
         0.27500E+01
         0.27500E+01
         0.27500E+01
         0.27500E+01
         0.27500E+01
         0.27500E+01
         0.27500E+01
         0.27500E+01
         0.27500E+01
         0.27500E+01
         0.27500E+01
         0.27500E+01
         0.27500E+01
         0.27500E+01
         0.27500E+01
         0.27500E+01
         0.27500E+01
         0.27500E+01
         0.27500E+01
         0.27500E+01
         0.27500E+01
         0.27500E+01
         0.27500E+01
         0.27500E+01
         0.27500E+01
         0.27500E+01
         0.27500E+01
         0.27500E+01
         0.27500E+01
         0.27500E+01
         0.27500E+01
         0.27500E+01
         0.27500E+01
         0.27500E+01
         0.27500E+01
         0.27500E+01
         0.27500E+01
         0.27500E+01
         0.27500E+01
         0.27500E+01
         0.27500E+01
         0.27500E+01
         0.27500E+01
         0.27500E+01
         0.27500E+01
         0.27500E+01
         0.27500E+01
         0.27500E+01
         0.27500E+01
         0.27500E+01
         0.27500E+01
         0.27500E+01
         0.27500E+01
         0.27500E+01
         0.27500E+01
         0.27500E+01
         0.27500E+01
         0.27500E+01
         0.27500E+01
         0.27500E+01
         0.27500E+01
         0.27500E+01
         0.27500E+01
         0.27500E+01
         0.27500E+01
         0.27500E+01
         0.27500E+01
         0.27500E+01
         0.27500E+01
         0.27500E+01
         0.27500E+01
         0.27500E+01
         0.27500E+01
         0.27500E+01
         0.27500E+01
         0.27500E+01
         0.27500E+01
         0.27500E+01
         0.27500E+01
         0.27500E+01
         0.27500E+01
         0.27500E+01
         0.27500E+01
         0.27500E+01
         0.27500E+01
         0.27500E+01
         0.27500E+01
         0.27500E+01
         0.27500E+01
         0.27500E+01
         0.27500E+01
         0.27500E+01
         0.27500E+01
         0.27500E+01
         0.27500E+01
         0.27500E+01
         0.27500E+01
         0.27500E+01
         0.27500E+01
         0.27500E+01
         0.27500E+01
         0.27500E+01
         0.27500E+01
         0.27500E+01
         0.27500E+01
         0.27500E+01
         0.27500E+01
         0.27500E+01
         0.27500E+01
         0.27500E+01
         0.27500E+01
         0.27500E+01
         0.27500E+01
         0.27500E+01
         0.27500E+01
         0.27500E+01
         0.27500E+01
         0.27500E+01
         0.27500E+01
         0.27500E+01
         0.27500E+01
         0.27500E+01
         0.27500E+01
         0.27500E+01
         0.27500E+01
         0.27500E+01
         0.27500E+01
         0.27500E+01
         0.27500E+01
         0.27500E+01
         0.27500E+01
         0.27500E+01
         0.27500E+01
         0.27500E+01
         0.27500E+01
         0.27500E+01
         0.27500E+01
         0.27500E+01
         0.27500E+01
         0.27500E+01
         0.27500E+01
         0.27500E+01
         0.27500E+01
         0.27500E+01
         0.27500E+01
         0.27500E+01
         0.27500E+01
         0.27500E+01
         0.27500E+01
         0.27500E+01
         0.27500E+01
         0.27500E+01
         0.27500E+01
         0.27500E+01
         0.27500E+01
         0.27500E+01
         0.27500E+01
         0.27500E+01
         0.27500E+01
         0.27500E+01
         0.27500E+01
         0.27500E+01
         0.27500E+01
         0.27500E+01
         0.27500E+01
         0.27500E+01
         0.27500E+01
         0.27500E+01
         0.27500E+01
         0.27500E+01
         0.27500E+01
         0.27500E+01
         0.27500E+01
         0.27500E+01
         0.27500E+01
         0.27500E+01
         0.27500E+01
         0.27500E+01
         0.27500E+01
         0.27500E+01
         0.27500E+01
         0.27500E+01
         0.27500E+01
         0.27500E+01
         0.27500E+01
         0.27500E+01
         0.27500E+01
         0.27500E+01
         0.27500E+01
         0.27500E+01
         0.27500E+01
         0.27500E+01
         0.27500E+01
         0.27500E+01
         0.27500E+01
         0.27500E+01
         0.27500E+01
         0.27500E+01
         0.27500E+01
         0.27500E+01
         0.27500E+01
         0.27500E+01
         0.27500E+01
         0.27500E+01
         0.27500E+01
         0.27500E+01
         0.27500E+01
         0.27500E+01
         0.27500E+01
         0.27500E+01
         0.27500E+01
         0.27500E+01
         0.27500E+01
         0.27500E+01
         0.27500E+01
         0.27500E+01
         0.27500E+01
         0.27500E+01
         0.27500E+01
         0.27500E+01
         0.27500E+01
         0.27500E+01
         0.27500E+01
         0.27500E+01
         0.27500E+01
         0.27500E+01
         0.27500E+01
         0.27500E+01
         0.27500E+01
         0.27500E+01
         0.27500E+01
         0.27500E+01
         0.27500E+01
         0.27500E+01
         0.27500E+01
         0.27500E+01
         0.27500E+01
         0.27500E+01
         0.27500E+01
         0.27500E+01
         0.27500E+01
         0.27500E+01
         0.27500E+01
         0.27500E+01
         0.27500E+01
         0.27500E+01
         0.27500E+01
         0.27500E+01
         0.27500E+01
         0.27500E+01
         0.27500E+01
         0.27500E+01
         0.27500E+01
         0.27500E+01
         0.27500E+01
         0.27500E+01
         0.27500E+01
         0.27500E+01
         0.27500E+01
         0.27500E+01
         0.27500E+01
         0.27500E+01
         0.27500E+01
         0.27500E+01
         0.27500E+01
         0.27500E+01
         0.27500E+01
         0.27500E+01
         0.27500E+01
         0.27500E+01
         0.27500E+01
         0.27500E+01
         0.27500E+01
         0.27500E+01
         0.27500E+01
         0.27500E+01
         0.27500E+01
         0.27500E+01
         0.27500E+01
         0.27500E+01
         0.27500E+01
         0.27500E+01
         0.27500E+01
         0.27500E+01
         0.27500E+01
         0.27500E+01
         0.27500E+01
         0.27500E+01
         0.27500E+01
         0.27500E+01
         0.27500E+01
         0.27500E+01
         0.27500E+01
         0.27500E+01
         0.27500E+01
         0.27500E+01
         0.27500E+01
         0.27500E+01
         0.27500E+01
         0.27500E+01
         0.27500E+01
         0.27500E+01
         0.27500E+01
         0.27500E+01
         0.27500E+01
         0.27500E+01
         0.27500E+01
         0.27500E+01
         0.27500E+01
         0.27500E+01
         0.27500E+01
         0.27500E+01
         0.27500E+01
         0.27500E+01
         0.27500E+01
         0.27500E+01
         0.27500E+01
         0.27500E+01
         0.27500E+01
         0.27500E+01
         0.27500E+01
         0.27500E+01
         0.27500E+01
         0.27500E+01
         0.27500E+01
         0.27500E+01
         0.27500E+01
         0.27500E+01
         0.27500E+01
         0.27500E+01
         0.27500E+01
         0.27500E+01
         0.27500E+01
         0.27500E+01
         0.27500E+01
         0.27500E+01
         0.27500E+01
         0.27500E+01
         0.27500E+01
         0.27500E+01
         0.27500E+01
         0.27500E+01
         0.27500E+01
         0.27500E+01
         0.27500E+01
         0.27500E+01
         0.27500E+01
         0.27500E+01
         0.27500E+01
         0.27500E+01
         0.27500E+01
         0.27500E+01
         0.27500E+01
         0.27500E+01
         0.27500E+01
         0.27500E+01
         0.27500E+01
         0.27500E+01
         0.27500E+01
         0.27500E+01
         0.27500E+01
         0.27500E+01
         0.27500E+01
         0.27500E+01
         0.27500E+01
         0.27500E+01
         0.27500E+01
         0.27500E+01
         0.27500E+01
         0.27500E+01
         0.27500E+01
         0.27500E+01
         0.27500E+01
         0.27500E+01
         0.27500E+01
         0.27500E+01
         0.27500E+01
         0.27500E+01
         0.27500E+01
         0.27500E+01
         0.27500E+01
         0.27500E+01
         0.27500E+01
         0.27500E+01
         0.27500E+01
         0.27500E+01
         0.27500E+01
         0.27500E+01
         0.27500E+01
         0.27500E+01
         0.27500E+01
         0.27500E+01
         0.27500E+01
         0.27500E+01
         0.27500E+01
         0.27500E+01
         0.27500E+01
         0.27500E+01
         0.27500E+01
         0.27500E+01
         0.27500E+01
         0.27500E+01
         0.27500E+01
         0.27500E+01
         0.27500E+01
         0.27500E+01
         0.27500E+01
         0.27500E+01
         0.27500E+01
         0.27500E+01
         0.27500E+01
         0.27500E+01
         0.27500E+01
         0.27500E+01
         0.27500E+01
         0.27500E+01
         0.27500E+01
         0.27500E+01
         0.27500E+01
         0.27500E+01
         0.27500E+01
         0.27500E+01
         0.27500E+01
         0.27500E+01
         0.27500E+01
         0.27500E+01
         0.27500E+01
         0.27500E+01
         0.27500E+01
         0.27500E+01
         0.27500E+01
         0.27500E+01
         0.27500E+01
         0.27500E+01
         0.27500E+01
         0.27500E+01
         0.27500E+01
         0.27500E+01
         0.27500E+01
         0.27500E+01
         0.27500E+01
         0.27500E+01
         0.27500E+01
         0.27500E+01
         0.27500E+01
         0.27500E+01
         0.27500E+01
         0.27500E+01
         0.27500E+01
         0.27500E+01
         0.27500E+01
         0.27500E+01
         0.27500E+01
         0.27500E+01
         0.27500E+01
         0.27500E+01
         0.27500E+01
         0.27500E+01
         0.27500E+01
         0.27500E+01
         0.27500E+01
         0.27500E+01
         0.27500E+01
         0.27500E+01
         0.27500E+01
         0.27500E+01
         0.27500E+01
         0.27500E+01
         0.27500E+01
         0.27500E+01
         0.27500E+01
         0.27500E+01
         0.27500E+01
         0.27500E+01
         0.27500E+01
         0.27500E+01
         0.27500E+01
         0.27500E+01
         0.27500E+01
         0.27500E+01
         0.27500E+01
         0.27500E+01
         0.27500E+01
         0.27500E+01
         0.27500E+01
         0.27500E+01
         0.27500E+01
         0.27500E+01
         0.27500E+01
         0.27500E+01
         0.27500E+01
         0.27500E+01
         0.27500E+01
         0.27500E+01
         0.27500E+01
         0.27500E+01
         0.27500E+01
         0.27500E+01
         0.27500E+01
         0.27500E+01
         0.27500E+01
         0.27500E+01
         0.27500E+01
         0.27500E+01
         0.27500E+01
         0.27500E+01
         0.27500E+01
         0.27500E+01
         0.27500E+01
         0.27500E+01
         0.27500E+01
         0.27500E+01
         0.27500E+01
         0.27500E+01
         0.27500E+01
         0.27500E+01
         0.27500E+01
         0.27500E+01
         0.27500E+01
         0.27500E+01
         0.27500E+01
         0.27500E+01
         0.27500E+01
         0.27500E+01
         0.27500E+01
         0.27500E+01
         0.27500E+01
         0.27500E+01
         0.27500E+01
         0.27500E+01
         0.27500E+01
         0.27500E+01
         0.27500E+01
         0.27500E+01
         0.27500E+01
         0.27500E+01
         0.27500E+01
         0.27500E+01
         0.27500E+01
         0.27500E+01
         0.27500E+01
         0.27500E+01
         0.27500E+01
         0.27500E+01
         0.27500E+01
         0.27500E+01
         0.27500E+01
         0.27500E+01
         0.27500E+01
         0.27500E+01
         0.27500E+01
         0.27500E+01
         0.27500E+01
         0.27500E+01
         0.27500E+01
         0.27500E+01
         0.27500E+01
         0.27500E+01
         0.27500E+01
         0.27500E+01
         0.27500E+01
         0.27500E+01
         0.27500E+01
         0.27500E+01
         0.27500E+01
         0.27500E+01
         0.27500E+01
         0.27500E+01
         0.27500E+01
         0.27500E+01
         0.27500E+01
         0.27500E+01
         0.27500E+01
         0.27500E+01
         0.27500E+01
         0.27500E+01
         0.27500E+01
         0.27500E+01
         0.27500E+01
         0.27500E+01
         0.27500E+01
         0.27500E+01
         0.27500E+01
         0.27500E+01
         0.27500E+01
         0.27500E+01
         0.27500E+01
         0.27500E+01
         0.27500E+01
         0.27500E+01
         0.27500E+01
         0.27500E+01
         0.27500E+01
         0.27500E+01
         0.27500E+01
         0.27500E+01
         0.27500E+01
         0.27500E+01
         0.27500E+01
         0.27500E+01
         0.27500E+01
         0.27500E+01
         0.27500E+01
         0.27500E+01
         0.27500E+01
         0.27500E+01
         0.27500E+01
         0.27500E+01
         0.27500E+01
         0.27500E+01
         0.27500E+01
         0.27500E+01
         0.27500E+01
         0.27500E+01
         0.27500E+01
         0.27500E+01
         0.27500E+01
         0.27500E+01
         0.27500E+01
         0.27500E+01
         0.27500E+01
         0.27500E+01
         0.27500E+01
         0.27500E+01
         0.27500E+01
         0.27500E+01
         0.27500E+01
         0.27500E+01
         0.27500E+01
         0.27500E+01
         0.27500E+01
         0.27500E+01
         0.27500E+01
         0.27500E+01
         0.27500E+01
         0.27500E+01
         0.27500E+01
         0.27500E+01
         0.27500E+01
         0.27500E+01
         0.27500E+01
         0.27500E+01
         0.27500E+01
         0.27500E+01
         0.27500E+01
         0.27500E+01
         0.27500E+01
         0.27500E+01
         0.27500E+01
         0.27500E+01
         0.27500E+01
         0.27500E+01
         0.27500E+01
         0.27500E+01
         0.27500E+01
         0.27500E+01
         0.27500E+01
         0.27500E+01
         0.27500E+01
         0.27500E+01
         0.27500E+01
         0.27500E+01
         0.27500E+01
         0.27500E+01
         0.27500E+01
         0.27500E+01
         0.27500E+01
         0.27500E+01
         0.27500E+01
         0.27500E+01
         0.27500E+01
         0.27500E+01
         0.27500E+01
         0.27500E+01
         0.27500E+01
         0.27500E+01
         0.27500E+01
         0.27500E+01
         0.27500E+01
         0.27500E+01
         0.27500E+01
         0.27500E+01
         0.27500E+01
         0.27500E+01
         0.27500E+01
         0.27500E+01
         0.27500E+01
         0.27500E+01
         0.27500E+01
         0.27500E+01
         0.27500E+01
         0.27500E+01
         0.27500E+01
         0.27500E+01
         0.27500E+01
         0.27500E+01
         0.27500E+01
         0.27500E+01
         0.27500E+01
         0.27500E+01
         0.27500E+01
         0.27500E+01
         0.27500E+01
         0.27500E+01
         0.27500E+01
         0.27500E+01
         0.27500E+01
         0.27500E+01
         0.27500E+01
         0.27500E+01
         0.27500E+01
         0.27500E+01
         0.27500E+01
         0.27500E+01
         0.27500E+01
         0.27500E+01
         0.27500E+01
         0.27500E+01
         0.27500E+01
         0.27500E+01
         0.27500E+01
         0.27500E+01
         0.27500E+01
         0.27500E+01
         0.27500E+01
         0.27500E+01
         0.27500E+01
         0.27500E+01
         0.27500E+01
         0.27500E+01
         0.27500E+01
         0.27500E+01
         0.27500E+01
         0.27500E+01
         0.27500E+01
         0.27500E+01
         0.27500E+01
         0.27500E+01
         0.27500E+01
         0.27500E+01
         0.27500E+01
         0.27500E+01
         0.27500E+01
         0.27500E+01
         0.27500E+01
         0.27500E+01
         0.27500E+01
         0.27500E+01
         0.27500E+01
         0.27500E+01
         0.27500E+01
         0.27500E+01
         0.27500E+01
         0.27500E+01
         0.27500E+01
         0.27500E+01
         0.27500E+01
         0.27500E+01
         0.27500E+01
         0.27500E+01
         0.27500E+01
         0.27500E+01
         0.27500E+01
         0.27500E+01
         0.27500E+01
         0.27500E+01
         0.27500E+01
         0.27500E+01
         0.27500E+01
         0.27500E+01
         0.27500E+01
         0.27500E+01
         0.27500E+01
         0.27500E+01
         0.27500E+01
         0.27500E+01
         0.27500E+01
         0.27500E+01
         0.27500E+01
         0.27500E+01
         0.27500E+01
         0.27500E+01
         0.27500E+01
         0.27500E+01
         0.27500E+01
         0.27500E+01
         0.27500E+01
         0.27500E+01
         0.27500E+01
         0.27500E+01
         0.27500E+01
         0.27500E+01
         0.27500E+01
         0.27500E+01
         0.27500E+01
         0.27500E+01
         0.27500E+01
         0.27500E+01
         0.27500E+01
         0.27500E+01
         0.27500E+01
         0.27500E+01
         0.27500E+01
         0.27500E+01
         0.27500E+01
         0.27500E+01
         0.27500E+01
         0.27500E+01
         0.27500E+01
         0.27500E+01
         0.27500E+01
         0.27500E+01
         0.27500E+01
         0.27500E+01
         0.27500E+01
         0.27500E+01
         0.27500E+01
         0.27500E+01
         0.27500E+01
         0.27500E+01
         0.27500E+01
         0.27500E+01
         0.27500E+01
         0.27500E+01
         0.27500E+01
         0.27500E+01
         0.27500E+01
         0.27500E+01
         0.27500E+01
         0.27500E+01
         0.27500E+01
         0.27500E+01
         0.27500E+01
         0.27500E+01
         0.27500E+01
         0.27500E+01
         0.27500E+01
         0.27500E+01
         0.27500E+01
         0.27500E+01
         0.27500E+01
         0.27500E+01
         0.27500E+01
         0.27500E+01
         0.27500E+01
         0.27500E+01
         0.27500E+01
         0.27500E+01
         0.27500E+01
         0.27500E+01
         0.27500E+01
         0.27500E+01
         0.27500E+01
         0.27500E+01
         0.27500E+01
         0.27500E+01
         0.27500E+01
         0.27500E+01
         0.27500E+01
         0.27500E+01
         0.27500E+01
         0.27500E+01
         0.27500E+01
         0.27500E+01
         0.27500E+01
         0.27500E+01
         0.27500E+01
         0.27500E+01
         0.27500E+01
         0.27500E+01
         0.27500E+01
         0.27500E+01
         0.27500E+01
         0.27500E+01
         0.27500E+01
         0.27500E+01
         0.27500E+01
         0.27500E+01
         0.27500E+01
         0.27500E+01
         0.27500E+01
         0.27500E+01
         0.27500E+01
         0.27500E+01
         0.27500E+01
         0.27500E+01
         0.27500E+01
         0.27500E+01
         0.27500E+01
         0.27500E+01
         0.27500E+01
         0.27500E+01
         0.27500E+01
         0.27500E+01
         0.27500E+01
         0.27500E+01
         0.27500E+01
         0.27500E+01
         0.27500E+01
         0.27500E+01
         0.27500E+01
         0.27500E+01
         0.27500E+01
         0.27500E+01
         0.27500E+01
         0.27500E+01
         0.27500E+01
         0.27500E+01
         0.27500E+01
         0.27500E+01
         0.27500E+01
         0.27500E+01
         0.27500E+01
         0.27500E+01
         0.27500E+01
         0.27500E+01
         0.27500E+01
         0.27500E+01
         0.27500E+01
         0.27500E+01
         0.27500E+01
         0.27500E+01
         0.27500E+01
         0.27500E+01
         0.27500E+01
         0.27500E+01
         0.27500E+01
         0.27500E+01
         0.27500E+01
         0.27500E+01
         0.27500E+01
         0.27500E+01
         0.27500E+01
         0.27500E+01
         0.27500E+01
         0.27500E+01
         0.27500E+01
         0.27500E+01
         0.27500E+01
         0.27500E+01
         0.27500E+01
         0.27500E+01
         0.27500E+01
         0.27500E+01
         0.27500E+01
         0.27500E+01
         0.27500E+01
         0.27500E+01
         0.27500E+01
         0.27500E+01
         0.27500E+01
         0.27500E+01
         0.27500E+01
         0.27500E+01
         0.27500E+01
         0.27500E+01
         0.27500E+01
         0.27500E+01
         0.27500E+01
         0.27500E+01
         0.27500E+01
         0.27500E+01
         0.27500E+01
         0.27500E+01
         0.27500E+01
         0.27500E+01
         0.27500E+01
         0.27500E+01
         0.27500E+01
         0.27500E+01
         0.27500E+01
         0.27500E+01
         0.27500E+01
         0.27500E+01
         0.27500E+01
         0.27500E+01
         0.27500E+01
         0.27500E+01
         0.27500E+01
         0.27500E+01
         0.27500E+01
         0.27500E+01
         0.27500E+01
         0.27500E+01
         0.27500E+01
         0.27500E+01
         0.27500E+01
         0.27500E+01
         0.27500E+01
         0.27500E+01
         0.27500E+01
         0.27500E+01
         0.27500E+01
         0.27500E+01
         0.27500E+01
         0.27500E+01
         0.27500E+01
         0.27500E+01
         0.27500E+01
         0.27500E+01
         0.27500E+01
         0.27500E+01
         0.27500E+01
         0.27500E+01
         0.27500E+01
         0.27500E+01
         0.27500E+01
         0.27500E+01
         0.27500E+01
         0.27500E+01
         0.27500E+01
         0.27500E+01
         0.27500E+01
         0.27500E+01
         0.27500E+01
         0.27500E+01
         0.27500E+01
         0.27500E+01
         0.27500E+01
         0.27500E+01
         0.27500E+01
         0.27500E+01
         0.27500E+01
         0.27500E+01
         0.27500E+01
         0.27500E+01
         0.27500E+01
         0.27500E+01
         0.27500E+01
         0.27500E+01
         0.27500E+01
         0.27500E+01
         0.27500E+01
         0.27500E+01
         0.27500E+01
         0.27500E+01
         0.27500E+01
         0.27500E+01
         0.27500E+01
         0.27500E+01
         0.27500E+01
         0.27500E+01
         0.27500E+01
         0.27500E+01
         0.27500E+01
         0.27500E+01
         0.27500E+01
         0.27500E+01
         0.27500E+01
         0.27500E+01
         0.27500E+01
         0.27500E+01
         0.27500E+01
         0.27500E+01
         0.27500E+01
         0.27500E+01
         0.27500E+01
         0.27500E+01
         0.27500E+01
         0.27500E+01
         0.27500E+01
         0.27500E+01
         0.27500E+01
         0.27500E+01
         0.27500E+01
         0.27500E+01
         0.27500E+01
         0.27500E+01
         0.27500E+01
         0.27500E+01
         0.27500E+01
         0.27500E+01
         0.27500E+01
         0.27500E+01
         0.27500E+01
         0.27500E+01
         0.27500E+01
         0.27500E+01
         0.27500E+01
         0.27500E+01
         0.27500E+01
         0.27500E+01
         0.27500E+01
         0.27500E+01
         0.27500E+01
         0.27500E+01
         0.27500E+01
         0.27500E+01
         0.27500E+01
         0.27500E+01
         0.27500E+01
         0.27500E+01
         0.27500E+01
         0.27500E+01
         0.27500E+01
         0.27500E+01
         0.27500E+01
         0.27500E+01
         0.27500E+01
         0.27500E+01
         0.27500E+01
         0.27500E+01
         0.27500E+01
         0.27500E+01
         0.27500E+01
         0.27500E+01
         0.27500E+01
         0.27500E+01
         0.27500E+01
         0.27500E+01
         0.27500E+01
         0.27500E+01
         0.27500E+01
         0.27500E+01
         0.27500E+01
         0.27500E+01
         0.27500E+01
         0.27500E+01
         0.27500E+01
         0.27500E+01
         0.27500E+01
         0.27500E+01
         0.27500E+01
         0.27500E+01
         0.27500E+01
         0.27500E+01
         0.27500E+01
  
SCALARS              physical_window_x  double 1
LOOKUP_TABLE default
         0.42419E-02
         0.35201E-02
         0.37624E-02
         0.42419E-02
         0.42417E-02
         0.35201E-02
         0.37618E-02
         0.42417E-02
         0.37624E-02
         0.37624E-02
         0.37618E-02
         0.37618E-02
         0.30086E-02
         0.32069E-02
         0.30084E-02
         0.32067E-02
         0.42419E-02
         0.32069E-02
         0.42417E-02
         0.32067E-02
         0.24180E-02
         0.29942E-02
         0.32396E-02
         0.24180E-02
         0.29933E-02
         0.32385E-02
         0.26608E-02
         0.27190E-02
         0.26608E-02
         0.27190E-02
         0.42687E-02
         0.36511E-02
         0.42687E-02
         0.42687E-02
         0.36511E-02
         0.42687E-02
         0.32069E-02
         0.29739E-02
         0.32066E-02
         0.29739E-02
         0.34652E-02
         0.32621E-02
         0.34652E-02
         0.32621E-02
         0.37123E-02
         0.32069E-02
         0.37123E-02
         0.32066E-02
         0.30844E-02
         0.30844E-02
         0.35191E-02
         0.35189E-02
         0.26925E-02
         0.26925E-02
         0.26925E-02
         0.26925E-02
         0.24643E-02
         0.27651E-02
         0.24643E-02
         0.27651E-02
         0.42687E-02
         0.35191E-02
         0.42687E-02
         0.35189E-02
         0.42687E-02
         0.42687E-02
         0.34658E-02
         0.34648E-02
         0.27274E-02
         0.31799E-02
         0.27273E-02
         0.31796E-02
         0.32396E-02
         0.32385E-02
         0.26964E-02
         0.26960E-02
         0.27828E-02
         0.27828E-02
         0.27828E-02
         0.27828E-02
         0.27004E-02
         0.31883E-02
         0.27003E-02
         0.31880E-02
         0.31883E-02
         0.31880E-02
         0.37123E-02
         0.37123E-02
         0.36245E-02
         0.36245E-02
         0.28253E-02
         0.31642E-02
         0.28253E-02
         0.31636E-02
         0.33485E-02
         0.33485E-02
         0.33485E-02
         0.33485E-02
         0.31978E-02
         0.31969E-02
         0.29849E-02
         0.32843E-02
         0.29849E-02
         0.32843E-02
         0.27274E-02
         0.31109E-02
         0.27273E-02
         0.31109E-02
         0.31799E-02
         0.31796E-02
         0.32396E-02
         0.32385E-02
         0.32396E-02
         0.32385E-02
         0.29942E-02
         0.29933E-02
         0.27190E-02
         0.27190E-02
         0.26964E-02
         0.26960E-02
         0.27828E-02
         0.27828E-02
         0.27828E-02
         0.27828E-02
         0.27004E-02
         0.27003E-02
         0.31883E-02
         0.31880E-02
         0.31883E-02
         0.31880E-02
         0.32621E-02
         0.32621E-02
         0.34652E-02
         0.34652E-02
         0.37123E-02
         0.37123E-02
         0.37123E-02
         0.37123E-02
         0.36245E-02
         0.36245E-02
         0.28253E-02
         0.28253E-02
         0.29097E-02
         0.29087E-02
         0.32389E-02
         0.32378E-02
         0.32389E-02
         0.32378E-02
         0.31978E-02
         0.31969E-02
         0.29849E-02
         0.29849E-02
         0.32843E-02
         0.32843E-02
         0.32843E-02
         0.32843E-02
         0.42420E-02
         0.35201E-02
         0.37629E-02
         0.42420E-02
         0.37629E-02
         0.37629E-02
         0.30087E-02
         0.32071E-02
         0.42420E-02
         0.32071E-02
         0.24178E-02
         0.29952E-02
         0.32407E-02
         0.26596E-02
         0.27191E-02
         0.42679E-02
         0.36502E-02
         0.42679E-02
         0.32071E-02
         0.29727E-02
         0.34648E-02
         0.32622E-02
         0.37119E-02
         0.32071E-02
         0.30833E-02
         0.35193E-02
         0.26910E-02
         0.26910E-02
         0.24638E-02
         0.27644E-02
         0.42679E-02
         0.35193E-02
         0.42679E-02
         0.34670E-02
         0.27274E-02
         0.31802E-02
         0.32407E-02
         0.26968E-02
         0.27828E-02
         0.27828E-02
         0.27005E-02
         0.31885E-02
         0.31885E-02
         0.37119E-02
         0.36244E-02
         0.28250E-02
         0.31647E-02
         0.33484E-02
         0.33484E-02
         0.31986E-02
         0.29848E-02
         0.32841E-02
         0.27274E-02
         0.31099E-02
         0.31802E-02
         0.32407E-02
         0.32407E-02
         0.29952E-02
         0.27191E-02
         0.26968E-02
         0.27828E-02
         0.27828E-02
         0.27005E-02
         0.31885E-02
         0.31885E-02
         0.32622E-02
         0.34648E-02
         0.37119E-02
         0.37119E-02
         0.36244E-02
         0.28250E-02
         0.29106E-02
         0.32401E-02
         0.32401E-02
         0.31986E-02
         0.29848E-02
         0.32841E-02
         0.32841E-02
         0.42421E-02
         0.35201E-02
         0.37634E-02
         0.42421E-02
         0.37634E-02
         0.37634E-02
         0.30089E-02
         0.32073E-02
         0.42421E-02
         0.32073E-02
         0.24177E-02
         0.29961E-02
         0.32418E-02
         0.26584E-02
         0.27191E-02
         0.42670E-02
         0.36493E-02
         0.42670E-02
         0.32073E-02
         0.29714E-02
         0.34644E-02
         0.32623E-02
         0.37115E-02
         0.32073E-02
         0.30822E-02
         0.35195E-02
         0.26896E-02
         0.26896E-02
         0.24633E-02
         0.27638E-02
         0.42670E-02
         0.35195E-02
         0.42670E-02
         0.34681E-02
         0.27275E-02
         0.31805E-02
         0.32418E-02
         0.26972E-02
         0.27828E-02
         0.27828E-02
         0.27006E-02
         0.31888E-02
         0.31888E-02
         0.37115E-02
         0.36243E-02
         0.28247E-02
         0.31652E-02
         0.33483E-02
         0.33483E-02
         0.31995E-02
         0.29847E-02
         0.32839E-02
         0.27275E-02
         0.31090E-02
         0.31805E-02
         0.32418E-02
         0.32418E-02
         0.29961E-02
         0.27191E-02
         0.26972E-02
         0.27828E-02
         0.27828E-02
         0.27006E-02
         0.31888E-02
         0.31888E-02
         0.32623E-02
         0.34644E-02
         0.37115E-02
         0.37115E-02
         0.36243E-02
         0.28247E-02
         0.29116E-02
         0.32412E-02
         0.32412E-02
         0.31995E-02
         0.29847E-02
         0.32839E-02
         0.32839E-02
         0.42423E-02
         0.35200E-02
         0.37639E-02
         0.42423E-02
         0.37639E-02
         0.37639E-02
         0.30091E-02
         0.32075E-02
         0.42423E-02
         0.32075E-02
         0.24176E-02
         0.29970E-02
         0.32428E-02
         0.26572E-02
         0.27192E-02
         0.42662E-02
         0.36483E-02
         0.42662E-02
         0.32075E-02
         0.29702E-02
         0.34639E-02
         0.32624E-02
         0.37111E-02
         0.32075E-02
         0.30811E-02
         0.35197E-02
         0.26881E-02
         0.26881E-02
         0.24628E-02
         0.27631E-02
         0.42662E-02
         0.35197E-02
         0.42662E-02
         0.34692E-02
         0.27276E-02
         0.31808E-02
         0.32428E-02
         0.26975E-02
         0.27828E-02
         0.27828E-02
         0.27007E-02
         0.31890E-02
         0.31890E-02
         0.37111E-02
         0.36242E-02
         0.28243E-02
         0.31658E-02
         0.33482E-02
         0.33482E-02
         0.32003E-02
         0.29846E-02
         0.32837E-02
         0.27276E-02
         0.31081E-02
         0.31808E-02
         0.32428E-02
         0.32428E-02
         0.29970E-02
         0.27192E-02
         0.26975E-02
         0.27828E-02
         0.27828E-02
         0.27007E-02
         0.31890E-02
         0.31890E-02
         0.32624E-02
         0.34639E-02
         0.37111E-02
         0.37111E-02
         0.36242E-02
         0.28243E-02
         0.29125E-02
         0.32423E-02
         0.32423E-02
         0.32003E-02
         0.29846E-02
         0.32837E-02
         0.32837E-02
         0.42424E-02
         0.35200E-02
         0.37644E-02
         0.42424E-02
         0.37644E-02
         0.37644E-02
         0.30093E-02
         0.32077E-02
         0.42424E-02
         0.32077E-02
         0.24174E-02
         0.29979E-02
         0.32439E-02
         0.26559E-02
         0.27192E-02
         0.42653E-02
         0.36474E-02
         0.42653E-02
         0.32077E-02
         0.29690E-02
         0.34635E-02
         0.32624E-02
         0.37108E-02
         0.32077E-02
         0.30799E-02
         0.35199E-02
         0.26867E-02
         0.26867E-02
         0.24623E-02
         0.27625E-02
         0.42653E-02
         0.35199E-02
         0.42653E-02
         0.34703E-02
         0.27276E-02
         0.31812E-02
         0.32439E-02
         0.26979E-02
         0.27828E-02
         0.27828E-02
         0.27008E-02
         0.31893E-02
         0.31893E-02
         0.37108E-02
         0.36241E-02
         0.28240E-02
         0.31663E-02
         0.33481E-02
         0.33481E-02
         0.32012E-02
         0.29844E-02
         0.32835E-02
         0.27276E-02
         0.31071E-02
         0.31812E-02
         0.32439E-02
         0.32439E-02
         0.29979E-02
         0.27192E-02
         0.26979E-02
         0.27828E-02
         0.27828E-02
         0.27008E-02
         0.31893E-02
         0.31893E-02
         0.32624E-02
         0.34635E-02
         0.37108E-02
         0.37108E-02
         0.36241E-02
         0.28240E-02
         0.29135E-02
         0.32434E-02
         0.32434E-02
         0.32012E-02
         0.29844E-02
         0.32835E-02
         0.32835E-02
         0.42425E-02
         0.35200E-02
         0.37649E-02
         0.42425E-02
         0.37649E-02
         0.37649E-02
         0.30095E-02
         0.32079E-02
         0.42425E-02
         0.32079E-02
         0.24173E-02
         0.29989E-02
         0.32450E-02
         0.26547E-02
         0.27193E-02
         0.42645E-02
         0.36465E-02
         0.42645E-02
         0.32079E-02
         0.29677E-02
         0.34631E-02
         0.32625E-02
         0.37104E-02
         0.32079E-02
         0.30788E-02
         0.35201E-02
         0.26852E-02
         0.26852E-02
         0.24618E-02
         0.27618E-02
         0.42645E-02
         0.35201E-02
         0.42645E-02
         0.34715E-02
         0.27277E-02
         0.31815E-02
         0.32450E-02
         0.26983E-02
         0.27828E-02
         0.27828E-02
         0.27009E-02
         0.31895E-02
         0.31895E-02
         0.37104E-02
         0.36239E-02
         0.28237E-02
         0.31668E-02
         0.33480E-02
         0.33480E-02
         0.32020E-02
         0.29843E-02
         0.32833E-02
         0.27277E-02
         0.31062E-02
         0.31815E-02
         0.32450E-02
         0.32450E-02
         0.29989E-02
         0.27193E-02
         0.26983E-02
         0.27828E-02
         0.27828E-02
         0.27009E-02
         0.31895E-02
         0.31895E-02
         0.32625E-02
         0.34631E-02
         0.37104E-02
         0.37104E-02
         0.36239E-02
         0.28237E-02
         0.29145E-02
         0.32445E-02
         0.32445E-02
         0.32020E-02
         0.29843E-02
         0.32833E-02
         0.32833E-02
         0.42427E-02
         0.35200E-02
         0.37654E-02
         0.42427E-02
         0.37654E-02
         0.37654E-02
         0.30097E-02
         0.32081E-02
         0.42427E-02
         0.32081E-02
         0.24171E-02
         0.29998E-02
         0.32461E-02
         0.26535E-02
         0.27193E-02
         0.42636E-02
         0.36455E-02
         0.42636E-02
         0.32081E-02
         0.29665E-02
         0.34626E-02
         0.32626E-02
         0.37100E-02
         0.32081E-02
         0.30777E-02
         0.35203E-02
         0.26838E-02
         0.26838E-02
         0.24613E-02
         0.27611E-02
         0.42636E-02
         0.35203E-02
         0.42636E-02
         0.34726E-02
         0.27278E-02
         0.31818E-02
         0.32461E-02
         0.26987E-02
         0.27827E-02
         0.27827E-02
         0.27010E-02
         0.31898E-02
         0.31898E-02
         0.37100E-02
         0.36238E-02
         0.28234E-02
         0.31673E-02
         0.33479E-02
         0.33479E-02
         0.32029E-02
         0.29842E-02
         0.32831E-02
         0.27278E-02
         0.31052E-02
         0.31818E-02
         0.32461E-02
         0.32461E-02
         0.29998E-02
         0.27193E-02
         0.26987E-02
         0.27827E-02
         0.27827E-02
         0.27010E-02
         0.31898E-02
         0.31898E-02
         0.32626E-02
         0.34626E-02
         0.37100E-02
         0.37100E-02
         0.36238E-02
         0.28234E-02
         0.29154E-02
         0.32457E-02
         0.32457E-02
         0.32029E-02
         0.29842E-02
         0.32831E-02
         0.32831E-02
         0.42428E-02
         0.35199E-02
         0.37660E-02
         0.42428E-02
         0.37660E-02
         0.37660E-02
         0.30099E-02
         0.32083E-02
         0.42428E-02
         0.32083E-02
         0.24170E-02
         0.30007E-02
         0.32471E-02
         0.26523E-02
         0.27194E-02
         0.42628E-02
         0.36446E-02
         0.42628E-02
         0.32083E-02
         0.29652E-02
         0.34622E-02
         0.32627E-02
         0.37096E-02
         0.32083E-02
         0.30766E-02
         0.35205E-02
         0.26823E-02
         0.26823E-02
         0.24608E-02
         0.27605E-02
         0.42628E-02
         0.35205E-02
         0.42628E-02
         0.34737E-02
         0.27279E-02
         0.31821E-02
         0.32471E-02
         0.26991E-02
         0.27827E-02
         0.27827E-02
         0.27011E-02
         0.31900E-02
         0.31900E-02
         0.37096E-02
         0.36237E-02
         0.28231E-02
         0.31679E-02
         0.33478E-02
         0.33478E-02
         0.32038E-02
         0.29841E-02
         0.32829E-02
         0.27279E-02
         0.31043E-02
         0.31821E-02
         0.32471E-02
         0.32471E-02
         0.30007E-02
         0.27194E-02
         0.26991E-02
         0.27827E-02
         0.27827E-02
         0.27011E-02
         0.31900E-02
         0.31900E-02
         0.32627E-02
         0.34622E-02
         0.37096E-02
         0.37096E-02
         0.36237E-02
         0.28231E-02
         0.29164E-02
         0.32468E-02
         0.32468E-02
         0.32038E-02
         0.29841E-02
         0.32829E-02
         0.32829E-02
         0.42429E-02
         0.35199E-02
         0.37665E-02
         0.42429E-02
         0.37665E-02
         0.37665E-02
         0.30101E-02
         0.32085E-02
         0.42429E-02
         0.32085E-02
         0.24168E-02
         0.30017E-02
         0.32482E-02
         0.26510E-02
         0.27194E-02
         0.42619E-02
         0.36437E-02
         0.42619E-02
         0.32085E-02
         0.29640E-02
         0.34618E-02
         0.32627E-02
         0.37092E-02
         0.32085E-02
         0.30755E-02
         0.35207E-02
         0.26808E-02
         0.26808E-02
         0.24603E-02
         0.27599E-02
         0.42619E-02
         0.35207E-02
         0.42619E-02
         0.34748E-02
         0.27279E-02
         0.31824E-02
         0.32482E-02
         0.26994E-02
         0.27827E-02
         0.27827E-02
         0.27012E-02
         0.31902E-02
         0.31902E-02
         0.37092E-02
         0.36236E-02
         0.28227E-02
         0.31684E-02
         0.33477E-02
         0.33477E-02
         0.32046E-02
         0.29840E-02
         0.32827E-02
         0.27279E-02
         0.31034E-02
         0.31824E-02
         0.32482E-02
         0.32482E-02
         0.30017E-02
         0.27194E-02
         0.26994E-02
         0.27827E-02
         0.27827E-02
         0.27012E-02
         0.31902E-02
         0.31902E-02
         0.32627E-02
         0.34618E-02
         0.37092E-02
         0.37092E-02
         0.36236E-02
         0.28227E-02
         0.29173E-02
         0.32479E-02
         0.32479E-02
         0.32046E-02
         0.29840E-02
         0.32827E-02
         0.32827E-02
         0.42431E-02
         0.35199E-02
         0.37670E-02
         0.42431E-02
         0.37670E-02
         0.37670E-02
         0.30102E-02
         0.32087E-02
         0.42431E-02
         0.32087E-02
         0.24167E-02
         0.30026E-02
         0.32493E-02
         0.26498E-02
         0.27194E-02
         0.42611E-02
         0.36427E-02
         0.42611E-02
         0.32087E-02
         0.29628E-02
         0.34613E-02
         0.32628E-02
         0.37089E-02
         0.32087E-02
         0.30744E-02
         0.35209E-02
         0.26794E-02
         0.26794E-02
         0.24598E-02
         0.27592E-02
         0.42611E-02
         0.35209E-02
         0.42611E-02
         0.34759E-02
         0.27280E-02
         0.31827E-02
         0.32493E-02
         0.26998E-02
         0.27827E-02
         0.27827E-02
         0.27013E-02
         0.31905E-02
         0.31905E-02
         0.37089E-02
         0.36235E-02
         0.28224E-02
         0.31689E-02
         0.33476E-02
         0.33476E-02
         0.32055E-02
         0.29839E-02
         0.32825E-02
         0.27280E-02
         0.31024E-02
         0.31827E-02
         0.32493E-02
         0.32493E-02
         0.30026E-02
         0.27194E-02
         0.26998E-02
         0.27827E-02
         0.27827E-02
         0.27013E-02
         0.31905E-02
         0.31905E-02
         0.32628E-02
         0.34613E-02
         0.37089E-02
         0.37089E-02
         0.36235E-02
         0.28224E-02
         0.29183E-02
         0.32490E-02
         0.32490E-02
         0.32055E-02
         0.29839E-02
         0.32825E-02
         0.32825E-02
         0.42432E-02
         0.35199E-02
         0.37675E-02
         0.42432E-02
         0.37675E-02
         0.37675E-02
         0.30104E-02
         0.32089E-02
         0.42432E-02
         0.32089E-02
         0.24166E-02
         0.30035E-02
         0.32504E-02
         0.26486E-02
         0.27195E-02
         0.42603E-02
         0.36418E-02
         0.42603E-02
         0.32089E-02
         0.29615E-02
         0.34609E-02
         0.32629E-02
         0.37085E-02
         0.32089E-02
         0.30732E-02
         0.35211E-02
         0.26779E-02
         0.26779E-02
         0.24593E-02
         0.27585E-02
         0.42603E-02
         0.35211E-02
         0.42603E-02
         0.34771E-02
         0.27281E-02
         0.31830E-02
         0.32504E-02
         0.27002E-02
         0.27827E-02
         0.27827E-02
         0.27014E-02
         0.31907E-02
         0.31907E-02
         0.37085E-02
         0.36233E-02
         0.28221E-02
         0.31694E-02
         0.33475E-02
         0.33475E-02
         0.32063E-02
         0.29838E-02
         0.32823E-02
         0.27281E-02
         0.31015E-02
         0.31830E-02
         0.32504E-02
         0.32504E-02
         0.30035E-02
         0.27195E-02
         0.27002E-02
         0.27827E-02
         0.27827E-02
         0.27014E-02
         0.31907E-02
         0.31907E-02
         0.32629E-02
         0.34609E-02
         0.37085E-02
         0.37085E-02
         0.36233E-02
         0.28221E-02
         0.29193E-02
         0.32501E-02
         0.32501E-02
         0.32063E-02
         0.29838E-02
         0.32823E-02
         0.32823E-02
         0.42433E-02
         0.35199E-02
         0.37680E-02
         0.42433E-02
         0.37680E-02
         0.37680E-02
         0.30106E-02
         0.32091E-02
         0.42433E-02
         0.32091E-02
         0.24164E-02
         0.30045E-02
         0.32514E-02
         0.26474E-02
         0.27195E-02
         0.42594E-02
         0.36409E-02
         0.42594E-02
         0.32091E-02
         0.29603E-02
         0.34605E-02
         0.32630E-02
         0.37081E-02
         0.32091E-02
         0.30721E-02
         0.35213E-02
         0.26765E-02
         0.26765E-02
         0.24588E-02
         0.27579E-02
         0.42594E-02
         0.35213E-02
         0.42594E-02
         0.34782E-02
         0.27281E-02
         0.31833E-02
         0.32514E-02
         0.27006E-02
         0.27826E-02
         0.27826E-02
         0.27015E-02
         0.31910E-02
         0.31910E-02
         0.37081E-02
         0.36232E-02
         0.28218E-02
         0.31700E-02
         0.33474E-02
         0.33474E-02
         0.32072E-02
         0.29836E-02
         0.32821E-02
         0.27281E-02
         0.31005E-02
         0.31833E-02
         0.32514E-02
         0.32514E-02
         0.30045E-02
         0.27195E-02
         0.27006E-02
         0.27826E-02
         0.27826E-02
         0.27015E-02
         0.31910E-02
         0.31910E-02
         0.32630E-02
         0.34605E-02
         0.37081E-02
         0.37081E-02
         0.36232E-02
         0.28218E-02
         0.29202E-02
         0.32512E-02
         0.32512E-02
         0.32072E-02
         0.29836E-02
         0.32821E-02
         0.32821E-02
         0.42435E-02
         0.35199E-02
         0.37685E-02
         0.42435E-02
         0.37685E-02
         0.37685E-02
         0.30108E-02
         0.32093E-02
         0.42435E-02
         0.32093E-02
         0.24163E-02
         0.30054E-02
         0.32525E-02
         0.26461E-02
         0.27196E-02
         0.42586E-02
         0.36399E-02
         0.42586E-02
         0.32093E-02
         0.29591E-02
         0.34601E-02
         0.32630E-02
         0.37077E-02
         0.32093E-02
         0.30710E-02
         0.35215E-02
         0.26750E-02
         0.26750E-02
         0.24583E-02
         0.27572E-02
         0.42586E-02
         0.35215E-02
         0.42586E-02
         0.34793E-02
         0.27282E-02
         0.31836E-02
         0.32525E-02
         0.27010E-02
         0.27826E-02
         0.27826E-02
         0.27016E-02
         0.31912E-02
         0.31912E-02
         0.37077E-02
         0.36231E-02
         0.28215E-02
         0.31705E-02
         0.33473E-02
         0.33473E-02
         0.32080E-02
         0.29835E-02
         0.32819E-02
         0.27282E-02
         0.30996E-02
         0.31836E-02
         0.32525E-02
         0.32525E-02
         0.30054E-02
         0.27196E-02
         0.27010E-02
         0.27826E-02
         0.27826E-02
         0.27016E-02
         0.31912E-02
         0.31912E-02
         0.32630E-02
         0.34601E-02
         0.37077E-02
         0.37077E-02
         0.36231E-02
         0.28215E-02
         0.29212E-02
         0.32524E-02
         0.32524E-02
         0.32080E-02
         0.29835E-02
         0.32819E-02
         0.32819E-02
         0.42436E-02
         0.35198E-02
         0.37690E-02
         0.42436E-02
         0.37690E-02
         0.37690E-02
         0.30110E-02
         0.32095E-02
         0.42436E-02
         0.32095E-02
         0.24162E-02
         0.30064E-02
         0.32536E-02
         0.26449E-02
         0.27196E-02
         0.42577E-02
         0.36390E-02
         0.42577E-02
         0.32096E-02
         0.29578E-02
         0.34596E-02
         0.32631E-02
         0.37074E-02
         0.32096E-02
         0.30699E-02
         0.35217E-02
         0.26735E-02
         0.26735E-02
         0.24578E-02
         0.27566E-02
         0.42577E-02
         0.35217E-02
         0.42577E-02
         0.34804E-02
         0.27283E-02
         0.31839E-02
         0.32536E-02
         0.27013E-02
         0.27826E-02
         0.27826E-02
         0.27017E-02
         0.31915E-02
         0.31915E-02
         0.37074E-02
         0.36230E-02
         0.28211E-02
         0.31710E-02
         0.33472E-02
         0.33472E-02
         0.32089E-02
         0.29834E-02
         0.32817E-02
         0.27283E-02
         0.30986E-02
         0.31839E-02
         0.32536E-02
         0.32536E-02
         0.30064E-02
         0.27196E-02
         0.27013E-02
         0.27826E-02
         0.27826E-02
         0.27017E-02
         0.31915E-02
         0.31915E-02
         0.32631E-02
         0.34596E-02
         0.37074E-02
         0.37074E-02
         0.36230E-02
         0.28211E-02
         0.29221E-02
         0.32535E-02
         0.32535E-02
         0.32089E-02
         0.29834E-02
         0.32817E-02
         0.32817E-02
         0.42437E-02
         0.35198E-02
         0.37695E-02
         0.42437E-02
         0.37695E-02
         0.37695E-02
         0.30112E-02
         0.32097E-02
         0.42437E-02
         0.32097E-02
         0.24160E-02
         0.30073E-02
         0.32547E-02
         0.26437E-02
         0.27197E-02
         0.42569E-02
         0.36381E-02
         0.42569E-02
         0.32098E-02
         0.29566E-02
         0.34592E-02
         0.32632E-02
         0.37070E-02
         0.32098E-02
         0.30688E-02
         0.35219E-02
         0.26721E-02
         0.26721E-02
         0.24573E-02
         0.27560E-02
         0.42569E-02
         0.35219E-02
         0.42569E-02
         0.34815E-02
         0.27284E-02
         0.31843E-02
         0.32547E-02
         0.27017E-02
         0.27826E-02
         0.27826E-02
         0.27018E-02
         0.31917E-02
         0.31917E-02
         0.37070E-02
         0.36229E-02
         0.28208E-02
         0.31716E-02
         0.33471E-02
         0.33471E-02
         0.32097E-02
         0.29833E-02
         0.32815E-02
         0.27284E-02
         0.30977E-02
         0.31843E-02
         0.32547E-02
         0.32547E-02
         0.30073E-02
         0.27197E-02
         0.27017E-02
         0.27826E-02
         0.27826E-02
         0.27018E-02
         0.31917E-02
         0.31917E-02
         0.32632E-02
         0.34592E-02
         0.37070E-02
         0.37070E-02
         0.36229E-02
         0.28208E-02
         0.29231E-02
         0.32546E-02
         0.32546E-02
         0.32097E-02
         0.29833E-02
         0.32815E-02
         0.32815E-02
         0.42439E-02
         0.35198E-02
         0.37701E-02
         0.42439E-02
         0.37701E-02
         0.37701E-02
         0.30113E-02
         0.32099E-02
         0.42439E-02
         0.32099E-02
         0.24159E-02
         0.30082E-02
         0.32558E-02
         0.26425E-02
         0.27197E-02
         0.42560E-02
         0.36371E-02
         0.42560E-02
         0.32100E-02
         0.29554E-02
         0.34588E-02
         0.32633E-02
         0.37066E-02
         0.32100E-02
         0.30677E-02
         0.35221E-02
         0.26706E-02
         0.26706E-02
         0.24568E-02
         0.27553E-02
         0.42560E-02
         0.35221E-02
         0.42560E-02
         0.34827E-02
         0.27284E-02
         0.31846E-02
         0.32558E-02
         0.27021E-02
         0.27826E-02
         0.27826E-02
         0.27019E-02
         0.31920E-02
         0.31920E-02
         0.37066E-02
         0.36227E-02
         0.28205E-02
         0.31721E-02
         0.33470E-02
         0.33470E-02
         0.32106E-02
         0.29831E-02
         0.32813E-02
         0.27284E-02
         0.30968E-02
         0.31846E-02
         0.32558E-02
         0.32558E-02
         0.30082E-02
         0.27197E-02
         0.27021E-02
         0.27826E-02
         0.27826E-02
         0.27019E-02
         0.31920E-02
         0.31920E-02
         0.32633E-02
         0.34588E-02
         0.37066E-02
         0.37066E-02
         0.36227E-02
         0.28205E-02
         0.29241E-02
         0.32557E-02
         0.32557E-02
         0.32106E-02
         0.29831E-02
         0.32813E-02
         0.32813E-02
         0.42440E-02
         0.35198E-02
         0.37706E-02
         0.42440E-02
         0.37706E-02
         0.37706E-02
         0.30115E-02
         0.32101E-02
         0.42440E-02
         0.32101E-02
         0.24158E-02
         0.30091E-02
         0.32568E-02
         0.26412E-02
         0.27198E-02
         0.42552E-02
         0.36362E-02
         0.42552E-02
         0.32102E-02
         0.29541E-02
         0.34583E-02
         0.32633E-02
         0.37062E-02
         0.32102E-02
         0.30665E-02
         0.35223E-02
         0.26692E-02
         0.26692E-02
         0.24563E-02
         0.27546E-02
         0.42552E-02
         0.35223E-02
         0.42552E-02
         0.34838E-02
         0.27285E-02
         0.31849E-02
         0.32568E-02
         0.27025E-02
         0.27826E-02
         0.27826E-02
         0.27020E-02
         0.31922E-02
         0.31922E-02
         0.37062E-02
         0.36226E-02
         0.28202E-02
         0.31726E-02
         0.33469E-02
         0.33469E-02
         0.32114E-02
         0.29830E-02
         0.32811E-02
         0.27285E-02
         0.30958E-02
         0.31849E-02
         0.32568E-02
         0.32568E-02
         0.30091E-02
         0.27198E-02
         0.27025E-02
         0.27826E-02
         0.27826E-02
         0.27020E-02
         0.31922E-02
         0.31922E-02
         0.32633E-02
         0.34583E-02
         0.37062E-02
         0.37062E-02
         0.36226E-02
         0.28202E-02
         0.29250E-02
         0.32568E-02
         0.32568E-02
         0.32114E-02
         0.29830E-02
         0.32811E-02
         0.32811E-02
         0.42441E-02
         0.35198E-02
         0.37711E-02
         0.42441E-02
         0.37711E-02
         0.37711E-02
         0.30117E-02
         0.32103E-02
         0.42441E-02
         0.32103E-02
         0.24156E-02
         0.30101E-02
         0.32579E-02
         0.26400E-02
         0.27198E-02
         0.42543E-02
         0.36353E-02
         0.42543E-02
         0.32104E-02
         0.29529E-02
         0.34579E-02
         0.32634E-02
         0.37058E-02
         0.32104E-02
         0.30654E-02
         0.35225E-02
         0.26677E-02
         0.26677E-02
         0.24558E-02
         0.27540E-02
         0.42543E-02
         0.35225E-02
         0.42543E-02
         0.34849E-02
         0.27286E-02
         0.31852E-02
         0.32579E-02
         0.27029E-02
         0.27826E-02
         0.27826E-02
         0.27021E-02
         0.31924E-02
         0.31924E-02
         0.37058E-02
         0.36225E-02
         0.28198E-02
         0.31731E-02
         0.33468E-02
         0.33468E-02
         0.32123E-02
         0.29829E-02
         0.32809E-02
         0.27286E-02
         0.30949E-02
         0.31852E-02
         0.32579E-02
         0.32579E-02
         0.30101E-02
         0.27198E-02
         0.27029E-02
         0.27826E-02
         0.27826E-02
         0.27021E-02
         0.31924E-02
         0.31924E-02
         0.32634E-02
         0.34579E-02
         0.37058E-02
         0.37058E-02
         0.36225E-02
         0.28198E-02
         0.29260E-02
         0.32579E-02
         0.32579E-02
         0.32123E-02
         0.29829E-02
         0.32809E-02
         0.32809E-02
         0.42443E-02
         0.35197E-02
         0.37716E-02
         0.42443E-02
         0.37716E-02
         0.37716E-02
         0.30119E-02
         0.32105E-02
         0.42443E-02
         0.32105E-02
         0.24155E-02
         0.30110E-02
         0.32590E-02
         0.26388E-02
         0.27199E-02
         0.42535E-02
         0.36343E-02
         0.42535E-02
         0.32106E-02
         0.29517E-02
         0.34575E-02
         0.32635E-02
         0.37055E-02
         0.32106E-02
         0.30643E-02
         0.35227E-02
         0.26663E-02
         0.26663E-02
         0.24553E-02
         0.27533E-02
         0.42535E-02
         0.35227E-02
         0.42535E-02
         0.34860E-02
         0.27286E-02
         0.31855E-02
         0.32590E-02
         0.27032E-02
         0.27826E-02
         0.27826E-02
         0.27022E-02
         0.31927E-02
         0.31927E-02
         0.37055E-02
         0.36224E-02
         0.28195E-02
         0.31737E-02
         0.33467E-02
         0.33467E-02
         0.32132E-02
         0.29828E-02
         0.32807E-02
         0.27286E-02
         0.30939E-02
         0.31855E-02
         0.32590E-02
         0.32590E-02
         0.30110E-02
         0.27199E-02
         0.27032E-02
         0.27826E-02
         0.27826E-02
         0.27022E-02
         0.31927E-02
         0.31927E-02
         0.32635E-02
         0.34575E-02
         0.37055E-02
         0.37055E-02
         0.36224E-02
         0.28195E-02
         0.29269E-02
         0.32591E-02
         0.32591E-02
         0.32132E-02
         0.29828E-02
         0.32807E-02
         0.32807E-02
         0.42444E-02
         0.35197E-02
         0.37721E-02
         0.42444E-02
         0.37721E-02
         0.37721E-02
         0.30121E-02
         0.32107E-02
         0.42444E-02
         0.32107E-02
         0.24154E-02
         0.30119E-02
         0.32601E-02
         0.26376E-02
         0.27199E-02
         0.42527E-02
         0.36334E-02
         0.42527E-02
         0.32108E-02
         0.29504E-02
         0.34571E-02
         0.32636E-02
         0.37051E-02
         0.32108E-02
         0.30632E-02
         0.35229E-02
         0.26648E-02
         0.26648E-02
         0.24552E-02
         0.27527E-02
         0.42527E-02
         0.35229E-02
         0.42527E-02
         0.34871E-02
         0.27287E-02
         0.31858E-02
         0.32601E-02
         0.27036E-02
         0.27825E-02
         0.27825E-02
         0.27023E-02
         0.31929E-02
         0.31929E-02
         0.37051E-02
         0.36223E-02
         0.28192E-02
         0.31742E-02
         0.33466E-02
         0.33466E-02
         0.32140E-02
         0.29827E-02
         0.32805E-02
         0.27287E-02
         0.30930E-02
         0.31858E-02
         0.32601E-02
         0.32601E-02
         0.30119E-02
         0.27199E-02
         0.27036E-02
         0.27825E-02
         0.27825E-02
         0.27023E-02
         0.31929E-02
         0.31929E-02
         0.32636E-02
         0.34571E-02
         0.37051E-02
         0.37051E-02
         0.36223E-02
         0.28192E-02
         0.29279E-02
         0.32602E-02
         0.32602E-02
         0.32140E-02
         0.29827E-02
         0.32805E-02
         0.32805E-02
         0.42445E-02
         0.35197E-02
         0.37726E-02
         0.42445E-02
         0.37726E-02
         0.37726E-02
         0.30123E-02
         0.32108E-02
         0.42445E-02
         0.32108E-02
         0.24152E-02
         0.30129E-02
         0.32611E-02
         0.26363E-02
         0.27200E-02
         0.42518E-02
         0.36325E-02
         0.42518E-02
         0.32110E-02
         0.29492E-02
         0.34566E-02
         0.32636E-02
         0.37047E-02
         0.32110E-02
         0.30621E-02
         0.35231E-02
         0.26633E-02
         0.26633E-02
         0.24554E-02
         0.27520E-02
         0.42518E-02
         0.35231E-02
         0.42518E-02
         0.34882E-02
         0.27288E-02
         0.31861E-02
         0.32611E-02
         0.27040E-02
         0.27825E-02
         0.27825E-02
         0.27024E-02
         0.31932E-02
         0.31932E-02
         0.37047E-02
         0.36222E-02
         0.28189E-02
         0.31747E-02
         0.33465E-02
         0.33465E-02
         0.32149E-02
         0.29826E-02
         0.32803E-02
         0.27288E-02
         0.30921E-02
         0.31861E-02
         0.32611E-02
         0.32611E-02
         0.30129E-02
         0.27200E-02
         0.27040E-02
         0.27825E-02
         0.27825E-02
         0.27024E-02
         0.31932E-02
         0.31932E-02
         0.32636E-02
         0.34566E-02
         0.37047E-02
         0.37047E-02
         0.36222E-02
         0.28189E-02
         0.29289E-02
         0.32613E-02
         0.32613E-02
         0.32149E-02
         0.29826E-02
         0.32803E-02
         0.32803E-02
         0.42447E-02
         0.35196E-02
         0.37732E-02
         0.42447E-02
         0.37732E-02
         0.37732E-02
         0.30125E-02
         0.32111E-02
         0.42447E-02
         0.32111E-02
         0.24151E-02
         0.30138E-02
         0.32622E-02
         0.26351E-02
         0.27200E-02
         0.42510E-02
         0.36315E-02
         0.42510E-02
         0.32112E-02
         0.29480E-02
         0.34562E-02
         0.32637E-02
         0.37043E-02
         0.32112E-02
         0.30610E-02
         0.35233E-02
         0.26619E-02
         0.26619E-02
         0.24557E-02
         0.27514E-02
         0.42510E-02
         0.35233E-02
         0.42510E-02
         0.34894E-02
         0.27289E-02
         0.31864E-02
         0.32622E-02
         0.27044E-02
         0.27825E-02
         0.27825E-02
         0.27025E-02
         0.31934E-02
         0.31934E-02
         0.37043E-02
         0.36220E-02
         0.28186E-02
         0.31753E-02
         0.33464E-02
         0.33464E-02
         0.32157E-02
         0.29824E-02
         0.32801E-02
         0.27289E-02
         0.30911E-02
         0.31864E-02
         0.32622E-02
         0.32622E-02
         0.30138E-02
         0.27200E-02
         0.27044E-02
         0.27825E-02
         0.27825E-02
         0.27025E-02
         0.31934E-02
         0.31934E-02
         0.32637E-02
         0.34562E-02
         0.37043E-02
         0.37043E-02
         0.36220E-02
         0.28186E-02
         0.29298E-02
         0.32624E-02
         0.32624E-02
         0.32157E-02
         0.29824E-02
         0.32801E-02
         0.32801E-02
         0.42448E-02
         0.35196E-02
         0.37737E-02
         0.42448E-02
         0.37737E-02
         0.37737E-02
         0.30126E-02
         0.32112E-02
         0.42448E-02
         0.32112E-02
         0.24150E-02
         0.30147E-02
         0.32633E-02
         0.26339E-02
         0.27200E-02
         0.42501E-02
         0.36306E-02
         0.42501E-02
         0.32114E-02
         0.29467E-02
         0.34558E-02
         0.32638E-02
         0.37039E-02
         0.32114E-02
         0.30598E-02
         0.35235E-02
         0.26604E-02
         0.26604E-02
         0.24559E-02
         0.27507E-02
         0.42501E-02
         0.35235E-02
         0.42501E-02
         0.34905E-02
         0.27289E-02
         0.31867E-02
         0.32633E-02
         0.27048E-02
         0.27825E-02
         0.27825E-02
         0.27026E-02
         0.31937E-02
         0.31937E-02
         0.37039E-02
         0.36219E-02
         0.28183E-02
         0.31758E-02
         0.33463E-02
         0.33463E-02
         0.32166E-02
         0.29823E-02
         0.32799E-02
         0.27289E-02
         0.30902E-02
         0.31867E-02
         0.32633E-02
         0.32633E-02
         0.30147E-02
         0.27200E-02
         0.27048E-02
         0.27825E-02
         0.27825E-02
         0.27026E-02
         0.31937E-02
         0.31937E-02
         0.32638E-02
         0.34558E-02
         0.37039E-02
         0.37039E-02
         0.36219E-02
         0.28183E-02
         0.29308E-02
         0.32635E-02
         0.32635E-02
         0.32166E-02
         0.29823E-02
         0.32799E-02
         0.32799E-02
         0.42448E-02
         0.35196E-02
         0.37737E-02
         0.42448E-02
         0.37737E-02
         0.37737E-02
         0.30126E-02
         0.32112E-02
         0.42448E-02
         0.32112E-02
         0.24148E-02
         0.30147E-02
         0.32633E-02
         0.26327E-02
         0.27200E-02
         0.42493E-02
         0.36297E-02
         0.42493E-02
         0.32114E-02
         0.29455E-02
         0.34553E-02
         0.32638E-02
         0.37036E-02
         0.32114E-02
         0.30587E-02
         0.35235E-02
         0.26590E-02
         0.26590E-02
         0.24559E-02
         0.27501E-02
         0.42493E-02
         0.35235E-02
         0.42493E-02
         0.34905E-02
         0.27289E-02
         0.31867E-02
         0.32633E-02
         0.27048E-02
         0.27825E-02
         0.27825E-02
         0.27026E-02
         0.31937E-02
         0.31937E-02
         0.37036E-02
         0.36218E-02
         0.28180E-02
         0.31758E-02
         0.33462E-02
         0.33462E-02
         0.32166E-02
         0.29822E-02
         0.32797E-02
         0.27289E-02
         0.30892E-02
         0.31867E-02
         0.32633E-02
         0.32633E-02
         0.30147E-02
         0.27200E-02
         0.27048E-02
         0.27825E-02
         0.27825E-02
         0.27026E-02
         0.31937E-02
         0.31937E-02
         0.32638E-02
         0.34553E-02
         0.37036E-02
         0.37036E-02
         0.36218E-02
         0.28180E-02
         0.29308E-02
         0.32635E-02
         0.32635E-02
         0.32166E-02
         0.29822E-02
         0.32797E-02
         0.32797E-02
  
SCALARS              physical_window_y  double 1
LOOKUP_TABLE default
         0.43155E-02
         0.43155E-02
         0.43155E-02
         0.43155E-02
         0.43155E-02
         0.43155E-02
         0.43155E-02
         0.43155E-02
         0.34883E-02
         0.34883E-02
         0.34882E-02
         0.34882E-02
         0.32826E-02
         0.32142E-02
         0.32826E-02
         0.32142E-02
         0.37863E-02
         0.31884E-02
         0.37863E-02
         0.31884E-02
         0.27172E-02
         0.33887E-02
         0.37164E-02
         0.27172E-02
         0.33887E-02
         0.37164E-02
         0.27582E-02
         0.28966E-02
         0.27582E-02
         0.28954E-02
         0.37007E-02
         0.35859E-02
         0.37863E-02
         0.37007E-02
         0.35824E-02
         0.37863E-02
         0.29875E-02
         0.29875E-02
         0.29867E-02
         0.29867E-02
         0.28561E-02
         0.26860E-02
         0.28556E-02
         0.26852E-02
         0.29518E-02
         0.28068E-02
         0.29517E-02
         0.28066E-02
         0.29975E-02
         0.29949E-02
         0.37007E-02
         0.37007E-02
         0.28693E-02
         0.28693E-02
         0.28693E-02
         0.28693E-02
         0.27602E-02
         0.26193E-02
         0.27602E-02
         0.26193E-02
         0.37007E-02
         0.37007E-02
         0.37007E-02
         0.37007E-02
         0.37685E-02
         0.37665E-02
         0.37685E-02
         0.37665E-02
         0.30230E-02
         0.37003E-02
         0.30229E-02
         0.37003E-02
         0.37164E-02
         0.37164E-02
         0.31934E-02
         0.31921E-02
         0.32777E-02
         0.32771E-02
         0.32777E-02
         0.32771E-02
         0.27006E-02
         0.25920E-02
         0.27006E-02
         0.25920E-02
         0.25916E-02
         0.25916E-02
         0.29715E-02
         0.29715E-02
         0.29715E-02
         0.29715E-02
         0.26477E-02
         0.29102E-02
         0.26477E-02
         0.29102E-02
         0.34085E-02
         0.34085E-02
         0.35350E-02
         0.35350E-02
         0.35350E-02
         0.35350E-02
         0.29766E-02
         0.32272E-02
         0.29763E-02
         0.32254E-02
         0.29087E-02
         0.29835E-02
         0.29087E-02
         0.29825E-02
         0.37003E-02
         0.37003E-02
         0.37164E-02
         0.37164E-02
         0.37164E-02
         0.37164E-02
         0.33887E-02
         0.33887E-02
         0.28966E-02
         0.28954E-02
         0.31934E-02
         0.31921E-02
         0.32777E-02
         0.32771E-02
         0.32777E-02
         0.32771E-02
         0.27006E-02
         0.27006E-02
         0.25920E-02
         0.25920E-02
         0.25916E-02
         0.25916E-02
         0.26860E-02
         0.26852E-02
         0.28561E-02
         0.28556E-02
         0.29518E-02
         0.29517E-02
         0.29715E-02
         0.29715E-02
         0.29715E-02
         0.29715E-02
         0.26477E-02
         0.26477E-02
         0.27685E-02
         0.27685E-02
         0.34085E-02
         0.34085E-02
         0.35350E-02
         0.35350E-02
         0.35350E-02
         0.35350E-02
         0.29766E-02
         0.29763E-02
         0.31381E-02
         0.31368E-02
         0.31381E-02
         0.31368E-02
         0.43153E-02
         0.43153E-02
         0.43153E-02
         0.43153E-02
         0.34883E-02
         0.34883E-02
         0.32812E-02
         0.32132E-02
         0.37858E-02
         0.31880E-02
         0.27155E-02
         0.33883E-02
         0.37163E-02
         0.27535E-02
         0.28978E-02
         0.37004E-02
         0.35894E-02
         0.37858E-02
         0.29882E-02
         0.29882E-02
         0.28566E-02
         0.26867E-02
         0.29519E-02
         0.28071E-02
         0.30001E-02
         0.37004E-02
         0.28667E-02
         0.28667E-02
         0.27589E-02
         0.26183E-02
         0.37004E-02
         0.37004E-02
         0.37706E-02
         0.37706E-02
         0.30232E-02
         0.36991E-02
         0.37163E-02
         0.31947E-02
         0.32784E-02
         0.32784E-02
         0.27006E-02
         0.25920E-02
         0.25909E-02
         0.29715E-02
         0.29715E-02
         0.26476E-02
         0.29101E-02
         0.34078E-02
         0.35344E-02
         0.35344E-02
         0.29769E-02
         0.32290E-02
         0.29059E-02
         0.29845E-02
         0.36991E-02
         0.37163E-02
         0.37163E-02
         0.33883E-02
         0.28978E-02
         0.31947E-02
         0.32784E-02
         0.32784E-02
         0.27006E-02
         0.25920E-02
         0.25909E-02
         0.26867E-02
         0.28566E-02
         0.29519E-02
         0.29715E-02
         0.29715E-02
         0.26476E-02
         0.27685E-02
         0.34078E-02
         0.35344E-02
         0.35344E-02
         0.29769E-02
         0.31395E-02
         0.31395E-02
         0.43150E-02
         0.43150E-02
         0.43150E-02
         0.43150E-02
         0.34884E-02
         0.34884E-02
         0.32798E-02
         0.32122E-02
         0.37853E-02
         0.31876E-02
         0.27137E-02
         0.33879E-02
         0.37162E-02
         0.27488E-02
         0.28990E-02
         0.37001E-02
         0.35930E-02
         0.37853E-02
         0.29889E-02
         0.29889E-02
         0.28571E-02
         0.26875E-02
         0.29521E-02
         0.28074E-02
         0.30027E-02
         0.37001E-02
         0.28641E-02
         0.28641E-02
         0.27576E-02
         0.26173E-02
         0.37001E-02
         0.37001E-02
         0.37727E-02
         0.37727E-02
         0.30234E-02
         0.36979E-02
         0.37162E-02
         0.31960E-02
         0.32790E-02
         0.32790E-02
         0.27006E-02
         0.25920E-02
         0.25902E-02
         0.29715E-02
         0.29715E-02
         0.26476E-02
         0.29100E-02
         0.34071E-02
         0.35339E-02
         0.35339E-02
         0.29772E-02
         0.32307E-02
         0.29032E-02
         0.29855E-02
         0.36979E-02
         0.37162E-02
         0.37162E-02
         0.33879E-02
         0.28990E-02
         0.31960E-02
         0.32790E-02
         0.32790E-02
         0.27006E-02
         0.25920E-02
         0.25902E-02
         0.26875E-02
         0.28571E-02
         0.29521E-02
         0.29715E-02
         0.29715E-02
         0.26476E-02
         0.27684E-02
         0.34071E-02
         0.35339E-02
         0.35339E-02
         0.29772E-02
         0.31408E-02
         0.31408E-02
         0.43148E-02
         0.43148E-02
         0.43148E-02
         0.43148E-02
         0.34885E-02
         0.34885E-02
         0.32783E-02
         0.32112E-02
         0.37849E-02
         0.31872E-02
         0.27120E-02
         0.33875E-02
         0.37161E-02
         0.27441E-02
         0.29003E-02
         0.36998E-02
         0.35965E-02
         0.37849E-02
         0.29896E-02
         0.29896E-02
         0.28575E-02
         0.26882E-02
         0.29522E-02
         0.28077E-02
         0.30053E-02
         0.36998E-02
         0.28615E-02
         0.28615E-02
         0.27563E-02
         0.26163E-02
         0.36998E-02
         0.36998E-02
         0.37747E-02
         0.37747E-02
         0.30236E-02
         0.36967E-02
         0.37161E-02
         0.31973E-02
         0.32796E-02
         0.32796E-02
         0.27006E-02
         0.25920E-02
         0.25895E-02
         0.29714E-02
         0.29714E-02
         0.26475E-02
         0.29099E-02
         0.34063E-02
         0.35333E-02
         0.35333E-02
         0.29775E-02
         0.32325E-02
         0.29004E-02
         0.29865E-02
         0.36967E-02
         0.37161E-02
         0.37161E-02
         0.33875E-02
         0.29003E-02
         0.31973E-02
         0.32796E-02
         0.32796E-02
         0.27006E-02
         0.25920E-02
         0.25895E-02
         0.26882E-02
         0.28575E-02
         0.29522E-02
         0.29714E-02
         0.29714E-02
         0.26475E-02
         0.27684E-02
         0.34063E-02
         0.35333E-02
         0.35333E-02
         0.29775E-02
         0.31422E-02
         0.31422E-02
         0.43145E-02
         0.43145E-02
         0.43145E-02
         0.43145E-02
         0.34886E-02
         0.34886E-02
         0.32769E-02
         0.32102E-02
         0.37844E-02
         0.31868E-02
         0.27103E-02
         0.33871E-02
         0.37160E-02
         0.27394E-02
         0.29015E-02
         0.36995E-02
         0.36000E-02
         0.37844E-02
         0.29903E-02
         0.29903E-02
         0.28580E-02
         0.26890E-02
         0.29523E-02
         0.28079E-02
         0.30079E-02
         0.36995E-02
         0.28589E-02
         0.28589E-02
         0.27550E-02
         0.26152E-02
         0.36995E-02
         0.36995E-02
         0.37768E-02
         0.37768E-02
         0.30238E-02
         0.36956E-02
         0.37160E-02
         0.31986E-02
         0.32802E-02
         0.32802E-02
         0.27006E-02
         0.25920E-02
         0.25887E-02
         0.29714E-02
         0.29714E-02
         0.26475E-02
         0.29098E-02
         0.34056E-02
         0.35327E-02
         0.35327E-02
         0.29778E-02
         0.32342E-02
         0.28977E-02
         0.29875E-02
         0.36956E-02
         0.37160E-02
         0.37160E-02
         0.33871E-02
         0.29015E-02
         0.31986E-02
         0.32802E-02
         0.32802E-02
         0.27006E-02
         0.25920E-02
         0.25887E-02
         0.26890E-02
         0.28580E-02
         0.29523E-02
         0.29714E-02
         0.29714E-02
         0.26475E-02
         0.27683E-02
         0.34056E-02
         0.35327E-02
         0.35327E-02
         0.29778E-02
         0.31435E-02
         0.31435E-02
         0.43143E-02
         0.43143E-02
         0.43143E-02
         0.43143E-02
         0.34887E-02
         0.34887E-02
         0.32755E-02
         0.32091E-02
         0.37839E-02
         0.31864E-02
         0.27086E-02
         0.33867E-02
         0.37159E-02
         0.27347E-02
         0.29027E-02
         0.36991E-02
         0.36036E-02
         0.37839E-02
         0.29920E-02
         0.29920E-02
         0.28585E-02
         0.26897E-02
         0.29525E-02
         0.28082E-02
         0.30105E-02
         0.36991E-02
         0.28563E-02
         0.28563E-02
         0.27537E-02
         0.26142E-02
         0.36991E-02
         0.36991E-02
         0.37789E-02
         0.37789E-02
         0.30240E-02
         0.36944E-02
         0.37159E-02
         0.31999E-02
         0.32808E-02
         0.32808E-02
         0.27006E-02
         0.25920E-02
         0.25880E-02
         0.29714E-02
         0.29714E-02
         0.26474E-02
         0.29097E-02
         0.34049E-02
         0.35322E-02
         0.35322E-02
         0.29781E-02
         0.32360E-02
         0.28949E-02
         0.29885E-02
         0.36944E-02
         0.37159E-02
         0.37159E-02
         0.33867E-02
         0.29027E-02
         0.31999E-02
         0.32808E-02
         0.32808E-02
         0.27006E-02
         0.25920E-02
         0.25880E-02
         0.26897E-02
         0.28585E-02
         0.29525E-02
         0.29714E-02
         0.29714E-02
         0.26474E-02
         0.27683E-02
         0.34049E-02
         0.35322E-02
         0.35322E-02
         0.29781E-02
         0.31449E-02
         0.31449E-02
         0.43140E-02
         0.43140E-02
         0.43140E-02
         0.43140E-02
         0.34888E-02
         0.34888E-02
         0.32740E-02
         0.32081E-02
         0.37834E-02
         0.31860E-02
         0.27069E-02
         0.33863E-02
         0.37158E-02
         0.27299E-02
         0.29039E-02
         0.36988E-02
         0.36071E-02
         0.37834E-02
         0.29946E-02
         0.29946E-02
         0.28589E-02
         0.26905E-02
         0.29526E-02
         0.28085E-02
         0.30131E-02
         0.36988E-02
         0.28538E-02
         0.28538E-02
         0.27524E-02
         0.26132E-02
         0.36988E-02
         0.36988E-02
         0.37809E-02
         0.37809E-02
         0.30241E-02
         0.36932E-02
         0.37158E-02
         0.32012E-02
         0.32814E-02
         0.32814E-02
         0.27006E-02
         0.25920E-02
         0.25873E-02
         0.29714E-02
         0.29714E-02
         0.26473E-02
         0.29097E-02
         0.34041E-02
         0.35316E-02
         0.35316E-02
         0.29784E-02
         0.32378E-02
         0.28921E-02
         0.29895E-02
         0.36932E-02
         0.37158E-02
         0.37158E-02
         0.33863E-02
         0.29039E-02
         0.32012E-02
         0.32814E-02
         0.32814E-02
         0.27006E-02
         0.25920E-02
         0.25873E-02
         0.26905E-02
         0.28589E-02
         0.29526E-02
         0.29714E-02
         0.29714E-02
         0.26473E-02
         0.27683E-02
         0.34041E-02
         0.35316E-02
         0.35316E-02
         0.29784E-02
         0.31463E-02
         0.31463E-02
         0.43138E-02
         0.43138E-02
         0.43138E-02
         0.43138E-02
         0.34888E-02
         0.34888E-02
         0.32726E-02
         0.32071E-02
         0.37830E-02
         0.31856E-02
         0.27051E-02
         0.33859E-02
         0.37157E-02
         0.27252E-02
         0.29051E-02
         0.36985E-02
         0.36106E-02
         0.37830E-02
         0.29972E-02
         0.29972E-02
         0.28594E-02
         0.26912E-02
         0.29528E-02
         0.28087E-02
         0.30156E-02
         0.36985E-02
         0.28512E-02
         0.28512E-02
         0.27512E-02
         0.26122E-02
         0.36985E-02
         0.36985E-02
         0.37830E-02
         0.37830E-02
         0.30243E-02
         0.36920E-02
         0.37157E-02
         0.32025E-02
         0.32821E-02
         0.32821E-02
         0.27006E-02
         0.25920E-02
         0.25866E-02
         0.29714E-02
         0.29714E-02
         0.26473E-02
         0.29096E-02
         0.34034E-02
         0.35310E-02
         0.35310E-02
         0.29787E-02
         0.32396E-02
         0.28894E-02
         0.29905E-02
         0.36920E-02
         0.37157E-02
         0.37157E-02
         0.33859E-02
         0.29051E-02
         0.32025E-02
         0.32821E-02
         0.32821E-02
         0.27006E-02
         0.25920E-02
         0.25866E-02
         0.26912E-02
         0.28594E-02
         0.29528E-02
         0.29714E-02
         0.29714E-02
         0.26473E-02
         0.27682E-02
         0.34034E-02
         0.35310E-02
         0.35310E-02
         0.29787E-02
         0.31476E-02
         0.31476E-02
         0.43135E-02
         0.43135E-02
         0.43135E-02
         0.43135E-02
         0.34889E-02
         0.34889E-02
         0.32712E-02
         0.32061E-02
         0.37825E-02
         0.31852E-02
         0.27034E-02
         0.33856E-02
         0.37156E-02
         0.27205E-02
         0.29063E-02
         0.36982E-02
         0.36142E-02
         0.37851E-02
         0.29998E-02
         0.29998E-02
         0.28599E-02
         0.26920E-02
         0.29529E-02
         0.28090E-02
         0.30182E-02
         0.36982E-02
         0.28486E-02
         0.28486E-02
         0.27499E-02
         0.26112E-02
         0.36982E-02
         0.36982E-02
         0.37851E-02
         0.37851E-02
         0.30245E-02
         0.36908E-02
         0.37156E-02
         0.32038E-02
         0.32827E-02
         0.32827E-02
         0.27006E-02
         0.25920E-02
         0.25859E-02
         0.29714E-02
         0.29714E-02
         0.26472E-02
         0.29095E-02
         0.34027E-02
         0.35304E-02
         0.35304E-02
         0.29790E-02
         0.32413E-02
         0.28866E-02
         0.29915E-02
         0.36908E-02
         0.37156E-02
         0.37156E-02
         0.33856E-02
         0.29063E-02
         0.32038E-02
         0.32827E-02
         0.32827E-02
         0.27006E-02
         0.25920E-02
         0.25859E-02
         0.26920E-02
         0.28599E-02
         0.29529E-02
         0.29714E-02
         0.29714E-02
         0.26472E-02
         0.27682E-02
         0.34027E-02
         0.35304E-02
         0.35304E-02
         0.29790E-02
         0.31490E-02
         0.31490E-02
         0.43133E-02
         0.43133E-02
         0.43133E-02
         0.43133E-02
         0.34890E-02
         0.34890E-02
         0.32698E-02
         0.32051E-02
         0.37820E-02
         0.31848E-02
         0.27017E-02
         0.33851E-02
         0.37155E-02
         0.27158E-02
         0.29075E-02
         0.36979E-02
         0.36177E-02
         0.37871E-02
         0.30024E-02
         0.30024E-02
         0.28603E-02
         0.26927E-02
         0.29530E-02
         0.28093E-02
         0.30208E-02
         0.36979E-02
         0.28460E-02
         0.28460E-02
         0.27486E-02
         0.26101E-02
         0.36979E-02
         0.36979E-02
         0.37871E-02
         0.37871E-02
         0.30247E-02
         0.36896E-02
         0.37155E-02
         0.32051E-02
         0.32833E-02
         0.32833E-02
         0.27006E-02
         0.25920E-02
         0.25851E-02
         0.29714E-02
         0.29714E-02
         0.26472E-02
         0.29094E-02
         0.34019E-02
         0.35299E-02
         0.35299E-02
         0.29793E-02
         0.32431E-02
         0.28838E-02
         0.29925E-02
         0.36896E-02
         0.37155E-02
         0.37155E-02
         0.33851E-02
         0.29075E-02
         0.32051E-02
         0.32833E-02
         0.32833E-02
         0.27006E-02
         0.25920E-02
         0.25851E-02
         0.26927E-02
         0.28603E-02
         0.29530E-02
         0.29714E-02
         0.29714E-02
         0.26472E-02
         0.27681E-02
         0.34019E-02
         0.35299E-02
         0.35299E-02
         0.29793E-02
         0.31503E-02
         0.31503E-02
         0.43130E-02
         0.43130E-02
         0.43130E-02
         0.43130E-02
         0.34891E-02
         0.34891E-02
         0.32683E-02
         0.32041E-02
         0.37816E-02
         0.31844E-02
         0.27000E-02
         0.33848E-02
         0.37154E-02
         0.27111E-02
         0.29087E-02
         0.36976E-02
         0.36213E-02
         0.37892E-02
         0.30050E-02
         0.30050E-02
         0.28608E-02
         0.26935E-02
         0.29532E-02
         0.28096E-02
         0.30234E-02
         0.36976E-02
         0.28434E-02
         0.28434E-02
         0.27472E-02
         0.26091E-02
         0.36976E-02
         0.36976E-02
         0.37892E-02
         0.37892E-02
         0.30249E-02
         0.36885E-02
         0.37154E-02
         0.32064E-02
         0.32839E-02
         0.32839E-02
         0.27006E-02
         0.25920E-02
         0.25844E-02
         0.29714E-02
         0.29714E-02
         0.26471E-02
         0.29094E-02
         0.34012E-02
         0.35293E-02
         0.35293E-02
         0.29797E-02
         0.32449E-02
         0.28811E-02
         0.29935E-02
         0.36885E-02
         0.37154E-02
         0.37154E-02
         0.33848E-02
         0.29087E-02
         0.32064E-02
         0.32839E-02
         0.32839E-02
         0.27006E-02
         0.25920E-02
         0.25844E-02
         0.26935E-02
         0.28608E-02
         0.29532E-02
         0.29714E-02
         0.29714E-02
         0.26471E-02
         0.27681E-02
         0.34012E-02
         0.35293E-02
         0.35293E-02
         0.29797E-02
         0.31517E-02
         0.31517E-02
         0.43128E-02
         0.43128E-02
         0.43128E-02
         0.43128E-02
         0.34892E-02
         0.34892E-02
         0.32669E-02
         0.32031E-02
         0.37811E-02
         0.31840E-02
         0.26982E-02
         0.33844E-02
         0.37152E-02
         0.27063E-02
         0.29099E-02
         0.36973E-02
         0.36248E-02
         0.37913E-02
         0.30076E-02
         0.30076E-02
         0.28613E-02
         0.26942E-02
         0.29533E-02
         0.28099E-02
         0.30260E-02
         0.36973E-02
         0.28408E-02
         0.28408E-02
         0.27460E-02
         0.26081E-02
         0.36973E-02
         0.36973E-02
         0.37913E-02
         0.37913E-02
         0.30250E-02
         0.36873E-02
         0.37152E-02
         0.32077E-02
         0.32845E-02
         0.32845E-02
         0.27006E-02
         0.25920E-02
         0.25837E-02
         0.29714E-02
         0.29714E-02
         0.26471E-02
         0.29093E-02
         0.34005E-02
         0.35287E-02
         0.35287E-02
         0.29800E-02
         0.32467E-02
         0.28783E-02
         0.29945E-02
         0.36873E-02
         0.37152E-02
         0.37152E-02
         0.33844E-02
         0.29099E-02
         0.32077E-02
         0.32845E-02
         0.32845E-02
         0.27006E-02
         0.25920E-02
         0.25837E-02
         0.26942E-02
         0.28613E-02
         0.29533E-02
         0.29714E-02
         0.29714E-02
         0.26471E-02
         0.27681E-02
         0.34005E-02
         0.35287E-02
         0.35287E-02
         0.29800E-02
         0.31530E-02
         0.31530E-02
         0.43125E-02
         0.43125E-02
         0.43125E-02
         0.43125E-02
         0.34893E-02
         0.34893E-02
         0.32655E-02
         0.32021E-02
         0.37806E-02
         0.31836E-02
         0.26965E-02
         0.33840E-02
         0.37151E-02
         0.27016E-02
         0.29111E-02
         0.36969E-02
         0.36283E-02
         0.37933E-02
         0.30102E-02
         0.30102E-02
         0.28617E-02
         0.26950E-02
         0.29535E-02
         0.28101E-02
         0.30286E-02
         0.36969E-02
         0.28382E-02
         0.28382E-02
         0.27447E-02
         0.26071E-02
         0.36969E-02
         0.36969E-02
         0.37933E-02
         0.37933E-02
         0.30252E-02
         0.36861E-02
         0.37151E-02
         0.32090E-02
         0.32852E-02
         0.32852E-02
         0.27006E-02
         0.25920E-02
         0.25830E-02
         0.29714E-02
         0.29714E-02
         0.26470E-02
         0.29092E-02
         0.33997E-02
         0.35282E-02
         0.35282E-02
         0.29803E-02
         0.32484E-02
         0.28755E-02
         0.29955E-02
         0.36861E-02
         0.37151E-02
         0.37151E-02
         0.33840E-02
         0.29111E-02
         0.32090E-02
         0.32852E-02
         0.32852E-02
         0.27006E-02
         0.25920E-02
         0.25830E-02
         0.26950E-02
         0.28617E-02
         0.29535E-02
         0.29714E-02
         0.29714E-02
         0.26470E-02
         0.27680E-02
         0.33997E-02
         0.35282E-02
         0.35282E-02
         0.29803E-02
         0.31544E-02
         0.31544E-02
         0.43123E-02
         0.43123E-02
         0.43123E-02
         0.43123E-02
         0.34893E-02
         0.34893E-02
         0.32640E-02
         0.32011E-02
         0.37801E-02
         0.31832E-02
         0.26948E-02
         0.33836E-02
         0.37150E-02
         0.26969E-02
         0.29123E-02
         0.36966E-02
         0.36319E-02
         0.37954E-02
         0.30128E-02
         0.30128E-02
         0.28622E-02
         0.26957E-02
         0.29536E-02
         0.28104E-02
         0.30312E-02
         0.36966E-02
         0.28357E-02
         0.28357E-02
         0.27434E-02
         0.26061E-02
         0.36966E-02
         0.36966E-02
         0.37954E-02
         0.37954E-02
         0.30254E-02
         0.36849E-02
         0.37150E-02
         0.32103E-02
         0.32858E-02
         0.32858E-02
         0.27006E-02
         0.25920E-02
         0.25823E-02
         0.29714E-02
         0.29714E-02
         0.26470E-02
         0.29091E-02
         0.33990E-02
         0.35276E-02
         0.35276E-02
         0.29806E-02
         0.32502E-02
         0.28728E-02
         0.29965E-02
         0.36849E-02
         0.37150E-02
         0.37150E-02
         0.33836E-02
         0.29123E-02
         0.32103E-02
         0.32858E-02
         0.32858E-02
         0.27006E-02
         0.25920E-02
         0.25823E-02
         0.26957E-02
         0.28622E-02
         0.29536E-02
         0.29714E-02
         0.29714E-02
         0.26470E-02
         0.27680E-02
         0.33990E-02
         0.35276E-02
         0.35276E-02
         0.29806E-02
         0.31557E-02
         0.31557E-02
         0.43120E-02
         0.43120E-02
         0.43120E-02
         0.43120E-02
         0.34894E-02
         0.34894E-02
         0.32626E-02
         0.32001E-02
         0.37797E-02
         0.31828E-02
         0.26931E-02
         0.33832E-02
         0.37149E-02
         0.26922E-02
         0.29135E-02
         0.36963E-02
         0.36354E-02
         0.37975E-02
         0.30154E-02
         0.30154E-02
         0.28627E-02
         0.26965E-02
         0.29537E-02
         0.28107E-02
         0.30338E-02
         0.36963E-02
         0.28331E-02
         0.28331E-02
         0.27421E-02
         0.26051E-02
         0.36963E-02
         0.36963E-02
         0.37975E-02
         0.37975E-02
         0.30256E-02
         0.36838E-02
         0.37149E-02
         0.32116E-02
         0.32864E-02
         0.32864E-02
         0.27006E-02
         0.25920E-02
         0.25815E-02
         0.29714E-02
         0.29714E-02
         0.26469E-02
         0.29090E-02
         0.33983E-02
         0.35270E-02
         0.35270E-02
         0.29809E-02
         0.32519E-02
         0.28700E-02
         0.29975E-02
         0.36838E-02
         0.37149E-02
         0.37149E-02
         0.33832E-02
         0.29135E-02
         0.32116E-02
         0.32864E-02
         0.32864E-02
         0.27006E-02
         0.25920E-02
         0.25815E-02
         0.26965E-02
         0.28627E-02
         0.29537E-02
         0.29714E-02
         0.29714E-02
         0.26469E-02
         0.27680E-02
         0.33983E-02
         0.35270E-02
         0.35270E-02
         0.29809E-02
         0.31571E-02
         0.31571E-02
         0.43118E-02
         0.43118E-02
         0.43118E-02
         0.43118E-02
         0.34895E-02
         0.34895E-02
         0.32612E-02
         0.31990E-02
         0.37792E-02
         0.31824E-02
         0.26913E-02
         0.33828E-02
         0.37148E-02
         0.26875E-02
         0.29148E-02
         0.36960E-02
         0.36390E-02
         0.37995E-02
         0.30180E-02
         0.30180E-02
         0.28631E-02
         0.26972E-02
         0.29539E-02
         0.28110E-02
         0.30364E-02
         0.36960E-02
         0.28305E-02
         0.28305E-02
         0.27408E-02
         0.26040E-02
         0.36960E-02
         0.36960E-02
         0.37995E-02
         0.37995E-02
         0.30258E-02
         0.36826E-02
         0.37148E-02
         0.32129E-02
         0.32870E-02
         0.32870E-02
         0.27006E-02
         0.25920E-02
         0.25808E-02
         0.29713E-02
         0.29713E-02
         0.26468E-02
         0.29089E-02
         0.33975E-02
         0.35264E-02
         0.35264E-02
         0.29812E-02
         0.32537E-02
         0.28672E-02
         0.29985E-02
         0.36826E-02
         0.37148E-02
         0.37148E-02
         0.33828E-02
         0.29148E-02
         0.32129E-02
         0.32870E-02
         0.32870E-02
         0.27006E-02
         0.25920E-02
         0.25808E-02
         0.26972E-02
         0.28631E-02
         0.29539E-02
         0.29713E-02
         0.29713E-02
         0.26468E-02
         0.27679E-02
         0.33975E-02
         0.35264E-02
         0.35264E-02
         0.29812E-02
         0.31585E-02
         0.31585E-02
         0.43115E-02
         0.43115E-02
         0.43115E-02
         0.43115E-02
         0.34896E-02
         0.34896E-02
         0.32597E-02
         0.31980E-02
         0.37787E-02
         0.31820E-02
         0.26896E-02
         0.33824E-02
         0.37147E-02
         0.26827E-02
         0.29160E-02
         0.36957E-02
         0.36425E-02
         0.38016E-02
         0.30206E-02
         0.30206E-02
         0.28636E-02
         0.26980E-02
         0.29540E-02
         0.28112E-02
         0.30390E-02
         0.36957E-02
         0.28279E-02
         0.28279E-02
         0.27395E-02
         0.26030E-02
         0.36957E-02
         0.36957E-02
         0.38016E-02
         0.38016E-02
         0.30260E-02
         0.36814E-02
         0.37147E-02
         0.32141E-02
         0.32876E-02
         0.32876E-02
         0.27006E-02
         0.25920E-02
         0.25801E-02
         0.29713E-02
         0.29713E-02
         0.26468E-02
         0.29089E-02
         0.33968E-02
         0.35259E-02
         0.35259E-02
         0.29815E-02
         0.32555E-02
         0.28645E-02
         0.29995E-02
         0.36814E-02
         0.37147E-02
         0.37147E-02
         0.33824E-02
         0.29160E-02
         0.32141E-02
         0.32876E-02
         0.32876E-02
         0.27006E-02
         0.25920E-02
         0.25801E-02
         0.26980E-02
         0.28636E-02
         0.29540E-02
         0.29713E-02
         0.29713E-02
         0.26468E-02
         0.27679E-02
         0.33968E-02
         0.35259E-02
         0.35259E-02
         0.29815E-02
         0.31598E-02
         0.31598E-02
         0.43113E-02
         0.43113E-02
         0.43113E-02
         0.43113E-02
         0.34897E-02
         0.34897E-02
         0.32583E-02
         0.31970E-02
         0.37783E-02
         0.31816E-02
         0.26879E-02
         0.33820E-02
         0.37146E-02
         0.26780E-02
         0.29172E-02
         0.36954E-02
         0.36460E-02
         0.38037E-02
         0.30232E-02
         0.30232E-02
         0.28641E-02
         0.26987E-02
         0.29542E-02
         0.28115E-02
         0.30416E-02
         0.36954E-02
         0.28253E-02
         0.28253E-02
         0.27382E-02
         0.26020E-02
         0.36954E-02
         0.36954E-02
         0.38037E-02
         0.38037E-02
         0.30261E-02
         0.36802E-02
         0.37146E-02
         0.32154E-02
         0.32882E-02
         0.32882E-02
         0.27006E-02
         0.25921E-02
         0.25794E-02
         0.29713E-02
         0.29713E-02
         0.26467E-02
         0.29088E-02
         0.33961E-02
         0.35253E-02
         0.35253E-02
         0.29818E-02
         0.32573E-02
         0.28617E-02
         0.30005E-02
         0.36802E-02
         0.37146E-02
         0.37146E-02
         0.33820E-02
         0.29172E-02
         0.32154E-02
         0.32882E-02
         0.32882E-02
         0.27006E-02
         0.25921E-02
         0.25794E-02
         0.26987E-02
         0.28641E-02
         0.29542E-02
         0.29713E-02
         0.29713E-02
         0.26467E-02
         0.27678E-02
         0.33961E-02
         0.35253E-02
         0.35253E-02
         0.29818E-02
         0.31612E-02
         0.31612E-02
         0.43110E-02
         0.43110E-02
         0.43110E-02
         0.43110E-02
         0.34898E-02
         0.34898E-02
         0.32569E-02
         0.31960E-02
         0.37778E-02
         0.31812E-02
         0.26862E-02
         0.33816E-02
         0.37145E-02
         0.26733E-02
         0.29184E-02
         0.36950E-02
         0.36495E-02
         0.38057E-02
         0.30258E-02
         0.30258E-02
         0.28645E-02
         0.26995E-02
         0.29543E-02
         0.28118E-02
         0.30442E-02
         0.36950E-02
         0.28227E-02
         0.28227E-02
         0.27369E-02
         0.26010E-02
         0.36950E-02
         0.36950E-02
         0.38057E-02
         0.38057E-02
         0.30263E-02
         0.36790E-02
         0.37145E-02
         0.32167E-02
         0.32889E-02
         0.32889E-02
         0.27006E-02
         0.25921E-02
         0.25787E-02
         0.29713E-02
         0.29713E-02
         0.26467E-02
         0.29087E-02
         0.33953E-02
         0.35247E-02
         0.35247E-02
         0.29821E-02
         0.32590E-02
         0.28589E-02
         0.30015E-02
         0.36790E-02
         0.37145E-02
         0.37145E-02
         0.33816E-02
         0.29184E-02
         0.32167E-02
         0.32889E-02
         0.32889E-02
         0.27006E-02
         0.25921E-02
         0.25787E-02
         0.26995E-02
         0.28645E-02
         0.29543E-02
         0.29713E-02
         0.29713E-02
         0.26467E-02
         0.27678E-02
         0.33953E-02
         0.35247E-02
         0.35247E-02
         0.29821E-02
         0.31625E-02
         0.31625E-02
         0.43108E-02
         0.43108E-02
         0.43108E-02
         0.43108E-02
         0.34898E-02
         0.34898E-02
         0.32555E-02
         0.31950E-02
         0.37773E-02
         0.31808E-02
         0.26845E-02
         0.33812E-02
         0.37144E-02
         0.26686E-02
         0.29196E-02
         0.36948E-02
         0.36531E-02
         0.38078E-02
         0.30285E-02
         0.30285E-02
         0.28650E-02
         0.27002E-02
         0.29544E-02
         0.28120E-02
         0.30467E-02
         0.36948E-02
         0.28201E-02
         0.28201E-02
         0.27356E-02
         0.26000E-02
         0.36948E-02
         0.36948E-02
         0.38078E-02
         0.38078E-02
         0.30265E-02
         0.36779E-02
         0.37144E-02
         0.32181E-02
         0.32895E-02
         0.32895E-02
         0.27006E-02
         0.25921E-02
         0.25779E-02
         0.29713E-02
         0.29713E-02
         0.26466E-02
         0.29086E-02
         0.33946E-02
         0.35242E-02
         0.35242E-02
         0.29824E-02
         0.32608E-02
         0.28562E-02
         0.30025E-02
         0.36779E-02
         0.37144E-02
         0.37144E-02
         0.33812E-02
         0.29196E-02
         0.32181E-02
         0.32895E-02
         0.32895E-02
         0.27006E-02
         0.25921E-02
         0.25779E-02
         0.27002E-02
         0.28650E-02
         0.29544E-02
         0.29713E-02
         0.29713E-02
         0.26466E-02
         0.27678E-02
         0.33946E-02
         0.35242E-02
         0.35242E-02
         0.29824E-02
         0.31639E-02
         0.31639E-02
         0.43105E-02
         0.43105E-02
         0.43105E-02
         0.43105E-02
         0.34899E-02
         0.34899E-02
         0.32540E-02
         0.31940E-02
         0.37768E-02
         0.31804E-02
         0.26827E-02
         0.33808E-02
         0.37143E-02
         0.26639E-02
         0.29208E-02
         0.36944E-02
         0.36566E-02
         0.38099E-02
         0.30311E-02
         0.30311E-02
         0.28655E-02
         0.27010E-02
         0.29546E-02
         0.28123E-02
         0.30493E-02
         0.36944E-02
         0.28175E-02
         0.28175E-02
         0.27343E-02
         0.25990E-02
         0.36944E-02
         0.36944E-02
         0.38099E-02
         0.38099E-02
         0.30267E-02
         0.36767E-02
         0.37143E-02
         0.32193E-02
         0.32901E-02
         0.32901E-02
         0.27006E-02
         0.25921E-02
         0.25772E-02
         0.29713E-02
         0.29713E-02
         0.26466E-02
         0.29085E-02
         0.33939E-02
         0.35236E-02
         0.35236E-02
         0.29827E-02
         0.32626E-02
         0.28534E-02
         0.30035E-02
         0.36767E-02
         0.37143E-02
         0.37143E-02
         0.33808E-02
         0.29208E-02
         0.32193E-02
         0.32901E-02
         0.32901E-02
         0.27006E-02
         0.25921E-02
         0.25772E-02
         0.27010E-02
         0.28655E-02
         0.29546E-02
         0.29713E-02
         0.29713E-02
         0.26466E-02
         0.27677E-02
         0.33939E-02
         0.35236E-02
         0.35236E-02
         0.29827E-02
         0.31652E-02
         0.31652E-02
         0.43103E-02
         0.43103E-02
         0.43103E-02
         0.43103E-02
         0.34900E-02
         0.34900E-02
         0.32526E-02
         0.31930E-02
         0.37764E-02
         0.31800E-02
         0.26810E-02
         0.33804E-02
         0.37142E-02
         0.26591E-02
         0.29220E-02
         0.36941E-02
         0.36602E-02
         0.38119E-02
         0.30337E-02
         0.30337E-02
         0.28660E-02
         0.27017E-02
         0.29547E-02
         0.28126E-02
         0.30519E-02
         0.36941E-02
         0.28150E-02
         0.28150E-02
         0.27330E-02
         0.25979E-02
         0.36941E-02
         0.36941E-02
         0.38119E-02
         0.38119E-02
         0.30269E-02
         0.36755E-02
         0.37142E-02
         0.32206E-02
         0.32907E-02
         0.32907E-02
         0.27006E-02
         0.25921E-02
         0.25765E-02
         0.29713E-02
         0.29713E-02
         0.26465E-02
         0.29085E-02
         0.33931E-02
         0.35230E-02
         0.35230E-02
         0.29830E-02
         0.32643E-02
         0.28507E-02
         0.30045E-02
         0.36755E-02
         0.37142E-02
         0.37142E-02
         0.33804E-02
         0.29220E-02
         0.32206E-02
         0.32907E-02
         0.32907E-02
         0.27006E-02
         0.25921E-02
         0.25765E-02
         0.27017E-02
         0.28660E-02
         0.29547E-02
         0.29713E-02
         0.29713E-02
         0.26465E-02
         0.27677E-02
         0.33931E-02
         0.35230E-02
         0.35230E-02
         0.29830E-02
         0.31666E-02
         0.31666E-02
         0.43100E-02
         0.43100E-02
         0.43100E-02
         0.43100E-02
         0.34901E-02
         0.34901E-02
         0.32512E-02
         0.31920E-02
         0.37759E-02
         0.31796E-02
         0.26793E-02
         0.33800E-02
         0.37141E-02
         0.26544E-02
         0.29232E-02
         0.36938E-02
         0.36637E-02
         0.38140E-02
         0.30363E-02
         0.30363E-02
         0.28664E-02
         0.27025E-02
         0.29548E-02
         0.28129E-02
         0.30545E-02
         0.36938E-02
         0.28124E-02
         0.28124E-02
         0.27317E-02
         0.25969E-02
         0.36938E-02
         0.36938E-02
         0.38140E-02
         0.38140E-02
         0.30271E-02
         0.36743E-02
         0.37141E-02
         0.32219E-02
         0.32913E-02
         0.32913E-02
         0.27006E-02
         0.25921E-02
         0.25758E-02
         0.29713E-02
         0.29713E-02
         0.26465E-02
         0.29084E-02
         0.33924E-02
         0.35224E-02
         0.35224E-02
         0.29833E-02
         0.32661E-02
         0.28479E-02
         0.30055E-02
         0.36743E-02
         0.37141E-02
         0.37141E-02
         0.33800E-02
         0.29232E-02
         0.32219E-02
         0.32913E-02
         0.32913E-02
         0.27006E-02
         0.25921E-02
         0.25758E-02
         0.27025E-02
         0.28664E-02
         0.29548E-02
         0.29713E-02
         0.29713E-02
         0.26465E-02
         0.27677E-02
         0.33924E-02
         0.35224E-02
         0.35224E-02
         0.29833E-02
         0.31680E-02
         0.31680E-02
         0.43098E-02
         0.43098E-02
         0.43098E-02
         0.43098E-02
         0.34901E-02
         0.34901E-02
         0.32498E-02
         0.31910E-02
         0.37754E-02
         0.31792E-02
         0.26776E-02
         0.33796E-02
         0.37140E-02
         0.26497E-02
         0.29232E-02
         0.36935E-02
         0.36637E-02
         0.38140E-02
         0.30363E-02
         0.30363E-02
         0.28664E-02
         0.27025E-02
         0.29548E-02
         0.28129E-02
         0.30545E-02
         0.36935E-02
         0.28098E-02
         0.28098E-02
         0.27304E-02
         0.25959E-02
         0.36935E-02
         0.36935E-02
         0.38140E-02
         0.38140E-02
         0.30271E-02
         0.36731E-02
         0.37140E-02
         0.32219E-02
         0.32913E-02
         0.32913E-02
         0.27006E-02
         0.25921E-02
         0.25751E-02
         0.29713E-02
         0.29713E-02
         0.26464E-02
         0.29083E-02
         0.33916E-02
         0.35219E-02
         0.35219E-02
         0.29833E-02
         0.32661E-02
         0.28451E-02
         0.30055E-02
         0.36731E-02
         0.37140E-02
         0.37140E-02
         0.33796E-02
         0.29232E-02
         0.32219E-02
         0.32913E-02
         0.32913E-02
         0.27006E-02
         0.25921E-02
         0.25751E-02
         0.27025E-02
         0.28664E-02
         0.29548E-02
         0.29713E-02
         0.29713E-02
         0.26464E-02
         0.27676E-02
         0.33916E-02
         0.35219E-02
         0.35219E-02
         0.29833E-02
         0.31680E-02
         0.31680E-02
  
SCALARS              physical_window_z  double 1
LOOKUP_TABLE default
         0.26928E-02
         0.26928E-02
         0.26928E-02
         0.26928E-02
         0.26928E-02
         0.26928E-02
         0.26928E-02
         0.26928E-02
         0.26928E-02
         0.26928E-02
         0.26928E-02
         0.26928E-02
         0.26928E-02
         0.26928E-02
         0.26928E-02
         0.26928E-02
         0.26928E-02
         0.26928E-02
         0.26928E-02
         0.26928E-02
         0.26928E-02
         0.26928E-02
         0.26928E-02
         0.26928E-02
         0.26928E-02
         0.26928E-02
         0.26928E-02
         0.26928E-02
         0.26928E-02
         0.26928E-02
         0.26928E-02
         0.26928E-02
         0.26928E-02
         0.26928E-02
         0.26928E-02
         0.26928E-02
         0.26928E-02
         0.26928E-02
         0.26928E-02
         0.26928E-02
         0.26928E-02
         0.26928E-02
         0.26928E-02
         0.26928E-02
         0.26928E-02
         0.26928E-02
         0.26928E-02
         0.26928E-02
         0.26928E-02
         0.26928E-02
         0.26928E-02
         0.26928E-02
         0.26928E-02
         0.26928E-02
         0.26928E-02
         0.26928E-02
         0.26928E-02
         0.26928E-02
         0.26928E-02
         0.26928E-02
         0.26928E-02
         0.26928E-02
         0.26928E-02
         0.26928E-02
         0.26928E-02
         0.26928E-02
         0.26928E-02
         0.26928E-02
         0.26928E-02
         0.26928E-02
         0.26928E-02
         0.26928E-02
         0.26928E-02
         0.26928E-02
         0.26928E-02
         0.26928E-02
         0.26928E-02
         0.26928E-02
         0.26928E-02
         0.26928E-02
         0.26928E-02
         0.26928E-02
         0.26928E-02
         0.26928E-02
         0.26928E-02
         0.26928E-02
         0.26928E-02
         0.26928E-02
         0.26928E-02
         0.26928E-02
         0.26928E-02
         0.26928E-02
         0.26928E-02
         0.26928E-02
         0.26928E-02
         0.26928E-02
         0.26928E-02
         0.26928E-02
         0.26928E-02
         0.26928E-02
         0.26928E-02
         0.26928E-02
         0.26928E-02
         0.26928E-02
         0.26928E-02
         0.26928E-02
         0.26928E-02
         0.26928E-02
         0.26928E-02
         0.26928E-02
         0.26928E-02
         0.26928E-02
         0.26928E-02
         0.26928E-02
         0.26928E-02
         0.26928E-02
         0.26928E-02
         0.26928E-02
         0.26928E-02
         0.26928E-02
         0.26928E-02
         0.26928E-02
         0.26928E-02
         0.26928E-02
         0.26928E-02
         0.26928E-02
         0.26928E-02
         0.26928E-02
         0.26928E-02
         0.26928E-02
         0.26928E-02
         0.26928E-02
         0.26928E-02
         0.26928E-02
         0.26928E-02
         0.26928E-02
         0.26928E-02
         0.26928E-02
         0.26928E-02
         0.26928E-02
         0.26928E-02
         0.26928E-02
         0.26928E-02
         0.26928E-02
         0.26928E-02
         0.26928E-02
         0.26928E-02
         0.26928E-02
         0.26928E-02
         0.26928E-02
         0.26928E-02
         0.26928E-02
         0.26928E-02
         0.26928E-02
         0.26928E-02
         0.26928E-02
         0.26927E-02
         0.26927E-02
         0.26927E-02
         0.26927E-02
         0.26927E-02
         0.26927E-02
         0.26927E-02
         0.26927E-02
         0.26927E-02
         0.26927E-02
         0.26927E-02
         0.26927E-02
         0.26927E-02
         0.26927E-02
         0.26927E-02
         0.26927E-02
         0.26927E-02
         0.26927E-02
         0.26927E-02
         0.26927E-02
         0.26927E-02
         0.26927E-02
         0.26927E-02
         0.26927E-02
         0.26927E-02
         0.26927E-02
         0.26927E-02
         0.26927E-02
         0.26927E-02
         0.26927E-02
         0.26927E-02
         0.26927E-02
         0.26927E-02
         0.26927E-02
         0.26927E-02
         0.26927E-02
         0.26927E-02
         0.26927E-02
         0.26927E-02
         0.26927E-02
         0.26927E-02
         0.26927E-02
         0.26927E-02
         0.26927E-02
         0.26927E-02
         0.26927E-02
         0.26927E-02
         0.26927E-02
         0.26927E-02
         0.26927E-02
         0.26927E-02
         0.26927E-02
         0.26927E-02
         0.26927E-02
         0.26927E-02
         0.26927E-02
         0.26927E-02
         0.26927E-02
         0.26927E-02
         0.26927E-02
         0.26927E-02
         0.26927E-02
         0.26927E-02
         0.26927E-02
         0.26927E-02
         0.26927E-02
         0.26927E-02
         0.26927E-02
         0.26927E-02
         0.26927E-02
         0.26927E-02
         0.26927E-02
         0.26927E-02
         0.26927E-02
         0.26927E-02
         0.26927E-02
         0.26927E-02
         0.26927E-02
         0.26927E-02
         0.26927E-02
         0.26927E-02
         0.26927E-02
         0.26927E-02
         0.26927E-02
         0.26927E-02
         0.26927E-02
         0.26927E-02
         0.26927E-02
         0.26927E-02
         0.26927E-02
         0.26927E-02
         0.26927E-02
         0.26927E-02
         0.26927E-02
         0.26927E-02
         0.26927E-02
         0.26927E-02
         0.26927E-02
         0.26927E-02
         0.26927E-02
         0.26927E-02
         0.26927E-02
         0.26927E-02
         0.26927E-02
         0.26927E-02
         0.26927E-02
         0.26927E-02
         0.26927E-02
         0.26927E-02
         0.26927E-02
         0.26927E-02
         0.26927E-02
         0.26927E-02
         0.26927E-02
         0.26927E-02
         0.26927E-02
         0.26927E-02
         0.26927E-02
         0.26927E-02
         0.26927E-02
         0.26927E-02
         0.26927E-02
         0.26927E-02
         0.26927E-02
         0.26927E-02
         0.26927E-02
         0.26927E-02
         0.26927E-02
         0.26927E-02
         0.26927E-02
         0.26927E-02
         0.26927E-02
         0.26927E-02
         0.26927E-02
         0.26927E-02
         0.26927E-02
         0.26927E-02
         0.26927E-02
         0.26927E-02
         0.26927E-02
         0.26927E-02
         0.26927E-02
         0.26927E-02
         0.26927E-02
         0.26927E-02
         0.26927E-02
         0.26927E-02
         0.26927E-02
         0.26927E-02
         0.26927E-02
         0.26927E-02
         0.26927E-02
         0.26927E-02
         0.26927E-02
         0.26927E-02
         0.26927E-02
         0.26927E-02
         0.26927E-02
         0.26927E-02
         0.26927E-02
         0.26927E-02
         0.26927E-02
         0.26927E-02
         0.26927E-02
         0.26927E-02
         0.26927E-02
         0.26927E-02
         0.26927E-02
         0.26927E-02
         0.26927E-02
         0.26927E-02
         0.26927E-02
         0.26927E-02
         0.26927E-02
         0.26927E-02
         0.26927E-02
         0.26927E-02
         0.26927E-02
         0.26927E-02
         0.26927E-02
         0.26927E-02
         0.26927E-02
         0.26927E-02
         0.26927E-02
         0.26927E-02
         0.26927E-02
         0.26927E-02
         0.26927E-02
         0.26927E-02
         0.26927E-02
         0.26927E-02
         0.26927E-02
         0.26927E-02
         0.26927E-02
         0.26927E-02
         0.26927E-02
         0.26927E-02
         0.26927E-02
         0.26927E-02
         0.26927E-02
         0.26927E-02
         0.26927E-02
         0.26927E-02
         0.26927E-02
         0.26927E-02
         0.26927E-02
         0.26927E-02
         0.26927E-02
         0.26927E-02
         0.26927E-02
         0.26927E-02
         0.26927E-02
         0.26927E-02
         0.26927E-02
         0.26927E-02
         0.26927E-02
         0.26927E-02
         0.26927E-02
         0.26927E-02
         0.26927E-02
         0.26927E-02
         0.26927E-02
         0.26927E-02
         0.26927E-02
         0.26927E-02
         0.26927E-02
         0.26927E-02
         0.26927E-02
         0.26927E-02
         0.26927E-02
         0.26927E-02
         0.26927E-02
         0.26927E-02
         0.26927E-02
         0.26927E-02
         0.26927E-02
         0.26927E-02
         0.26927E-02
         0.26927E-02
         0.26927E-02
         0.26927E-02
         0.26927E-02
         0.26927E-02
         0.26927E-02
         0.26927E-02
         0.26927E-02
         0.26927E-02
         0.26927E-02
         0.26927E-02
         0.26927E-02
         0.26927E-02
         0.26927E-02
         0.26927E-02
         0.26927E-02
         0.26927E-02
         0.26927E-02
         0.26927E-02
         0.26927E-02
         0.26927E-02
         0.26927E-02
         0.26927E-02
         0.26927E-02
         0.26927E-02
         0.26927E-02
         0.26927E-02
         0.26927E-02
         0.26927E-02
         0.26927E-02
         0.26927E-02
         0.26927E-02
         0.26927E-02
         0.26927E-02
         0.26927E-02
         0.26927E-02
         0.26927E-02
         0.26927E-02
         0.26927E-02
         0.26927E-02
         0.26927E-02
         0.26927E-02
         0.26927E-02
         0.26927E-02
         0.26927E-02
         0.26927E-02
         0.26927E-02
         0.26927E-02
         0.26927E-02
         0.26927E-02
         0.26927E-02
         0.26927E-02
         0.26927E-02
         0.26927E-02
         0.26927E-02
         0.26927E-02
         0.26927E-02
         0.26927E-02
         0.26927E-02
         0.26927E-02
         0.26927E-02
         0.26927E-02
         0.26927E-02
         0.26927E-02
         0.26927E-02
         0.26927E-02
         0.26927E-02
         0.26927E-02
         0.26927E-02
         0.26927E-02
         0.26927E-02
         0.26927E-02
         0.26927E-02
         0.26927E-02
         0.26927E-02
         0.26927E-02
         0.26927E-02
         0.26927E-02
         0.26927E-02
         0.26927E-02
         0.26927E-02
         0.26927E-02
         0.26927E-02
         0.26927E-02
         0.26927E-02
         0.26927E-02
         0.26927E-02
         0.26927E-02
         0.26927E-02
         0.26927E-02
         0.26927E-02
         0.26927E-02
         0.26927E-02
         0.26927E-02
         0.26927E-02
         0.26927E-02
         0.26927E-02
         0.26927E-02
         0.26927E-02
         0.26927E-02
         0.26927E-02
         0.26927E-02
         0.26927E-02
         0.26927E-02
         0.26927E-02
         0.26927E-02
         0.26927E-02
         0.26927E-02
         0.26927E-02
         0.26927E-02
         0.26927E-02
         0.26927E-02
         0.26927E-02
         0.26927E-02
         0.26927E-02
         0.26927E-02
         0.26927E-02
         0.26927E-02
         0.26927E-02
         0.26927E-02
         0.26927E-02
         0.26927E-02
         0.26927E-02
         0.26927E-02
         0.26927E-02
         0.26927E-02
         0.26927E-02
         0.26927E-02
         0.26927E-02
         0.26927E-02
         0.26927E-02
         0.26927E-02
         0.26927E-02
         0.26927E-02
         0.26927E-02
         0.26927E-02
         0.26927E-02
         0.26927E-02
         0.26927E-02
         0.26927E-02
         0.26927E-02
         0.26927E-02
         0.26927E-02
         0.26927E-02
         0.26927E-02
         0.26927E-02
         0.26927E-02
         0.26927E-02
         0.26927E-02
         0.26927E-02
         0.26927E-02
         0.26927E-02
         0.26927E-02
         0.26927E-02
         0.26927E-02
         0.26927E-02
         0.26927E-02
         0.26927E-02
         0.26927E-02
         0.26927E-02
         0.26927E-02
         0.26927E-02
         0.26927E-02
         0.26927E-02
         0.26927E-02
         0.26927E-02
         0.26927E-02
         0.26927E-02
         0.26927E-02
         0.26927E-02
         0.26927E-02
         0.26927E-02
         0.26927E-02
         0.26927E-02
         0.26927E-02
         0.26927E-02
         0.26927E-02
         0.26927E-02
         0.26927E-02
         0.26927E-02
         0.26927E-02
         0.26927E-02
         0.26927E-02
         0.26927E-02
         0.26927E-02
         0.26927E-02
         0.26927E-02
         0.26927E-02
         0.26927E-02
         0.26927E-02
         0.26927E-02
         0.26927E-02
         0.26927E-02
         0.26927E-02
         0.26927E-02
         0.26927E-02
         0.26927E-02
         0.26927E-02
         0.26927E-02
         0.26927E-02
         0.26927E-02
         0.26927E-02
         0.26927E-02
         0.26927E-02
         0.26927E-02
         0.26927E-02
         0.26927E-02
         0.26927E-02
         0.26927E-02
         0.26927E-02
         0.26927E-02
         0.26927E-02
         0.26927E-02
         0.26927E-02
         0.26927E-02
         0.26927E-02
         0.26927E-02
         0.26927E-02
         0.26927E-02
         0.26927E-02
         0.26927E-02
         0.26927E-02
         0.26927E-02
         0.26927E-02
         0.26927E-02
         0.26927E-02
         0.26927E-02
         0.26927E-02
         0.26927E-02
         0.26927E-02
         0.26927E-02
         0.26927E-02
         0.26927E-02
         0.26927E-02
         0.26927E-02
         0.26927E-02
         0.26927E-02
         0.26927E-02
         0.26927E-02
         0.26927E-02
         0.26927E-02
         0.26927E-02
         0.26927E-02
         0.26927E-02
         0.26927E-02
         0.26927E-02
         0.26927E-02
         0.26927E-02
         0.26927E-02
         0.26927E-02
         0.26927E-02
         0.26927E-02
         0.26927E-02
         0.26927E-02
         0.26927E-02
         0.26927E-02
         0.26927E-02
         0.26927E-02
         0.26927E-02
         0.26927E-02
         0.26927E-02
         0.26927E-02
         0.26927E-02
         0.26927E-02
         0.26927E-02
         0.26927E-02
         0.26927E-02
         0.26927E-02
         0.26927E-02
         0.26927E-02
         0.26927E-02
         0.26927E-02
         0.26927E-02
         0.26927E-02
         0.26927E-02
         0.26927E-02
         0.26927E-02
         0.26927E-02
         0.26927E-02
         0.26927E-02
         0.26927E-02
         0.26927E-02
         0.26927E-02
         0.26927E-02
         0.26927E-02
         0.26927E-02
         0.26927E-02
         0.26927E-02
         0.26927E-02
         0.26927E-02
         0.26927E-02
         0.26927E-02
         0.26927E-02
         0.26927E-02
         0.26927E-02
         0.26927E-02
         0.26927E-02
         0.26927E-02
         0.26927E-02
         0.26927E-02
         0.26927E-02
         0.26927E-02
         0.26927E-02
         0.26927E-02
         0.26927E-02
         0.26927E-02
         0.26927E-02
         0.26927E-02
         0.26927E-02
         0.26927E-02
         0.26927E-02
         0.26927E-02
         0.26927E-02
         0.26927E-02
         0.26927E-02
         0.26927E-02
         0.26927E-02
         0.26927E-02
         0.26927E-02
         0.26927E-02
         0.26927E-02
         0.26927E-02
         0.26927E-02
         0.26927E-02
         0.26927E-02
         0.26927E-02
         0.26927E-02
         0.26927E-02
         0.26927E-02
         0.26927E-02
         0.26927E-02
         0.26927E-02
         0.26927E-02
         0.26927E-02
         0.26927E-02
         0.26927E-02
         0.26927E-02
         0.26927E-02
         0.26927E-02
         0.26927E-02
         0.26927E-02
         0.26927E-02
         0.26927E-02
         0.26927E-02
         0.26927E-02
         0.26927E-02
         0.26927E-02
         0.26927E-02
         0.26927E-02
         0.26927E-02
         0.26927E-02
         0.26927E-02
         0.26927E-02
         0.26927E-02
         0.26927E-02
         0.26927E-02
         0.26927E-02
         0.26927E-02
         0.26927E-02
         0.26927E-02
         0.26927E-02
         0.26927E-02
         0.26927E-02
         0.26927E-02
         0.26927E-02
         0.26927E-02
         0.26927E-02
         0.26927E-02
         0.26927E-02
         0.26927E-02
         0.26927E-02
         0.26927E-02
         0.26927E-02
         0.26927E-02
         0.26927E-02
         0.26927E-02
         0.26927E-02
         0.26927E-02
         0.26927E-02
         0.26927E-02
         0.26927E-02
         0.26927E-02
         0.26927E-02
         0.26927E-02
         0.26927E-02
         0.26927E-02
         0.26927E-02
         0.26927E-02
         0.26927E-02
         0.26927E-02
         0.26927E-02
         0.26927E-02
         0.26927E-02
         0.26927E-02
         0.26927E-02
         0.26927E-02
         0.26927E-02
         0.26927E-02
         0.26927E-02
         0.26927E-02
         0.26927E-02
         0.26927E-02
         0.26927E-02
         0.26927E-02
         0.26927E-02
         0.26927E-02
         0.26927E-02
         0.26927E-02
         0.26927E-02
         0.26927E-02
         0.26927E-02
         0.26927E-02
         0.26927E-02
         0.26927E-02
         0.26927E-02
         0.26927E-02
         0.26927E-02
         0.26927E-02
         0.26927E-02
         0.26927E-02
         0.26927E-02
         0.26927E-02
         0.26927E-02
         0.26927E-02
         0.26927E-02
         0.26927E-02
         0.26927E-02
         0.26927E-02
         0.26927E-02
         0.26927E-02
         0.26927E-02
         0.26927E-02
         0.26927E-02
         0.26927E-02
         0.26927E-02
         0.26927E-02
         0.26927E-02
         0.26927E-02
         0.26927E-02
         0.26927E-02
         0.26927E-02
         0.26927E-02
         0.26927E-02
         0.26927E-02
         0.26927E-02
         0.26927E-02
         0.26927E-02
         0.26927E-02
         0.26927E-02
         0.26927E-02
         0.26927E-02
         0.26927E-02
         0.26927E-02
         0.26927E-02
         0.26927E-02
         0.26927E-02
         0.26927E-02
         0.26927E-02
         0.26927E-02
         0.26927E-02
         0.26927E-02
         0.26927E-02
         0.26927E-02
         0.26927E-02
         0.26927E-02
         0.26927E-02
         0.26927E-02
         0.26927E-02
         0.26927E-02
         0.26927E-02
         0.26927E-02
         0.26927E-02
         0.26927E-02
         0.26927E-02
         0.26927E-02
         0.26927E-02
         0.26927E-02
         0.26927E-02
         0.26927E-02
         0.26927E-02
         0.26927E-02
         0.26927E-02
         0.26927E-02
         0.26927E-02
         0.26927E-02
         0.26927E-02
         0.26927E-02
         0.26927E-02
         0.26927E-02
         0.26927E-02
         0.26927E-02
         0.26927E-02
         0.26927E-02
         0.26927E-02
         0.26927E-02
         0.26927E-02
         0.26927E-02
         0.26927E-02
         0.26927E-02
         0.26927E-02
         0.26927E-02
         0.26927E-02
         0.26927E-02
         0.26927E-02
         0.26927E-02
         0.26927E-02
         0.26927E-02
         0.26927E-02
         0.26927E-02
         0.26927E-02
         0.26927E-02
         0.26927E-02
         0.26927E-02
         0.26927E-02
         0.26927E-02
         0.26927E-02
         0.26927E-02
         0.26927E-02
         0.26927E-02
         0.26927E-02
         0.26927E-02
         0.26927E-02
         0.26927E-02
         0.26927E-02
         0.26927E-02
         0.26927E-02
         0.26927E-02
         0.26927E-02
         0.26927E-02
         0.26927E-02
         0.26927E-02
         0.26927E-02
         0.26927E-02
         0.26927E-02
         0.26927E-02
         0.26927E-02
         0.26927E-02
         0.26927E-02
         0.26927E-02
         0.26927E-02
         0.26927E-02
         0.26927E-02
         0.26927E-02
         0.26927E-02
         0.26927E-02
         0.26927E-02
         0.26927E-02
         0.26927E-02
         0.26927E-02
         0.26927E-02
         0.26927E-02
         0.26927E-02
         0.26927E-02
         0.26927E-02
         0.26927E-02
         0.26927E-02
         0.26927E-02
         0.26927E-02
         0.26927E-02
         0.26927E-02
         0.26927E-02
         0.26927E-02
         0.26927E-02
         0.26927E-02
         0.26927E-02
         0.26927E-02
         0.26927E-02
         0.26927E-02
         0.26927E-02
         0.26927E-02
         0.26927E-02
         0.26927E-02
         0.26927E-02
         0.26927E-02
         0.26927E-02
         0.26927E-02
         0.26927E-02
         0.26927E-02
         0.26927E-02
         0.26927E-02
         0.26927E-02
         0.26927E-02
         0.26927E-02
         0.26927E-02
         0.26927E-02
         0.26927E-02
         0.26927E-02
         0.26927E-02
         0.26927E-02
         0.26927E-02
         0.26927E-02
         0.26927E-02
         0.26927E-02
         0.26927E-02
         0.26927E-02
         0.26927E-02
         0.26927E-02
         0.26927E-02
         0.26927E-02
         0.26927E-02
         0.26927E-02
         0.26927E-02
         0.26927E-02
         0.26927E-02
         0.26927E-02
         0.26927E-02
         0.26927E-02
         0.26927E-02
         0.26927E-02
         0.26927E-02
         0.26927E-02
         0.26927E-02
         0.26927E-02
         0.26927E-02
         0.26927E-02
         0.26927E-02
         0.26927E-02
         0.26927E-02
         0.26927E-02
         0.26927E-02
         0.26927E-02
         0.26927E-02
         0.26927E-02
         0.26927E-02
         0.26927E-02
         0.26927E-02
         0.26927E-02
         0.26927E-02
         0.26927E-02
         0.26927E-02
         0.26927E-02
         0.26927E-02
         0.26927E-02
         0.26927E-02
         0.26927E-02
         0.26927E-02
         0.26927E-02
         0.26927E-02
         0.26927E-02
         0.26927E-02
         0.26927E-02
         0.26927E-02
         0.26927E-02
         0.26927E-02
         0.26927E-02
         0.26927E-02
         0.26927E-02
         0.26927E-02
         0.26927E-02
         0.26927E-02
         0.26927E-02
         0.26927E-02
         0.26927E-02
         0.26927E-02
         0.26927E-02
         0.26927E-02
         0.26927E-02
         0.26927E-02
         0.26927E-02
         0.26927E-02
         0.26927E-02
         0.26927E-02
         0.26927E-02
         0.26927E-02
         0.26927E-02
         0.26927E-02
         0.26927E-02
         0.26927E-02
         0.26927E-02
         0.26927E-02
         0.26927E-02
         0.26927E-02
         0.26927E-02
         0.26927E-02
         0.26927E-02
         0.26927E-02
         0.26927E-02
         0.26927E-02
         0.26927E-02
         0.26927E-02
         0.26927E-02
         0.26927E-02
         0.26927E-02
         0.26927E-02
         0.26927E-02
         0.26927E-02
         0.26927E-02
         0.26927E-02
         0.26927E-02
         0.26927E-02
         0.26927E-02
         0.26927E-02
         0.26927E-02
         0.26927E-02
         0.26927E-02
         0.26927E-02
         0.26927E-02
         0.26927E-02
         0.26927E-02
         0.26927E-02
         0.26927E-02
         0.26927E-02
         0.26927E-02
         0.26927E-02
         0.26927E-02
         0.26927E-02
         0.26927E-02
         0.26927E-02
         0.26927E-02
         0.26927E-02
         0.26927E-02
         0.26927E-02
         0.26927E-02
         0.26927E-02
         0.26927E-02
         0.26927E-02
         0.26927E-02
         0.26927E-02
         0.26927E-02
         0.26927E-02
         0.26927E-02
         0.26927E-02
         0.26927E-02
         0.26927E-02
         0.26927E-02
         0.26927E-02
         0.26927E-02
         0.26927E-02
         0.26927E-02
         0.26927E-02
         0.26927E-02
         0.26927E-02
         0.26927E-02
         0.26927E-02
         0.26927E-02
         0.26927E-02
         0.26927E-02
         0.26927E-02
         0.26927E-02
         0.26927E-02
         0.26927E-02
         0.26927E-02
         0.26927E-02
         0.26927E-02
         0.26927E-02
         0.26927E-02
         0.26927E-02
         0.26927E-02
         0.26927E-02
         0.26927E-02
         0.26927E-02
         0.26927E-02
         0.26927E-02
         0.26927E-02
         0.26927E-02
         0.26927E-02
         0.26927E-02
         0.26927E-02
         0.26927E-02
         0.26927E-02
         0.26927E-02
         0.26927E-02
         0.26927E-02
         0.26927E-02
         0.26927E-02
         0.26927E-02
         0.26927E-02
         0.26927E-02
         0.26927E-02
         0.26927E-02
         0.26927E-02
         0.26927E-02
         0.26927E-02
         0.26927E-02
         0.26927E-02
         0.26927E-02
         0.26927E-02
         0.26927E-02
         0.26927E-02
         0.26927E-02
         0.26927E-02
         0.26927E-02
         0.26927E-02
         0.26927E-02
         0.26927E-02
         0.26927E-02
         0.26927E-02
         0.26927E-02
         0.26927E-02
         0.26927E-02
         0.26927E-02
         0.26927E-02
         0.26927E-02
         0.26927E-02
         0.26927E-02
         0.26927E-02
         0.26927E-02
         0.26927E-02
         0.26927E-02
         0.26927E-02
         0.26927E-02
         0.26927E-02
         0.26927E-02
         0.26927E-02
         0.26927E-02
         0.26927E-02
         0.26927E-02
         0.26927E-02
         0.26927E-02
         0.26927E-02
         0.26927E-02
         0.26927E-02
         0.26927E-02
         0.26927E-02
         0.26927E-02
         0.26927E-02
         0.26927E-02
         0.26927E-02
         0.26927E-02
         0.26927E-02
         0.26927E-02
         0.26927E-02
         0.26927E-02
         0.26927E-02
         0.26927E-02
         0.26927E-02
         0.26927E-02
         0.26927E-02
         0.26927E-02
         0.26927E-02
         0.26927E-02
         0.26927E-02
         0.26927E-02
         0.26927E-02
         0.26927E-02
         0.26927E-02
         0.26927E-02
         0.26927E-02
         0.26927E-02
         0.26927E-02
         0.26927E-02
         0.26927E-02
         0.26927E-02
         0.26927E-02
         0.26927E-02
         0.26927E-02
         0.26927E-02
         0.26927E-02
         0.26927E-02
         0.26927E-02
         0.26927E-02
         0.26927E-02
         0.26927E-02
         0.26927E-02
         0.26927E-02
         0.26927E-02
         0.26927E-02
         0.26927E-02
         0.26927E-02
         0.26927E-02
         0.26927E-02
         0.26927E-02
         0.26927E-02
         0.26927E-02
         0.26927E-02
         0.26927E-02
         0.26927E-02
         0.26927E-02
         0.26927E-02
         0.26927E-02
         0.26927E-02
         0.26927E-02
         0.26927E-02
         0.26927E-02
         0.26927E-02
         0.26927E-02
         0.26927E-02
         0.26927E-02
         0.26927E-02
         0.26927E-02
         0.26927E-02
         0.26927E-02
         0.26927E-02
         0.26927E-02
         0.26927E-02
         0.26927E-02
         0.26927E-02
         0.26927E-02
         0.26927E-02
         0.26927E-02
         0.26927E-02
         0.26927E-02
         0.26927E-02
         0.26927E-02
         0.26927E-02
         0.26927E-02
         0.26927E-02
         0.26927E-02
         0.26927E-02
         0.26927E-02
         0.26927E-02
         0.26927E-02
         0.26927E-02
         0.26927E-02
         0.26927E-02
         0.26927E-02
         0.26927E-02
         0.26927E-02
         0.26927E-02
         0.26927E-02
         0.26927E-02
         0.26927E-02
         0.26927E-02
         0.26927E-02
         0.26927E-02
         0.26927E-02
         0.26927E-02
         0.26927E-02
         0.26927E-02
         0.26927E-02
         0.26927E-02
         0.26927E-02
         0.26927E-02
         0.26927E-02
         0.26927E-02
         0.26927E-02
         0.26927E-02
         0.26927E-02
         0.26927E-02
         0.26927E-02
         0.26927E-02
         0.26927E-02
         0.26927E-02
         0.26927E-02
         0.26927E-02
         0.26927E-02
         0.26927E-02
         0.26927E-02
         0.26927E-02
         0.26927E-02
         0.26927E-02
         0.26927E-02
         0.26927E-02
         0.26927E-02
         0.26927E-02
         0.26927E-02
         0.26927E-02
         0.26927E-02
         0.26927E-02
         0.26927E-02
         0.26927E-02
         0.26927E-02
         0.26927E-02
         0.26927E-02
         0.26927E-02
         0.26927E-02
         0.26927E-02
         0.26927E-02
         0.26927E-02
         0.26927E-02
         0.26927E-02
         0.26927E-02
         0.26927E-02
         0.26927E-02
         0.26927E-02
         0.26927E-02
         0.26927E-02
         0.26927E-02
         0.26927E-02
         0.26927E-02
         0.26927E-02
         0.26927E-02
         0.26927E-02
         0.26927E-02
         0.26927E-02
         0.26927E-02
         0.26927E-02
         0.26927E-02
         0.26927E-02
         0.26927E-02
         0.26927E-02
         0.26927E-02
         0.26927E-02
         0.26927E-02
         0.26927E-02
         0.26927E-02
         0.26927E-02
         0.26927E-02
         0.26927E-02
         0.26927E-02
         0.26927E-02
         0.26927E-02
         0.26927E-02
         0.26927E-02
         0.26927E-02
         0.26927E-02
         0.26927E-02
         0.26927E-02
         0.26927E-02
         0.26927E-02
         0.26927E-02
         0.26927E-02
         0.26927E-02
         0.26927E-02
         0.26927E-02
         0.26927E-02
         0.26927E-02
         0.26927E-02
         0.26927E-02
         0.26927E-02
         0.26927E-02
         0.26927E-02
         0.26927E-02
         0.26927E-02
         0.26927E-02
         0.26927E-02
         0.26927E-02
         0.26927E-02
         0.26927E-02
         0.26927E-02
         0.26927E-02
         0.26927E-02
         0.26927E-02
         0.26927E-02
         0.26927E-02
         0.26927E-02
         0.26927E-02
         0.26927E-02
         0.26927E-02
         0.26927E-02
         0.26927E-02
         0.26927E-02
         0.26927E-02
         0.26927E-02
         0.26927E-02
         0.26927E-02
         0.26927E-02
         0.26927E-02
         0.26927E-02
         0.26927E-02
         0.26927E-02
         0.26927E-02
         0.26927E-02
         0.26927E-02
         0.26927E-02
         0.26927E-02
         0.26927E-02
         0.26927E-02
         0.26927E-02
         0.26927E-02
         0.26927E-02
         0.26927E-02
         0.26927E-02
         0.26927E-02
         0.26927E-02
         0.26927E-02
         0.26927E-02
         0.26927E-02
         0.26927E-02
         0.26927E-02
         0.26927E-02
         0.26927E-02
         0.26927E-02
         0.26927E-02
         0.26927E-02
         0.26927E-02
         0.26927E-02
         0.26927E-02
         0.26927E-02
         0.26927E-02
         0.26927E-02
         0.26927E-02
         0.26927E-02
         0.26927E-02
         0.26927E-02
         0.26927E-02
         0.26927E-02
         0.26927E-02
         0.26927E-02
         0.26927E-02
         0.26927E-02
         0.26927E-02
         0.26927E-02
         0.26927E-02
         0.26927E-02
         0.26927E-02
         0.26927E-02
         0.26927E-02
         0.26927E-02
         0.26927E-02
         0.26927E-02
         0.26927E-02
         0.26927E-02
         0.26927E-02
         0.26927E-02
         0.26927E-02
         0.26927E-02
         0.26927E-02
         0.26927E-02
         0.26927E-02
         0.26927E-02
         0.26927E-02
         0.26927E-02
         0.26927E-02
         0.26927E-02
         0.26927E-02
         0.26927E-02
         0.26927E-02
         0.26927E-02
         0.26927E-02
         0.26927E-02
         0.26927E-02
         0.26927E-02
         0.26927E-02
         0.26927E-02
         0.26927E-02
         0.26927E-02
         0.26927E-02
         0.26927E-02
         0.26927E-02
         0.26927E-02
         0.26927E-02
         0.26927E-02
         0.26927E-02
         0.26927E-02
         0.26927E-02
         0.26927E-02
         0.26927E-02
         0.26927E-02
         0.26927E-02
         0.26927E-02
         0.26927E-02
         0.26927E-02
         0.26927E-02
         0.26927E-02
         0.26927E-02
         0.26927E-02
         0.26927E-02
         0.26927E-02
         0.26927E-02
         0.26927E-02
         0.26927E-02
         0.26927E-02
         0.26927E-02
         0.26927E-02
         0.26927E-02
         0.26927E-02
         0.26927E-02
         0.26927E-02
         0.26927E-02
         0.26927E-02
         0.26927E-02
         0.26927E-02
         0.26927E-02
         0.26927E-02
         0.26927E-02
         0.26927E-02
         0.26927E-02
         0.26927E-02
         0.26927E-02
         0.26927E-02
         0.26927E-02
         0.26927E-02
         0.26927E-02
         0.26927E-02
         0.26927E-02
         0.26927E-02
         0.26927E-02
         0.26927E-02
         0.26927E-02
         0.26927E-02
         0.26927E-02
         0.26927E-02
         0.26927E-02
         0.26927E-02
         0.26927E-02
         0.26927E-02
         0.26927E-02
         0.26927E-02
         0.26927E-02
         0.26927E-02
         0.26927E-02
         0.26927E-02
         0.26927E-02
         0.26927E-02
         0.26927E-02
         0.26927E-02
         0.26927E-02
         0.26927E-02
         0.26927E-02
         0.26927E-02
         0.26927E-02
         0.26927E-02
         0.26927E-02
         0.26927E-02
         0.26927E-02
         0.26927E-02
         0.26927E-02
         0.26927E-02
         0.26927E-02
         0.26927E-02
         0.26927E-02
         0.26927E-02
         0.26927E-02
         0.26927E-02
         0.26927E-02
         0.26927E-02
         0.26927E-02
         0.26927E-02
         0.26927E-02
         0.26927E-02
         0.26927E-02
         0.26927E-02
         0.26927E-02
         0.26927E-02
         0.26927E-02
         0.26927E-02
         0.26927E-02
         0.26927E-02
         0.26927E-02
         0.26927E-02
         0.26927E-02
         0.26927E-02
         0.26927E-02
         0.26927E-02
         0.26927E-02
         0.26927E-02
         0.26927E-02
         0.26927E-02
         0.26927E-02
         0.26927E-02
         0.26927E-02
         0.26927E-02
         0.26927E-02
         0.26927E-02
         0.26927E-02
         0.26927E-02
         0.26927E-02
         0.26927E-02
         0.26927E-02
         0.26927E-02
         0.26927E-02
         0.26927E-02
         0.26927E-02
         0.26927E-02
         0.26927E-02
         0.26927E-02
         0.26927E-02
         0.26927E-02
         0.26927E-02
         0.26927E-02
         0.26927E-02
         0.26927E-02
         0.26927E-02
         0.26927E-02
         0.26927E-02
         0.26927E-02
         0.26927E-02
         0.26927E-02
         0.26927E-02
         0.26927E-02
         0.26927E-02
         0.26927E-02
         0.26927E-02
         0.26927E-02
         0.26927E-02
         0.26927E-02
         0.26927E-02
         0.26927E-02
         0.26927E-02
         0.26927E-02
         0.26927E-02
         0.26927E-02
         0.26927E-02
         0.26927E-02
         0.26927E-02
         0.26927E-02
         0.26927E-02
         0.26927E-02
         0.26927E-02
         0.26927E-02
         0.26927E-02
         0.26927E-02
         0.26927E-02
         0.26927E-02
         0.26927E-02
         0.26927E-02
         0.26927E-02
         0.26927E-02
         0.26927E-02
         0.26927E-02
         0.26927E-02
         0.26927E-02
         0.26927E-02
         0.26927E-02
         0.26927E-02
         0.26927E-02
         0.26927E-02
         0.26927E-02
         0.26927E-02
         0.26927E-02
         0.26927E-02
         0.26927E-02
         0.26927E-02
         0.26927E-02
         0.26927E-02
         0.26927E-02
         0.26927E-02
         0.26927E-02
         0.26927E-02
         0.26927E-02
         0.26927E-02
         0.26927E-02
         0.26927E-02
         0.26927E-02
         0.26927E-02
         0.26927E-02
         0.26927E-02
         0.26927E-02
         0.26927E-02
         0.26927E-02
         0.26927E-02
         0.26927E-02
         0.26927E-02
         0.26927E-02
         0.26927E-02
         0.26927E-02
         0.26927E-02
         0.26927E-02
         0.26927E-02
         0.26927E-02
         0.26927E-02
         0.26927E-02
         0.26927E-02
         0.26927E-02
         0.26927E-02
         0.26927E-02
         0.26927E-02
         0.26927E-02
         0.26927E-02
         0.26927E-02
         0.26927E-02
         0.26927E-02
         0.26927E-02
         0.26927E-02
         0.26927E-02
         0.26927E-02
         0.26927E-02
         0.26927E-02
         0.26927E-02
         0.26927E-02
         0.26927E-02
         0.26927E-02
         0.26927E-02
         0.26927E-02
         0.26927E-02
         0.26927E-02
         0.26927E-02
         0.26927E-02
         0.26927E-02
         0.26927E-02
         0.26927E-02
         0.26927E-02
         0.26927E-02
         0.26927E-02
         0.26927E-02
         0.26927E-02
         0.26927E-02
         0.26927E-02
         0.26927E-02
         0.26927E-02
         0.26927E-02
         0.26927E-02
         0.26927E-02
         0.26927E-02
         0.26927E-02
         0.26927E-02
         0.26927E-02
         0.26927E-02
         0.26927E-02
         0.26927E-02
         0.26927E-02
         0.26927E-02
         0.26927E-02
         0.26927E-02
         0.26927E-02
         0.26927E-02
         0.26927E-02
         0.26927E-02
         0.26927E-02
         0.26927E-02
         0.26927E-02
         0.26927E-02
         0.26927E-02
         0.26927E-02
         0.26927E-02
         0.26927E-02
         0.26927E-02
         0.26927E-02
         0.26927E-02
         0.26928E-02
         0.26928E-02
         0.26928E-02
         0.26928E-02
         0.26928E-02
         0.26928E-02
         0.26928E-02
         0.26928E-02
         0.26928E-02
         0.26928E-02
         0.26928E-02
         0.26928E-02
         0.26928E-02
         0.26928E-02
         0.26928E-02
         0.26928E-02
         0.26928E-02
         0.26928E-02
         0.26928E-02
         0.26928E-02
         0.26928E-02
         0.26928E-02
         0.26928E-02
         0.26928E-02
         0.26928E-02
         0.26928E-02
         0.26928E-02
         0.26928E-02
         0.26928E-02
         0.26928E-02
         0.26928E-02
         0.26928E-02
         0.26928E-02
         0.26928E-02
         0.26928E-02
         0.26928E-02
         0.26928E-02
         0.26928E-02
         0.26928E-02
         0.26928E-02
         0.26928E-02
         0.26928E-02
         0.26928E-02
         0.26928E-02
         0.26928E-02
         0.26928E-02
         0.26928E-02
         0.26928E-02
         0.26928E-02
         0.26928E-02
         0.26928E-02
         0.26928E-02
         0.26928E-02
         0.26928E-02
         0.26928E-02
         0.26928E-02
         0.26928E-02
         0.26928E-02
         0.26928E-02
         0.26928E-02
         0.26928E-02
         0.26928E-02
         0.26928E-02
         0.26928E-02
         0.26928E-02
         0.26928E-02
         0.26928E-02
         0.26928E-02
         0.26928E-02
         0.26928E-02
         0.26928E-02
         0.26928E-02
         0.26928E-02
         0.26928E-02
         0.26928E-02
         0.26928E-02
         0.26928E-02
         0.26928E-02
         0.26928E-02
         0.26928E-02
         0.26928E-02
         0.26928E-02
         0.26928E-02
         0.26928E-02
         0.26928E-02
         0.26928E-02
         0.26928E-02
         0.26928E-02
         0.26928E-02
         0.26928E-02
         0.26928E-02
         0.26928E-02
         0.26928E-02
         0.26928E-02
         0.26928E-02
         0.26928E-02
         0.26928E-02
         0.26928E-02
         0.26928E-02
         0.26928E-02
         0.26928E-02
         0.26928E-02
         0.26928E-02
         0.26928E-02
         0.26928E-02
         0.26928E-02
         0.26928E-02
         0.26928E-02
         0.26928E-02
         0.26928E-02
         0.26928E-02
         0.26928E-02
         0.26928E-02
         0.26928E-02
         0.26928E-02
         0.26928E-02
         0.26928E-02
         0.26928E-02
         0.26928E-02
         0.26928E-02
         0.26928E-02
         0.26928E-02
         0.26928E-02
         0.26928E-02
         0.26928E-02
         0.26928E-02
         0.26928E-02
         0.26928E-02
         0.26928E-02
         0.26928E-02
         0.26928E-02
         0.26928E-02
         0.26928E-02
         0.26928E-02
         0.26928E-02
         0.26928E-02
         0.26928E-02
         0.26928E-02
         0.26928E-02
         0.26928E-02
         0.26928E-02
         0.26928E-02
         0.26928E-02
         0.26928E-02
         0.26928E-02
         0.26928E-02
         0.26928E-02
         0.26928E-02
         0.26928E-02
         0.26928E-02
         0.26928E-02
         0.26928E-02
         0.26928E-02
         0.26928E-02
         0.26928E-02
         0.26928E-02
  
SCALARS                   nodal_volume  double 1
LOOKUP_TABLE default
         0.91140E-09
         0.72412E-09
         0.77574E-09
         0.13316E-08
         0.45570E-09
         0.36211E-09
         0.38787E-09
         0.66566E-09
         0.71537E-09
         0.91211E-09
         0.35767E-09
         0.45600E-09
         0.51195E-09
         0.61532E-09
         0.25605E-09
         0.30776E-09
         0.10101E-08
         0.74536E-09
         0.50500E-09
         0.37281E-09
         0.30273E-09
         0.57012E-09
         0.62699E-09
         0.15144E-09
         0.28509E-09
         0.31352E-09
         0.51329E-09
         0.64933E-09
         0.25683E-09
         0.32471E-09
         0.12026E-08
         0.93909E-09
         0.11935E-08
         0.60122E-09
         0.46945E-09
         0.59663E-09
         0.70296E-09
         0.80270E-09
         0.35149E-09
         0.40134E-09
         0.75859E-09
         0.84013E-09
         0.37932E-09
         0.42007E-09
         0.64542E-09
         0.40086E-09
         0.32274E-09
         0.20045E-09
         0.76288E-09
         0.38153E-09
         0.63346E-09
         0.31675E-09
         0.66583E-09
         0.33318E-09
         0.68008E-09
         0.34022E-09
         0.58930E-09
         0.71738E-09
         0.29472E-09
         0.35874E-09
         0.90938E-09
         0.64302E-09
         0.45469E-09
         0.32154E-09
         0.10152E-08
         0.50747E-09
         0.88120E-09
         0.44042E-09
         0.40077E-09
         0.61872E-09
         0.20039E-09
         0.30940E-09
         0.70206E-09
         0.35106E-09
         0.74172E-09
         0.37089E-09
         0.71539E-09
         0.35770E-09
         0.56226E-09
         0.28113E-09
         0.35349E-09
         0.58452E-09
         0.17675E-09
         0.29229E-09
         0.77354E-09
         0.38679E-09
         0.62469E-09
         0.31238E-09
         0.54957E-09
         0.27483E-09
         0.36009E-09
         0.61365E-09
         0.18007E-09
         0.30685E-09
         0.83268E-09
         0.41635E-09
         0.87287E-09
         0.43642E-09
         0.70438E-09
         0.35217E-09
         0.43365E-09
         0.74413E-09
         0.21683E-09
         0.37198E-09
         0.27660E-09
         0.35144E-09
         0.13833E-09
         0.17573E-09
         0.32921E-09
         0.16465E-09
         0.38764E-09
         0.19382E-09
         0.37797E-09
         0.18897E-09
         0.36707E-09
         0.18352E-09
         0.39112E-09
         0.19552E-09
         0.41268E-09
         0.20627E-09
         0.38876E-09
         0.19433E-09
         0.30402E-09
         0.15200E-09
         0.24796E-09
         0.12398E-09
         0.31999E-09
         0.16000E-09
         0.42608E-09
         0.21303E-09
         0.46805E-09
         0.23401E-09
         0.44933E-09
         0.22466E-09
         0.40550E-09
         0.20276E-09
         0.36826E-09
         0.18414E-09
         0.29911E-09
         0.14956E-09
         0.25178E-09
         0.12591E-09
         0.32888E-09
         0.16445E-09
         0.43529E-09
         0.21765E-09
         0.44963E-09
         0.22482E-09
         0.36384E-09
         0.18194E-09
         0.29543E-09
         0.14774E-09
         0.36126E-09
         0.18063E-09
         0.42771E-09
         0.21386E-09
         0.91143E-09
         0.72396E-09
         0.77579E-09
         0.13322E-08
         0.71547E-09
         0.91237E-09
         0.51167E-09
         0.61494E-09
         0.10105E-08
         0.74486E-09
         0.30244E-09
         0.57001E-09
         0.62694E-09
         0.51257E-09
         0.64918E-09
         0.12029E-08
         0.93950E-09
         0.11941E-08
         0.70298E-09
         0.80279E-09
         0.75855E-09
         0.84015E-09
         0.64535E-09
         0.40081E-09
         0.76254E-09
         0.63339E-09
         0.66483E-09
         0.67941E-09
         0.58904E-09
         0.71721E-09
         0.90946E-09
         0.64293E-09
         0.10157E-08
         0.88199E-09
         0.40076E-09
         0.61859E-09
         0.70195E-09
         0.74166E-09
         0.71543E-09
         0.56228E-09
         0.35349E-09
         0.58443E-09
         0.77349E-09
         0.62459E-09
         0.54943E-09
         0.35999E-09
         0.61359E-09
         0.83268E-09
         0.87299E-09
         0.70451E-09
         0.43366E-09
         0.74449E-09
         0.27651E-09
         0.35143E-09
         0.32904E-09
         0.38765E-09
         0.37805E-09
         0.36714E-09
         0.39129E-09
         0.41297E-09
         0.38899E-09
         0.30408E-09
         0.24798E-09
         0.31999E-09
         0.42613E-09
         0.46815E-09
         0.44938E-09
         0.40548E-09
         0.36823E-09
         0.29908E-09
         0.25174E-09
         0.32885E-09
         0.43527E-09
         0.44962E-09
         0.36376E-09
         0.29536E-09
         0.36130E-09
         0.42769E-09
         0.91151E-09
         0.72383E-09
         0.77587E-09
         0.13329E-08
         0.71560E-09
         0.91267E-09
         0.51142E-09
         0.61459E-09
         0.10109E-08
         0.74439E-09
         0.30216E-09
         0.56992E-09
         0.62691E-09
         0.51187E-09
         0.64906E-09
         0.12033E-08
         0.93995E-09
         0.11947E-08
         0.70302E-09
         0.80291E-09
         0.75853E-09
         0.84020E-09
         0.64530E-09
         0.40078E-09
         0.76223E-09
         0.63335E-09
         0.66385E-09
         0.67875E-09
         0.58880E-09
         0.71706E-09
         0.90957E-09
         0.64286E-09
         0.10162E-08
         0.88281E-09
         0.40076E-09
         0.61849E-09
         0.70188E-09
         0.74162E-09
         0.71550E-09
         0.56232E-09
         0.35350E-09
         0.58436E-09
         0.77347E-09
         0.62452E-09
         0.54931E-09
         0.35990E-09
         0.61355E-09
         0.83270E-09
         0.87315E-09
         0.70467E-09
         0.43368E-09
         0.74487E-09
         0.27643E-09
         0.35143E-09
         0.32889E-09
         0.38767E-09
         0.37814E-09
         0.36723E-09
         0.39147E-09
         0.41328E-09
         0.38923E-09
         0.30416E-09
         0.24800E-09
         0.32001E-09
         0.42620E-09
         0.46826E-09
         0.44944E-09
         0.40548E-09
         0.36821E-09
         0.29906E-09
         0.25171E-09
         0.32883E-09
         0.43527E-09
         0.44963E-09
         0.36369E-09
         0.29530E-09
         0.36135E-09
         0.42769E-09
         0.91156E-09
         0.72368E-09
         0.77594E-09
         0.13335E-08
         0.71571E-09
         0.91295E-09
         0.51115E-09
         0.61422E-09
         0.10112E-08
         0.74389E-09
         0.30187E-09
         0.56982E-09
         0.62686E-09
         0.51116E-09
         0.64892E-09
         0.12036E-08
         0.94038E-09
         0.11953E-08
         0.70304E-09
         0.80300E-09
         0.75850E-09
         0.84023E-09
         0.64523E-09
         0.40073E-09
         0.76190E-09
         0.63330E-09
         0.66285E-09
         0.67809E-09
         0.58855E-09
         0.71689E-09
         0.90966E-09
         0.64278E-09
         0.10168E-08
         0.88361E-09
         0.40076E-09
         0.61837E-09
         0.70178E-09
         0.74156E-09
         0.71554E-09
         0.56234E-09
         0.35350E-09
         0.58428E-09
         0.77343E-09
         0.62442E-09
         0.54918E-09
         0.35981E-09
         0.61349E-09
         0.83271E-09
         0.87328E-09
         0.70481E-09
         0.43369E-09
         0.74524E-09
         0.27634E-09
         0.35142E-09
         0.32873E-09
         0.38768E-09
         0.37823E-09
         0.36731E-09
         0.39163E-09
         0.41358E-09
         0.38945E-09
         0.30422E-09
         0.24802E-09
         0.32001E-09
         0.42625E-09
         0.46837E-09
         0.44949E-09
         0.40546E-09
         0.36819E-09
         0.29904E-09
         0.25167E-09
         0.32881E-09
         0.43526E-09
         0.44963E-09
         0.36362E-09
         0.29523E-09
         0.36139E-09
         0.42768E-09
         0.91161E-09
         0.72353E-09
         0.77600E-09
         0.13341E-08
         0.71583E-09
         0.91323E-09
         0.51088E-09
         0.61386E-09
         0.10116E-08
         0.74341E-09
         0.30158E-09
         0.56972E-09
         0.62682E-09
         0.51045E-09
         0.64879E-09
         0.12040E-08
         0.94081E-09
         0.11959E-08
         0.70307E-09
         0.80310E-09
         0.75847E-09
         0.84027E-09
         0.64517E-09
         0.40069E-09
         0.76158E-09
         0.63325E-09
         0.66186E-09
         0.67742E-09
         0.58831E-09
         0.71673E-09
         0.90975E-09
         0.64270E-09
         0.10173E-08
         0.88441E-09
         0.40075E-09
         0.61825E-09
         0.70169E-09
         0.74151E-09
         0.71559E-09
         0.56237E-09
         0.35350E-09
         0.58420E-09
         0.77339E-09
         0.62433E-09
         0.54905E-09
         0.35972E-09
         0.61344E-09
         0.83272E-09
         0.87341E-09
         0.70496E-09
         0.43370E-09
         0.74562E-09
         0.27626E-09
         0.35142E-09
         0.32857E-09
         0.38770E-09
         0.37832E-09
         0.36739E-09
         0.39181E-09
         0.41387E-09
         0.38968E-09
         0.30429E-09
         0.24804E-09
         0.32002E-09
         0.42631E-09
         0.46847E-09
         0.44954E-09
         0.40545E-09
         0.36816E-09
         0.29901E-09
         0.25163E-09
         0.32878E-09
         0.43525E-09
         0.44963E-09
         0.36354E-09
         0.29517E-09
         0.36144E-09
         0.42766E-09
         0.91167E-09
         0.72338E-09
         0.77607E-09
         0.13348E-08
         0.71594E-09
         0.91351E-09
         0.51062E-09
         0.61349E-09
         0.10119E-08
         0.74292E-09
         0.30129E-09
         0.56962E-09
         0.62678E-09
         0.50974E-09
         0.64865E-09
         0.12044E-08
         0.94125E-09
         0.11965E-08
         0.70310E-09
         0.80321E-09
         0.75844E-09
         0.84031E-09
         0.64511E-09
         0.40065E-09
         0.76125E-09
         0.63320E-09
         0.66087E-09
         0.67676E-09
         0.58806E-09
         0.71657E-09
         0.90984E-09
         0.64263E-09
         0.10179E-08
         0.88522E-09
         0.40075E-09
         0.61813E-09
         0.70160E-09
         0.74146E-09
         0.71564E-09
         0.56240E-09
         0.35350E-09
         0.58412E-09
         0.77336E-09
         0.62425E-09
         0.54892E-09
         0.35963E-09
         0.61339E-09
         0.83274E-09
         0.87355E-09
         0.70511E-09
         0.43371E-09
         0.74599E-09
         0.27618E-09
         0.35141E-09
         0.32841E-09
         0.38771E-09
         0.37841E-09
         0.36747E-09
         0.39198E-09
         0.41417E-09
         0.38992E-09
         0.30436E-09
         0.24806E-09
         0.32003E-09
         0.42637E-09
         0.46858E-09
         0.44960E-09
         0.40544E-09
         0.36814E-09
         0.29899E-09
         0.25159E-09
         0.32876E-09
         0.43525E-09
         0.44963E-09
         0.36347E-09
         0.29511E-09
         0.36148E-09
         0.42766E-09
         0.91171E-09
         0.72323E-09
         0.77613E-09
         0.13354E-08
         0.71606E-09
         0.91379E-09
         0.51035E-09
         0.61313E-09
         0.10123E-08
         0.74243E-09
         0.30101E-09
         0.56952E-09
         0.62674E-09
         0.50903E-09
         0.64851E-09
         0.12047E-08
         0.94167E-09
         0.11971E-08
         0.70312E-09
         0.80331E-09
         0.75840E-09
         0.84034E-09
         0.64504E-09
         0.40061E-09
         0.76092E-09
         0.63314E-09
         0.65988E-09
         0.67609E-09
         0.58781E-09
         0.71641E-09
         0.90993E-09
         0.64255E-09
         0.10184E-08
         0.88601E-09
         0.40075E-09
         0.61801E-09
         0.70151E-09
         0.74140E-09
         0.71569E-09
         0.56243E-09
         0.35350E-09
         0.58404E-09
         0.77332E-09
         0.62416E-09
         0.54879E-09
         0.35953E-09
         0.61334E-09
         0.83274E-09
         0.87368E-09
         0.70525E-09
         0.43372E-09
         0.74636E-09
         0.27609E-09
         0.35141E-09
         0.32825E-09
         0.38772E-09
         0.37849E-09
         0.36754E-09
         0.39215E-09
         0.41447E-09
         0.39014E-09
         0.30443E-09
         0.24808E-09
         0.32004E-09
         0.42642E-09
         0.46868E-09
         0.44965E-09
         0.40543E-09
         0.36812E-09
         0.29897E-09
         0.25155E-09
         0.32874E-09
         0.43524E-09
         0.44963E-09
         0.36340E-09
         0.29504E-09
         0.36153E-09
         0.42764E-09
         0.91176E-09
         0.72308E-09
         0.77620E-09
         0.13360E-08
         0.71617E-09
         0.91407E-09
         0.51008E-09
         0.61276E-09
         0.10126E-08
         0.74195E-09
         0.30072E-09
         0.56942E-09
         0.62670E-09
         0.50832E-09
         0.64838E-09
         0.12051E-08
         0.94210E-09
         0.11977E-08
         0.70314E-09
         0.80341E-09
         0.75837E-09
         0.84038E-09
         0.64498E-09
         0.40056E-09
         0.76060E-09
         0.63309E-09
         0.65888E-09
         0.67542E-09
         0.58756E-09
         0.71624E-09
         0.91002E-09
         0.64247E-09
         0.10189E-08
         0.88682E-09
         0.40074E-09
         0.61790E-09
         0.70142E-09
         0.74135E-09
         0.71574E-09
         0.56245E-09
         0.35351E-09
         0.58396E-09
         0.77328E-09
         0.62407E-09
         0.54866E-09
         0.35944E-09
         0.61329E-09
         0.83275E-09
         0.87382E-09
         0.70539E-09
         0.43373E-09
         0.74673E-09
         0.27601E-09
         0.35140E-09
         0.32809E-09
         0.38774E-09
         0.37858E-09
         0.36762E-09
         0.39232E-09
         0.41477E-09
         0.39037E-09
         0.30450E-09
         0.24810E-09
         0.32005E-09
         0.42648E-09
         0.46879E-09
         0.44970E-09
         0.40541E-09
         0.36809E-09
         0.29894E-09
         0.25151E-09
         0.32871E-09
         0.43523E-09
         0.44963E-09
         0.36333E-09
         0.29497E-09
         0.36157E-09
         0.42763E-09
         0.91182E-09
         0.72293E-09
         0.77627E-09
         0.13367E-08
         0.71629E-09
         0.91436E-09
         0.50982E-09
         0.61240E-09
         0.10130E-08
         0.74146E-09
         0.30043E-09
         0.56932E-09
         0.62666E-09
         0.50762E-09
         0.64825E-09
         0.12054E-08
         0.94253E-09
         0.11983E-08
         0.70317E-09
         0.80351E-09
         0.75834E-09
         0.84041E-09
         0.64491E-09
         0.40053E-09
         0.76028E-09
         0.63304E-09
         0.65790E-09
         0.67476E-09
         0.58731E-09
         0.71609E-09
         0.91012E-09
         0.64239E-09
         0.10195E-08
         0.88762E-09
         0.40074E-09
         0.61778E-09
         0.70133E-09
         0.74130E-09
         0.71579E-09
         0.56249E-09
         0.35351E-09
         0.58388E-09
         0.77324E-09
         0.62398E-09
         0.54853E-09
         0.35935E-09
         0.61324E-09
         0.83277E-09
         0.87396E-09
         0.70554E-09
         0.43375E-09
         0.74711E-09
         0.27592E-09
         0.35140E-09
         0.32793E-09
         0.38775E-09
         0.37867E-09
         0.36770E-09
         0.39249E-09
         0.41507E-09
         0.39061E-09
         0.30457E-09
         0.24812E-09
         0.32006E-09
         0.42654E-09
         0.46890E-09
         0.44975E-09
         0.40540E-09
         0.36807E-09
         0.29892E-09
         0.25148E-09
         0.32869E-09
         0.43522E-09
         0.44963E-09
         0.36325E-09
         0.29491E-09
         0.36162E-09
         0.42762E-09
         0.91187E-09
         0.72278E-09
         0.77633E-09
         0.13373E-08
         0.71640E-09
         0.91463E-09
         0.50955E-09
         0.61204E-09
         0.10134E-08
         0.74098E-09
         0.30015E-09
         0.56922E-09
         0.62662E-09
         0.50691E-09
         0.64811E-09
         0.12058E-08
         0.94296E-09
         0.11989E-08
         0.70320E-09
         0.80361E-09
         0.75831E-09
         0.84045E-09
         0.64485E-09
         0.40048E-09
         0.75995E-09
         0.63298E-09
         0.65690E-09
         0.67409E-09
         0.58706E-09
         0.71592E-09
         0.91020E-09
         0.64231E-09
         0.10200E-08
         0.88843E-09
         0.40074E-09
         0.61766E-09
         0.70124E-09
         0.74124E-09
         0.71584E-09
         0.56251E-09
         0.35351E-09
         0.58380E-09
         0.77320E-09
         0.62389E-09
         0.54840E-09
         0.35926E-09
         0.61318E-09
         0.83277E-09
         0.87409E-09
         0.70568E-09
         0.43376E-09
         0.74748E-09
         0.27584E-09
         0.35139E-09
         0.32777E-09
         0.38777E-09
         0.37876E-09
         0.36778E-09
         0.39266E-09
         0.41536E-09
         0.39084E-09
         0.30464E-09
         0.24814E-09
         0.32006E-09
         0.42659E-09
         0.46900E-09
         0.44980E-09
         0.40539E-09
         0.36805E-09
         0.29890E-09
         0.25144E-09
         0.32867E-09
         0.43521E-09
         0.44963E-09
         0.36318E-09
         0.29485E-09
         0.36166E-09
         0.42761E-09
         0.91192E-09
         0.72263E-09
         0.77640E-09
         0.13380E-08
         0.71652E-09
         0.91491E-09
         0.50928E-09
         0.61167E-09
         0.10137E-08
         0.74049E-09
         0.29986E-09
         0.56912E-09
         0.62657E-09
         0.50620E-09
         0.64797E-09
         0.12061E-08
         0.94339E-09
         0.11995E-08
         0.70322E-09
         0.80371E-09
         0.75827E-09
         0.84048E-09
         0.64478E-09
         0.40044E-09
         0.75962E-09
         0.63293E-09
         0.65591E-09
         0.67343E-09
         0.58681E-09
         0.71576E-09
         0.91029E-09
         0.64223E-09
         0.10205E-08
         0.88923E-09
         0.40073E-09
         0.61754E-09
         0.70114E-09
         0.74119E-09
         0.71588E-09
         0.56254E-09
         0.35351E-09
         0.58372E-09
         0.77316E-09
         0.62380E-09
         0.54827E-09
         0.35917E-09
         0.61313E-09
         0.83278E-09
         0.87422E-09
         0.70582E-09
         0.43377E-09
         0.74785E-09
         0.27575E-09
         0.35138E-09
         0.32761E-09
         0.38778E-09
         0.37885E-09
         0.36786E-09
         0.39283E-09
         0.41566E-09
         0.39107E-09
         0.30470E-09
         0.24816E-09
         0.32007E-09
         0.42665E-09
         0.46911E-09
         0.44985E-09
         0.40538E-09
         0.36802E-09
         0.29887E-09
         0.25140E-09
         0.32864E-09
         0.43520E-09
         0.44963E-09
         0.36310E-09
         0.29478E-09
         0.36170E-09
         0.42760E-09
         0.91198E-09
         0.72248E-09
         0.77646E-09
         0.13386E-08
         0.71663E-09
         0.91520E-09
         0.50901E-09
         0.61131E-09
         0.10141E-08
         0.74000E-09
         0.29957E-09
         0.56902E-09
         0.62653E-09
         0.50549E-09
         0.64784E-09
         0.12065E-08
         0.94382E-09
         0.12002E-08
         0.70325E-09
         0.80381E-09
         0.75824E-09
         0.84052E-09
         0.64472E-09
         0.40040E-09
         0.75929E-09
         0.63288E-09
         0.65492E-09
         0.67276E-09
         0.58657E-09
         0.71560E-09
         0.91038E-09
         0.64216E-09
         0.10211E-08
         0.89003E-09
         0.40073E-09
         0.61742E-09
         0.70105E-09
         0.74114E-09
         0.71593E-09
         0.56257E-09
         0.35351E-09
         0.58364E-09
         0.77313E-09
         0.62371E-09
         0.54814E-09
         0.35908E-09
         0.61308E-09
         0.83280E-09
         0.87436E-09
         0.70597E-09
         0.43378E-09
         0.74823E-09
         0.27567E-09
         0.35138E-09
         0.32745E-09
         0.38779E-09
         0.37893E-09
         0.36794E-09
         0.39300E-09
         0.41596E-09
         0.39130E-09
         0.30477E-09
         0.24818E-09
         0.32008E-09
         0.42671E-09
         0.46921E-09
         0.44991E-09
         0.40537E-09
         0.36800E-09
         0.29885E-09
         0.25136E-09
         0.32862E-09
         0.43520E-09
         0.44963E-09
         0.36303E-09
         0.29472E-09
         0.36175E-09
         0.42759E-09
         0.91203E-09
         0.72233E-09
         0.77653E-09
         0.13392E-08
         0.71675E-09
         0.91547E-09
         0.50875E-09
         0.61094E-09
         0.10144E-08
         0.73952E-09
         0.29928E-09
         0.56892E-09
         0.62649E-09
         0.50478E-09
         0.64770E-09
         0.12068E-08
         0.94424E-09
         0.12008E-08
         0.70327E-09
         0.80391E-09
         0.75821E-09
         0.84055E-09
         0.64465E-09
         0.40035E-09
         0.75896E-09
         0.63282E-09
         0.65393E-09
         0.67210E-09
         0.58632E-09
         0.71543E-09
         0.91047E-09
         0.64208E-09
         0.10216E-08
         0.89084E-09
         0.40073E-09
         0.61730E-09
         0.70096E-09
         0.74108E-09
         0.71598E-09
         0.56259E-09
         0.35351E-09
         0.58356E-09
         0.77309E-09
         0.62362E-09
         0.54801E-09
         0.35898E-09
         0.61303E-09
         0.83281E-09
         0.87449E-09
         0.70611E-09
         0.43379E-09
         0.74860E-09
         0.27558E-09
         0.35137E-09
         0.32729E-09
         0.38781E-09
         0.37902E-09
         0.36802E-09
         0.39317E-09
         0.41625E-09
         0.39153E-09
         0.30484E-09
         0.24820E-09
         0.32009E-09
         0.42677E-09
         0.46932E-09
         0.44996E-09
         0.40536E-09
         0.36798E-09
         0.29883E-09
         0.25132E-09
         0.32859E-09
         0.43519E-09
         0.44963E-09
         0.36296E-09
         0.29465E-09
         0.36179E-09
         0.42758E-09
         0.91208E-09
         0.72218E-09
         0.77659E-09
         0.13399E-08
         0.71686E-09
         0.91576E-09
         0.50848E-09
         0.61058E-09
         0.10148E-08
         0.73903E-09
         0.29900E-09
         0.56882E-09
         0.62645E-09
         0.50408E-09
         0.64757E-09
         0.12072E-08
         0.94467E-09
         0.12014E-08
         0.70330E-09
         0.80401E-09
         0.75818E-09
         0.84059E-09
         0.64459E-09
         0.40031E-09
         0.75864E-09
         0.63277E-09
         0.65294E-09
         0.67143E-09
         0.58607E-09
         0.71527E-09
         0.91057E-09
         0.64200E-09
         0.10221E-08
         0.89164E-09
         0.40072E-09
         0.61719E-09
         0.70087E-09
         0.74103E-09
         0.71603E-09
         0.56262E-09
         0.35352E-09
         0.58348E-09
         0.77305E-09
         0.62354E-09
         0.54788E-09
         0.35889E-09
         0.61298E-09
         0.83282E-09
         0.87463E-09
         0.70626E-09
         0.43380E-09
         0.74897E-09
         0.27550E-09
         0.35137E-09
         0.32713E-09
         0.38782E-09
         0.37911E-09
         0.36810E-09
         0.39334E-09
         0.41655E-09
         0.39176E-09
         0.30491E-09
         0.24822E-09
         0.32010E-09
         0.42682E-09
         0.46942E-09
         0.45001E-09
         0.40534E-09
         0.36796E-09
         0.29881E-09
         0.25128E-09
         0.32857E-09
         0.43518E-09
         0.44963E-09
         0.36288E-09
         0.29459E-09
         0.36184E-09
         0.42757E-09
         0.91214E-09
         0.72204E-09
         0.77666E-09
         0.13405E-08
         0.71698E-09
         0.91604E-09
         0.50822E-09
         0.61022E-09
         0.10151E-08
         0.73855E-09
         0.29871E-09
         0.56872E-09
         0.62641E-09
         0.50337E-09
         0.64743E-09
         0.12075E-08
         0.94510E-09
         0.12020E-08
         0.70333E-09
         0.80411E-09
         0.75815E-09
         0.84063E-09
         0.64453E-09
         0.40027E-09
         0.75831E-09
         0.63272E-09
         0.65196E-09
         0.67077E-09
         0.58582E-09
         0.71511E-09
         0.91066E-09
         0.64192E-09
         0.10227E-08
         0.89245E-09
         0.40072E-09
         0.61707E-09
         0.70078E-09
         0.74098E-09
         0.71608E-09
         0.56265E-09
         0.35352E-09
         0.58340E-09
         0.77301E-09
         0.62345E-09
         0.54775E-09
         0.35880E-09
         0.61293E-09
         0.83283E-09
         0.87476E-09
         0.70641E-09
         0.43382E-09
         0.74935E-09
         0.27541E-09
         0.35136E-09
         0.32697E-09
         0.38784E-09
         0.37920E-09
         0.36818E-09
         0.39352E-09
         0.41685E-09
         0.39199E-09
         0.30498E-09
         0.24824E-09
         0.32011E-09
         0.42688E-09
         0.46953E-09
         0.45007E-09
         0.40533E-09
         0.36793E-09
         0.29878E-09
         0.25124E-09
         0.32855E-09
         0.43517E-09
         0.44963E-09
         0.36281E-09
         0.29452E-09
         0.36188E-09
         0.42756E-09
         0.91219E-09
         0.72188E-09
         0.77672E-09
         0.13412E-08
         0.71709E-09
         0.91632E-09
         0.50795E-09
         0.60986E-09
         0.10155E-08
         0.73806E-09
         0.29842E-09
         0.56862E-09
         0.62636E-09
         0.50266E-09
         0.64730E-09
         0.12079E-08
         0.94552E-09
         0.12026E-08
         0.70335E-09
         0.80421E-09
         0.75811E-09
         0.84066E-09
         0.64446E-09
         0.40023E-09
         0.75798E-09
         0.63267E-09
         0.65096E-09
         0.67010E-09
         0.58557E-09
         0.71494E-09
         0.91074E-09
         0.64184E-09
         0.10232E-08
         0.89325E-09
         0.40072E-09
         0.61695E-09
         0.70069E-09
         0.74092E-09
         0.71612E-09
         0.56268E-09
         0.35352E-09
         0.58332E-09
         0.77297E-09
         0.62336E-09
         0.54762E-09
         0.35871E-09
         0.61287E-09
         0.83284E-09
         0.87489E-09
         0.70655E-09
         0.43383E-09
         0.74972E-09
         0.27533E-09
         0.35136E-09
         0.32681E-09
         0.38785E-09
         0.37929E-09
         0.36825E-09
         0.39369E-09
         0.41715E-09
         0.39222E-09
         0.30505E-09
         0.24826E-09
         0.32011E-09
         0.42694E-09
         0.46963E-09
         0.45011E-09
         0.40532E-09
         0.36791E-09
         0.29876E-09
         0.25120E-09
         0.32853E-09
         0.43516E-09
         0.44962E-09
         0.36274E-09
         0.29445E-09
         0.36192E-09
         0.42755E-09
         0.91224E-09
         0.72173E-09
         0.77679E-09
         0.13418E-08
         0.71720E-09
         0.91660E-09
         0.50768E-09
         0.60949E-09
         0.10158E-08
         0.73758E-09
         0.29814E-09
         0.56852E-09
         0.62632E-09
         0.50195E-09
         0.64716E-09
         0.12082E-08
         0.94595E-09
         0.12032E-08
         0.70337E-09
         0.80431E-09
         0.75808E-09
         0.84069E-09
         0.64440E-09
         0.40018E-09
         0.75766E-09
         0.63262E-09
         0.64998E-09
         0.66943E-09
         0.58532E-09
         0.71478E-09
         0.91083E-09
         0.64176E-09
         0.10238E-08
         0.89406E-09
         0.40071E-09
         0.61683E-09
         0.70059E-09
         0.74087E-09
         0.71617E-09
         0.56270E-09
         0.35352E-09
         0.58324E-09
         0.77294E-09
         0.62327E-09
         0.54749E-09
         0.35861E-09
         0.61282E-09
         0.83284E-09
         0.87503E-09
         0.70669E-09
         0.43384E-09
         0.75009E-09
         0.27524E-09
         0.35135E-09
         0.32665E-09
         0.38786E-09
         0.37937E-09
         0.36833E-09
         0.39386E-09
         0.41745E-09
         0.39245E-09
         0.30512E-09
         0.24828E-09
         0.32012E-09
         0.42699E-09
         0.46974E-09
         0.45017E-09
         0.40531E-09
         0.36788E-09
         0.29873E-09
         0.25117E-09
         0.32850E-09
         0.43515E-09
         0.44962E-09
         0.36266E-09
         0.29439E-09
         0.36197E-09
         0.42754E-09
         0.91230E-09
         0.72159E-09
         0.77686E-09
         0.13425E-08
         0.71732E-09
         0.91688E-09
         0.50742E-09
         0.60913E-09
         0.10162E-08
         0.73710E-09
         0.29785E-09
         0.56842E-09
         0.62628E-09
         0.50125E-09
         0.64703E-09
         0.12086E-08
         0.94638E-09
         0.12038E-08
         0.70340E-09
         0.80441E-09
         0.75805E-09
         0.84073E-09
         0.64433E-09
         0.40014E-09
         0.75733E-09
         0.63257E-09
         0.64899E-09
         0.66877E-09
         0.58508E-09
         0.71462E-09
         0.91093E-09
         0.64169E-09
         0.10243E-08
         0.89487E-09
         0.40071E-09
         0.61671E-09
         0.70051E-09
         0.74082E-09
         0.71622E-09
         0.56273E-09
         0.35352E-09
         0.58316E-09
         0.77290E-09
         0.62318E-09
         0.54737E-09
         0.35852E-09
         0.61277E-09
         0.83286E-09
         0.87517E-09
         0.70684E-09
         0.43385E-09
         0.75047E-09
         0.27516E-09
         0.35135E-09
         0.32649E-09
         0.38788E-09
         0.37946E-09
         0.36841E-09
         0.39403E-09
         0.41775E-09
         0.39268E-09
         0.30519E-09
         0.24830E-09
         0.32013E-09
         0.42705E-09
         0.46985E-09
         0.45022E-09
         0.40530E-09
         0.36786E-09
         0.29871E-09
         0.25113E-09
         0.32848E-09
         0.43515E-09
         0.44962E-09
         0.36259E-09
         0.29433E-09
         0.36201E-09
         0.42753E-09
         0.91235E-09
         0.72143E-09
         0.77692E-09
         0.13431E-08
         0.71743E-09
         0.91716E-09
         0.50715E-09
         0.60877E-09
         0.10165E-08
         0.73661E-09
         0.29757E-09
         0.56832E-09
         0.62624E-09
         0.50054E-09
         0.64689E-09
         0.12089E-08
         0.94680E-09
         0.12044E-08
         0.70342E-09
         0.80450E-09
         0.75802E-09
         0.84076E-09
         0.64427E-09
         0.40010E-09
         0.75700E-09
         0.63251E-09
         0.64800E-09
         0.66810E-09
         0.58482E-09
         0.71445E-09
         0.91101E-09
         0.64161E-09
         0.10248E-08
         0.89567E-09
         0.40071E-09
         0.61659E-09
         0.70041E-09
         0.74077E-09
         0.71627E-09
         0.56276E-09
         0.35352E-09
         0.58308E-09
         0.77286E-09
         0.62309E-09
         0.54723E-09
         0.35843E-09
         0.61272E-09
         0.83287E-09
         0.87530E-09
         0.70698E-09
         0.43386E-09
         0.75084E-09
         0.27507E-09
         0.35134E-09
         0.32633E-09
         0.38789E-09
         0.37955E-09
         0.36849E-09
         0.39420E-09
         0.41804E-09
         0.39291E-09
         0.30525E-09
         0.24832E-09
         0.32014E-09
         0.42711E-09
         0.46995E-09
         0.45027E-09
         0.40528E-09
         0.36784E-09
         0.29869E-09
         0.25109E-09
         0.32845E-09
         0.43514E-09
         0.44962E-09
         0.36252E-09
         0.29426E-09
         0.36206E-09
         0.42751E-09
         0.91240E-09
         0.72128E-09
         0.77698E-09
         0.13437E-08
         0.71755E-09
         0.91744E-09
         0.50688E-09
         0.60841E-09
         0.10169E-08
         0.73612E-09
         0.29728E-09
         0.56822E-09
         0.62619E-09
         0.49984E-09
         0.64676E-09
         0.12093E-08
         0.94723E-09
         0.12050E-08
         0.70345E-09
         0.80460E-09
         0.75798E-09
         0.84080E-09
         0.64420E-09
         0.40006E-09
         0.75667E-09
         0.63246E-09
         0.64701E-09
         0.66744E-09
         0.58457E-09
         0.71429E-09
         0.91110E-09
         0.64153E-09
         0.10254E-08
         0.89648E-09
         0.40070E-09
         0.61647E-09
         0.70032E-09
         0.74071E-09
         0.71632E-09
         0.56279E-09
         0.35353E-09
         0.58300E-09
         0.77282E-09
         0.62300E-09
         0.54710E-09
         0.35834E-09
         0.61266E-09
         0.83288E-09
         0.87543E-09
         0.70713E-09
         0.43387E-09
         0.75122E-09
         0.27499E-09
         0.35133E-09
         0.32617E-09
         0.38790E-09
         0.37964E-09
         0.36857E-09
         0.39437E-09
         0.41834E-09
         0.39314E-09
         0.30532E-09
         0.24834E-09
         0.32014E-09
         0.42716E-09
         0.47005E-09
         0.45032E-09
         0.40527E-09
         0.36781E-09
         0.29866E-09
         0.25105E-09
         0.32843E-09
         0.43513E-09
         0.44962E-09
         0.36244E-09
         0.29419E-09
         0.36210E-09
         0.42750E-09
         0.91246E-09
         0.72114E-09
         0.77705E-09
         0.13444E-08
         0.71767E-09
         0.91773E-09
         0.50662E-09
         0.60805E-09
         0.10173E-08
         0.73564E-09
         0.29700E-09
         0.56812E-09
         0.62616E-09
         0.49914E-09
         0.64663E-09
         0.12097E-08
         0.94766E-09
         0.12056E-08
         0.70348E-09
         0.80471E-09
         0.75796E-09
         0.84084E-09
         0.64414E-09
         0.40002E-09
         0.75635E-09
         0.63241E-09
         0.64603E-09
         0.66678E-09
         0.58433E-09
         0.71413E-09
         0.91120E-09
         0.64146E-09
         0.10259E-08
         0.89729E-09
         0.40070E-09
         0.61636E-09
         0.70023E-09
         0.74067E-09
         0.71637E-09
         0.56282E-09
         0.35353E-09
         0.58293E-09
         0.77279E-09
         0.62291E-09
         0.54698E-09
         0.35825E-09
         0.61261E-09
         0.83289E-09
         0.87557E-09
         0.70728E-09
         0.43389E-09
         0.75160E-09
         0.27491E-09
         0.35133E-09
         0.32601E-09
         0.38792E-09
         0.37972E-09
         0.36865E-09
         0.39454E-09
         0.41864E-09
         0.39337E-09
         0.30539E-09
         0.24836E-09
         0.32015E-09
         0.42722E-09
         0.47016E-09
         0.45038E-09
         0.40526E-09
         0.36779E-09
         0.29864E-09
         0.25101E-09
         0.32841E-09
         0.43512E-09
         0.44962E-09
         0.36237E-09
         0.29413E-09
         0.36215E-09
         0.42750E-09
         0.91249E-09
         0.72097E-09
         0.77710E-09
         0.13450E-08
         0.71777E-09
         0.91799E-09
         0.50634E-09
         0.60767E-09
         0.10176E-08
         0.73514E-09
         0.29670E-09
         0.56801E-09
         0.62610E-09
         0.49842E-09
         0.64648E-09
         0.12100E-08
         0.94806E-09
         0.12062E-08
         0.70349E-09
         0.80479E-09
         0.75791E-09
         0.84086E-09
         0.64406E-09
         0.39997E-09
         0.75600E-09
         0.63234E-09
         0.64503E-09
         0.66610E-09
         0.58407E-09
         0.71395E-09
         0.91127E-09
         0.64136E-09
         0.10264E-08
         0.89808E-09
         0.40069E-09
         0.61622E-09
         0.70012E-09
         0.74060E-09
         0.71641E-09
         0.56283E-09
         0.35352E-09
         0.58283E-09
         0.77273E-09
         0.62281E-09
         0.54684E-09
         0.35815E-09
         0.61255E-09
         0.83288E-09
         0.87569E-09
         0.70741E-09
         0.43389E-09
         0.75195E-09
         0.27482E-09
         0.35132E-09
         0.32584E-09
         0.38793E-09
         0.37980E-09
         0.36872E-09
         0.39470E-09
         0.41893E-09
         0.39360E-09
         0.30545E-09
         0.24837E-09
         0.32016E-09
         0.42727E-09
         0.47026E-09
         0.45042E-09
         0.40524E-09
         0.36776E-09
         0.29861E-09
         0.25097E-09
         0.32838E-09
         0.43510E-09
         0.44961E-09
         0.36229E-09
         0.29406E-09
         0.36218E-09
         0.42748E-09
         0.91256E-09
         0.72083E-09
         0.77718E-09
         0.13457E-08
         0.71789E-09
         0.91829E-09
         0.50608E-09
         0.60732E-09
         0.10180E-08
         0.73467E-09
         0.29642E-09
         0.56792E-09
         0.62607E-09
         0.49772E-09
         0.64636E-09
         0.12103E-08
         0.94850E-09
         0.12068E-08
         0.70352E-09
         0.80490E-09
         0.75789E-09
         0.84091E-09
         0.64401E-09
         0.39993E-09
         0.75569E-09
         0.63230E-09
         0.64405E-09
         0.66544E-09
         0.58382E-09
         0.71379E-09
         0.91137E-09
         0.64129E-09
         0.10270E-08
         0.89890E-09
         0.40069E-09
         0.61611E-09
         0.70004E-09
         0.74056E-09
         0.71646E-09
         0.56287E-09
         0.35353E-09
         0.58276E-09
         0.77271E-09
         0.62273E-09
         0.54672E-09
         0.35806E-09
         0.61251E-09
         0.83291E-09
         0.87583E-09
         0.70756E-09
         0.43391E-09
         0.75234E-09
         0.27474E-09
         0.35132E-09
         0.32569E-09
         0.38794E-09
         0.37990E-09
         0.36881E-09
         0.39488E-09
         0.41923E-09
         0.39383E-09
         0.30553E-09
         0.24840E-09
         0.32017E-09
         0.42734E-09
         0.47037E-09
         0.45048E-09
         0.40524E-09
         0.36774E-09
         0.29859E-09
         0.25093E-09
         0.32836E-09
         0.43510E-09
         0.44962E-09
         0.36222E-09
         0.29400E-09
         0.36223E-09
         0.42747E-09
         0.45631E-09
         0.36039E-09
         0.38862E-09
         0.67302E-09
         0.35899E-09
         0.45923E-09
         0.25298E-09
         0.30358E-09
         0.50909E-09
         0.36723E-09
         0.14815E-09
         0.28394E-09
         0.31303E-09
         0.24869E-09
         0.32316E-09
         0.60528E-09
         0.47437E-09
         0.60357E-09
         0.35178E-09
         0.40249E-09
         0.37895E-09
         0.42048E-09
         0.32200E-09
         0.19996E-09
         0.37777E-09
         0.31615E-09
         0.32179E-09
         0.33257E-09
         0.29186E-09
         0.35687E-09
         0.45572E-09
         0.32064E-09
         0.51365E-09
         0.44967E-09
         0.20035E-09
         0.30804E-09
         0.35001E-09
         0.37028E-09
         0.35826E-09
         0.28145E-09
         0.17677E-09
         0.29137E-09
         0.38636E-09
         0.31135E-09
         0.27333E-09
         0.17901E-09
         0.30625E-09
         0.41647E-09
         0.43797E-09
         0.35383E-09
         0.21697E-09
         0.37628E-09
         0.13735E-09
         0.17566E-09
         0.16281E-09
         0.19398E-09
         0.18998E-09
         0.18443E-09
         0.19749E-09
         0.20970E-09
         0.19698E-09
         0.15279E-09
         0.12421E-09
         0.16009E-09
         0.21369E-09
         0.23522E-09
         0.22526E-09
         0.20262E-09
         0.18387E-09
         0.14930E-09
         0.12546E-09
         0.16418E-09
         0.21756E-09
         0.22482E-09
         0.18110E-09
         0.14699E-09
         0.18113E-09
         0.21374E-09
  
SCALARS               pre_disp_force_x  double 1
LOOKUP_TABLE default
         0.00000E+00
         0.00000E+00
         0.00000E+00
         0.00000E+00
         0.00000E+00
         0.00000E+00
         0.00000E+00
         0.00000E+00
         0.00000E+00
         0.00000E+00
         0.00000E+00
         0.00000E+00
         0.00000E+00
         0.00000E+00
         0.00000E+00
         0.00000E+00
         0.00000E+00
         0.00000E+00
         0.00000E+00
         0.00000E+00
         0.00000E+00
         0.00000E+00
         0.00000E+00
         0.00000E+00
         0.00000E+00
         0.00000E+00
         0.00000E+00
         0.00000E+00
         0.00000E+00
         0.00000E+00
         0.00000E+00
         0.00000E+00
         0.00000E+00
         0.00000E+00
         0.00000E+00
         0.00000E+00
         0.00000E+00
         0.00000E+00
         0.00000E+00
         0.00000E+00
         0.00000E+00
         0.00000E+00
         0.00000E+00
         0.00000E+00
         0.00000E+00
         0.00000E+00
         0.00000E+00
         0.00000E+00
         0.00000E+00
         0.00000E+00
         0.00000E+00
         0.00000E+00
         0.00000E+00
         0.00000E+00
         0.00000E+00
         0.00000E+00
         0.00000E+00
         0.00000E+00
         0.00000E+00
         0.00000E+00
         0.00000E+00
         0.00000E+00
         0.00000E+00
         0.00000E+00
         0.00000E+00
         0.00000E+00
         0.00000E+00
         0.00000E+00
         0.00000E+00
         0.00000E+00
         0.00000E+00
         0.00000E+00
         0.00000E+00
         0.00000E+00
         0.00000E+00
         0.00000E+00
         0.00000E+00
         0.00000E+00
         0.00000E+00
         0.00000E+00
         0.00000E+00
         0.00000E+00
         0.00000E+00
         0.00000E+00
         0.00000E+00
         0.00000E+00
         0.00000E+00
         0.00000E+00
         0.00000E+00
         0.00000E+00
         0.00000E+00
         0.00000E+00
         0.00000E+00
         0.00000E+00
         0.00000E+00
         0.00000E+00
         0.00000E+00
         0.00000E+00
         0.00000E+00
         0.00000E+00
         0.00000E+00
         0.00000E+00
         0.00000E+00
         0.00000E+00
         0.00000E+00
         0.00000E+00
         0.00000E+00
         0.00000E+00
         0.00000E+00
         0.00000E+00
         0.00000E+00
         0.00000E+00
         0.00000E+00
         0.00000E+00
         0.00000E+00
         0.00000E+00
         0.00000E+00
         0.00000E+00
         0.00000E+00
         0.00000E+00
         0.00000E+00
         0.00000E+00
         0.00000E+00
         0.00000E+00
         0.00000E+00
         0.00000E+00
         0.00000E+00
         0.00000E+00
         0.00000E+00
         0.00000E+00
         0.00000E+00
         0.00000E+00
         0.00000E+00
         0.00000E+00
         0.00000E+00
         0.00000E+00
         0.00000E+00
         0.00000E+00
         0.00000E+00
         0.00000E+00
         0.00000E+00
         0.00000E+00
         0.00000E+00
         0.00000E+00
         0.00000E+00
         0.00000E+00
         0.00000E+00
         0.00000E+00
         0.00000E+00
         0.00000E+00
         0.00000E+00
         0.00000E+00
         0.00000E+00
         0.00000E+00
         0.00000E+00
         0.00000E+00
         0.00000E+00
         0.00000E+00
         0.00000E+00
         0.00000E+00
         0.00000E+00
         0.00000E+00
         0.00000E+00
         0.00000E+00
         0.00000E+00
         0.00000E+00
         0.00000E+00
         0.00000E+00
         0.00000E+00
         0.00000E+00
         0.00000E+00
         0.00000E+00
         0.00000E+00
         0.00000E+00
         0.00000E+00
         0.00000E+00
         0.00000E+00
         0.00000E+00
         0.00000E+00
         0.00000E+00
         0.00000E+00
         0.00000E+00
         0.00000E+00
         0.00000E+00
         0.00000E+00
         0.00000E+00
         0.00000E+00
         0.00000E+00
         0.00000E+00
         0.00000E+00
         0.00000E+00
         0.00000E+00
         0.00000E+00
         0.00000E+00
         0.00000E+00
         0.00000E+00
         0.00000E+00
         0.00000E+00
         0.00000E+00
         0.00000E+00
         0.00000E+00
         0.00000E+00
         0.00000E+00
         0.00000E+00
         0.00000E+00
         0.00000E+00
         0.00000E+00
         0.00000E+00
         0.00000E+00
         0.00000E+00
         0.00000E+00
         0.00000E+00
         0.00000E+00
         0.00000E+00
         0.00000E+00
         0.00000E+00
         0.00000E+00
         0.00000E+00
         0.00000E+00
         0.00000E+00
         0.00000E+00
         0.00000E+00
         0.00000E+00
         0.00000E+00
         0.00000E+00
         0.00000E+00
         0.00000E+00
         0.00000E+00
         0.00000E+00
         0.00000E+00
         0.00000E+00
         0.00000E+00
         0.00000E+00
         0.00000E+00
         0.00000E+00
         0.00000E+00
         0.00000E+00
         0.00000E+00
         0.00000E+00
         0.00000E+00
         0.00000E+00
         0.00000E+00
         0.00000E+00
         0.00000E+00
         0.00000E+00
         0.00000E+00
         0.00000E+00
         0.00000E+00
         0.00000E+00
         0.00000E+00
         0.00000E+00
         0.00000E+00
         0.00000E+00
         0.00000E+00
         0.00000E+00
         0.00000E+00
         0.00000E+00
         0.00000E+00
         0.00000E+00
         0.00000E+00
         0.00000E+00
         0.00000E+00
         0.00000E+00
         0.00000E+00
         0.00000E+00
         0.00000E+00
         0.00000E+00
         0.00000E+00
         0.00000E+00
         0.00000E+00
         0.00000E+00
         0.00000E+00
         0.00000E+00
         0.00000E+00
         0.00000E+00
         0.00000E+00
         0.00000E+00
         0.00000E+00
         0.00000E+00
         0.00000E+00
         0.00000E+00
         0.00000E+00
         0.00000E+00
         0.00000E+00
         0.00000E+00
         0.00000E+00
         0.00000E+00
         0.00000E+00
         0.00000E+00
         0.00000E+00
         0.00000E+00
         0.00000E+00
         0.00000E+00
         0.00000E+00
         0.00000E+00
         0.00000E+00
         0.00000E+00
         0.00000E+00
         0.00000E+00
         0.00000E+00
         0.00000E+00
         0.00000E+00
         0.00000E+00
         0.00000E+00
         0.00000E+00
         0.00000E+00
         0.00000E+00
         0.00000E+00
         0.00000E+00
         0.00000E+00
         0.00000E+00
         0.00000E+00
         0.00000E+00
         0.00000E+00
         0.00000E+00
         0.00000E+00
         0.00000E+00
         0.00000E+00
         0.00000E+00
         0.00000E+00
         0.00000E+00
         0.00000E+00
         0.00000E+00
         0.00000E+00
         0.00000E+00
         0.00000E+00
         0.00000E+00
         0.00000E+00
         0.00000E+00
         0.00000E+00
         0.00000E+00
         0.00000E+00
         0.00000E+00
         0.00000E+00
         0.00000E+00
         0.00000E+00
         0.00000E+00
         0.00000E+00
         0.00000E+00
         0.00000E+00
         0.00000E+00
         0.00000E+00
         0.00000E+00
         0.00000E+00
         0.00000E+00
         0.00000E+00
         0.00000E+00
         0.00000E+00
         0.00000E+00
         0.00000E+00
         0.00000E+00
         0.00000E+00
         0.00000E+00
         0.00000E+00
         0.00000E+00
         0.00000E+00
         0.00000E+00
         0.00000E+00
         0.00000E+00
         0.00000E+00
         0.00000E+00
         0.00000E+00
         0.00000E+00
         0.00000E+00
         0.00000E+00
         0.00000E+00
         0.00000E+00
         0.00000E+00
         0.00000E+00
         0.00000E+00
         0.00000E+00
         0.00000E+00
         0.00000E+00
         0.00000E+00
         0.00000E+00
         0.00000E+00
         0.00000E+00
         0.00000E+00
         0.00000E+00
         0.00000E+00
         0.00000E+00
         0.00000E+00
         0.00000E+00
         0.00000E+00
         0.00000E+00
         0.00000E+00
         0.00000E+00
         0.00000E+00
         0.00000E+00
         0.00000E+00
         0.00000E+00
         0.00000E+00
         0.00000E+00
         0.00000E+00
         0.00000E+00
         0.00000E+00
         0.00000E+00
         0.00000E+00
         0.00000E+00
         0.00000E+00
         0.00000E+00
         0.00000E+00
         0.00000E+00
         0.00000E+00
         0.00000E+00
         0.00000E+00
         0.00000E+00
         0.00000E+00
         0.00000E+00
         0.00000E+00
         0.00000E+00
         0.00000E+00
         0.00000E+00
         0.00000E+00
         0.00000E+00
         0.00000E+00
         0.00000E+00
         0.00000E+00
         0.00000E+00
         0.00000E+00
         0.00000E+00
         0.00000E+00
         0.00000E+00
         0.00000E+00
         0.00000E+00
         0.00000E+00
         0.00000E+00
         0.00000E+00
         0.00000E+00
         0.00000E+00
         0.00000E+00
         0.00000E+00
         0.00000E+00
         0.00000E+00
         0.00000E+00
         0.00000E+00
         0.00000E+00
         0.00000E+00
         0.00000E+00
         0.00000E+00
         0.00000E+00
         0.00000E+00
         0.00000E+00
         0.00000E+00
         0.00000E+00
         0.00000E+00
         0.00000E+00
         0.00000E+00
         0.00000E+00
         0.00000E+00
         0.00000E+00
         0.00000E+00
         0.00000E+00
         0.00000E+00
         0.00000E+00
         0.00000E+00
         0.00000E+00
         0.00000E+00
         0.00000E+00
         0.00000E+00
         0.00000E+00
         0.00000E+00
         0.00000E+00
         0.00000E+00
         0.00000E+00
         0.00000E+00
         0.00000E+00
         0.00000E+00
         0.00000E+00
         0.00000E+00
         0.00000E+00
         0.00000E+00
         0.00000E+00
         0.00000E+00
         0.00000E+00
         0.00000E+00
         0.00000E+00
         0.00000E+00
         0.00000E+00
         0.00000E+00
         0.00000E+00
         0.00000E+00
         0.00000E+00
         0.00000E+00
         0.00000E+00
         0.00000E+00
         0.00000E+00
         0.00000E+00
         0.00000E+00
         0.00000E+00
         0.00000E+00
         0.00000E+00
         0.00000E+00
         0.00000E+00
         0.00000E+00
         0.00000E+00
         0.00000E+00
         0.00000E+00
         0.00000E+00
         0.00000E+00
         0.00000E+00
         0.00000E+00
         0.00000E+00
         0.00000E+00
         0.00000E+00
         0.00000E+00
         0.00000E+00
         0.00000E+00
         0.00000E+00
         0.00000E+00
         0.00000E+00
         0.00000E+00
         0.00000E+00
         0.00000E+00
         0.00000E+00
         0.00000E+00
         0.00000E+00
         0.00000E+00
         0.00000E+00
         0.00000E+00
         0.00000E+00
         0.00000E+00
         0.00000E+00
         0.00000E+00
         0.00000E+00
         0.00000E+00
         0.00000E+00
         0.00000E+00
         0.00000E+00
         0.00000E+00
         0.00000E+00
         0.00000E+00
         0.00000E+00
         0.00000E+00
         0.00000E+00
         0.00000E+00
         0.00000E+00
         0.00000E+00
         0.00000E+00
         0.00000E+00
         0.00000E+00
         0.00000E+00
         0.00000E+00
         0.00000E+00
         0.00000E+00
         0.00000E+00
         0.00000E+00
         0.00000E+00
         0.00000E+00
         0.00000E+00
         0.00000E+00
         0.00000E+00
         0.00000E+00
         0.00000E+00
         0.00000E+00
         0.00000E+00
         0.00000E+00
         0.00000E+00
         0.00000E+00
         0.00000E+00
         0.00000E+00
         0.00000E+00
         0.00000E+00
         0.00000E+00
         0.00000E+00
         0.00000E+00
         0.00000E+00
         0.00000E+00
         0.00000E+00
         0.00000E+00
         0.00000E+00
         0.00000E+00
         0.00000E+00
         0.00000E+00
         0.00000E+00
         0.00000E+00
         0.00000E+00
         0.00000E+00
         0.00000E+00
         0.00000E+00
         0.00000E+00
         0.00000E+00
         0.00000E+00
         0.00000E+00
         0.00000E+00
         0.00000E+00
         0.00000E+00
         0.00000E+00
         0.00000E+00
         0.00000E+00
         0.00000E+00
         0.00000E+00
         0.00000E+00
         0.00000E+00
         0.00000E+00
         0.00000E+00
         0.00000E+00
         0.00000E+00
         0.00000E+00
         0.00000E+00
         0.00000E+00
         0.00000E+00
         0.00000E+00
         0.00000E+00
         0.00000E+00
         0.00000E+00
         0.00000E+00
         0.00000E+00
         0.00000E+00
         0.00000E+00
         0.00000E+00
         0.00000E+00
         0.00000E+00
         0.00000E+00
         0.00000E+00
         0.00000E+00
         0.00000E+00
         0.00000E+00
         0.00000E+00
         0.00000E+00
         0.00000E+00
         0.00000E+00
         0.00000E+00
         0.00000E+00
         0.00000E+00
         0.00000E+00
         0.00000E+00
         0.00000E+00
         0.00000E+00
         0.00000E+00
         0.00000E+00
         0.00000E+00
         0.00000E+00
         0.00000E+00
         0.00000E+00
         0.00000E+00
         0.00000E+00
         0.00000E+00
         0.00000E+00
         0.00000E+00
         0.00000E+00
         0.00000E+00
         0.00000E+00
         0.00000E+00
         0.00000E+00
         0.00000E+00
         0.00000E+00
         0.00000E+00
         0.00000E+00
         0.00000E+00
         0.00000E+00
         0.00000E+00
         0.00000E+00
         0.00000E+00
         0.00000E+00
         0.00000E+00
         0.00000E+00
         0.00000E+00
         0.00000E+00
         0.00000E+00
         0.00000E+00
         0.00000E+00
         0.00000E+00
         0.00000E+00
         0.00000E+00
         0.00000E+00
         0.00000E+00
         0.00000E+00
         0.00000E+00
         0.00000E+00
         0.00000E+00
         0.00000E+00
         0.00000E+00
         0.00000E+00
         0.00000E+00
         0.00000E+00
         0.00000E+00
         0.00000E+00
         0.00000E+00
         0.00000E+00
         0.00000E+00
         0.00000E+00
         0.00000E+00
         0.00000E+00
         0.00000E+00
         0.00000E+00
         0.00000E+00
         0.00000E+00
         0.00000E+00
         0.00000E+00
         0.00000E+00
         0.00000E+00
         0.00000E+00
         0.00000E+00
         0.00000E+00
         0.00000E+00
         0.00000E+00
         0.00000E+00
         0.00000E+00
         0.00000E+00
         0.00000E+00
         0.00000E+00
         0.00000E+00
         0.00000E+00
         0.00000E+00
         0.00000E+00
         0.00000E+00
         0.00000E+00
         0.00000E+00
         0.00000E+00
         0.00000E+00
         0.00000E+00
         0.00000E+00
         0.00000E+00
         0.00000E+00
         0.00000E+00
         0.00000E+00
         0.00000E+00
         0.00000E+00
         0.00000E+00
         0.00000E+00
         0.00000E+00
         0.00000E+00
         0.00000E+00
         0.00000E+00
         0.00000E+00
         0.00000E+00
         0.00000E+00
         0.00000E+00
         0.00000E+00
         0.00000E+00
         0.00000E+00
         0.00000E+00
         0.00000E+00
         0.00000E+00
         0.00000E+00
         0.00000E+00
         0.00000E+00
         0.00000E+00
         0.00000E+00
         0.00000E+00
         0.00000E+00
         0.00000E+00
         0.00000E+00
         0.00000E+00
         0.00000E+00
         0.00000E+00
         0.00000E+00
         0.00000E+00
         0.00000E+00
         0.00000E+00
         0.00000E+00
         0.00000E+00
         0.00000E+00
         0.00000E+00
         0.00000E+00
         0.00000E+00
         0.00000E+00
         0.00000E+00
         0.00000E+00
         0.00000E+00
         0.00000E+00
         0.00000E+00
         0.00000E+00
         0.00000E+00
         0.00000E+00
         0.00000E+00
         0.00000E+00
         0.00000E+00
         0.00000E+00
         0.00000E+00
         0.00000E+00
         0.00000E+00
         0.00000E+00
         0.00000E+00
         0.00000E+00
         0.00000E+00
         0.00000E+00
         0.00000E+00
         0.00000E+00
         0.00000E+00
         0.00000E+00
         0.00000E+00
         0.00000E+00
         0.00000E+00
         0.00000E+00
         0.00000E+00
         0.00000E+00
         0.00000E+00
         0.00000E+00
         0.00000E+00
         0.00000E+00
         0.00000E+00
         0.00000E+00
         0.00000E+00
         0.00000E+00
         0.00000E+00
         0.00000E+00
         0.00000E+00
         0.00000E+00
         0.00000E+00
         0.00000E+00
         0.00000E+00
         0.00000E+00
         0.00000E+00
         0.00000E+00
         0.00000E+00
         0.00000E+00
         0.00000E+00
         0.00000E+00
         0.00000E+00
         0.00000E+00
         0.00000E+00
         0.00000E+00
         0.00000E+00
         0.00000E+00
         0.00000E+00
         0.00000E+00
         0.00000E+00
         0.00000E+00
         0.00000E+00
         0.00000E+00
         0.00000E+00
         0.00000E+00
         0.00000E+00
         0.00000E+00
         0.00000E+00
         0.00000E+00
         0.00000E+00
         0.00000E+00
         0.00000E+00
         0.00000E+00
         0.00000E+00
         0.00000E+00
         0.00000E+00
         0.00000E+00
         0.00000E+00
         0.00000E+00
         0.00000E+00
         0.00000E+00
         0.00000E+00
         0.00000E+00
         0.00000E+00
         0.00000E+00
         0.00000E+00
         0.00000E+00
         0.00000E+00
         0.00000E+00
         0.00000E+00
         0.00000E+00
         0.00000E+00
         0.00000E+00
         0.00000E+00
         0.00000E+00
         0.00000E+00
         0.00000E+00
         0.00000E+00
         0.00000E+00
         0.00000E+00
         0.00000E+00
         0.00000E+00
         0.00000E+00
         0.00000E+00
         0.00000E+00
         0.00000E+00
         0.00000E+00
         0.00000E+00
         0.00000E+00
         0.00000E+00
         0.00000E+00
         0.00000E+00
         0.00000E+00
         0.00000E+00
         0.00000E+00
         0.00000E+00
         0.00000E+00
         0.00000E+00
         0.00000E+00
         0.00000E+00
         0.00000E+00
         0.00000E+00
         0.00000E+00
         0.00000E+00
         0.00000E+00
         0.00000E+00
         0.00000E+00
         0.00000E+00
         0.00000E+00
         0.00000E+00
         0.00000E+00
         0.00000E+00
         0.00000E+00
         0.00000E+00
         0.00000E+00
         0.00000E+00
         0.00000E+00
         0.00000E+00
         0.00000E+00
         0.00000E+00
         0.00000E+00
         0.00000E+00
         0.00000E+00
         0.00000E+00
         0.00000E+00
         0.00000E+00
         0.00000E+00
         0.00000E+00
         0.00000E+00
         0.00000E+00
         0.00000E+00
         0.00000E+00
         0.00000E+00
         0.00000E+00
         0.00000E+00
         0.00000E+00
         0.00000E+00
         0.00000E+00
         0.00000E+00
         0.00000E+00
         0.00000E+00
         0.00000E+00
         0.00000E+00
         0.00000E+00
         0.00000E+00
         0.00000E+00
         0.00000E+00
         0.00000E+00
         0.00000E+00
         0.00000E+00
         0.00000E+00
         0.00000E+00
         0.00000E+00
         0.00000E+00
         0.00000E+00
         0.00000E+00
         0.00000E+00
         0.00000E+00
         0.00000E+00
         0.00000E+00
         0.00000E+00
         0.00000E+00
         0.00000E+00
         0.00000E+00
         0.00000E+00
         0.00000E+00
         0.00000E+00
         0.00000E+00
         0.00000E+00
         0.00000E+00
         0.00000E+00
         0.00000E+00
         0.00000E+00
         0.00000E+00
         0.00000E+00
         0.00000E+00
         0.00000E+00
         0.00000E+00
         0.00000E+00
         0.00000E+00
         0.00000E+00
         0.00000E+00
         0.00000E+00
         0.00000E+00
         0.00000E+00
         0.00000E+00
         0.00000E+00
         0.00000E+00
         0.00000E+00
         0.00000E+00
         0.00000E+00
         0.00000E+00
         0.00000E+00
         0.00000E+00
         0.00000E+00
         0.00000E+00
         0.00000E+00
         0.00000E+00
         0.00000E+00
         0.00000E+00
         0.00000E+00
         0.00000E+00
         0.00000E+00
         0.00000E+00
         0.00000E+00
         0.00000E+00
         0.00000E+00
         0.00000E+00
         0.00000E+00
         0.00000E+00
         0.00000E+00
         0.00000E+00
         0.00000E+00
         0.00000E+00
         0.00000E+00
         0.00000E+00
         0.00000E+00
         0.00000E+00
         0.00000E+00
         0.00000E+00
         0.00000E+00
         0.00000E+00
         0.00000E+00
         0.00000E+00
         0.00000E+00
         0.00000E+00
         0.00000E+00
         0.00000E+00
         0.00000E+00
         0.00000E+00
         0.00000E+00
         0.00000E+00
         0.00000E+00
         0.00000E+00
         0.00000E+00
         0.00000E+00
         0.00000E+00
         0.00000E+00
         0.00000E+00
         0.00000E+00
         0.00000E+00
         0.00000E+00
         0.00000E+00
         0.00000E+00
         0.00000E+00
         0.00000E+00
         0.00000E+00
         0.00000E+00
         0.00000E+00
         0.00000E+00
         0.00000E+00
         0.00000E+00
         0.00000E+00
         0.00000E+00
         0.00000E+00
         0.00000E+00
         0.00000E+00
         0.00000E+00
         0.00000E+00
         0.00000E+00
         0.00000E+00
         0.00000E+00
         0.00000E+00
         0.00000E+00
         0.00000E+00
         0.00000E+00
         0.00000E+00
         0.00000E+00
         0.00000E+00
         0.00000E+00
         0.00000E+00
         0.00000E+00
         0.00000E+00
         0.00000E+00
         0.00000E+00
         0.00000E+00
         0.00000E+00
         0.00000E+00
         0.00000E+00
         0.00000E+00
         0.00000E+00
         0.00000E+00
         0.00000E+00
         0.00000E+00
         0.00000E+00
         0.00000E+00
         0.00000E+00
         0.00000E+00
         0.00000E+00
         0.00000E+00
         0.00000E+00
         0.00000E+00
         0.00000E+00
         0.00000E+00
         0.00000E+00
         0.00000E+00
         0.00000E+00
         0.00000E+00
         0.00000E+00
         0.00000E+00
         0.00000E+00
         0.00000E+00
         0.00000E+00
         0.00000E+00
         0.00000E+00
         0.00000E+00
         0.00000E+00
         0.00000E+00
         0.00000E+00
         0.00000E+00
         0.00000E+00
         0.00000E+00
         0.00000E+00
         0.00000E+00
         0.00000E+00
         0.00000E+00
         0.00000E+00
         0.00000E+00
         0.00000E+00
         0.00000E+00
         0.00000E+00
         0.00000E+00
         0.00000E+00
         0.00000E+00
         0.00000E+00
         0.00000E+00
         0.00000E+00
         0.00000E+00
         0.00000E+00
         0.00000E+00
         0.00000E+00
         0.00000E+00
         0.00000E+00
         0.00000E+00
         0.00000E+00
         0.00000E+00
         0.00000E+00
         0.00000E+00
         0.00000E+00
         0.00000E+00
         0.00000E+00
         0.00000E+00
         0.00000E+00
         0.00000E+00
         0.00000E+00
         0.00000E+00
         0.00000E+00
         0.00000E+00
         0.00000E+00
         0.00000E+00
         0.00000E+00
         0.00000E+00
         0.00000E+00
         0.00000E+00
         0.00000E+00
         0.00000E+00
         0.00000E+00
         0.00000E+00
         0.00000E+00
         0.00000E+00
         0.00000E+00
         0.00000E+00
         0.00000E+00
         0.00000E+00
         0.00000E+00
         0.00000E+00
         0.00000E+00
         0.00000E+00
         0.00000E+00
         0.00000E+00
         0.00000E+00
         0.00000E+00
         0.00000E+00
         0.00000E+00
         0.00000E+00
         0.00000E+00
         0.00000E+00
         0.00000E+00
         0.00000E+00
         0.00000E+00
         0.00000E+00
         0.00000E+00
         0.00000E+00
         0.00000E+00
         0.00000E+00
         0.00000E+00
         0.00000E+00
         0.00000E+00
         0.00000E+00
         0.00000E+00
         0.00000E+00
         0.00000E+00
         0.00000E+00
         0.00000E+00
         0.00000E+00
         0.00000E+00
         0.00000E+00
         0.00000E+00
         0.00000E+00
         0.00000E+00
         0.00000E+00
         0.00000E+00
         0.00000E+00
         0.00000E+00
         0.00000E+00
         0.00000E+00
         0.00000E+00
         0.00000E+00
         0.00000E+00
         0.00000E+00
         0.00000E+00
         0.00000E+00
         0.00000E+00
         0.00000E+00
         0.00000E+00
         0.00000E+00
         0.00000E+00
         0.00000E+00
         0.00000E+00
         0.00000E+00
         0.00000E+00
         0.00000E+00
         0.00000E+00
         0.00000E+00
         0.00000E+00
         0.00000E+00
         0.00000E+00
         0.00000E+00
         0.00000E+00
         0.00000E+00
         0.00000E+00
         0.00000E+00
         0.00000E+00
         0.00000E+00
         0.00000E+00
         0.00000E+00
         0.00000E+00
         0.00000E+00
         0.00000E+00
         0.00000E+00
         0.00000E+00
         0.00000E+00
         0.00000E+00
         0.00000E+00
         0.00000E+00
         0.00000E+00
         0.00000E+00
         0.00000E+00
         0.00000E+00
         0.00000E+00
         0.00000E+00
         0.00000E+00
         0.00000E+00
         0.00000E+00
         0.00000E+00
         0.00000E+00
         0.00000E+00
         0.00000E+00
         0.00000E+00
         0.00000E+00
         0.00000E+00
         0.00000E+00
         0.00000E+00
         0.00000E+00
         0.00000E+00
         0.00000E+00
         0.00000E+00
         0.00000E+00
         0.00000E+00
         0.00000E+00
         0.00000E+00
         0.00000E+00
         0.00000E+00
         0.00000E+00
         0.00000E+00
         0.00000E+00
         0.00000E+00
         0.00000E+00
         0.00000E+00
         0.00000E+00
         0.00000E+00
         0.00000E+00
         0.00000E+00
         0.00000E+00
         0.00000E+00
         0.00000E+00
         0.00000E+00
         0.00000E+00
         0.00000E+00
         0.00000E+00
         0.00000E+00
         0.00000E+00
         0.00000E+00
         0.00000E+00
         0.00000E+00
         0.00000E+00
         0.00000E+00
         0.00000E+00
         0.00000E+00
         0.00000E+00
         0.00000E+00
         0.00000E+00
         0.00000E+00
         0.00000E+00
         0.00000E+00
         0.00000E+00
         0.00000E+00
         0.00000E+00
         0.00000E+00
         0.00000E+00
         0.00000E+00
         0.00000E+00
         0.00000E+00
         0.00000E+00
         0.00000E+00
         0.00000E+00
         0.00000E+00
         0.00000E+00
         0.00000E+00
         0.00000E+00
         0.00000E+00
         0.00000E+00
         0.00000E+00
         0.00000E+00
         0.00000E+00
         0.00000E+00
         0.00000E+00
         0.00000E+00
         0.00000E+00
         0.00000E+00
         0.00000E+00
         0.00000E+00
         0.00000E+00
         0.00000E+00
         0.00000E+00
         0.00000E+00
         0.00000E+00
         0.00000E+00
         0.00000E+00
         0.00000E+00
         0.00000E+00
         0.00000E+00
         0.00000E+00
         0.00000E+00
         0.00000E+00
         0.00000E+00
         0.00000E+00
         0.00000E+00
         0.00000E+00
         0.00000E+00
         0.00000E+00
         0.00000E+00
         0.00000E+00
         0.00000E+00
         0.00000E+00
         0.00000E+00
         0.00000E+00
         0.00000E+00
         0.00000E+00
         0.00000E+00
         0.00000E+00
         0.00000E+00
         0.00000E+00
         0.00000E+00
         0.00000E+00
         0.00000E+00
         0.00000E+00
         0.00000E+00
         0.00000E+00
         0.00000E+00
         0.00000E+00
         0.00000E+00
         0.00000E+00
         0.00000E+00
         0.00000E+00
         0.00000E+00
         0.00000E+00
         0.00000E+00
         0.00000E+00
         0.00000E+00
         0.00000E+00
         0.00000E+00
         0.00000E+00
         0.00000E+00
         0.00000E+00
         0.00000E+00
         0.00000E+00
         0.00000E+00
         0.00000E+00
         0.00000E+00
         0.00000E+00
         0.00000E+00
         0.00000E+00
         0.00000E+00
         0.00000E+00
         0.00000E+00
         0.00000E+00
         0.00000E+00
         0.00000E+00
         0.00000E+00
         0.00000E+00
         0.00000E+00
         0.00000E+00
         0.00000E+00
         0.00000E+00
         0.00000E+00
         0.00000E+00
         0.00000E+00
         0.00000E+00
         0.00000E+00
         0.00000E+00
         0.00000E+00
         0.00000E+00
         0.00000E+00
         0.00000E+00
         0.00000E+00
         0.00000E+00
         0.00000E+00
         0.00000E+00
         0.00000E+00
         0.00000E+00
         0.00000E+00
         0.00000E+00
         0.00000E+00
         0.00000E+00
         0.00000E+00
         0.00000E+00
         0.00000E+00
         0.00000E+00
         0.00000E+00
         0.00000E+00
         0.00000E+00
         0.00000E+00
         0.00000E+00
         0.00000E+00
         0.00000E+00
         0.00000E+00
         0.00000E+00
         0.00000E+00
         0.00000E+00
         0.00000E+00
         0.00000E+00
         0.00000E+00
         0.00000E+00
         0.00000E+00
         0.00000E+00
         0.00000E+00
         0.00000E+00
         0.00000E+00
         0.00000E+00
         0.00000E+00
         0.00000E+00
         0.00000E+00
         0.00000E+00
         0.00000E+00
         0.00000E+00
         0.00000E+00
         0.00000E+00
         0.00000E+00
         0.00000E+00
         0.00000E+00
         0.00000E+00
         0.00000E+00
         0.00000E+00
         0.00000E+00
         0.00000E+00
         0.00000E+00
         0.00000E+00
         0.00000E+00
         0.00000E+00
         0.00000E+00
         0.00000E+00
         0.00000E+00
         0.00000E+00
         0.00000E+00
         0.00000E+00
         0.00000E+00
         0.00000E+00
         0.00000E+00
         0.00000E+00
         0.00000E+00
         0.00000E+00
         0.00000E+00
         0.00000E+00
         0.00000E+00
         0.00000E+00
         0.00000E+00
         0.00000E+00
         0.00000E+00
         0.00000E+00
         0.00000E+00
         0.00000E+00
         0.00000E+00
         0.00000E+00
         0.00000E+00
         0.00000E+00
         0.00000E+00
         0.00000E+00
         0.00000E+00
         0.00000E+00
         0.00000E+00
         0.00000E+00
         0.00000E+00
         0.00000E+00
         0.00000E+00
         0.00000E+00
         0.00000E+00
         0.00000E+00
         0.00000E+00
         0.00000E+00
         0.00000E+00
         0.00000E+00
         0.00000E+00
         0.00000E+00
         0.00000E+00
         0.00000E+00
         0.00000E+00
         0.00000E+00
         0.00000E+00
         0.00000E+00
         0.00000E+00
         0.00000E+00
         0.00000E+00
         0.00000E+00
         0.00000E+00
         0.00000E+00
         0.00000E+00
         0.00000E+00
         0.00000E+00
         0.00000E+00
         0.00000E+00
         0.00000E+00
         0.00000E+00
         0.00000E+00
         0.00000E+00
         0.00000E+00
         0.00000E+00
         0.00000E+00
         0.00000E+00
         0.00000E+00
         0.00000E+00
         0.00000E+00
         0.00000E+00
         0.00000E+00
         0.00000E+00
         0.00000E+00
         0.00000E+00
         0.00000E+00
         0.00000E+00
         0.00000E+00
         0.00000E+00
         0.00000E+00
         0.00000E+00
         0.00000E+00
         0.00000E+00
         0.00000E+00
         0.00000E+00
         0.00000E+00
         0.00000E+00
         0.00000E+00
         0.00000E+00
         0.00000E+00
         0.00000E+00
         0.00000E+00
         0.00000E+00
         0.00000E+00
         0.00000E+00
         0.00000E+00
         0.00000E+00
         0.00000E+00
         0.00000E+00
         0.00000E+00
         0.00000E+00
         0.00000E+00
         0.00000E+00
         0.00000E+00
         0.00000E+00
         0.00000E+00
         0.00000E+00
         0.00000E+00
         0.00000E+00
         0.00000E+00
         0.00000E+00
         0.00000E+00
         0.00000E+00
         0.00000E+00
         0.00000E+00
         0.00000E+00
         0.00000E+00
         0.00000E+00
         0.00000E+00
         0.00000E+00
         0.00000E+00
         0.00000E+00
         0.00000E+00
         0.00000E+00
         0.00000E+00
         0.00000E+00
         0.00000E+00
         0.00000E+00
         0.00000E+00
         0.00000E+00
         0.00000E+00
         0.00000E+00
         0.00000E+00
         0.00000E+00
         0.00000E+00
         0.00000E+00
         0.00000E+00
         0.00000E+00
         0.00000E+00
         0.00000E+00
         0.00000E+00
         0.00000E+00
         0.00000E+00
         0.00000E+00
         0.00000E+00
         0.00000E+00
         0.00000E+00
         0.00000E+00
         0.00000E+00
         0.00000E+00
         0.00000E+00
         0.00000E+00
         0.00000E+00
         0.00000E+00
         0.00000E+00
         0.00000E+00
         0.00000E+00
         0.00000E+00
         0.00000E+00
         0.00000E+00
         0.00000E+00
         0.00000E+00
         0.00000E+00
         0.00000E+00
         0.00000E+00
         0.00000E+00
         0.00000E+00
         0.00000E+00
         0.00000E+00
         0.00000E+00
         0.00000E+00
         0.00000E+00
         0.00000E+00
         0.00000E+00
         0.00000E+00
         0.00000E+00
         0.00000E+00
         0.00000E+00
         0.00000E+00
         0.00000E+00
         0.00000E+00
         0.00000E+00
         0.00000E+00
         0.00000E+00
         0.00000E+00
         0.00000E+00
         0.00000E+00
         0.00000E+00
         0.00000E+00
         0.00000E+00
         0.00000E+00
         0.00000E+00
         0.00000E+00
         0.00000E+00
         0.00000E+00
         0.00000E+00
         0.00000E+00
         0.00000E+00
         0.00000E+00
         0.00000E+00
         0.00000E+00
         0.00000E+00
         0.00000E+00
         0.00000E+00
         0.00000E+00
         0.00000E+00
         0.00000E+00
         0.00000E+00
         0.00000E+00
         0.00000E+00
         0.00000E+00
         0.00000E+00
         0.00000E+00
         0.00000E+00
         0.00000E+00
         0.00000E+00
         0.00000E+00
         0.00000E+00
         0.00000E+00
         0.00000E+00
         0.00000E+00
         0.00000E+00
         0.00000E+00
         0.00000E+00
         0.00000E+00
         0.00000E+00
         0.00000E+00
         0.00000E+00
         0.00000E+00
         0.00000E+00
         0.00000E+00
         0.00000E+00
         0.00000E+00
         0.00000E+00
         0.00000E+00
         0.00000E+00
         0.00000E+00
         0.00000E+00
         0.00000E+00
         0.00000E+00
         0.00000E+00
         0.00000E+00
         0.00000E+00
         0.00000E+00
         0.00000E+00
         0.00000E+00
         0.00000E+00
         0.00000E+00
         0.00000E+00
         0.00000E+00
         0.00000E+00
         0.00000E+00
         0.00000E+00
         0.00000E+00
         0.00000E+00
         0.00000E+00
         0.00000E+00
         0.00000E+00
         0.00000E+00
         0.00000E+00
         0.00000E+00
         0.00000E+00
         0.00000E+00
         0.00000E+00
         0.00000E+00
         0.00000E+00
         0.00000E+00
         0.00000E+00
         0.00000E+00
         0.00000E+00
         0.00000E+00
         0.00000E+00
         0.00000E+00
         0.00000E+00
         0.00000E+00
         0.00000E+00
         0.00000E+00
         0.00000E+00
         0.00000E+00
         0.00000E+00
         0.00000E+00
         0.00000E+00
         0.00000E+00
         0.00000E+00
         0.00000E+00
         0.00000E+00
         0.00000E+00
         0.00000E+00
         0.00000E+00
         0.00000E+00
         0.00000E+00
         0.00000E+00
         0.00000E+00
         0.00000E+00
         0.00000E+00
         0.00000E+00
         0.00000E+00
         0.00000E+00
         0.00000E+00
         0.00000E+00
         0.00000E+00
         0.00000E+00
         0.00000E+00
         0.00000E+00
         0.00000E+00
         0.00000E+00
         0.00000E+00
         0.00000E+00
         0.00000E+00
         0.00000E+00
         0.00000E+00
         0.00000E+00
         0.00000E+00
         0.00000E+00
         0.00000E+00
         0.00000E+00
         0.00000E+00
         0.00000E+00
         0.00000E+00
         0.00000E+00
         0.00000E+00
         0.00000E+00
         0.00000E+00
         0.00000E+00
         0.00000E+00
         0.00000E+00
         0.00000E+00
         0.00000E+00
         0.00000E+00
         0.00000E+00
         0.00000E+00
         0.00000E+00
         0.00000E+00
         0.00000E+00
         0.00000E+00
         0.00000E+00
         0.00000E+00
         0.00000E+00
         0.00000E+00
         0.00000E+00
         0.00000E+00
         0.00000E+00
         0.00000E+00
         0.00000E+00
         0.00000E+00
         0.00000E+00
         0.00000E+00
         0.00000E+00
         0.00000E+00
         0.00000E+00
         0.00000E+00
         0.00000E+00
         0.00000E+00
         0.00000E+00
         0.00000E+00
         0.00000E+00
         0.00000E+00
         0.00000E+00
         0.00000E+00
         0.00000E+00
         0.00000E+00
         0.00000E+00
         0.00000E+00
         0.00000E+00
         0.00000E+00
         0.00000E+00
         0.00000E+00
         0.00000E+00
         0.00000E+00
         0.00000E+00
         0.00000E+00
         0.00000E+00
         0.00000E+00
         0.00000E+00
         0.00000E+00
         0.00000E+00
         0.00000E+00
         0.00000E+00
         0.00000E+00
         0.00000E+00
         0.00000E+00
         0.00000E+00
         0.00000E+00
         0.00000E+00
         0.00000E+00
         0.00000E+00
         0.00000E+00
         0.00000E+00
         0.00000E+00
         0.00000E+00
         0.00000E+00
         0.00000E+00
         0.00000E+00
         0.00000E+00
         0.00000E+00
         0.00000E+00
         0.00000E+00
         0.00000E+00
         0.00000E+00
         0.00000E+00
         0.00000E+00
         0.00000E+00
         0.00000E+00
         0.00000E+00
         0.00000E+00
         0.00000E+00
         0.00000E+00
         0.00000E+00
         0.00000E+00
         0.00000E+00
         0.00000E+00
         0.00000E+00
         0.00000E+00
         0.00000E+00
         0.00000E+00
         0.00000E+00
         0.00000E+00
         0.00000E+00
         0.00000E+00
         0.00000E+00
         0.00000E+00
         0.00000E+00
         0.00000E+00
         0.00000E+00
         0.00000E+00
         0.00000E+00
         0.00000E+00
         0.00000E+00
         0.00000E+00
         0.00000E+00
         0.00000E+00
         0.00000E+00
         0.00000E+00
         0.00000E+00
         0.00000E+00
         0.00000E+00
         0.00000E+00
         0.00000E+00
         0.00000E+00
         0.00000E+00
         0.00000E+00
         0.00000E+00
         0.00000E+00
         0.00000E+00
         0.00000E+00
         0.00000E+00
         0.00000E+00
         0.00000E+00
         0.00000E+00
         0.00000E+00
         0.00000E+00
         0.00000E+00
         0.00000E+00
         0.00000E+00
         0.00000E+00
         0.00000E+00
         0.00000E+00
         0.00000E+00
         0.00000E+00
         0.00000E+00
         0.00000E+00
         0.00000E+00
         0.00000E+00
         0.00000E+00
         0.00000E+00
         0.00000E+00
         0.00000E+00
         0.00000E+00
         0.00000E+00
         0.00000E+00
         0.00000E+00
         0.00000E+00
         0.00000E+00
         0.00000E+00
         0.00000E+00
         0.00000E+00
         0.00000E+00
         0.00000E+00
         0.00000E+00
         0.00000E+00
         0.00000E+00
         0.00000E+00
         0.00000E+00
         0.00000E+00
         0.00000E+00
         0.00000E+00
         0.00000E+00
         0.00000E+00
         0.00000E+00
         0.00000E+00
         0.00000E+00
         0.00000E+00
         0.00000E+00
         0.00000E+00
         0.00000E+00
         0.00000E+00
         0.00000E+00
         0.00000E+00
         0.00000E+00
  
SCALARS               pre_disp_force_y  double 1
LOOKUP_TABLE default
         0.00000E+00
         0.00000E+00
         0.00000E+00
         0.00000E+00
         0.00000E+00
         0.00000E+00
         0.00000E+00
         0.00000E+00
         0.00000E+00
         0.00000E+00
         0.00000E+00
         0.00000E+00
         0.00000E+00
         0.00000E+00
         0.00000E+00
         0.00000E+00
         0.00000E+00
         0.00000E+00
         0.00000E+00
         0.00000E+00
         0.00000E+00
         0.00000E+00
         0.00000E+00
         0.00000E+00
         0.00000E+00
         0.00000E+00
         0.00000E+00
         0.00000E+00
         0.00000E+00
         0.00000E+00
         0.00000E+00
         0.00000E+00
         0.00000E+00
         0.00000E+00
         0.00000E+00
         0.00000E+00
         0.00000E+00
         0.00000E+00
         0.00000E+00
         0.00000E+00
         0.00000E+00
         0.00000E+00
         0.00000E+00
         0.00000E+00
         0.00000E+00
         0.00000E+00
         0.00000E+00
         0.00000E+00
         0.00000E+00
         0.00000E+00
         0.00000E+00
         0.00000E+00
         0.00000E+00
         0.00000E+00
         0.00000E+00
         0.00000E+00
         0.00000E+00
         0.00000E+00
         0.00000E+00
         0.00000E+00
         0.00000E+00
         0.00000E+00
         0.00000E+00
         0.00000E+00
         0.00000E+00
         0.00000E+00
         0.00000E+00
         0.00000E+00
         0.00000E+00
         0.00000E+00
         0.00000E+00
         0.00000E+00
         0.00000E+00
         0.00000E+00
         0.00000E+00
         0.00000E+00
         0.00000E+00
         0.00000E+00
         0.00000E+00
         0.00000E+00
         0.00000E+00
         0.00000E+00
         0.00000E+00
         0.00000E+00
         0.00000E+00
         0.00000E+00
         0.00000E+00
         0.00000E+00
         0.00000E+00
         0.00000E+00
         0.00000E+00
         0.00000E+00
         0.00000E+00
         0.00000E+00
         0.00000E+00
         0.00000E+00
         0.00000E+00
         0.00000E+00
         0.00000E+00
         0.00000E+00
         0.00000E+00
         0.00000E+00
         0.00000E+00
         0.00000E+00
         0.00000E+00
         0.00000E+00
         0.00000E+00
         0.00000E+00
         0.00000E+00
         0.00000E+00
         0.00000E+00
         0.00000E+00
         0.00000E+00
         0.00000E+00
         0.00000E+00
         0.00000E+00
         0.00000E+00
         0.00000E+00
         0.00000E+00
         0.00000E+00
         0.00000E+00
         0.00000E+00
         0.00000E+00
         0.00000E+00
         0.00000E+00
         0.00000E+00
         0.00000E+00
         0.00000E+00
         0.00000E+00
         0.00000E+00
         0.00000E+00
         0.00000E+00
         0.00000E+00
         0.00000E+00
         0.00000E+00
         0.00000E+00
         0.00000E+00
         0.00000E+00
         0.00000E+00
         0.00000E+00
         0.00000E+00
         0.00000E+00
         0.00000E+00
         0.00000E+00
         0.00000E+00
         0.00000E+00
         0.00000E+00
         0.00000E+00
         0.00000E+00
         0.00000E+00
         0.00000E+00
         0.00000E+00
         0.00000E+00
         0.00000E+00
         0.00000E+00
         0.00000E+00
         0.00000E+00
         0.00000E+00
         0.00000E+00
         0.00000E+00
         0.00000E+00
         0.00000E+00
         0.00000E+00
         0.00000E+00
         0.00000E+00
         0.00000E+00
         0.00000E+00
         0.00000E+00
         0.00000E+00
         0.00000E+00
         0.00000E+00
         0.00000E+00
         0.00000E+00
         0.00000E+00
         0.00000E+00
         0.00000E+00
         0.00000E+00
         0.00000E+00
         0.00000E+00
         0.00000E+00
         0.00000E+00
         0.00000E+00
         0.00000E+00
         0.00000E+00
         0.00000E+00
         0.00000E+00
         0.00000E+00
         0.00000E+00
         0.00000E+00
         0.00000E+00
         0.00000E+00
         0.00000E+00
         0.00000E+00
         0.00000E+00
         0.00000E+00
         0.00000E+00
         0.00000E+00
         0.00000E+00
         0.00000E+00
         0.00000E+00
         0.00000E+00
         0.00000E+00
         0.00000E+00
         0.00000E+00
         0.00000E+00
         0.00000E+00
         0.00000E+00
         0.00000E+00
         0.00000E+00
         0.00000E+00
         0.00000E+00
         0.00000E+00
         0.00000E+00
         0.00000E+00
         0.00000E+00
         0.00000E+00
         0.00000E+00
         0.00000E+00
         0.00000E+00
         0.00000E+00
         0.00000E+00
         0.00000E+00
         0.00000E+00
         0.00000E+00
         0.00000E+00
         0.00000E+00
         0.00000E+00
         0.00000E+00
         0.00000E+00
         0.00000E+00
         0.00000E+00
         0.00000E+00
         0.00000E+00
         0.00000E+00
         0.00000E+00
         0.00000E+00
         0.00000E+00
         0.00000E+00
         0.00000E+00
         0.00000E+00
         0.00000E+00
         0.00000E+00
         0.00000E+00
         0.00000E+00
         0.00000E+00
         0.00000E+00
         0.00000E+00
         0.00000E+00
         0.00000E+00
         0.00000E+00
         0.00000E+00
         0.00000E+00
         0.00000E+00
         0.00000E+00
         0.00000E+00
         0.00000E+00
         0.00000E+00
         0.00000E+00
         0.00000E+00
         0.00000E+00
         0.00000E+00
         0.00000E+00
         0.00000E+00
         0.00000E+00
         0.00000E+00
         0.00000E+00
         0.00000E+00
         0.00000E+00
         0.00000E+00
         0.00000E+00
         0.00000E+00
         0.00000E+00
         0.00000E+00
         0.00000E+00
         0.00000E+00
         0.00000E+00
         0.00000E+00
         0.00000E+00
         0.00000E+00
         0.00000E+00
         0.00000E+00
         0.00000E+00
         0.00000E+00
         0.00000E+00
         0.00000E+00
         0.00000E+00
         0.00000E+00
         0.00000E+00
         0.00000E+00
         0.00000E+00
         0.00000E+00
         0.00000E+00
         0.00000E+00
         0.00000E+00
         0.00000E+00
         0.00000E+00
         0.00000E+00
         0.00000E+00
         0.00000E+00
         0.00000E+00
         0.00000E+00
         0.00000E+00
         0.00000E+00
         0.00000E+00
         0.00000E+00
         0.00000E+00
         0.00000E+00
         0.00000E+00
         0.00000E+00
         0.00000E+00
         0.00000E+00
         0.00000E+00
         0.00000E+00
         0.00000E+00
         0.00000E+00
         0.00000E+00
         0.00000E+00
         0.00000E+00
         0.00000E+00
         0.00000E+00
         0.00000E+00
         0.00000E+00
         0.00000E+00
         0.00000E+00
         0.00000E+00
         0.00000E+00
         0.00000E+00
         0.00000E+00
         0.00000E+00
         0.00000E+00
         0.00000E+00
         0.00000E+00
         0.00000E+00
         0.00000E+00
         0.00000E+00
         0.00000E+00
         0.00000E+00
         0.00000E+00
         0.00000E+00
         0.00000E+00
         0.00000E+00
         0.00000E+00
         0.00000E+00
         0.00000E+00
         0.00000E+00
         0.00000E+00
         0.00000E+00
         0.00000E+00
         0.00000E+00
         0.00000E+00
         0.00000E+00
         0.00000E+00
         0.00000E+00
         0.00000E+00
         0.00000E+00
         0.00000E+00
         0.00000E+00
         0.00000E+00
         0.00000E+00
         0.00000E+00
         0.00000E+00
         0.00000E+00
         0.00000E+00
         0.00000E+00
         0.00000E+00
         0.00000E+00
         0.00000E+00
         0.00000E+00
         0.00000E+00
         0.00000E+00
         0.00000E+00
         0.00000E+00
         0.00000E+00
         0.00000E+00
         0.00000E+00
         0.00000E+00
         0.00000E+00
         0.00000E+00
         0.00000E+00
         0.00000E+00
         0.00000E+00
         0.00000E+00
         0.00000E+00
         0.00000E+00
         0.00000E+00
         0.00000E+00
         0.00000E+00
         0.00000E+00
         0.00000E+00
         0.00000E+00
         0.00000E+00
         0.00000E+00
         0.00000E+00
         0.00000E+00
         0.00000E+00
         0.00000E+00
         0.00000E+00
         0.00000E+00
         0.00000E+00
         0.00000E+00
         0.00000E+00
         0.00000E+00
         0.00000E+00
         0.00000E+00
         0.00000E+00
         0.00000E+00
         0.00000E+00
         0.00000E+00
         0.00000E+00
         0.00000E+00
         0.00000E+00
         0.00000E+00
         0.00000E+00
         0.00000E+00
         0.00000E+00
         0.00000E+00
         0.00000E+00
         0.00000E+00
         0.00000E+00
         0.00000E+00
         0.00000E+00
         0.00000E+00
         0.00000E+00
         0.00000E+00
         0.00000E+00
         0.00000E+00
         0.00000E+00
         0.00000E+00
         0.00000E+00
         0.00000E+00
         0.00000E+00
         0.00000E+00
         0.00000E+00
         0.00000E+00
         0.00000E+00
         0.00000E+00
         0.00000E+00
         0.00000E+00
         0.00000E+00
         0.00000E+00
         0.00000E+00
         0.00000E+00
         0.00000E+00
         0.00000E+00
         0.00000E+00
         0.00000E+00
         0.00000E+00
         0.00000E+00
         0.00000E+00
         0.00000E+00
         0.00000E+00
         0.00000E+00
         0.00000E+00
         0.00000E+00
         0.00000E+00
         0.00000E+00
         0.00000E+00
         0.00000E+00
         0.00000E+00
         0.00000E+00
         0.00000E+00
         0.00000E+00
         0.00000E+00
         0.00000E+00
         0.00000E+00
         0.00000E+00
         0.00000E+00
         0.00000E+00
         0.00000E+00
         0.00000E+00
         0.00000E+00
         0.00000E+00
         0.00000E+00
         0.00000E+00
         0.00000E+00
         0.00000E+00
         0.00000E+00
         0.00000E+00
         0.00000E+00
         0.00000E+00
         0.00000E+00
         0.00000E+00
         0.00000E+00
         0.00000E+00
         0.00000E+00
         0.00000E+00
         0.00000E+00
         0.00000E+00
         0.00000E+00
         0.00000E+00
         0.00000E+00
         0.00000E+00
         0.00000E+00
         0.00000E+00
         0.00000E+00
         0.00000E+00
         0.00000E+00
         0.00000E+00
         0.00000E+00
         0.00000E+00
         0.00000E+00
         0.00000E+00
         0.00000E+00
         0.00000E+00
         0.00000E+00
         0.00000E+00
         0.00000E+00
         0.00000E+00
         0.00000E+00
         0.00000E+00
         0.00000E+00
         0.00000E+00
         0.00000E+00
         0.00000E+00
         0.00000E+00
         0.00000E+00
         0.00000E+00
         0.00000E+00
         0.00000E+00
         0.00000E+00
         0.00000E+00
         0.00000E+00
         0.00000E+00
         0.00000E+00
         0.00000E+00
         0.00000E+00
         0.00000E+00
         0.00000E+00
         0.00000E+00
         0.00000E+00
         0.00000E+00
         0.00000E+00
         0.00000E+00
         0.00000E+00
         0.00000E+00
         0.00000E+00
         0.00000E+00
         0.00000E+00
         0.00000E+00
         0.00000E+00
         0.00000E+00
         0.00000E+00
         0.00000E+00
         0.00000E+00
         0.00000E+00
         0.00000E+00
         0.00000E+00
         0.00000E+00
         0.00000E+00
         0.00000E+00
         0.00000E+00
         0.00000E+00
         0.00000E+00
         0.00000E+00
         0.00000E+00
         0.00000E+00
         0.00000E+00
         0.00000E+00
         0.00000E+00
         0.00000E+00
         0.00000E+00
         0.00000E+00
         0.00000E+00
         0.00000E+00
         0.00000E+00
         0.00000E+00
         0.00000E+00
         0.00000E+00
         0.00000E+00
         0.00000E+00
         0.00000E+00
         0.00000E+00
         0.00000E+00
         0.00000E+00
         0.00000E+00
         0.00000E+00
         0.00000E+00
         0.00000E+00
         0.00000E+00
         0.00000E+00
         0.00000E+00
         0.00000E+00
         0.00000E+00
         0.00000E+00
         0.00000E+00
         0.00000E+00
         0.00000E+00
         0.00000E+00
         0.00000E+00
         0.00000E+00
         0.00000E+00
         0.00000E+00
         0.00000E+00
         0.00000E+00
         0.00000E+00
         0.00000E+00
         0.00000E+00
         0.00000E+00
         0.00000E+00
         0.00000E+00
         0.00000E+00
         0.00000E+00
         0.00000E+00
         0.00000E+00
         0.00000E+00
         0.00000E+00
         0.00000E+00
         0.00000E+00
         0.00000E+00
         0.00000E+00
         0.00000E+00
         0.00000E+00
         0.00000E+00
         0.00000E+00
         0.00000E+00
         0.00000E+00
         0.00000E+00
         0.00000E+00
         0.00000E+00
         0.00000E+00
         0.00000E+00
         0.00000E+00
         0.00000E+00
         0.00000E+00
         0.00000E+00
         0.00000E+00
         0.00000E+00
         0.00000E+00
         0.00000E+00
         0.00000E+00
         0.00000E+00
         0.00000E+00
         0.00000E+00
         0.00000E+00
         0.00000E+00
         0.00000E+00
         0.00000E+00
         0.00000E+00
         0.00000E+00
         0.00000E+00
         0.00000E+00
         0.00000E+00
         0.00000E+00
         0.00000E+00
         0.00000E+00
         0.00000E+00
         0.00000E+00
         0.00000E+00
         0.00000E+00
         0.00000E+00
         0.00000E+00
         0.00000E+00
         0.00000E+00
         0.00000E+00
         0.00000E+00
         0.00000E+00
         0.00000E+00
         0.00000E+00
         0.00000E+00
         0.00000E+00
         0.00000E+00
         0.00000E+00
         0.00000E+00
         0.00000E+00
         0.00000E+00
         0.00000E+00
         0.00000E+00
         0.00000E+00
         0.00000E+00
         0.00000E+00
         0.00000E+00
         0.00000E+00
         0.00000E+00
         0.00000E+00
         0.00000E+00
         0.00000E+00
         0.00000E+00
         0.00000E+00
         0.00000E+00
         0.00000E+00
         0.00000E+00
         0.00000E+00
         0.00000E+00
         0.00000E+00
         0.00000E+00
         0.00000E+00
         0.00000E+00
         0.00000E+00
         0.00000E+00
         0.00000E+00
         0.00000E+00
         0.00000E+00
         0.00000E+00
         0.00000E+00
         0.00000E+00
         0.00000E+00
         0.00000E+00
         0.00000E+00
         0.00000E+00
         0.00000E+00
         0.00000E+00
         0.00000E+00
         0.00000E+00
         0.00000E+00
         0.00000E+00
         0.00000E+00
         0.00000E+00
         0.00000E+00
         0.00000E+00
         0.00000E+00
         0.00000E+00
         0.00000E+00
         0.00000E+00
         0.00000E+00
         0.00000E+00
         0.00000E+00
         0.00000E+00
         0.00000E+00
         0.00000E+00
         0.00000E+00
         0.00000E+00
         0.00000E+00
         0.00000E+00
         0.00000E+00
         0.00000E+00
         0.00000E+00
         0.00000E+00
         0.00000E+00
         0.00000E+00
         0.00000E+00
         0.00000E+00
         0.00000E+00
         0.00000E+00
         0.00000E+00
         0.00000E+00
         0.00000E+00
         0.00000E+00
         0.00000E+00
         0.00000E+00
         0.00000E+00
         0.00000E+00
         0.00000E+00
         0.00000E+00
         0.00000E+00
         0.00000E+00
         0.00000E+00
         0.00000E+00
         0.00000E+00
         0.00000E+00
         0.00000E+00
         0.00000E+00
         0.00000E+00
         0.00000E+00
         0.00000E+00
         0.00000E+00
         0.00000E+00
         0.00000E+00
         0.00000E+00
         0.00000E+00
         0.00000E+00
         0.00000E+00
         0.00000E+00
         0.00000E+00
         0.00000E+00
         0.00000E+00
         0.00000E+00
         0.00000E+00
         0.00000E+00
         0.00000E+00
         0.00000E+00
         0.00000E+00
         0.00000E+00
         0.00000E+00
         0.00000E+00
         0.00000E+00
         0.00000E+00
         0.00000E+00
         0.00000E+00
         0.00000E+00
         0.00000E+00
         0.00000E+00
         0.00000E+00
         0.00000E+00
         0.00000E+00
         0.00000E+00
         0.00000E+00
         0.00000E+00
         0.00000E+00
         0.00000E+00
         0.00000E+00
         0.00000E+00
         0.00000E+00
         0.00000E+00
         0.00000E+00
         0.00000E+00
         0.00000E+00
         0.00000E+00
         0.00000E+00
         0.00000E+00
         0.00000E+00
         0.00000E+00
         0.00000E+00
         0.00000E+00
         0.00000E+00
         0.00000E+00
         0.00000E+00
         0.00000E+00
         0.00000E+00
         0.00000E+00
         0.00000E+00
         0.00000E+00
         0.00000E+00
         0.00000E+00
         0.00000E+00
         0.00000E+00
         0.00000E+00
         0.00000E+00
         0.00000E+00
         0.00000E+00
         0.00000E+00
         0.00000E+00
         0.00000E+00
         0.00000E+00
         0.00000E+00
         0.00000E+00
         0.00000E+00
         0.00000E+00
         0.00000E+00
         0.00000E+00
         0.00000E+00
         0.00000E+00
         0.00000E+00
         0.00000E+00
         0.00000E+00
         0.00000E+00
         0.00000E+00
         0.00000E+00
         0.00000E+00
         0.00000E+00
         0.00000E+00
         0.00000E+00
         0.00000E+00
         0.00000E+00
         0.00000E+00
         0.00000E+00
         0.00000E+00
         0.00000E+00
         0.00000E+00
         0.00000E+00
         0.00000E+00
         0.00000E+00
         0.00000E+00
         0.00000E+00
         0.00000E+00
         0.00000E+00
         0.00000E+00
         0.00000E+00
         0.00000E+00
         0.00000E+00
         0.00000E+00
         0.00000E+00
         0.00000E+00
         0.00000E+00
         0.00000E+00
         0.00000E+00
         0.00000E+00
         0.00000E+00
         0.00000E+00
         0.00000E+00
         0.00000E+00
         0.00000E+00
         0.00000E+00
         0.00000E+00
         0.00000E+00
         0.00000E+00
         0.00000E+00
         0.00000E+00
         0.00000E+00
         0.00000E+00
         0.00000E+00
         0.00000E+00
         0.00000E+00
         0.00000E+00
         0.00000E+00
         0.00000E+00
         0.00000E+00
         0.00000E+00
         0.00000E+00
         0.00000E+00
         0.00000E+00
         0.00000E+00
         0.00000E+00
         0.00000E+00
         0.00000E+00
         0.00000E+00
         0.00000E+00
         0.00000E+00
         0.00000E+00
         0.00000E+00
         0.00000E+00
         0.00000E+00
         0.00000E+00
         0.00000E+00
         0.00000E+00
         0.00000E+00
         0.00000E+00
         0.00000E+00
         0.00000E+00
         0.00000E+00
         0.00000E+00
         0.00000E+00
         0.00000E+00
         0.00000E+00
         0.00000E+00
         0.00000E+00
         0.00000E+00
         0.00000E+00
         0.00000E+00
         0.00000E+00
         0.00000E+00
         0.00000E+00
         0.00000E+00
         0.00000E+00
         0.00000E+00
         0.00000E+00
         0.00000E+00
         0.00000E+00
         0.00000E+00
         0.00000E+00
         0.00000E+00
         0.00000E+00
         0.00000E+00
         0.00000E+00
         0.00000E+00
         0.00000E+00
         0.00000E+00
         0.00000E+00
         0.00000E+00
         0.00000E+00
         0.00000E+00
         0.00000E+00
         0.00000E+00
         0.00000E+00
         0.00000E+00
         0.00000E+00
         0.00000E+00
         0.00000E+00
         0.00000E+00
         0.00000E+00
         0.00000E+00
         0.00000E+00
         0.00000E+00
         0.00000E+00
         0.00000E+00
         0.00000E+00
         0.00000E+00
         0.00000E+00
         0.00000E+00
         0.00000E+00
         0.00000E+00
         0.00000E+00
         0.00000E+00
         0.00000E+00
         0.00000E+00
         0.00000E+00
         0.00000E+00
         0.00000E+00
         0.00000E+00
         0.00000E+00
         0.00000E+00
         0.00000E+00
         0.00000E+00
         0.00000E+00
         0.00000E+00
         0.00000E+00
         0.00000E+00
         0.00000E+00
         0.00000E+00
         0.00000E+00
         0.00000E+00
         0.00000E+00
         0.00000E+00
         0.00000E+00
         0.00000E+00
         0.00000E+00
         0.00000E+00
         0.00000E+00
         0.00000E+00
         0.00000E+00
         0.00000E+00
         0.00000E+00
         0.00000E+00
         0.00000E+00
         0.00000E+00
         0.00000E+00
         0.00000E+00
         0.00000E+00
         0.00000E+00
         0.00000E+00
         0.00000E+00
         0.00000E+00
         0.00000E+00
         0.00000E+00
         0.00000E+00
         0.00000E+00
         0.00000E+00
         0.00000E+00
         0.00000E+00
         0.00000E+00
         0.00000E+00
         0.00000E+00
         0.00000E+00
         0.00000E+00
         0.00000E+00
         0.00000E+00
         0.00000E+00
         0.00000E+00
         0.00000E+00
         0.00000E+00
         0.00000E+00
         0.00000E+00
         0.00000E+00
         0.00000E+00
         0.00000E+00
         0.00000E+00
         0.00000E+00
         0.00000E+00
         0.00000E+00
         0.00000E+00
         0.00000E+00
         0.00000E+00
         0.00000E+00
         0.00000E+00
         0.00000E+00
         0.00000E+00
         0.00000E+00
         0.00000E+00
         0.00000E+00
         0.00000E+00
         0.00000E+00
         0.00000E+00
         0.00000E+00
         0.00000E+00
         0.00000E+00
         0.00000E+00
         0.00000E+00
         0.00000E+00
         0.00000E+00
         0.00000E+00
         0.00000E+00
         0.00000E+00
         0.00000E+00
         0.00000E+00
         0.00000E+00
         0.00000E+00
         0.00000E+00
         0.00000E+00
         0.00000E+00
         0.00000E+00
         0.00000E+00
         0.00000E+00
         0.00000E+00
         0.00000E+00
         0.00000E+00
         0.00000E+00
         0.00000E+00
         0.00000E+00
         0.00000E+00
         0.00000E+00
         0.00000E+00
         0.00000E+00
         0.00000E+00
         0.00000E+00
         0.00000E+00
         0.00000E+00
         0.00000E+00
         0.00000E+00
         0.00000E+00
         0.00000E+00
         0.00000E+00
         0.00000E+00
         0.00000E+00
         0.00000E+00
         0.00000E+00
         0.00000E+00
         0.00000E+00
         0.00000E+00
         0.00000E+00
         0.00000E+00
         0.00000E+00
         0.00000E+00
         0.00000E+00
         0.00000E+00
         0.00000E+00
         0.00000E+00
         0.00000E+00
         0.00000E+00
         0.00000E+00
         0.00000E+00
         0.00000E+00
         0.00000E+00
         0.00000E+00
         0.00000E+00
         0.00000E+00
         0.00000E+00
         0.00000E+00
         0.00000E+00
         0.00000E+00
         0.00000E+00
         0.00000E+00
         0.00000E+00
         0.00000E+00
         0.00000E+00
         0.00000E+00
         0.00000E+00
         0.00000E+00
         0.00000E+00
         0.00000E+00
         0.00000E+00
         0.00000E+00
         0.00000E+00
         0.00000E+00
         0.00000E+00
         0.00000E+00
         0.00000E+00
         0.00000E+00
         0.00000E+00
         0.00000E+00
         0.00000E+00
         0.00000E+00
         0.00000E+00
         0.00000E+00
         0.00000E+00
         0.00000E+00
         0.00000E+00
         0.00000E+00
         0.00000E+00
         0.00000E+00
         0.00000E+00
         0.00000E+00
         0.00000E+00
         0.00000E+00
         0.00000E+00
         0.00000E+00
         0.00000E+00
         0.00000E+00
         0.00000E+00
         0.00000E+00
         0.00000E+00
         0.00000E+00
         0.00000E+00
         0.00000E+00
         0.00000E+00
         0.00000E+00
         0.00000E+00
         0.00000E+00
         0.00000E+00
         0.00000E+00
         0.00000E+00
         0.00000E+00
         0.00000E+00
         0.00000E+00
         0.00000E+00
         0.00000E+00
         0.00000E+00
         0.00000E+00
         0.00000E+00
         0.00000E+00
         0.00000E+00
         0.00000E+00
         0.00000E+00
         0.00000E+00
         0.00000E+00
         0.00000E+00
         0.00000E+00
         0.00000E+00
         0.00000E+00
         0.00000E+00
         0.00000E+00
         0.00000E+00
         0.00000E+00
         0.00000E+00
         0.00000E+00
         0.00000E+00
         0.00000E+00
         0.00000E+00
         0.00000E+00
         0.00000E+00
         0.00000E+00
         0.00000E+00
         0.00000E+00
         0.00000E+00
         0.00000E+00
         0.00000E+00
         0.00000E+00
         0.00000E+00
         0.00000E+00
         0.00000E+00
         0.00000E+00
         0.00000E+00
         0.00000E+00
         0.00000E+00
         0.00000E+00
         0.00000E+00
         0.00000E+00
         0.00000E+00
         0.00000E+00
         0.00000E+00
         0.00000E+00
         0.00000E+00
         0.00000E+00
         0.00000E+00
         0.00000E+00
         0.00000E+00
         0.00000E+00
         0.00000E+00
         0.00000E+00
         0.00000E+00
         0.00000E+00
         0.00000E+00
         0.00000E+00
         0.00000E+00
         0.00000E+00
         0.00000E+00
         0.00000E+00
         0.00000E+00
         0.00000E+00
         0.00000E+00
         0.00000E+00
         0.00000E+00
         0.00000E+00
         0.00000E+00
         0.00000E+00
         0.00000E+00
         0.00000E+00
         0.00000E+00
         0.00000E+00
         0.00000E+00
         0.00000E+00
         0.00000E+00
         0.00000E+00
         0.00000E+00
         0.00000E+00
         0.00000E+00
         0.00000E+00
         0.00000E+00
         0.00000E+00
         0.00000E+00
         0.00000E+00
         0.00000E+00
         0.00000E+00
         0.00000E+00
         0.00000E+00
         0.00000E+00
         0.00000E+00
         0.00000E+00
         0.00000E+00
         0.00000E+00
         0.00000E+00
         0.00000E+00
         0.00000E+00
         0.00000E+00
         0.00000E+00
         0.00000E+00
         0.00000E+00
         0.00000E+00
         0.00000E+00
         0.00000E+00
         0.00000E+00
         0.00000E+00
         0.00000E+00
         0.00000E+00
         0.00000E+00
         0.00000E+00
         0.00000E+00
         0.00000E+00
         0.00000E+00
         0.00000E+00
         0.00000E+00
         0.00000E+00
         0.00000E+00
         0.00000E+00
         0.00000E+00
         0.00000E+00
         0.00000E+00
         0.00000E+00
         0.00000E+00
         0.00000E+00
         0.00000E+00
         0.00000E+00
         0.00000E+00
         0.00000E+00
         0.00000E+00
         0.00000E+00
         0.00000E+00
         0.00000E+00
         0.00000E+00
         0.00000E+00
         0.00000E+00
         0.00000E+00
         0.00000E+00
         0.00000E+00
         0.00000E+00
         0.00000E+00
         0.00000E+00
         0.00000E+00
         0.00000E+00
         0.00000E+00
         0.00000E+00
         0.00000E+00
         0.00000E+00
         0.00000E+00
         0.00000E+00
         0.00000E+00
         0.00000E+00
         0.00000E+00
         0.00000E+00
         0.00000E+00
         0.00000E+00
         0.00000E+00
         0.00000E+00
         0.00000E+00
         0.00000E+00
         0.00000E+00
         0.00000E+00
         0.00000E+00
         0.00000E+00
         0.00000E+00
         0.00000E+00
         0.00000E+00
         0.00000E+00
         0.00000E+00
         0.00000E+00
         0.00000E+00
         0.00000E+00
         0.00000E+00
         0.00000E+00
         0.00000E+00
         0.00000E+00
         0.00000E+00
         0.00000E+00
         0.00000E+00
         0.00000E+00
         0.00000E+00
         0.00000E+00
         0.00000E+00
         0.00000E+00
         0.00000E+00
         0.00000E+00
         0.00000E+00
         0.00000E+00
         0.00000E+00
         0.00000E+00
         0.00000E+00
         0.00000E+00
         0.00000E+00
         0.00000E+00
         0.00000E+00
         0.00000E+00
         0.00000E+00
         0.00000E+00
         0.00000E+00
         0.00000E+00
         0.00000E+00
         0.00000E+00
         0.00000E+00
         0.00000E+00
         0.00000E+00
         0.00000E+00
         0.00000E+00
         0.00000E+00
         0.00000E+00
         0.00000E+00
         0.00000E+00
         0.00000E+00
         0.00000E+00
         0.00000E+00
         0.00000E+00
         0.00000E+00
         0.00000E+00
         0.00000E+00
         0.00000E+00
         0.00000E+00
         0.00000E+00
         0.00000E+00
         0.00000E+00
         0.00000E+00
         0.00000E+00
         0.00000E+00
         0.00000E+00
         0.00000E+00
         0.00000E+00
         0.00000E+00
         0.00000E+00
         0.00000E+00
         0.00000E+00
         0.00000E+00
         0.00000E+00
         0.00000E+00
         0.00000E+00
         0.00000E+00
         0.00000E+00
         0.00000E+00
         0.00000E+00
         0.00000E+00
         0.00000E+00
         0.00000E+00
         0.00000E+00
         0.00000E+00
         0.00000E+00
         0.00000E+00
         0.00000E+00
         0.00000E+00
         0.00000E+00
         0.00000E+00
         0.00000E+00
         0.00000E+00
         0.00000E+00
         0.00000E+00
         0.00000E+00
         0.00000E+00
         0.00000E+00
         0.00000E+00
         0.00000E+00
         0.00000E+00
         0.00000E+00
         0.00000E+00
         0.00000E+00
         0.00000E+00
         0.00000E+00
         0.00000E+00
         0.00000E+00
         0.00000E+00
         0.00000E+00
         0.00000E+00
         0.00000E+00
         0.00000E+00
         0.00000E+00
         0.00000E+00
         0.00000E+00
         0.00000E+00
         0.00000E+00
         0.00000E+00
         0.00000E+00
         0.00000E+00
         0.00000E+00
         0.00000E+00
         0.00000E+00
         0.00000E+00
         0.00000E+00
         0.00000E+00
         0.00000E+00
         0.00000E+00
         0.00000E+00
         0.00000E+00
         0.00000E+00
         0.00000E+00
         0.00000E+00
         0.00000E+00
         0.00000E+00
         0.00000E+00
         0.00000E+00
         0.00000E+00
         0.00000E+00
         0.00000E+00
         0.00000E+00
         0.00000E+00
         0.00000E+00
         0.00000E+00
         0.00000E+00
         0.00000E+00
         0.00000E+00
         0.00000E+00
         0.00000E+00
         0.00000E+00
         0.00000E+00
         0.00000E+00
         0.00000E+00
         0.00000E+00
         0.00000E+00
         0.00000E+00
         0.00000E+00
         0.00000E+00
         0.00000E+00
         0.00000E+00
         0.00000E+00
         0.00000E+00
         0.00000E+00
         0.00000E+00
         0.00000E+00
         0.00000E+00
         0.00000E+00
         0.00000E+00
         0.00000E+00
         0.00000E+00
         0.00000E+00
         0.00000E+00
         0.00000E+00
         0.00000E+00
         0.00000E+00
         0.00000E+00
         0.00000E+00
         0.00000E+00
         0.00000E+00
         0.00000E+00
         0.00000E+00
         0.00000E+00
         0.00000E+00
         0.00000E+00
         0.00000E+00
         0.00000E+00
         0.00000E+00
         0.00000E+00
         0.00000E+00
         0.00000E+00
         0.00000E+00
         0.00000E+00
         0.00000E+00
         0.00000E+00
         0.00000E+00
         0.00000E+00
         0.00000E+00
         0.00000E+00
         0.00000E+00
         0.00000E+00
         0.00000E+00
         0.00000E+00
         0.00000E+00
         0.00000E+00
         0.00000E+00
         0.00000E+00
         0.00000E+00
         0.00000E+00
         0.00000E+00
         0.00000E+00
         0.00000E+00
         0.00000E+00
         0.00000E+00
         0.00000E+00
         0.00000E+00
         0.00000E+00
         0.00000E+00
         0.00000E+00
         0.00000E+00
         0.00000E+00
         0.00000E+00
         0.00000E+00
         0.00000E+00
         0.00000E+00
         0.00000E+00
         0.00000E+00
         0.00000E+00
         0.00000E+00
         0.00000E+00
         0.00000E+00
         0.00000E+00
         0.00000E+00
         0.00000E+00
         0.00000E+00
         0.00000E+00
         0.00000E+00
         0.00000E+00
         0.00000E+00
         0.00000E+00
         0.00000E+00
         0.00000E+00
         0.00000E+00
         0.00000E+00
         0.00000E+00
         0.00000E+00
         0.00000E+00
         0.00000E+00
         0.00000E+00
         0.00000E+00
         0.00000E+00
         0.00000E+00
         0.00000E+00
         0.00000E+00
         0.00000E+00
         0.00000E+00
         0.00000E+00
         0.00000E+00
         0.00000E+00
         0.00000E+00
         0.00000E+00
         0.00000E+00
         0.00000E+00
         0.00000E+00
         0.00000E+00
         0.00000E+00
         0.00000E+00
         0.00000E+00
         0.00000E+00
         0.00000E+00
         0.00000E+00
         0.00000E+00
         0.00000E+00
         0.00000E+00
         0.00000E+00
         0.00000E+00
         0.00000E+00
         0.00000E+00
         0.00000E+00
         0.00000E+00
         0.00000E+00
         0.00000E+00
         0.00000E+00
         0.00000E+00
         0.00000E+00
         0.00000E+00
         0.00000E+00
         0.00000E+00
         0.00000E+00
         0.00000E+00
         0.00000E+00
         0.00000E+00
         0.00000E+00
         0.00000E+00
         0.00000E+00
         0.00000E+00
         0.00000E+00
         0.00000E+00
         0.00000E+00
         0.00000E+00
         0.00000E+00
         0.00000E+00
         0.00000E+00
         0.00000E+00
         0.00000E+00
         0.00000E+00
         0.00000E+00
         0.00000E+00
         0.00000E+00
         0.00000E+00
         0.00000E+00
         0.00000E+00
         0.00000E+00
         0.00000E+00
         0.00000E+00
         0.00000E+00
         0.00000E+00
         0.00000E+00
         0.00000E+00
         0.00000E+00
         0.00000E+00
         0.00000E+00
         0.00000E+00
         0.00000E+00
         0.00000E+00
         0.00000E+00
         0.00000E+00
         0.00000E+00
         0.00000E+00
         0.00000E+00
         0.00000E+00
         0.00000E+00
         0.00000E+00
         0.00000E+00
         0.00000E+00
         0.00000E+00
         0.00000E+00
         0.00000E+00
         0.00000E+00
         0.00000E+00
         0.00000E+00
         0.00000E+00
         0.00000E+00
         0.00000E+00
         0.00000E+00
         0.00000E+00
         0.00000E+00
         0.00000E+00
         0.00000E+00
         0.00000E+00
         0.00000E+00
         0.00000E+00
         0.00000E+00
         0.00000E+00
         0.00000E+00
         0.00000E+00
         0.00000E+00
         0.00000E+00
         0.00000E+00
         0.00000E+00
         0.00000E+00
         0.00000E+00
         0.00000E+00
         0.00000E+00
         0.00000E+00
         0.00000E+00
         0.00000E+00
         0.00000E+00
         0.00000E+00
         0.00000E+00
         0.00000E+00
         0.00000E+00
         0.00000E+00
         0.00000E+00
         0.00000E+00
         0.00000E+00
         0.00000E+00
         0.00000E+00
         0.00000E+00
         0.00000E+00
         0.00000E+00
         0.00000E+00
         0.00000E+00
         0.00000E+00
         0.00000E+00
         0.00000E+00
         0.00000E+00
         0.00000E+00
         0.00000E+00
         0.00000E+00
         0.00000E+00
         0.00000E+00
         0.00000E+00
         0.00000E+00
         0.00000E+00
         0.00000E+00
         0.00000E+00
         0.00000E+00
         0.00000E+00
         0.00000E+00
         0.00000E+00
         0.00000E+00
         0.00000E+00
         0.00000E+00
         0.00000E+00
         0.00000E+00
         0.00000E+00
         0.00000E+00
         0.00000E+00
         0.00000E+00
         0.00000E+00
         0.00000E+00
         0.00000E+00
         0.00000E+00
         0.00000E+00
         0.00000E+00
         0.00000E+00
         0.00000E+00
         0.00000E+00
         0.00000E+00
         0.00000E+00
         0.00000E+00
         0.00000E+00
         0.00000E+00
         0.00000E+00
         0.00000E+00
         0.00000E+00
         0.00000E+00
         0.00000E+00
         0.00000E+00
         0.00000E+00
         0.00000E+00
         0.00000E+00
         0.00000E+00
         0.00000E+00
         0.00000E+00
         0.00000E+00
         0.00000E+00
         0.00000E+00
         0.00000E+00
         0.00000E+00
         0.00000E+00
         0.00000E+00
         0.00000E+00
         0.00000E+00
         0.00000E+00
         0.00000E+00
         0.00000E+00
         0.00000E+00
         0.00000E+00
         0.00000E+00
         0.00000E+00
         0.00000E+00
         0.00000E+00
         0.00000E+00
         0.00000E+00
         0.00000E+00
         0.00000E+00
         0.00000E+00
         0.00000E+00
         0.00000E+00
         0.00000E+00
         0.00000E+00
         0.00000E+00
         0.00000E+00
         0.00000E+00
         0.00000E+00
         0.00000E+00
         0.00000E+00
         0.00000E+00
         0.00000E+00
         0.00000E+00
         0.00000E+00
         0.00000E+00
         0.00000E+00
         0.00000E+00
         0.00000E+00
         0.00000E+00
         0.00000E+00
         0.00000E+00
         0.00000E+00
         0.00000E+00
         0.00000E+00
         0.00000E+00
         0.00000E+00
         0.00000E+00
         0.00000E+00
         0.00000E+00
         0.00000E+00
         0.00000E+00
         0.00000E+00
         0.00000E+00
         0.00000E+00
         0.00000E+00
         0.00000E+00
         0.00000E+00
         0.00000E+00
         0.00000E+00
         0.00000E+00
         0.00000E+00
         0.00000E+00
         0.00000E+00
         0.00000E+00
         0.00000E+00
         0.00000E+00
         0.00000E+00
         0.00000E+00
         0.00000E+00
         0.00000E+00
         0.00000E+00
         0.00000E+00
         0.00000E+00
         0.00000E+00
         0.00000E+00
         0.00000E+00
         0.00000E+00
         0.00000E+00
         0.00000E+00
         0.00000E+00
         0.00000E+00
         0.00000E+00
         0.00000E+00
         0.00000E+00
         0.00000E+00
         0.00000E+00
         0.00000E+00
         0.00000E+00
         0.00000E+00
         0.00000E+00
         0.00000E+00
         0.00000E+00
         0.00000E+00
         0.00000E+00
         0.00000E+00
         0.00000E+00
         0.00000E+00
         0.00000E+00
         0.00000E+00
         0.00000E+00
         0.00000E+00
         0.00000E+00
         0.00000E+00
         0.00000E+00
         0.00000E+00
         0.00000E+00
         0.00000E+00
         0.00000E+00
         0.00000E+00
         0.00000E+00
         0.00000E+00
         0.00000E+00
         0.00000E+00
         0.00000E+00
         0.00000E+00
         0.00000E+00
         0.00000E+00
         0.00000E+00
         0.00000E+00
         0.00000E+00
         0.00000E+00
         0.00000E+00
         0.00000E+00
         0.00000E+00
         0.00000E+00
         0.00000E+00
         0.00000E+00
         0.00000E+00
         0.00000E+00
         0.00000E+00
         0.00000E+00
         0.00000E+00
         0.00000E+00
         0.00000E+00
         0.00000E+00
         0.00000E+00
         0.00000E+00
         0.00000E+00
         0.00000E+00
         0.00000E+00
         0.00000E+00
         0.00000E+00
         0.00000E+00
         0.00000E+00
         0.00000E+00
         0.00000E+00
         0.00000E+00
         0.00000E+00
         0.00000E+00
         0.00000E+00
         0.00000E+00
         0.00000E+00
         0.00000E+00
         0.00000E+00
         0.00000E+00
         0.00000E+00
         0.00000E+00
         0.00000E+00
         0.00000E+00
         0.00000E+00
         0.00000E+00
         0.00000E+00
         0.00000E+00
         0.00000E+00
         0.00000E+00
         0.00000E+00
         0.00000E+00
         0.00000E+00
         0.00000E+00
         0.00000E+00
         0.00000E+00
         0.00000E+00
         0.00000E+00
         0.00000E+00
         0.00000E+00
         0.00000E+00
         0.00000E+00
         0.00000E+00
         0.00000E+00
         0.00000E+00
         0.00000E+00
         0.00000E+00
         0.00000E+00
         0.00000E+00
         0.00000E+00
         0.00000E+00
         0.00000E+00
  
SCALARS               pre_disp_force_z  double 1
LOOKUP_TABLE default
         0.00000E+00
         0.00000E+00
         0.00000E+00
         0.00000E+00
         0.35924E+03
         0.96691E+03
         0.27493E+03
        -0.43911E+02
         0.00000E+00
         0.00000E+00
        -0.11420E+03
        -0.28517E+03
         0.00000E+00
         0.00000E+00
         0.83205E+03
         0.27303E+03
         0.00000E+00
         0.00000E+00
        -0.10221E+03
         0.18893E+03
         0.00000E+00
         0.00000E+00
         0.00000E+00
         0.78840E+03
         0.38134E+04
         0.23319E+04
         0.00000E+00
         0.00000E+00
         0.56246E+03
         0.13497E+04
         0.00000E+00
         0.00000E+00
         0.00000E+00
        -0.18178E+03
        -0.23082E+03
        -0.21603E+03
         0.00000E+00
         0.00000E+00
        -0.55325E+02
        -0.13046E+03
         0.00000E+00
         0.00000E+00
        -0.36209E+02
        -0.10038E+03
         0.00000E+00
         0.00000E+00
         0.41170E+02
         0.43825E+02
         0.00000E+00
        -0.80352E+02
         0.00000E+00
         0.30329E+03
         0.00000E+00
         0.71707E+03
         0.00000E+00
         0.12954E+04
         0.00000E+00
         0.00000E+00
         0.10680E+04
        -0.32420E+03
         0.00000E+00
         0.00000E+00
         0.35253E+03
         0.25382E+03
         0.00000E+00
         0.64671E+02
         0.00000E+00
        -0.94253E+02
         0.00000E+00
         0.00000E+00
         0.14147E+02
         0.53790E+03
         0.00000E+00
         0.11141E+04
         0.00000E+00
         0.92004E+04
         0.00000E+00
         0.16213E+05
         0.00000E+00
         0.11245E+05
         0.00000E+00
         0.00000E+00
         0.40983E+04
         0.73770E+03
         0.00000E+00
        -0.35242E+03
         0.00000E+00
         0.38165E+03
         0.00000E+00
        -0.14273E+02
         0.00000E+00
         0.00000E+00
        -0.20289E+03
        -0.70572E+02
         0.00000E+00
         0.11776E+03
         0.00000E+00
        -0.39258E+03
         0.00000E+00
        -0.31922E+03
         0.00000E+00
         0.00000E+00
        -0.21120E+03
        -0.27168E+03
         0.00000E+00
         0.00000E+00
         0.29485E+03
        -0.36993E+02
         0.00000E+00
         0.74087E+03
         0.00000E+00
         0.44924E+03
         0.00000E+00
        -0.16969E+04
         0.00000E+00
        -0.58995E+04
         0.00000E+00
        -0.11531E+05
         0.00000E+00
        -0.26140E+05
         0.00000E+00
        -0.38255E+05
         0.00000E+00
        -0.12118E+05
         0.00000E+00
         0.31265E+04
         0.00000E+00
         0.99407E+03
         0.00000E+00
         0.51769E+03
         0.00000E+00
         0.26676E+03
         0.00000E+00
        -0.21102E+03
         0.00000E+00
        -0.45257E+03
         0.00000E+00
        -0.42657E+03
         0.00000E+00
        -0.49810E+03
         0.00000E+00
        -0.55291E+03
         0.00000E+00
        -0.39131E+03
         0.00000E+00
        -0.34041E+03
         0.00000E+00
        -0.15376E+03
         0.00000E+00
         0.17422E+03
         0.00000E+00
        -0.26646E+03
         0.00000E+00
        -0.41729E+03
         0.00000E+00
        -0.13674E+03
         0.00000E+00
         0.00000E+00
         0.00000E+00
         0.00000E+00
         0.00000E+00
         0.00000E+00
         0.00000E+00
         0.00000E+00
         0.00000E+00
         0.00000E+00
         0.00000E+00
         0.00000E+00
         0.00000E+00
         0.00000E+00
         0.00000E+00
         0.00000E+00
         0.00000E+00
         0.00000E+00
         0.00000E+00
         0.00000E+00
         0.00000E+00
         0.00000E+00
         0.00000E+00
         0.00000E+00
         0.00000E+00
         0.00000E+00
         0.00000E+00
         0.00000E+00
         0.00000E+00
         0.00000E+00
         0.00000E+00
         0.00000E+00
         0.00000E+00
         0.00000E+00
         0.00000E+00
         0.00000E+00
         0.00000E+00
         0.00000E+00
         0.00000E+00
         0.00000E+00
         0.00000E+00
         0.00000E+00
         0.00000E+00
         0.00000E+00
         0.00000E+00
         0.00000E+00
         0.00000E+00
         0.00000E+00
         0.00000E+00
         0.00000E+00
         0.00000E+00
         0.00000E+00
         0.00000E+00
         0.00000E+00
         0.00000E+00
         0.00000E+00
         0.00000E+00
         0.00000E+00
         0.00000E+00
         0.00000E+00
         0.00000E+00
         0.00000E+00
         0.00000E+00
         0.00000E+00
         0.00000E+00
         0.00000E+00
         0.00000E+00
         0.00000E+00
         0.00000E+00
         0.00000E+00
         0.00000E+00
         0.00000E+00
         0.00000E+00
         0.00000E+00
         0.00000E+00
         0.00000E+00
         0.00000E+00
         0.00000E+00
         0.00000E+00
         0.00000E+00
         0.00000E+00
         0.00000E+00
         0.00000E+00
         0.00000E+00
         0.00000E+00
         0.00000E+00
         0.00000E+00
         0.00000E+00
         0.00000E+00
         0.00000E+00
         0.00000E+00
         0.00000E+00
         0.00000E+00
         0.00000E+00
         0.00000E+00
         0.00000E+00
         0.00000E+00
         0.00000E+00
         0.00000E+00
         0.00000E+00
         0.00000E+00
         0.00000E+00
         0.00000E+00
         0.00000E+00
         0.00000E+00
         0.00000E+00
         0.00000E+00
         0.00000E+00
         0.00000E+00
         0.00000E+00
         0.00000E+00
         0.00000E+00
         0.00000E+00
         0.00000E+00
         0.00000E+00
         0.00000E+00
         0.00000E+00
         0.00000E+00
         0.00000E+00
         0.00000E+00
         0.00000E+00
         0.00000E+00
         0.00000E+00
         0.00000E+00
         0.00000E+00
         0.00000E+00
         0.00000E+00
         0.00000E+00
         0.00000E+00
         0.00000E+00
         0.00000E+00
         0.00000E+00
         0.00000E+00
         0.00000E+00
         0.00000E+00
         0.00000E+00
         0.00000E+00
         0.00000E+00
         0.00000E+00
         0.00000E+00
         0.00000E+00
         0.00000E+00
         0.00000E+00
         0.00000E+00
         0.00000E+00
         0.00000E+00
         0.00000E+00
         0.00000E+00
         0.00000E+00
         0.00000E+00
         0.00000E+00
         0.00000E+00
         0.00000E+00
         0.00000E+00
         0.00000E+00
         0.00000E+00
         0.00000E+00
         0.00000E+00
         0.00000E+00
         0.00000E+00
         0.00000E+00
         0.00000E+00
         0.00000E+00
         0.00000E+00
         0.00000E+00
         0.00000E+00
         0.00000E+00
         0.00000E+00
         0.00000E+00
         0.00000E+00
         0.00000E+00
         0.00000E+00
         0.00000E+00
         0.00000E+00
         0.00000E+00
         0.00000E+00
         0.00000E+00
         0.00000E+00
         0.00000E+00
         0.00000E+00
         0.00000E+00
         0.00000E+00
         0.00000E+00
         0.00000E+00
         0.00000E+00
         0.00000E+00
         0.00000E+00
         0.00000E+00
         0.00000E+00
         0.00000E+00
         0.00000E+00
         0.00000E+00
         0.00000E+00
         0.00000E+00
         0.00000E+00
         0.00000E+00
         0.00000E+00
         0.00000E+00
         0.00000E+00
         0.00000E+00
         0.00000E+00
         0.00000E+00
         0.00000E+00
         0.00000E+00
         0.00000E+00
         0.00000E+00
         0.00000E+00
         0.00000E+00
         0.00000E+00
         0.00000E+00
         0.00000E+00
         0.00000E+00
         0.00000E+00
         0.00000E+00
         0.00000E+00
         0.00000E+00
         0.00000E+00
         0.00000E+00
         0.00000E+00
         0.00000E+00
         0.00000E+00
         0.00000E+00
         0.00000E+00
         0.00000E+00
         0.00000E+00
         0.00000E+00
         0.00000E+00
         0.00000E+00
         0.00000E+00
         0.00000E+00
         0.00000E+00
         0.00000E+00
         0.00000E+00
         0.00000E+00
         0.00000E+00
         0.00000E+00
         0.00000E+00
         0.00000E+00
         0.00000E+00
         0.00000E+00
         0.00000E+00
         0.00000E+00
         0.00000E+00
         0.00000E+00
         0.00000E+00
         0.00000E+00
         0.00000E+00
         0.00000E+00
         0.00000E+00
         0.00000E+00
         0.00000E+00
         0.00000E+00
         0.00000E+00
         0.00000E+00
         0.00000E+00
         0.00000E+00
         0.00000E+00
         0.00000E+00
         0.00000E+00
         0.00000E+00
         0.00000E+00
         0.00000E+00
         0.00000E+00
         0.00000E+00
         0.00000E+00
         0.00000E+00
         0.00000E+00
         0.00000E+00
         0.00000E+00
         0.00000E+00
         0.00000E+00
         0.00000E+00
         0.00000E+00
         0.00000E+00
         0.00000E+00
         0.00000E+00
         0.00000E+00
         0.00000E+00
         0.00000E+00
         0.00000E+00
         0.00000E+00
         0.00000E+00
         0.00000E+00
         0.00000E+00
         0.00000E+00
         0.00000E+00
         0.00000E+00
         0.00000E+00
         0.00000E+00
         0.00000E+00
         0.00000E+00
         0.00000E+00
         0.00000E+00
         0.00000E+00
         0.00000E+00
         0.00000E+00
         0.00000E+00
         0.00000E+00
         0.00000E+00
         0.00000E+00
         0.00000E+00
         0.00000E+00
         0.00000E+00
         0.00000E+00
         0.00000E+00
         0.00000E+00
         0.00000E+00
         0.00000E+00
         0.00000E+00
         0.00000E+00
         0.00000E+00
         0.00000E+00
         0.00000E+00
         0.00000E+00
         0.00000E+00
         0.00000E+00
         0.00000E+00
         0.00000E+00
         0.00000E+00
         0.00000E+00
         0.00000E+00
         0.00000E+00
         0.00000E+00
         0.00000E+00
         0.00000E+00
         0.00000E+00
         0.00000E+00
         0.00000E+00
         0.00000E+00
         0.00000E+00
         0.00000E+00
         0.00000E+00
         0.00000E+00
         0.00000E+00
         0.00000E+00
         0.00000E+00
         0.00000E+00
         0.00000E+00
         0.00000E+00
         0.00000E+00
         0.00000E+00
         0.00000E+00
         0.00000E+00
         0.00000E+00
         0.00000E+00
         0.00000E+00
         0.00000E+00
         0.00000E+00
         0.00000E+00
         0.00000E+00
         0.00000E+00
         0.00000E+00
         0.00000E+00
         0.00000E+00
         0.00000E+00
         0.00000E+00
         0.00000E+00
         0.00000E+00
         0.00000E+00
         0.00000E+00
         0.00000E+00
         0.00000E+00
         0.00000E+00
         0.00000E+00
         0.00000E+00
         0.00000E+00
         0.00000E+00
         0.00000E+00
         0.00000E+00
         0.00000E+00
         0.00000E+00
         0.00000E+00
         0.00000E+00
         0.00000E+00
         0.00000E+00
         0.00000E+00
         0.00000E+00
         0.00000E+00
         0.00000E+00
         0.00000E+00
         0.00000E+00
         0.00000E+00
         0.00000E+00
         0.00000E+00
         0.00000E+00
         0.00000E+00
         0.00000E+00
         0.00000E+00
         0.00000E+00
         0.00000E+00
         0.00000E+00
         0.00000E+00
         0.00000E+00
         0.00000E+00
         0.00000E+00
         0.00000E+00
         0.00000E+00
         0.00000E+00
         0.00000E+00
         0.00000E+00
         0.00000E+00
         0.00000E+00
         0.00000E+00
         0.00000E+00
         0.00000E+00
         0.00000E+00
         0.00000E+00
         0.00000E+00
         0.00000E+00
         0.00000E+00
         0.00000E+00
         0.00000E+00
         0.00000E+00
         0.00000E+00
         0.00000E+00
         0.00000E+00
         0.00000E+00
         0.00000E+00
         0.00000E+00
         0.00000E+00
         0.00000E+00
         0.00000E+00
         0.00000E+00
         0.00000E+00
         0.00000E+00
         0.00000E+00
         0.00000E+00
         0.00000E+00
         0.00000E+00
         0.00000E+00
         0.00000E+00
         0.00000E+00
         0.00000E+00
         0.00000E+00
         0.00000E+00
         0.00000E+00
         0.00000E+00
         0.00000E+00
         0.00000E+00
         0.00000E+00
         0.00000E+00
         0.00000E+00
         0.00000E+00
         0.00000E+00
         0.00000E+00
         0.00000E+00
         0.00000E+00
         0.00000E+00
         0.00000E+00
         0.00000E+00
         0.00000E+00
         0.00000E+00
         0.00000E+00
         0.00000E+00
         0.00000E+00
         0.00000E+00
         0.00000E+00
         0.00000E+00
         0.00000E+00
         0.00000E+00
         0.00000E+00
         0.00000E+00
         0.00000E+00
         0.00000E+00
         0.00000E+00
         0.00000E+00
         0.00000E+00
         0.00000E+00
         0.00000E+00
         0.00000E+00
         0.00000E+00
         0.00000E+00
         0.00000E+00
         0.00000E+00
         0.00000E+00
         0.00000E+00
         0.00000E+00
         0.00000E+00
         0.00000E+00
         0.00000E+00
         0.00000E+00
         0.00000E+00
         0.00000E+00
         0.00000E+00
         0.00000E+00
         0.00000E+00
         0.00000E+00
         0.00000E+00
         0.00000E+00
         0.00000E+00
         0.00000E+00
         0.00000E+00
         0.00000E+00
         0.00000E+00
         0.00000E+00
         0.00000E+00
         0.00000E+00
         0.00000E+00
         0.00000E+00
         0.00000E+00
         0.00000E+00
         0.00000E+00
         0.00000E+00
         0.00000E+00
         0.00000E+00
         0.00000E+00
         0.00000E+00
         0.00000E+00
         0.00000E+00
         0.00000E+00
         0.00000E+00
         0.00000E+00
         0.00000E+00
         0.00000E+00
         0.00000E+00
         0.00000E+00
         0.00000E+00
         0.00000E+00
         0.00000E+00
         0.00000E+00
         0.00000E+00
         0.00000E+00
         0.00000E+00
         0.00000E+00
         0.00000E+00
         0.00000E+00
         0.00000E+00
         0.00000E+00
         0.00000E+00
         0.00000E+00
         0.00000E+00
         0.00000E+00
         0.00000E+00
         0.00000E+00
         0.00000E+00
         0.00000E+00
         0.00000E+00
         0.00000E+00
         0.00000E+00
         0.00000E+00
         0.00000E+00
         0.00000E+00
         0.00000E+00
         0.00000E+00
         0.00000E+00
         0.00000E+00
         0.00000E+00
         0.00000E+00
         0.00000E+00
         0.00000E+00
         0.00000E+00
         0.00000E+00
         0.00000E+00
         0.00000E+00
         0.00000E+00
         0.00000E+00
         0.00000E+00
         0.00000E+00
         0.00000E+00
         0.00000E+00
         0.00000E+00
         0.00000E+00
         0.00000E+00
         0.00000E+00
         0.00000E+00
         0.00000E+00
         0.00000E+00
         0.00000E+00
         0.00000E+00
         0.00000E+00
         0.00000E+00
         0.00000E+00
         0.00000E+00
         0.00000E+00
         0.00000E+00
         0.00000E+00
         0.00000E+00
         0.00000E+00
         0.00000E+00
         0.00000E+00
         0.00000E+00
         0.00000E+00
         0.00000E+00
         0.00000E+00
         0.00000E+00
         0.00000E+00
         0.00000E+00
         0.00000E+00
         0.00000E+00
         0.00000E+00
         0.00000E+00
         0.00000E+00
         0.00000E+00
         0.00000E+00
         0.00000E+00
         0.00000E+00
         0.00000E+00
         0.00000E+00
         0.00000E+00
         0.00000E+00
         0.00000E+00
         0.00000E+00
         0.00000E+00
         0.00000E+00
         0.00000E+00
         0.00000E+00
         0.00000E+00
         0.00000E+00
         0.00000E+00
         0.00000E+00
         0.00000E+00
         0.00000E+00
         0.00000E+00
         0.00000E+00
         0.00000E+00
         0.00000E+00
         0.00000E+00
         0.00000E+00
         0.00000E+00
         0.00000E+00
         0.00000E+00
         0.00000E+00
         0.00000E+00
         0.00000E+00
         0.00000E+00
         0.00000E+00
         0.00000E+00
         0.00000E+00
         0.00000E+00
         0.00000E+00
         0.00000E+00
         0.00000E+00
         0.00000E+00
         0.00000E+00
         0.00000E+00
         0.00000E+00
         0.00000E+00
         0.00000E+00
         0.00000E+00
         0.00000E+00
         0.00000E+00
         0.00000E+00
         0.00000E+00
         0.00000E+00
         0.00000E+00
         0.00000E+00
         0.00000E+00
         0.00000E+00
         0.00000E+00
         0.00000E+00
         0.00000E+00
         0.00000E+00
         0.00000E+00
         0.00000E+00
         0.00000E+00
         0.00000E+00
         0.00000E+00
         0.00000E+00
         0.00000E+00
         0.00000E+00
         0.00000E+00
         0.00000E+00
         0.00000E+00
         0.00000E+00
         0.00000E+00
         0.00000E+00
         0.00000E+00
         0.00000E+00
         0.00000E+00
         0.00000E+00
         0.00000E+00
         0.00000E+00
         0.00000E+00
         0.00000E+00
         0.00000E+00
         0.00000E+00
         0.00000E+00
         0.00000E+00
         0.00000E+00
         0.00000E+00
         0.00000E+00
         0.00000E+00
         0.00000E+00
         0.00000E+00
         0.00000E+00
         0.00000E+00
         0.00000E+00
         0.00000E+00
         0.00000E+00
         0.00000E+00
         0.00000E+00
         0.00000E+00
         0.00000E+00
         0.00000E+00
         0.00000E+00
         0.00000E+00
         0.00000E+00
         0.00000E+00
         0.00000E+00
         0.00000E+00
         0.00000E+00
         0.00000E+00
         0.00000E+00
         0.00000E+00
         0.00000E+00
         0.00000E+00
         0.00000E+00
         0.00000E+00
         0.00000E+00
         0.00000E+00
         0.00000E+00
         0.00000E+00
         0.00000E+00
         0.00000E+00
         0.00000E+00
         0.00000E+00
         0.00000E+00
         0.00000E+00
         0.00000E+00
         0.00000E+00
         0.00000E+00
         0.00000E+00
         0.00000E+00
         0.00000E+00
         0.00000E+00
         0.00000E+00
         0.00000E+00
         0.00000E+00
         0.00000E+00
         0.00000E+00
         0.00000E+00
         0.00000E+00
         0.00000E+00
         0.00000E+00
         0.00000E+00
         0.00000E+00
         0.00000E+00
         0.00000E+00
         0.00000E+00
         0.00000E+00
         0.00000E+00
         0.00000E+00
         0.00000E+00
         0.00000E+00
         0.00000E+00
         0.00000E+00
         0.00000E+00
         0.00000E+00
         0.00000E+00
         0.00000E+00
         0.00000E+00
         0.00000E+00
         0.00000E+00
         0.00000E+00
         0.00000E+00
         0.00000E+00
         0.00000E+00
         0.00000E+00
         0.00000E+00
         0.00000E+00
         0.00000E+00
         0.00000E+00
         0.00000E+00
         0.00000E+00
         0.00000E+00
         0.00000E+00
         0.00000E+00
         0.00000E+00
         0.00000E+00
         0.00000E+00
         0.00000E+00
         0.00000E+00
         0.00000E+00
         0.00000E+00
         0.00000E+00
         0.00000E+00
         0.00000E+00
         0.00000E+00
         0.00000E+00
         0.00000E+00
         0.00000E+00
         0.00000E+00
         0.00000E+00
         0.00000E+00
         0.00000E+00
         0.00000E+00
         0.00000E+00
         0.00000E+00
         0.00000E+00
         0.00000E+00
         0.00000E+00
         0.00000E+00
         0.00000E+00
         0.00000E+00
         0.00000E+00
         0.00000E+00
         0.00000E+00
         0.00000E+00
         0.00000E+00
         0.00000E+00
         0.00000E+00
         0.00000E+00
         0.00000E+00
         0.00000E+00
         0.00000E+00
         0.00000E+00
         0.00000E+00
         0.00000E+00
         0.00000E+00
         0.00000E+00
         0.00000E+00
         0.00000E+00
         0.00000E+00
         0.00000E+00
         0.00000E+00
         0.00000E+00
         0.00000E+00
         0.00000E+00
         0.00000E+00
         0.00000E+00
         0.00000E+00
         0.00000E+00
         0.00000E+00
         0.00000E+00
         0.00000E+00
         0.00000E+00
         0.00000E+00
         0.00000E+00
         0.00000E+00
         0.00000E+00
         0.00000E+00
         0.00000E+00
         0.00000E+00
         0.00000E+00
         0.00000E+00
         0.00000E+00
         0.00000E+00
         0.00000E+00
         0.00000E+00
         0.00000E+00
         0.00000E+00
         0.00000E+00
         0.00000E+00
         0.00000E+00
         0.00000E+00
         0.00000E+00
         0.00000E+00
         0.00000E+00
         0.00000E+00
         0.00000E+00
         0.00000E+00
         0.00000E+00
         0.00000E+00
         0.00000E+00
         0.00000E+00
         0.00000E+00
         0.00000E+00
         0.00000E+00
         0.00000E+00
         0.00000E+00
         0.00000E+00
         0.00000E+00
         0.00000E+00
         0.00000E+00
         0.00000E+00
         0.00000E+00
         0.00000E+00
         0.00000E+00
         0.00000E+00
         0.00000E+00
         0.00000E+00
         0.00000E+00
         0.00000E+00
         0.00000E+00
         0.00000E+00
         0.00000E+00
         0.00000E+00
         0.00000E+00
         0.00000E+00
         0.00000E+00
         0.00000E+00
         0.00000E+00
         0.00000E+00
         0.00000E+00
         0.00000E+00
         0.00000E+00
         0.00000E+00
         0.00000E+00
         0.00000E+00
         0.00000E+00
         0.00000E+00
         0.00000E+00
         0.00000E+00
         0.00000E+00
         0.00000E+00
         0.00000E+00
         0.00000E+00
         0.00000E+00
         0.00000E+00
         0.00000E+00
         0.00000E+00
         0.00000E+00
         0.00000E+00
         0.00000E+00
         0.00000E+00
         0.00000E+00
         0.00000E+00
         0.00000E+00
         0.00000E+00
         0.00000E+00
         0.00000E+00
         0.00000E+00
         0.00000E+00
         0.00000E+00
         0.00000E+00
         0.00000E+00
         0.00000E+00
         0.00000E+00
         0.00000E+00
         0.00000E+00
         0.00000E+00
         0.00000E+00
         0.00000E+00
         0.00000E+00
         0.00000E+00
         0.00000E+00
         0.00000E+00
         0.00000E+00
         0.00000E+00
         0.00000E+00
         0.00000E+00
         0.00000E+00
         0.00000E+00
         0.00000E+00
         0.00000E+00
         0.00000E+00
         0.00000E+00
         0.00000E+00
         0.00000E+00
         0.00000E+00
         0.00000E+00
         0.00000E+00
         0.00000E+00
         0.00000E+00
         0.00000E+00
         0.00000E+00
         0.00000E+00
         0.00000E+00
         0.00000E+00
         0.00000E+00
         0.00000E+00
         0.00000E+00
         0.00000E+00
         0.00000E+00
         0.00000E+00
         0.00000E+00
         0.00000E+00
         0.00000E+00
         0.00000E+00
         0.00000E+00
         0.00000E+00
         0.00000E+00
         0.00000E+00
         0.00000E+00
         0.00000E+00
         0.00000E+00
         0.00000E+00
         0.00000E+00
         0.00000E+00
         0.00000E+00
         0.00000E+00
         0.00000E+00
         0.00000E+00
         0.00000E+00
         0.00000E+00
         0.00000E+00
         0.00000E+00
         0.00000E+00
         0.00000E+00
         0.00000E+00
         0.00000E+00
         0.00000E+00
         0.00000E+00
         0.00000E+00
         0.00000E+00
         0.00000E+00
         0.00000E+00
         0.00000E+00
         0.00000E+00
         0.00000E+00
         0.00000E+00
         0.00000E+00
         0.00000E+00
         0.00000E+00
         0.00000E+00
         0.00000E+00
         0.00000E+00
         0.00000E+00
         0.00000E+00
         0.00000E+00
         0.00000E+00
         0.00000E+00
         0.00000E+00
         0.00000E+00
         0.00000E+00
         0.00000E+00
         0.00000E+00
         0.00000E+00
         0.00000E+00
         0.00000E+00
         0.00000E+00
         0.00000E+00
         0.00000E+00
         0.00000E+00
         0.00000E+00
         0.00000E+00
         0.00000E+00
         0.00000E+00
         0.00000E+00
         0.00000E+00
         0.00000E+00
         0.00000E+00
         0.00000E+00
         0.00000E+00
         0.00000E+00
         0.00000E+00
         0.00000E+00
         0.00000E+00
         0.00000E+00
         0.00000E+00
         0.00000E+00
         0.00000E+00
         0.00000E+00
         0.00000E+00
         0.00000E+00
         0.00000E+00
         0.00000E+00
         0.00000E+00
         0.00000E+00
         0.00000E+00
         0.00000E+00
         0.00000E+00
         0.00000E+00
         0.00000E+00
         0.00000E+00
         0.00000E+00
         0.00000E+00
         0.00000E+00
         0.00000E+00
         0.00000E+00
         0.00000E+00
         0.00000E+00
         0.00000E+00
         0.00000E+00
         0.00000E+00
         0.00000E+00
         0.00000E+00
         0.00000E+00
         0.00000E+00
         0.00000E+00
         0.00000E+00
         0.00000E+00
         0.00000E+00
         0.00000E+00
         0.00000E+00
         0.00000E+00
         0.00000E+00
         0.00000E+00
         0.00000E+00
         0.00000E+00
         0.00000E+00
         0.00000E+00
         0.00000E+00
         0.00000E+00
         0.00000E+00
         0.00000E+00
         0.00000E+00
         0.00000E+00
         0.00000E+00
         0.00000E+00
         0.00000E+00
         0.00000E+00
         0.00000E+00
         0.00000E+00
         0.00000E+00
         0.00000E+00
         0.00000E+00
         0.00000E+00
         0.00000E+00
         0.00000E+00
         0.00000E+00
         0.00000E+00
         0.00000E+00
         0.00000E+00
         0.00000E+00
         0.00000E+00
         0.00000E+00
         0.00000E+00
         0.00000E+00
         0.00000E+00
         0.00000E+00
         0.00000E+00
         0.00000E+00
         0.00000E+00
         0.00000E+00
         0.00000E+00
         0.00000E+00
         0.00000E+00
         0.00000E+00
         0.00000E+00
         0.00000E+00
         0.00000E+00
         0.00000E+00
         0.00000E+00
         0.00000E+00
         0.00000E+00
         0.00000E+00
         0.00000E+00
         0.00000E+00
         0.00000E+00
         0.00000E+00
         0.00000E+00
         0.00000E+00
         0.00000E+00
         0.00000E+00
         0.00000E+00
         0.00000E+00
         0.00000E+00
         0.00000E+00
         0.00000E+00
         0.00000E+00
         0.00000E+00
         0.00000E+00
         0.00000E+00
         0.00000E+00
         0.00000E+00
         0.00000E+00
         0.00000E+00
         0.00000E+00
         0.00000E+00
         0.00000E+00
         0.00000E+00
         0.00000E+00
         0.00000E+00
         0.00000E+00
         0.00000E+00
         0.00000E+00
         0.00000E+00
         0.00000E+00
         0.00000E+00
         0.00000E+00
         0.00000E+00
         0.00000E+00
         0.00000E+00
         0.00000E+00
         0.00000E+00
         0.00000E+00
         0.00000E+00
         0.00000E+00
         0.00000E+00
         0.00000E+00
         0.00000E+00
         0.00000E+00
         0.00000E+00
         0.00000E+00
         0.00000E+00
         0.00000E+00
         0.00000E+00
         0.00000E+00
         0.00000E+00
         0.00000E+00
         0.00000E+00
         0.00000E+00
         0.00000E+00
         0.00000E+00
         0.00000E+00
         0.00000E+00
         0.00000E+00
         0.00000E+00
         0.00000E+00
         0.00000E+00
         0.00000E+00
         0.00000E+00
         0.00000E+00
         0.00000E+00
         0.00000E+00
         0.00000E+00
         0.00000E+00
         0.00000E+00
         0.00000E+00
         0.00000E+00
         0.00000E+00
         0.00000E+00
         0.00000E+00
         0.00000E+00
         0.00000E+00
         0.00000E+00
         0.00000E+00
         0.00000E+00
         0.00000E+00
         0.00000E+00
         0.00000E+00
         0.00000E+00
         0.00000E+00
         0.00000E+00
         0.00000E+00
         0.00000E+00
         0.00000E+00
         0.00000E+00
         0.00000E+00
         0.00000E+00
         0.00000E+00
         0.00000E+00
         0.00000E+00
         0.00000E+00
         0.00000E+00
         0.00000E+00
         0.00000E+00
         0.00000E+00
         0.00000E+00
         0.00000E+00
         0.00000E+00
         0.00000E+00
         0.00000E+00
         0.00000E+00
         0.00000E+00
         0.00000E+00
         0.00000E+00
         0.00000E+00
         0.00000E+00
         0.00000E+00
         0.00000E+00
         0.00000E+00
         0.00000E+00
         0.00000E+00
         0.00000E+00
         0.00000E+00
         0.00000E+00
         0.00000E+00
         0.00000E+00
         0.00000E+00
         0.00000E+00
         0.00000E+00
         0.00000E+00
         0.00000E+00
         0.00000E+00
         0.00000E+00
         0.00000E+00
         0.00000E+00
         0.00000E+00
         0.00000E+00
         0.00000E+00
         0.00000E+00
         0.00000E+00
         0.00000E+00
         0.00000E+00
         0.00000E+00
         0.00000E+00
         0.00000E+00
         0.00000E+00
         0.00000E+00
         0.00000E+00
         0.00000E+00
         0.00000E+00
         0.00000E+00
         0.00000E+00
         0.00000E+00
         0.00000E+00
         0.00000E+00
         0.00000E+00
         0.00000E+00
         0.00000E+00
         0.00000E+00
         0.00000E+00
         0.00000E+00
         0.00000E+00
         0.00000E+00
         0.00000E+00
         0.00000E+00
         0.00000E+00
         0.00000E+00
         0.00000E+00
         0.00000E+00
         0.00000E+00
         0.00000E+00
         0.00000E+00
         0.00000E+00
         0.00000E+00
         0.00000E+00
         0.00000E+00
         0.00000E+00
         0.00000E+00
         0.00000E+00
         0.00000E+00
         0.00000E+00
         0.00000E+00
         0.00000E+00
         0.00000E+00
         0.00000E+00
         0.00000E+00
         0.00000E+00
         0.00000E+00
         0.00000E+00
         0.00000E+00
         0.00000E+00
         0.00000E+00
         0.00000E+00
         0.00000E+00
         0.00000E+00
         0.00000E+00
         0.00000E+00
         0.00000E+00
         0.00000E+00
         0.00000E+00
         0.00000E+00
         0.00000E+00
         0.00000E+00
         0.00000E+00
         0.00000E+00
         0.00000E+00
         0.00000E+00
         0.00000E+00
         0.00000E+00
         0.00000E+00
         0.00000E+00
         0.00000E+00
         0.00000E+00
         0.00000E+00
         0.00000E+00
         0.00000E+00
         0.00000E+00
         0.00000E+00
         0.00000E+00
         0.00000E+00
         0.00000E+00
         0.00000E+00
         0.00000E+00
         0.00000E+00
         0.00000E+00
         0.00000E+00
         0.00000E+00
         0.00000E+00
         0.00000E+00
         0.00000E+00
         0.00000E+00
         0.00000E+00
         0.00000E+00
         0.00000E+00
         0.00000E+00
         0.00000E+00
         0.00000E+00
         0.00000E+00
         0.00000E+00
         0.00000E+00
         0.00000E+00
         0.00000E+00
         0.00000E+00
         0.00000E+00
         0.00000E+00
         0.00000E+00
         0.00000E+00
         0.00000E+00
         0.00000E+00
         0.00000E+00
         0.00000E+00
         0.00000E+00
         0.00000E+00
         0.00000E+00
         0.00000E+00
         0.00000E+00
         0.00000E+00
         0.00000E+00
         0.00000E+00
         0.00000E+00
         0.00000E+00
         0.00000E+00
         0.00000E+00
         0.00000E+00
         0.00000E+00
         0.00000E+00
         0.00000E+00
         0.00000E+00
         0.00000E+00
         0.00000E+00
         0.00000E+00
         0.00000E+00
         0.00000E+00
         0.00000E+00
         0.00000E+00
         0.00000E+00
         0.00000E+00
         0.00000E+00
         0.00000E+00
         0.00000E+00
         0.00000E+00
         0.00000E+00
         0.00000E+00
         0.00000E+00
         0.00000E+00
         0.00000E+00
         0.00000E+00
         0.00000E+00
         0.00000E+00
         0.00000E+00
         0.00000E+00
         0.00000E+00
         0.00000E+00
         0.00000E+00
         0.00000E+00
         0.00000E+00
         0.00000E+00
         0.00000E+00
         0.00000E+00
         0.00000E+00
         0.00000E+00
         0.00000E+00
         0.00000E+00
         0.00000E+00
         0.00000E+00
         0.00000E+00
         0.00000E+00
         0.00000E+00
         0.00000E+00
         0.00000E+00
         0.00000E+00
         0.00000E+00
         0.00000E+00
         0.00000E+00
         0.00000E+00
         0.00000E+00
         0.00000E+00
         0.00000E+00
         0.00000E+00
         0.00000E+00
         0.00000E+00
         0.00000E+00
         0.00000E+00
         0.00000E+00
         0.00000E+00
         0.00000E+00
         0.00000E+00
         0.00000E+00
         0.00000E+00
         0.00000E+00
         0.00000E+00
         0.00000E+00
         0.00000E+00
         0.00000E+00
         0.00000E+00
         0.00000E+00
         0.00000E+00
         0.00000E+00
         0.00000E+00
         0.00000E+00
         0.00000E+00
         0.00000E+00
         0.00000E+00
         0.00000E+00
         0.00000E+00
         0.00000E+00
         0.00000E+00
         0.00000E+00
         0.00000E+00
         0.00000E+00
         0.00000E+00
         0.00000E+00
         0.00000E+00
         0.00000E+00
         0.00000E+00
         0.00000E+00
         0.00000E+00
         0.00000E+00
         0.00000E+00
         0.00000E+00
         0.00000E+00
         0.00000E+00
         0.00000E+00
         0.00000E+00
         0.00000E+00
         0.00000E+00
         0.00000E+00
         0.00000E+00
         0.00000E+00
         0.00000E+00
         0.00000E+00
         0.00000E+00
         0.00000E+00
         0.00000E+00
         0.00000E+00
         0.00000E+00
         0.00000E+00
         0.00000E+00
         0.00000E+00
         0.00000E+00
         0.00000E+00
         0.00000E+00
         0.00000E+00
         0.00000E+00
         0.00000E+00
         0.00000E+00
         0.00000E+00
         0.00000E+00
         0.00000E+00
         0.00000E+00
         0.00000E+00
         0.00000E+00
         0.00000E+00
         0.00000E+00
         0.00000E+00
         0.00000E+00
         0.00000E+00
         0.00000E+00
         0.00000E+00
         0.00000E+00
         0.00000E+00
         0.00000E+00
         0.00000E+00
         0.00000E+00
         0.00000E+00
         0.00000E+00
         0.00000E+00
         0.00000E+00
         0.00000E+00
         0.00000E+00
         0.00000E+00
         0.00000E+00
         0.00000E+00
         0.00000E+00
         0.00000E+00
         0.00000E+00
         0.00000E+00
         0.00000E+00
         0.00000E+00
         0.00000E+00
         0.00000E+00
         0.00000E+00
         0.00000E+00
         0.00000E+00
         0.00000E+00
         0.00000E+00
         0.00000E+00
         0.00000E+00
         0.00000E+00
         0.00000E+00
         0.00000E+00
         0.00000E+00
         0.00000E+00
         0.00000E+00
         0.00000E+00
         0.00000E+00
         0.00000E+00
         0.00000E+00
         0.00000E+00
         0.00000E+00
         0.00000E+00
         0.00000E+00
         0.00000E+00
         0.00000E+00
         0.00000E+00
         0.00000E+00
         0.00000E+00
         0.00000E+00
         0.00000E+00
         0.00000E+00
         0.00000E+00
         0.00000E+00
         0.00000E+00
         0.00000E+00
         0.00000E+00
         0.00000E+00
         0.00000E+00
         0.00000E+00
         0.00000E+00
         0.00000E+00
         0.00000E+00
         0.00000E+00
         0.00000E+00
         0.00000E+00
         0.00000E+00
         0.00000E+00
         0.00000E+00
         0.00000E+00
         0.00000E+00
         0.00000E+00
         0.00000E+00
         0.00000E+00
         0.00000E+00
         0.00000E+00
         0.00000E+00
         0.00000E+00
         0.00000E+00
         0.00000E+00
         0.00000E+00
         0.00000E+00
         0.00000E+00
         0.00000E+00
         0.00000E+00
         0.00000E+00
         0.00000E+00
         0.00000E+00
         0.00000E+00
         0.00000E+00
         0.00000E+00
         0.00000E+00
         0.00000E+00
         0.00000E+00
         0.00000E+00
         0.00000E+00
         0.00000E+00
         0.00000E+00
         0.00000E+00
         0.00000E+00
         0.00000E+00
         0.00000E+00
         0.00000E+00
         0.00000E+00
         0.00000E+00
         0.00000E+00
         0.00000E+00
         0.00000E+00
         0.00000E+00
         0.00000E+00
         0.00000E+00
         0.00000E+00
         0.00000E+00
         0.00000E+00
         0.00000E+00
         0.00000E+00
         0.00000E+00
         0.00000E+00
         0.00000E+00
         0.00000E+00
         0.00000E+00
         0.00000E+00
         0.00000E+00
         0.00000E+00
         0.00000E+00
         0.00000E+00
         0.00000E+00
         0.00000E+00
         0.00000E+00
         0.00000E+00
         0.00000E+00
         0.00000E+00
         0.00000E+00
         0.00000E+00
         0.00000E+00
         0.00000E+00
         0.00000E+00
         0.00000E+00
         0.00000E+00
         0.00000E+00
         0.00000E+00
         0.00000E+00
         0.00000E+00
         0.00000E+00
         0.00000E+00
         0.00000E+00
         0.00000E+00
         0.00000E+00
         0.00000E+00
         0.00000E+00
         0.00000E+00
         0.00000E+00
         0.00000E+00
         0.00000E+00
         0.00000E+00
         0.00000E+00
         0.00000E+00
         0.00000E+00
         0.00000E+00
         0.00000E+00
         0.00000E+00
         0.00000E+00
         0.00000E+00
         0.00000E+00
         0.00000E+00
         0.00000E+00
         0.00000E+00
         0.00000E+00
         0.00000E+00
         0.00000E+00
         0.00000E+00
         0.00000E+00
         0.00000E+00
         0.00000E+00
         0.00000E+00
         0.00000E+00
         0.00000E+00
         0.00000E+00
         0.00000E+00
         0.00000E+00
         0.00000E+00
         0.00000E+00
         0.00000E+00
         0.00000E+00
         0.00000E+00
         0.00000E+00
         0.00000E+00
         0.00000E+00
         0.00000E+00
         0.00000E+00
         0.00000E+00
         0.00000E+00
         0.00000E+00
         0.00000E+00
         0.00000E+00
         0.00000E+00
         0.00000E+00
         0.00000E+00
         0.00000E+00
         0.00000E+00
         0.00000E+00
         0.00000E+00
         0.00000E+00
         0.00000E+00
         0.00000E+00
         0.00000E+00
         0.00000E+00
         0.00000E+00
         0.00000E+00
         0.00000E+00
         0.00000E+00
         0.00000E+00
         0.00000E+00
         0.00000E+00
         0.00000E+00
         0.00000E+00
         0.00000E+00
         0.00000E+00
         0.00000E+00
         0.00000E+00
         0.00000E+00
         0.00000E+00
         0.00000E+00
         0.00000E+00
         0.00000E+00
         0.00000E+00
         0.00000E+00
         0.00000E+00
         0.00000E+00
         0.00000E+00
         0.00000E+00
         0.00000E+00
         0.00000E+00
         0.00000E+00
         0.00000E+00
         0.00000E+00
         0.00000E+00
         0.00000E+00
         0.00000E+00
         0.00000E+00
         0.00000E+00
         0.00000E+00
         0.00000E+00
         0.00000E+00
         0.00000E+00
         0.00000E+00
         0.00000E+00
         0.00000E+00
         0.00000E+00
         0.00000E+00
         0.00000E+00
         0.00000E+00
         0.00000E+00
         0.00000E+00
         0.00000E+00
         0.00000E+00
         0.00000E+00
         0.00000E+00
         0.00000E+00
         0.00000E+00
         0.00000E+00
         0.00000E+00
         0.00000E+00
         0.00000E+00
         0.00000E+00
         0.00000E+00
         0.00000E+00
         0.00000E+00
         0.00000E+00
         0.00000E+00
         0.00000E+00
         0.00000E+00
         0.00000E+00
         0.00000E+00
         0.00000E+00
         0.00000E+00
         0.00000E+00
         0.00000E+00
         0.00000E+00
         0.00000E+00
         0.00000E+00
         0.00000E+00
  
SCALARS                      stress_xx  double 1
LOOKUP_TABLE default
        -0.15258E+11
        -0.11451E+11
        -0.13650E+11
        -0.17029E+11
        -0.30188E+02
        -0.11986E+02
        -0.37015E+01
        -0.31416E+02
        -0.16637E+11
        -0.17810E+11
         0.11353E+02
        -0.33050E+02
        -0.98254E+10
        -0.14537E+11
        -0.11185E+02
        -0.59147E+01
        -0.15908E+11
        -0.15290E+11
        -0.21788E+02
        -0.75661E+01
        -0.91294E+10
         0.61207E+09
         0.51455E+09
        -0.12115E+02
         0.15637E+02
         0.12973E+02
        -0.12748E+11
        -0.42749E+10
        -0.27114E+02
         0.56100E+01
        -0.15440E+11
        -0.15031E+11
        -0.16047E+11
        -0.12458E+02
        -0.94689E+01
        -0.20678E+02
        -0.13382E+11
        -0.14074E+11
        -0.93120E+01
        -0.72820E+01
        -0.11169E+11
        -0.13993E+11
        -0.22276E+01
        -0.62884E+01
        -0.10578E+11
        -0.12703E+11
        -0.75645E+01
        -0.10271E+02
        -0.14067E+11
        -0.54804E+01
        -0.14494E+11
        -0.16089E+02
        -0.12421E+11
        -0.19817E+02
        -0.11562E+11
        -0.12115E+01
        -0.11138E+11
        -0.14232E+11
         0.54993E+01
         0.93926E+01
        -0.15950E+11
        -0.16123E+11
        -0.34402E+01
        -0.22698E+02
        -0.17171E+11
        -0.13740E+02
        -0.18825E+11
        -0.30857E+02
        -0.12925E+11
        -0.96067E+10
         0.24597E+02
        -0.25244E+01
        -0.48009E+10
         0.26343E+02
        -0.28289E+10
        -0.17130E+02
        -0.51824E+09
         0.20780E+01
        -0.34244E+10
         0.56283E+01
        -0.87173E+10
        -0.12433E+11
        -0.23320E+01
        -0.39222E+01
        -0.15830E+11
        -0.18771E+02
        -0.12720E+11
        -0.14760E+02
        -0.16183E+11
        -0.28011E+02
        -0.17863E+11
        -0.16745E+11
        -0.34132E+02
        -0.27104E+02
        -0.17064E+11
         0.10065E+02
        -0.18959E+11
        -0.59007E+01
        -0.19800E+11
        -0.15130E+02
        -0.19495E+11
        -0.18714E+11
        -0.13473E+02
        -0.48864E+02
        -0.14059E+11
        -0.16441E+11
         0.37355E+02
        -0.10568E+03
        -0.96866E+10
         0.27827E+02
        -0.48708E+09
         0.25457E+02
         0.12630E+11
         0.30678E+02
         0.22370E+11
         0.17091E+02
         0.26399E+11
         0.78811E+00
         0.34573E+11
        -0.27710E+01
         0.62486E+11
         0.70385E+01
         0.34641E+11
        -0.32255E+01
        -0.17089E+11
        -0.12910E+02
        -0.28146E+11
        -0.21573E+02
        -0.27020E+11
        -0.19197E+02
        -0.19549E+11
        -0.10038E+02
        -0.14324E+11
        -0.12521E+02
        -0.12074E+11
        -0.17064E+02
        -0.14089E+11
        -0.12609E+02
        -0.20216E+11
        -0.13841E+02
        -0.21200E+11
        -0.18318E+02
        -0.19407E+11
         0.13508E+01
        -0.19110E+11
         0.77763E+01
        -0.20192E+11
        -0.45004E+01
        -0.20058E+11
        -0.16825E+01
        -0.19018E+11
         0.50381E+01
        -0.17787E+11
         0.11966E+02
        -0.15803E+11
         0.13893E+02
        -0.34217E+10
        -0.14245E+10
        -0.22023E+08
        -0.17015E+10
         0.21905E+10
         0.35595E+10
        -0.29031E+10
        -0.41460E+10
        -0.43558E+10
        -0.38320E+10
        -0.30741E+10
        -0.16489E+10
        -0.12669E+10
        -0.37115E+10
        -0.19406E+10
        -0.50909E+10
        -0.32481E+10
        -0.43733E+10
        -0.13654E+10
        -0.20403E+10
        -0.27204E+09
        -0.42610E+10
         0.48873E+09
        -0.13281E+10
        -0.40385E+10
        -0.31348E+10
        -0.47903E+10
        -0.70493E+10
        -0.94758E+10
        -0.59707E+10
        -0.43860E+10
        -0.29713E+10
        -0.19419E+10
         0.24702E+10
         0.29894E+10
         0.17840E+10
         0.29599E+09
        -0.42340E+10
        -0.67042E+10
        -0.81449E+10
        -0.96623E+10
        -0.12996E+11
        -0.10466E+11
         0.50859E+09
         0.12455E+10
         0.22985E+10
         0.21546E+09
         0.12012E+10
         0.64171E+10
         0.13528E+11
         0.18634E+11
         0.96596E+10
         0.49525E+10
         0.75556E+10
         0.15923E+10
         0.47840E+09
         0.89854E+09
         0.14965E+10
         0.33279E+10
         0.35813E+10
         0.70323E+10
         0.17812E+11
         0.49454E+10
        -0.19396E+11
        -0.19906E+11
        -0.12652E+11
        -0.64291E+10
        -0.80759E+09
         0.39664E+10
         0.80156E+10
         0.75381E+10
         0.75160E+10
         0.15362E+11
         0.29201E+11
         0.41623E+11
         0.40997E+11
         0.25442E+11
         0.12638E+11
        -0.32600E+08
         0.32748E+09
         0.31030E+10
         0.20231E+10
         0.66669E+10
         0.88454E+10
        -0.89363E+09
         0.66590E+09
         0.41419E+09
         0.12279E+10
        -0.75282E+09
        -0.28826E+10
        -0.17966E+10
        -0.16462E+09
        -0.45135E+10
        -0.86268E+09
         0.14741E+10
        -0.29592E+09
         0.10325E+10
         0.88739E+09
        -0.10184E+10
        -0.44072E+10
        -0.11540E+09
         0.22561E+09
         0.98357E+07
        -0.38852E+09
        -0.26655E+10
        -0.68089E+10
        -0.11925E+11
        -0.38418E+10
         0.17725E+09
         0.24858E+09
         0.31747E+10
         0.77555E+10
         0.63876E+10
         0.44417E+10
         0.11266E+10
        -0.96496E+10
        -0.15151E+11
        -0.20599E+11
        -0.24873E+11
        -0.19813E+11
        -0.11875E+11
         0.93218E+09
         0.22888E+10
         0.29872E+10
         0.21307E+10
         0.42264E+10
         0.10169E+11
         0.16994E+11
         0.21104E+11
         0.14657E+11
         0.73756E+10
         0.10801E+11
         0.48648E+10
         0.15689E+10
        -0.15134E+10
        -0.57398E+10
        -0.10811E+11
        -0.17224E+11
        -0.23524E+11
        -0.27795E+11
        -0.28442E+11
        -0.28761E+11
        -0.24183E+11
        -0.15117E+11
        -0.79162E+10
        -0.22824E+10
         0.25849E+10
         0.67894E+10
         0.60976E+10
         0.47299E+10
         0.86647E+10
         0.19458E+11
         0.29610E+11
         0.32574E+11
         0.26514E+11
         0.17563E+11
         0.24967E+09
        -0.27761E+09
        -0.17452E+09
         0.11931E+07
         0.44735E+09
         0.89143E+09
         0.18103E+09
         0.11600E+10
         0.99706E+09
         0.12711E+10
         0.53134E+09
        -0.86551E+09
        -0.57580E+09
         0.74391E+09
        -0.21417E+10
         0.72650E+09
         0.15023E+10
         0.36892E+09
         0.80286E+09
         0.51697E+09
        -0.14294E+10
        -0.32902E+10
        -0.10157E+10
         0.15507E+09
         0.22402E+09
         0.15238E+09
        -0.10742E+10
        -0.40772E+10
        -0.79527E+10
        -0.23847E+10
         0.20329E+09
        -0.21871E+09
         0.16820E+09
        -0.10050E+07
        -0.21133E+09
        -0.40444E+09
        -0.48917E+09
        -0.60092E+10
        -0.10841E+11
        -0.15907E+11
        -0.19788E+11
        -0.14047E+11
        -0.78895E+10
        -0.90064E+09
        -0.11153E+10
        -0.19707E+10
        -0.18469E+10
        -0.19136E+10
        -0.19224E+10
        -0.14674E+10
        -0.47163E+09
         0.60560E+09
        -0.47297E+09
         0.15157E+10
        -0.67199E+09
        -0.51072E+09
        -0.11952E+10
        -0.38168E+10
        -0.77061E+10
        -0.13185E+11
        -0.20975E+11
        -0.26705E+11
        -0.28034E+11
        -0.25347E+11
        -0.18145E+11
        -0.11051E+11
        -0.58321E+10
        -0.32044E+10
        -0.26565E+10
        -0.28588E+10
        -0.38467E+10
        -0.56559E+10
        -0.75137E+10
        -0.77626E+10
        -0.55000E+10
        -0.71631E+09
         0.32288E+10
         0.35692E+10
         0.31040E+09
         0.40995E+08
        -0.47908E+09
        -0.34761E+09
        -0.10265E+10
        -0.15692E+10
         0.53415E+09
         0.76267E+09
         0.53673E+09
         0.60684E+09
         0.75704E+09
         0.29311E+09
         0.22864E+09
         0.68163E+09
        -0.41350E+09
         0.55976E+09
         0.76651E+09
         0.22306E+09
         0.42914E+09
         0.28646E+09
        -0.89919E+09
        -0.18422E+10
        -0.58931E+09
         0.78645E+08
        -0.20022E+08
         0.10309E+09
        -0.45850E+09
        -0.22972E+10
        -0.46818E+10
        -0.13460E+10
        -0.91380E+08
        -0.21617E+09
        -0.80088E+09
        -0.19700E+10
        -0.10975E+10
        -0.75140E+09
        -0.21735E+09
        -0.28728E+10
        -0.62833E+10
        -0.10000E+11
        -0.12839E+11
        -0.85389E+10
        -0.45100E+10
        -0.64953E+09
        -0.92772E+09
        -0.13854E+10
        -0.13124E+10
        -0.21323E+10
        -0.37547E+10
        -0.50889E+10
        -0.54694E+10
        -0.33107E+10
        -0.14406E+10
        -0.14020E+10
        -0.10771E+10
        -0.41824E+09
        -0.31420E+09
        -0.13484E+10
        -0.33356E+10
        -0.70296E+10
        -0.13619E+11
        -0.19618E+11
        -0.21367E+11
        -0.17687E+11
        -0.11565E+11
        -0.64736E+10
        -0.30416E+10
        -0.15188E+10
        -0.17381E+10
        -0.24377E+10
        -0.26926E+10
        -0.36389E+10
        -0.63525E+10
        -0.96370E+10
        -0.10596E+11
        -0.82910E+10
        -0.45546E+10
        -0.20942E+10
         0.29641E+09
         0.23046E+09
        -0.30937E+06
        -0.47994E+08
        -0.43780E+09
        -0.85140E+09
         0.42411E+09
         0.51197E+09
         0.31988E+09
         0.41977E+09
         0.51194E+09
         0.36166E+09
         0.23532E+09
         0.45886E+09
        -0.78251E+07
         0.16771E+09
         0.39649E+09
         0.79270E+08
         0.12637E+09
         0.19048E+09
        -0.49353E+09
        -0.90205E+09
        -0.28588E+09
        -0.66085E+08
         0.11820E+09
        -0.80213E+08
        -0.15016E+09
        -0.11986E+10
        -0.27092E+10
        -0.61657E+09
        -0.15648E+09
        -0.11714E+09
        -0.35434E+09
        -0.76152E+09
        -0.25292E+09
        -0.62604E+08
         0.63864E+08
        -0.16046E+10
        -0.39541E+10
        -0.65471E+10
        -0.85684E+10
        -0.53320E+10
        -0.25094E+10
        -0.20935E+09
        -0.15543E+09
        -0.91908E+08
        -0.14504E+09
        -0.48092E+09
        -0.10883E+10
        -0.17372E+10
        -0.21989E+10
        -0.15442E+10
        -0.37098E+09
        -0.93806E+09
        -0.19791E+09
        -0.19196E+09
        -0.11878E+09
        -0.35063E+09
        -0.14672E+10
        -0.45146E+10
        -0.97374E+10
        -0.14273E+11
        -0.15523E+11
        -0.12073E+11
        -0.69100E+10
        -0.31969E+10
        -0.12573E+10
        -0.32628E+09
        -0.16413E+09
        -0.21355E+09
        -0.72182E+08
        -0.18809E+09
        -0.10296E+10
        -0.23607E+10
        -0.33333E+10
        -0.34606E+10
        -0.27016E+10
        -0.17121E+10
         0.15239E+09
         0.10453E+09
         0.67597E+08
         0.54300E+08
        -0.14775E+09
        -0.26563E+09
         0.15772E+09
         0.23757E+09
         0.13058E+09
         0.19376E+09
         0.23649E+09
         0.20227E+09
         0.31564E+08
         0.23713E+09
         0.53055E+08
         0.37803E+07
         0.11444E+09
         0.39400E+08
        -0.28340E+08
         0.33393E+08
        -0.21285E+09
        -0.35227E+09
        -0.58262E+08
        -0.61580E+08
         0.62217E+08
        -0.54439E+08
        -0.39021E+08
        -0.53391E+09
        -0.12676E+10
        -0.26773E+09
        -0.48327E+08
        -0.11415E+08
        -0.17233E+08
        -0.38303E+08
         0.54006E+07
         0.62357E+08
        -0.34558E+08
        -0.79177E+09
        -0.20796E+10
        -0.34320E+10
        -0.44013E+10
        -0.25107E+10
        -0.10423E+10
         0.59895E+08
         0.16828E+09
         0.26974E+09
         0.17600E+09
         0.90933E+08
         0.33827E+08
        -0.70234E+08
        -0.24057E+09
        -0.29620E+09
        -0.20189E+08
        -0.45937E+09
         0.24706E+08
        -0.18848E+09
        -0.14955E+09
        -0.30705E+07
        -0.54923E+09
        -0.26222E+10
        -0.60464E+10
        -0.85980E+10
        -0.85626E+10
        -0.58186E+10
        -0.27567E+10
        -0.99665E+09
        -0.26834E+09
         0.86123E+08
         0.25778E+09
         0.39239E+09
         0.52133E+09
         0.58195E+09
         0.55913E+09
         0.45050E+09
         0.17456E+09
        -0.31832E+09
        -0.63681E+09
        -0.66958E+09
         0.63816E+08
         0.78701E+06
        -0.32276E+08
         0.27929E+07
        -0.21132E+09
        -0.24132E+09
         0.87614E+07
         0.56810E+08
         0.41399E+08
         0.75480E+07
         0.32581E+08
         0.10080E+08
        -0.11319E+09
         0.41567E+08
         0.24112E+08
        -0.51081E+07
        -0.14722E+08
         0.22424E+08
        -0.35112E+07
        -0.60037E+08
         0.40814E+08
        -0.40441E+08
         0.12327E+09
         0.36864E+08
        -0.46382E+08
         0.12384E+08
        -0.44294E+08
        -0.19943E+09
        -0.44529E+09
        -0.12662E+09
        -0.32562E+08
         0.20447E+08
        -0.24802E+08
        -0.53252E+08
        -0.11926E+09
        -0.61245E+08
        -0.13431E+09
        -0.26157E+09
        -0.69702E+09
        -0.11201E+10
        -0.13567E+10
        -0.74684E+09
        -0.26548E+09
         0.15595E+09
         0.19846E+09
         0.21745E+09
         0.84927E+08
        -0.23511E+07
        -0.46502E+08
        -0.92998E+08
        -0.17015E+09
        -0.21176E+09
        -0.15480E+09
        -0.45661E+09
        -0.11086E+09
        -0.24719E+09
        -0.21098E+09
        -0.19707E+08
        -0.11743E+09
        -0.95711E+09
        -0.22749E+10
        -0.30857E+10
        -0.26825E+10
        -0.13659E+10
        -0.25161E+09
         0.19722E+09
         0.26763E+09
         0.26512E+09
         0.27567E+09
         0.34127E+09
         0.33989E+09
         0.27702E+09
         0.16908E+09
         0.73918E+08
        -0.18508E+08
        -0.19438E+09
        -0.36719E+09
        -0.49778E+09
         0.29800E+08
        -0.33891E+08
        -0.74786E+08
        -0.26141E+08
        -0.26654E+09
        -0.29781E+09
        -0.53017E+08
        -0.97230E+07
         0.66430E+07
        -0.20159E+08
        -0.45060E+08
        -0.69772E+08
        -0.16607E+09
        -0.77898E+07
         0.22963E+08
        -0.85936E+07
        -0.38114E+08
         0.14083E+08
         0.46984E+07
        -0.32172E+08
         0.13445E+09
         0.14126E+09
         0.14610E+09
         0.53371E+08
        -0.48950E+08
         0.29304E+08
        -0.41790E+07
        -0.20236E+08
        -0.24687E+08
        -0.55564E+08
        -0.35301E+08
         0.22502E+08
        -0.65772E+08
        -0.14184E+09
        -0.19989E+09
        -0.12695E+09
        -0.17142E+09
         0.20556E+08
        -0.25878E+08
        -0.42531E+08
         0.20369E+08
         0.87021E+08
         0.15924E+09
         0.16317E+09
         0.18044E+09
         0.15364E+09
         0.81887E+07
        -0.11364E+09
        -0.20462E+09
        -0.28716E+09
        -0.36798E+09
        -0.32487E+09
        -0.24743E+09
        -0.50362E+09
        -0.17494E+09
        -0.28472E+09
        -0.26914E+09
        -0.80734E+08
         0.48928E+08
        -0.12809E+09
        -0.37945E+09
        -0.32085E+09
         0.10094E+09
         0.57751E+09
         0.82219E+09
         0.67935E+09
         0.41437E+09
         0.26208E+09
         0.23245E+09
         0.25469E+09
         0.20130E+09
         0.68889E+08
        -0.16059E+09
        -0.35584E+09
        -0.44995E+09
        -0.50841E+09
        -0.51817E+09
        -0.55662E+09
         0.24359E+08
        -0.37394E+08
        -0.74769E+08
        -0.19893E+08
        -0.29128E+09
        -0.34747E+09
        -0.71166E+08
        -0.30634E+08
        -0.23257E+07
        -0.25785E+08
        -0.64216E+08
        -0.79384E+08
        -0.17832E+09
        -0.13343E+08
         0.48128E+08
         0.16398E+07
        -0.41532E+08
         0.28825E+08
         0.32476E+08
        -0.75207E+07
         0.18202E+09
         0.20937E+09
         0.18419E+09
         0.95683E+08
        -0.25606E+08
         0.59512E+08
         0.39497E+08
         0.83350E+08
         0.17154E+09
         0.14502E+08
        -0.15682E+08
         0.50776E+08
        -0.54192E+08
        -0.16030E+09
        -0.21088E+09
        -0.13003E+09
        -0.17642E+09
         0.14524E+09
         0.25484E+09
         0.42033E+09
         0.61357E+09
         0.43238E+09
         0.31118E+09
         0.19351E+09
         0.21080E+09
         0.18445E+09
         0.29868E+08
        -0.11799E+09
        -0.24646E+09
        -0.38153E+09
        -0.51492E+09
        -0.42064E+09
        -0.26494E+09
        -0.57665E+09
        -0.17792E+09
        -0.29115E+09
        -0.26426E+09
        -0.59081E+08
         0.12132E+09
         0.11586E+09
         0.23794E+09
         0.70583E+09
         0.12348E+10
         0.13291E+10
         0.11473E+10
         0.79295E+09
         0.47277E+09
         0.33018E+09
         0.29030E+09
         0.29459E+09
         0.23392E+09
         0.74452E+08
        -0.21828E+09
        -0.50003E+09
        -0.69063E+09
        -0.79458E+09
        -0.75549E+09
        -0.70832E+09
         0.25360E+08
        -0.41600E+08
        -0.68409E+08
        -0.23034E+07
        -0.30074E+09
        -0.35138E+09
        -0.92057E+08
        -0.47194E+08
        -0.28181E+07
        -0.35057E+08
        -0.90786E+08
        -0.11154E+09
        -0.20642E+09
        -0.29330E+08
         0.55971E+08
         0.12138E+08
        -0.40750E+08
         0.44571E+08
         0.51878E+08
         0.31375E+06
         0.19533E+09
         0.22251E+09
         0.20004E+09
         0.12843E+09
        -0.24785E+08
         0.86256E+08
         0.48487E+08
         0.11209E+09
         0.21645E+09
         0.22457E+08
         0.18995E+07
         0.80547E+08
        -0.32112E+08
        -0.13746E+09
        -0.20555E+09
        -0.12332E+09
        -0.18785E+09
         0.22473E+09
         0.39862E+09
         0.58859E+09
         0.77879E+09
         0.49593E+09
         0.33212E+09
         0.20956E+09
         0.22940E+09
         0.20328E+09
         0.69023E+08
        -0.10162E+09
        -0.23941E+09
        -0.37009E+09
        -0.50123E+09
        -0.40953E+09
        -0.26732E+09
        -0.63511E+09
        -0.15211E+09
        -0.27926E+09
        -0.26171E+09
        -0.76089E+08
         0.16205E+09
         0.34295E+09
         0.70612E+09
         0.12086E+10
         0.15854E+10
         0.14783E+10
         0.12304E+10
         0.87105E+09
         0.51013E+09
         0.36997E+09
         0.31828E+09
         0.32451E+09
         0.27225E+09
         0.10627E+09
        -0.19263E+09
        -0.47848E+09
        -0.66666E+09
        -0.77726E+09
        -0.75996E+09
        -0.75503E+09
         0.21211E+08
        -0.53064E+08
        -0.67748E+08
         0.27514E+07
        -0.28829E+09
        -0.32482E+09
        -0.11610E+09
        -0.63733E+08
        -0.77856E+07
        -0.52093E+08
        -0.11989E+09
        -0.15171E+09
        -0.24636E+09
        -0.52215E+08
         0.41879E+08
         0.93045E+07
        -0.51988E+08
         0.45280E+08
         0.40505E+08
        -0.17439E+08
         0.18187E+09
         0.22342E+09
         0.19358E+09
         0.12272E+09
        -0.46540E+08
         0.83987E+08
         0.26629E+08
         0.87282E+08
         0.20693E+09
         0.83326E+06
        -0.24191E+06
         0.75258E+08
        -0.29890E+08
        -0.12191E+09
        -0.19095E+09
        -0.11942E+09
        -0.20619E+09
         0.22417E+09
         0.40596E+09
         0.61426E+09
         0.84606E+09
         0.55305E+09
         0.37117E+09
         0.20148E+09
         0.20828E+09
         0.16596E+09
         0.39806E+08
        -0.11307E+09
        -0.22503E+09
        -0.32180E+09
        -0.42075E+09
        -0.35571E+09
        -0.24223E+09
        -0.61375E+09
        -0.12182E+09
        -0.29729E+09
        -0.32516E+09
        -0.12889E+09
         0.18157E+09
         0.46879E+09
         0.92153E+09
         0.14549E+10
         0.18139E+10
         0.17772E+10
         0.14740E+10
         0.95674E+09
         0.52203E+09
         0.37545E+09
         0.30274E+09
         0.27312E+09
         0.21215E+09
         0.69419E+08
        -0.17199E+09
        -0.38415E+09
        -0.51216E+09
        -0.60964E+09
        -0.62735E+09
        -0.68381E+09
         0.23019E+08
        -0.55995E+08
        -0.78861E+08
        -0.62956E+07
        -0.30840E+09
        -0.35634E+09
        -0.11400E+09
        -0.61728E+08
        -0.87888E+07
        -0.57264E+08
        -0.11429E+09
        -0.14130E+09
        -0.25200E+09
        -0.49130E+08
         0.43206E+08
         0.95695E+07
        -0.60133E+08
         0.44465E+08
         0.36005E+08
        -0.23771E+08
         0.18589E+09
         0.23643E+09
         0.21198E+09
         0.12627E+09
        -0.51055E+08
         0.83684E+08
         0.29889E+08
         0.11672E+09
         0.30589E+09
         0.27177E+08
        -0.11702E+08
         0.57562E+08
        -0.37751E+08
        -0.13814E+09
        -0.20640E+09
        -0.13741E+09
        -0.22206E+09
         0.24226E+09
         0.49991E+09
         0.83812E+09
         0.12135E+10
         0.79096E+09
         0.46778E+09
         0.20812E+09
         0.18218E+09
         0.10816E+09
        -0.16593E+08
        -0.14652E+09
        -0.23333E+09
        -0.33003E+09
        -0.45098E+09
        -0.39496E+09
        -0.25922E+09
        -0.64025E+09
        -0.15388E+09
        -0.34300E+09
        -0.35546E+09
        -0.11152E+09
         0.16476E+09
         0.47083E+09
         0.11384E+10
         0.19885E+10
         0.25999E+10
         0.23763E+10
         0.17119E+10
         0.10123E+10
         0.55700E+09
         0.41949E+09
         0.31570E+09
         0.22910E+09
         0.12889E+09
        -0.17743E+08
        -0.21542E+09
        -0.36126E+09
        -0.49366E+09
        -0.65186E+09
        -0.70987E+09
        -0.74525E+09
         0.24238E+08
        -0.56264E+08
        -0.86314E+08
        -0.12500E+08
        -0.33414E+09
        -0.38454E+09
        -0.10545E+09
        -0.53692E+08
        -0.59393E+07
        -0.49720E+08
        -0.98309E+08
        -0.11803E+09
        -0.23985E+09
        -0.33149E+08
         0.72372E+08
         0.12536E+08
        -0.58878E+08
         0.43623E+08
         0.49684E+08
        -0.22027E+07
         0.22249E+09
         0.29386E+09
         0.23795E+09
         0.14063E+09
        -0.36635E+08
         0.87310E+08
         0.52552E+08
         0.16083E+09
         0.38748E+09
         0.81270E+08
        -0.19476E+08
         0.45420E+08
        -0.39441E+08
        -0.13947E+09
        -0.22001E+09
        -0.14192E+09
        -0.22221E+09
         0.30381E+09
         0.61570E+09
         0.10194E+10
         0.14509E+10
         0.93160E+09
         0.55032E+09
         0.21502E+09
         0.16746E+09
         0.78485E+08
        -0.45130E+08
        -0.16302E+09
        -0.22904E+09
        -0.31528E+09
        -0.44365E+09
        -0.40790E+09
        -0.28354E+09
        -0.69171E+09
        -0.18006E+09
        -0.35550E+09
        -0.34451E+09
        -0.88925E+08
         0.19893E+09
         0.60241E+09
         0.13986E+10
         0.23892E+10
         0.30623E+10
         0.26387E+10
         0.18878E+10
         0.11329E+10
         0.61430E+09
         0.45261E+09
         0.31504E+09
         0.19939E+09
         0.90738E+08
        -0.54469E+08
        -0.23868E+09
        -0.34276E+09
        -0.45629E+09
        -0.64105E+09
        -0.74729E+09
        -0.81465E+09
         0.24847E+08
        -0.42541E+08
        -0.62355E+08
         0.14790E+06
        -0.29590E+09
        -0.32739E+09
        -0.90125E+08
        -0.47662E+08
        -0.40693E+07
        -0.43012E+08
        -0.76597E+08
        -0.83570E+08
        -0.20387E+09
        -0.16100E+08
         0.12117E+09
         0.17862E+08
        -0.51467E+08
         0.44949E+08
         0.63064E+08
         0.19069E+08
         0.25457E+09
         0.32550E+09
         0.25469E+09
         0.14612E+09
        -0.20200E+08
         0.84279E+08
         0.67350E+08
         0.17597E+09
         0.39436E+09
         0.11250E+09
        -0.24494E+08
         0.28990E+08
        -0.37187E+08
        -0.11439E+09
        -0.18260E+09
        -0.98014E+08
        -0.18072E+09
         0.34948E+09
         0.63162E+09
         0.99200E+09
         0.13637E+10
         0.89173E+09
         0.55953E+09
         0.21126E+09
         0.14567E+09
         0.49100E+08
        -0.65524E+08
        -0.17317E+09
        -0.22865E+09
        -0.28707E+09
        -0.37205E+09
        -0.33109E+09
        -0.25107E+09
        -0.63631E+09
        -0.13256E+09
        -0.29655E+09
        -0.29117E+09
        -0.49452E+08
         0.32610E+09
         0.80116E+09
         0.14863E+10
         0.22926E+10
         0.27832E+10
         0.24140E+10
         0.18540E+10
         0.11597E+10
         0.63797E+09
         0.45406E+09
         0.29501E+09
         0.15756E+09
         0.54705E+08
        -0.70322E+08
        -0.25175E+09
        -0.36090E+09
        -0.43205E+09
        -0.52829E+09
        -0.56964E+09
        -0.68238E+09
         0.19619E+08
        -0.37507E+08
        -0.53274E+08
        -0.26205E+07
        -0.26329E+09
        -0.29498E+09
        -0.86375E+08
        -0.50421E+08
        -0.61248E+07
        -0.44483E+08
        -0.73921E+08
        -0.76779E+08
        -0.18665E+09
        -0.17530E+08
         0.12064E+09
         0.13970E+08
        -0.48283E+08
         0.38847E+08
         0.46428E+08
         0.31937E+07
         0.20988E+09
         0.26489E+09
         0.21326E+09
         0.11861E+09
        -0.27443E+08
         0.66811E+08
         0.55049E+08
         0.13121E+09
         0.28240E+09
         0.66625E+08
        -0.33166E+08
         0.19447E+08
        -0.45990E+08
        -0.11782E+09
        -0.16070E+09
        -0.79107E+08
        -0.15591E+09
         0.30397E+09
         0.49821E+09
         0.72761E+09
         0.96501E+09
         0.65898E+09
         0.45221E+09
         0.18260E+09
         0.13230E+09
         0.55548E+08
        -0.56492E+08
        -0.16723E+09
        -0.23187E+09
        -0.29354E+09
        -0.37005E+09
        -0.31273E+09
        -0.22574E+09
        -0.55807E+09
        -0.10945E+09
        -0.25758E+09
        -0.26860E+09
        -0.47202E+08
         0.33830E+09
         0.72482E+09
         0.11560E+10
         0.16271E+10
         0.19102E+10
         0.18682E+10
         0.16039E+10
         0.99218E+09
         0.54655E+09
         0.37711E+09
         0.25538E+09
         0.15625E+09
         0.87171E+08
        -0.14464E+08
        -0.20422E+09
        -0.34798E+09
        -0.44063E+09
        -0.52623E+09
        -0.50769E+09
        -0.57696E+09
         0.11680E+08
        -0.51429E+08
        -0.67422E+08
        -0.13881E+08
        -0.26923E+09
        -0.31109E+09
        -0.10127E+09
        -0.58076E+08
        -0.10330E+08
        -0.42036E+08
        -0.92243E+08
        -0.98582E+08
        -0.20585E+09
        -0.30116E+08
         0.86839E+08
         0.26614E+07
        -0.49535E+08
         0.28331E+08
         0.32860E+08
        -0.74348E+07
         0.16432E+09
         0.21957E+09
         0.18189E+09
         0.10526E+09
        -0.26491E+08
         0.61518E+08
         0.53959E+08
         0.12847E+09
         0.26561E+09
         0.47799E+08
        -0.32034E+08
         0.32995E+08
        -0.49739E+08
        -0.12763E+09
        -0.17456E+09
        -0.10247E+09
        -0.17726E+09
         0.25687E+09
         0.44456E+09
         0.66482E+09
         0.91992E+09
         0.65308E+09
         0.43278E+09
         0.17853E+09
         0.16004E+09
         0.11036E+09
        -0.64399E+07
        -0.12789E+09
        -0.21004E+09
        -0.29170E+09
        -0.38835E+09
        -0.33919E+09
        -0.23162E+09
        -0.54419E+09
        -0.14676E+09
        -0.29602E+09
        -0.30316E+09
        -0.69480E+08
         0.27253E+09
         0.52791E+09
         0.90502E+09
         0.14052E+10
         0.18502E+10
         0.19949E+10
         0.15882E+10
         0.86713E+09
         0.47735E+09
         0.34806E+09
         0.27882E+09
         0.22985E+09
         0.17327E+09
         0.79363E+08
        -0.10910E+09
        -0.28732E+09
        -0.41880E+09
        -0.55161E+09
        -0.57329E+09
        -0.60722E+09
         0.21480E+08
        -0.40696E+08
        -0.59461E+08
        -0.27448E+07
        -0.25116E+09
        -0.28008E+09
        -0.83064E+08
        -0.43024E+08
        -0.64088E+07
        -0.27793E+08
        -0.75747E+08
        -0.80589E+08
        -0.18513E+09
        -0.14981E+08
         0.10212E+09
         0.30867E+07
        -0.47196E+08
         0.30618E+08
         0.53658E+08
         0.13489E+08
         0.21431E+09
         0.26240E+09
         0.23307E+09
         0.13957E+09
        -0.23153E+07
         0.84596E+08
         0.92417E+08
         0.21162E+09
         0.42165E+09
         0.10356E+09
        -0.16927E+08
         0.54762E+08
        -0.30236E+08
        -0.91699E+08
        -0.17166E+09
        -0.10612E+09
        -0.17333E+09
         0.35724E+09
         0.68493E+09
         0.10490E+10
         0.14148E+10
         0.92404E+09
         0.53200E+09
         0.22144E+09
         0.19859E+09
         0.14558E+09
         0.28680E+08
        -0.88494E+08
        -0.15290E+09
        -0.21004E+09
        -0.28974E+09
        -0.27948E+09
        -0.23115E+09
        -0.50080E+09
        -0.18031E+09
        -0.32146E+09
        -0.28996E+09
        -0.51112E+08
         0.30280E+09
         0.76556E+09
         0.15793E+10
         0.24400E+10
         0.29080E+10
         0.26199E+10
         0.17720E+10
         0.95279E+09
         0.59020E+09
         0.44471E+09
         0.35179E+09
         0.28496E+09
         0.20291E+09
         0.99072E+08
        -0.64664E+08
        -0.18846E+09
        -0.26151E+09
        -0.38139E+09
        -0.46002E+09
        -0.54087E+09
         0.26490E+08
        -0.17952E+08
        -0.37386E+08
         0.51501E+07
        -0.21187E+09
        -0.23966E+09
        -0.50556E+08
        -0.27377E+08
        -0.10074E+08
        -0.24977E+08
        -0.46066E+08
        -0.44896E+08
        -0.13003E+09
        -0.74273E+06
         0.96587E+08
         0.20985E+07
        -0.52103E+08
         0.27461E+08
         0.74641E+08
         0.29482E+08
         0.28483E+09
         0.31837E+09
         0.27714E+09
         0.16482E+09
        -0.54083E+07
         0.98805E+08
         0.95471E+08
         0.20085E+09
         0.39903E+09
         0.11659E+09
        -0.90459E+07
         0.64647E+08
        -0.17065E+08
        -0.63186E+08
        -0.13822E+09
        -0.76630E+08
        -0.13131E+09
         0.34215E+09
         0.64843E+09
         0.10003E+10
         0.13621E+10
         0.88750E+09
         0.53339E+09
         0.24109E+09
         0.20815E+09
         0.15474E+09
         0.37325E+08
        -0.67642E+08
        -0.10135E+09
        -0.13273E+09
        -0.20228E+09
        -0.22261E+09
        -0.20108E+09
        -0.43126E+09
        -0.15886E+09
        -0.28101E+09
        -0.22552E+09
        -0.19893E+08
         0.26666E+09
         0.73353E+09
         0.15321E+10
         0.23547E+10
         0.28131E+10
         0.24820E+10
         0.17292E+10
         0.10560E+10
         0.70180E+09
         0.48965E+09
         0.34838E+09
         0.26931E+09
         0.19982E+09
         0.10674E+09
        -0.37810E+08
        -0.10388E+09
        -0.12548E+09
        -0.24424E+09
        -0.35060E+09
        -0.44945E+09
         0.30219E+08
        -0.61428E+07
         0.66565E+07
         0.29274E+08
        -0.13752E+09
        -0.18342E+09
        -0.43725E+08
        -0.15337E+08
        -0.86854E+07
        -0.12924E+08
        -0.30143E+08
        -0.27051E+08
        -0.12118E+09
         0.20346E+08
         0.11019E+09
        -0.10555E+07
        -0.47444E+08
         0.30897E+08
         0.69357E+08
         0.33363E+08
         0.28218E+09
         0.32746E+09
         0.25761E+09
         0.14714E+09
         0.51031E+07
         0.91787E+08
         0.11254E+09
         0.20197E+09
         0.36615E+09
         0.11792E+09
         0.67099E+07
         0.76264E+08
         0.19567E+08
         0.95733E+06
        -0.32828E+08
         0.28848E+07
        -0.10209E+09
         0.33326E+09
         0.58482E+09
         0.87542E+09
         0.11811E+10
         0.80206E+09
         0.52234E+09
         0.22970E+09
         0.22442E+09
         0.20578E+09
         0.88880E+08
         0.14707E+07
        -0.35804E+06
        -0.33761E+06
        -0.76854E+08
        -0.14347E+09
        -0.61148E+08
        -0.36866E+09
        -0.27752E+07
        -0.22167E+09
        -0.20294E+09
         0.14715E+08
         0.26030E+09
         0.63865E+09
         0.13107E+10
         0.20093E+10
         0.23945E+10
         0.22487E+10
         0.16850E+10
         0.10358E+10
         0.64646E+09
         0.41316E+09
         0.30276E+09
         0.29408E+09
         0.28563E+09
         0.22949E+09
         0.11699E+09
         0.76982E+08
         0.69414E+08
        -0.73650E+08
        -0.26011E+09
        -0.41012E+09
         0.53632E+08
         0.32808E+08
         0.13573E+09
         0.12428E+09
         0.74681E+08
         0.35525E+08
        -0.31734E+08
         0.11228E+08
         0.12408E+08
         0.21115E+08
         0.11036E+08
         0.41669E+08
        -0.94562E+08
         0.81819E+08
         0.24151E+09
        -0.22474E+07
        -0.32069E+08
         0.67807E+08
         0.27887E+08
         0.17778E+08
         0.18043E+09
         0.26290E+09
         0.16286E+09
         0.76674E+08
         0.46595E+08
         0.50576E+08
         0.18541E+09
         0.29160E+09
         0.48239E+09
         0.15819E+09
         0.53025E+08
         0.80880E+08
         0.14410E+09
         0.21918E+09
         0.21211E+09
         0.21559E+09
        -0.10453E+08
         0.48508E+09
         0.78179E+09
         0.11198E+10
         0.14386E+10
         0.93558E+09
         0.54760E+09
         0.15915E+09
         0.20026E+09
         0.25249E+09
         0.18443E+09
         0.18412E+09
         0.28170E+09
         0.37193E+09
         0.36008E+09
         0.17600E+09
         0.22968E+09
        -0.14969E+09
         0.33581E+09
        -0.23693E+08
        -0.93836E+08
         0.19033E+09
         0.51958E+09
         0.10070E+10
         0.18665E+10
         0.26858E+10
         0.28943E+10
         0.24812E+10
         0.17013E+10
         0.91334E+09
         0.49283E+09
         0.29326E+09
         0.23469E+09
         0.33727E+09
         0.45249E+09
         0.54584E+09
         0.57960E+09
         0.63577E+09
         0.69171E+09
         0.55322E+09
         0.24681E+09
        -0.91745E+08
         0.50891E+08
         0.67990E+08
         0.28907E+09
         0.20720E+09
         0.36297E+09
         0.34878E+09
        -0.33491E+08
         0.31178E+08
         0.97201E+07
         0.37693E+08
         0.39016E+08
         0.82599E+08
        -0.60850E+08
         0.13944E+09
         0.29196E+09
        -0.72651E+08
        -0.56350E+08
         0.67273E+08
        -0.93615E+08
        -0.83149E+08
        -0.28358E+08
         0.46967E+08
        -0.64796E+08
        -0.10219E+09
         0.18162E+08
        -0.11649E+09
         0.20808E+09
         0.22832E+09
         0.26630E+09
         0.52367E+08
         0.21476E+08
        -0.28296E+08
         0.22663E+09
         0.41739E+09
         0.49480E+09
         0.43319E+09
         0.14146E+09
         0.46206E+09
         0.59440E+09
         0.66708E+09
         0.70451E+09
         0.40355E+09
         0.21678E+09
        -0.64589E+08
         0.56126E+08
         0.25635E+09
         0.24107E+09
         0.32797E+09
         0.52831E+09
         0.73123E+09
         0.81987E+09
         0.55783E+09
         0.60323E+09
         0.30091E+09
         0.69703E+09
         0.28436E+09
         0.52869E+08
         0.23854E+09
         0.52756E+09
         0.90046E+09
         0.14044E+10
         0.16198E+10
         0.14241E+10
         0.11785E+10
         0.91246E+09
         0.54669E+09
         0.31201E+09
         0.16731E+09
         0.12189E+09
         0.35846E+09
         0.68504E+09
         0.95983E+09
         0.10784E+10
         0.11737E+10
         0.12961E+10
         0.12242E+10
         0.91150E+09
         0.48469E+09
        -0.83978E+08
        -0.10528E+09
        -0.93362E+08
        -0.91907E+08
         0.17540E+09
         0.29553E+09
        -0.63653E+08
        -0.39679E+08
         0.13466E+08
         0.67539E+08
        -0.37674E+08
        -0.29240E+07
        -0.11161E+08
         0.39215E+07
         0.12428E+08
        -0.69452E+08
         0.90587E+08
        -0.99389E+08
         0.16997E+09
         0.33525E+09
         0.71770E+09
         0.92695E+09
         0.37905E+09
         0.61974E+08
         0.19173E+09
        -0.14307E+09
         0.11537E+09
         0.15922E+09
         0.45491E+08
         0.37144E+09
        -0.10857E+09
        -0.72432E+08
        -0.45450E+08
         0.11958E+09
         0.90879E+08
        -0.45890E+08
        -0.43936E+08
         0.23787E+08
        -0.15701E+09
        -0.50450E+09
        -0.78522E+09
        -0.14213E+09
         0.64831E+09
         0.92460E+08
         0.18290E+09
         0.57120E+09
         0.47630E+09
         0.42407E+09
         0.43247E+09
         0.55497E+09
         0.72847E+09
         0.48226E+09
         0.28201E+09
         0.66145E+09
         0.12670E+09
         0.74477E+08
        -0.47819E+08
        -0.73668E+08
        -0.83806E+08
        -0.24982E+09
        -0.79682E+09
        -0.16083E+10
        -0.16901E+10
        -0.96363E+08
         0.18136E+10
         0.24941E+10
         0.21220E+10
         0.14001E+10
         0.83227E+09
         0.90424E+09
         0.14905E+10
         0.19157E+10
         0.17314E+10
         0.13848E+10
         0.13184E+10
         0.13266E+10
         0.11742E+10
         0.94821E+09
        -0.16227E+09
        -0.32499E+09
        -0.82626E+09
        -0.60479E+09
        -0.35128E+09
        -0.58979E+08
         0.37382E+08
        -0.69390E+08
         0.20994E+09
         0.30128E+09
        -0.98187E+08
        -0.15511E+08
         0.17301E+09
        -0.23309E+09
        -0.39842E+09
         0.28504E+09
         0.60451E+09
        -0.23026E+09
         0.10698E+10
         0.16111E+10
         0.31362E+10
         0.42131E+10
         0.19354E+10
         0.94878E+09
         0.10225E+10
         0.36741E+09
         0.19214E+09
         0.92227E+09
         0.13180E+10
         0.20199E+10
        -0.51024E+08
         0.28221E+09
        -0.53768E+09
        -0.60392E+09
        -0.86944E+09
        -0.11617E+10
        -0.48885E+09
        -0.26968E+09
        -0.93003E+08
        -0.77074E+08
         0.15666E+09
         0.18130E+10
         0.38224E+10
         0.97490E+09
         0.74828E+09
         0.11781E+10
         0.95034E+09
         0.46097E+09
        -0.12088E+09
        -0.19822E+09
         0.10718E+09
        -0.15292E+08
        -0.52109E+09
         0.10090E+10
        -0.13402E+10
        -0.64174E+09
        -0.10523E+09
        -0.15019E+09
        -0.53421E+09
        -0.10371E+10
        -0.18367E+10
        -0.21524E+10
        -0.69121E+09
         0.36383E+10
         0.82889E+10
         0.93621E+10
         0.71257E+10
         0.42818E+10
         0.23259E+10
         0.16658E+10
         0.24015E+10
         0.29674E+10
         0.20241E+10
         0.87912E+09
         0.66117E+09
         0.93468E+09
         0.11660E+10
         0.13630E+10
  
SCALARS                      stress_yy  double 1
LOOKUP_TABLE default
        -0.15160E+11
        -0.11401E+11
        -0.13660E+11
        -0.17043E+11
        -0.86334E+01
         0.62656E+01
         0.35820E+01
        -0.20958E+02
        -0.16672E+11
        -0.17924E+11
         0.76755E+00
        -0.36872E+02
        -0.97522E+10
        -0.14420E+11
         0.87237E+01
         0.46846E+01
        -0.15826E+11
        -0.15240E+11
        -0.12081E+02
        -0.44649E+01
        -0.90416E+10
         0.61357E+09
         0.45331E+09
         0.94878E+01
         0.21302E+02
         0.23370E+02
        -0.12623E+11
        -0.41403E+10
        -0.78105E+01
         0.55754E+01
        -0.15401E+11
        -0.15015E+11
        -0.16036E+11
        -0.11104E+02
        -0.84731E+01
        -0.13401E+02
        -0.13359E+11
        -0.14126E+11
        -0.66845E+01
        -0.71699E+01
        -0.11200E+11
        -0.14172E+11
         0.39317E+01
        -0.34989E+01
        -0.10503E+11
        -0.12638E+11
         0.43240E+01
        -0.32151E+01
        -0.14164E+11
        -0.70472E+01
        -0.14423E+11
        -0.79851E+01
        -0.12436E+11
        -0.11537E+02
        -0.11805E+11
        -0.97399E+01
        -0.11517E+11
        -0.14458E+11
        -0.17983E+02
        -0.50324E+01
        -0.16044E+11
        -0.16104E+11
        -0.88259E+01
        -0.14459E+02
        -0.17305E+11
        -0.15246E+02
        -0.18987E+11
        -0.34643E+02
        -0.12964E+11
        -0.96746E+10
         0.10114E+02
         0.37038E+01
        -0.48620E+10
         0.24063E+02
        -0.27013E+10
        -0.93302E+01
        -0.73160E+09
        -0.74824E+01
        -0.37312E+10
        -0.14493E+02
        -0.90510E+10
        -0.12792E+11
        -0.26738E+02
        -0.33900E+02
        -0.16181E+11
        -0.27181E+02
        -0.12587E+11
         0.40141E+01
        -0.16053E+11
        -0.63750E+01
        -0.17761E+11
        -0.16785E+11
        -0.22478E+02
        -0.19389E+02
        -0.17303E+11
        -0.19034E+01
        -0.19273E+11
        -0.17733E+02
        -0.20039E+11
        -0.29145E+02
        -0.19657E+11
        -0.18883E+11
        -0.38058E+02
        -0.52450E+02
        -0.14079E+11
        -0.16407E+11
         0.20476E+02
        -0.66025E+02
        -0.98473E+10
         0.17917E+02
        -0.71950E+09
         0.22117E+02
         0.12395E+11
         0.35245E+02
         0.22249E+11
         0.23609E+02
         0.26560E+11
         0.82265E+01
         0.34817E+11
         0.48723E+00
         0.62783E+11
         0.55486E+01
         0.34457E+11
        -0.26733E+02
        -0.17436E+11
        -0.52798E+02
        -0.28495E+11
        -0.34282E+02
        -0.27347E+11
        -0.28093E+02
        -0.19815E+11
        -0.16043E+02
        -0.14423E+11
        -0.85310E+01
        -0.12055E+11
         0.96315E+00
        -0.14025E+11
         0.17274E+02
        -0.20175E+11
         0.38876E+02
        -0.21178E+11
         0.15320E+02
        -0.19490E+11
         0.24381E+01
        -0.19297E+11
         0.10116E+01
        -0.20335E+11
        -0.28401E+02
        -0.20137E+11
        -0.34818E+02
        -0.19058E+11
        -0.54425E+02
        -0.17821E+11
        -0.35519E+02
        -0.15836E+11
        -0.28506E+02
        -0.33905E+10
        -0.14391E+10
        -0.17576E+09
        -0.18863E+10
         0.20374E+10
         0.34985E+10
        -0.28369E+10
        -0.40754E+10
        -0.42785E+10
        -0.38104E+10
        -0.30140E+10
        -0.15891E+10
        -0.12181E+10
        -0.37032E+10
        -0.19829E+10
        -0.49948E+10
        -0.31764E+10
        -0.44692E+10
        -0.12900E+10
        -0.20934E+10
        -0.29061E+09
        -0.44275E+10
         0.52226E+09
        -0.12591E+10
        -0.41315E+10
        -0.30840E+10
        -0.48862E+10
        -0.72503E+10
        -0.97649E+10
        -0.62297E+10
        -0.45106E+10
        -0.30008E+10
        -0.21948E+10
         0.22781E+10
         0.28120E+10
         0.16079E+10
         0.22182E+09
        -0.43828E+10
        -0.69232E+10
        -0.84168E+10
        -0.99639E+10
        -0.13316E+11
        -0.10770E+11
         0.53599E+09
         0.12380E+10
         0.22808E+10
         0.15772E+09
         0.10707E+10
         0.62632E+10
         0.13425E+11
         0.18611E+11
         0.96554E+10
         0.47982E+10
         0.75275E+10
         0.13909E+10
         0.32740E+09
         0.86331E+09
         0.15288E+10
         0.33219E+10
         0.35130E+10
         0.69182E+10
         0.17617E+11
         0.46485E+10
        -0.19739E+11
        -0.20247E+11
        -0.12877E+11
        -0.64930E+10
        -0.79469E+09
         0.39777E+10
         0.79963E+10
         0.75388E+10
         0.74831E+10
         0.15245E+11
         0.29052E+11
         0.41525E+11
         0.41013E+11
         0.25571E+11
         0.12782E+11
        -0.45718E+08
         0.33385E+09
         0.30169E+10
         0.19875E+10
         0.66971E+10
         0.89918E+10
        -0.75012E+09
         0.69415E+09
         0.44850E+09
         0.12369E+10
        -0.66614E+09
        -0.27629E+10
        -0.16169E+10
        -0.19106E+09
        -0.45336E+10
        -0.78298E+09
         0.16020E+10
        -0.35425E+09
         0.12856E+10
         0.98016E+09
        -0.93771E+09
        -0.44608E+10
        -0.51367E+08
         0.37544E+09
        -0.63217E+08
        -0.33602E+09
        -0.27371E+10
        -0.69339E+10
        -0.12104E+11
        -0.39981E+10
         0.15580E+09
         0.23889E+09
         0.31589E+10
         0.78447E+10
         0.63397E+10
         0.43641E+10
         0.11409E+10
        -0.97344E+10
        -0.15285E+11
        -0.20780E+11
        -0.25082E+11
        -0.20018E+11
        -0.12043E+11
         0.90150E+09
         0.22403E+10
         0.29390E+10
         0.20846E+10
         0.41862E+10
         0.10178E+11
         0.17075E+11
         0.21239E+11
         0.14823E+11
         0.73471E+10
         0.10901E+11
         0.48072E+10
         0.15599E+10
        -0.14018E+10
        -0.56271E+10
        -0.10823E+11
        -0.17335E+11
        -0.23699E+11
        -0.28003E+11
        -0.28642E+11
        -0.29002E+11
        -0.24395E+11
        -0.15245E+11
        -0.79710E+10
        -0.23343E+10
         0.24778E+10
         0.67012E+10
         0.60390E+10
         0.46599E+10
         0.85846E+10
         0.19422E+11
         0.29649E+11
         0.32706E+11
         0.26721E+11
         0.17774E+11
         0.27510E+09
        -0.16880E+09
        -0.34634E+08
         0.15758E+09
         0.70153E+09
         0.12459E+10
         0.33622E+09
         0.12235E+10
         0.10390E+10
         0.13829E+10
         0.67557E+09
        -0.68061E+09
        -0.31104E+09
         0.80046E+09
        -0.21079E+10
         0.79552E+09
         0.16451E+10
         0.39882E+09
         0.10345E+10
         0.67518E+09
        -0.13150E+10
        -0.32915E+10
        -0.94723E+09
         0.30156E+09
         0.31995E+09
         0.20716E+09
        -0.10517E+10
        -0.41355E+10
        -0.80896E+10
        -0.24592E+10
         0.25215E+09
        -0.22010E+09
         0.34287E+09
         0.33366E+09
        -0.13214E+08
        -0.22681E+09
        -0.27996E+09
        -0.60387E+10
        -0.10924E+11
        -0.16051E+11
        -0.19969E+11
        -0.14223E+11
        -0.80160E+10
        -0.92446E+09
        -0.11663E+10
        -0.20335E+10
        -0.18818E+10
        -0.18569E+10
        -0.16936E+10
        -0.11009E+10
        -0.62613E+08
         0.10107E+10
        -0.26690E+09
         0.18037E+10
        -0.45092E+09
        -0.25338E+09
        -0.89168E+09
        -0.36114E+10
        -0.76657E+10
        -0.13225E+11
        -0.21074E+11
        -0.26861E+11
        -0.28234E+11
        -0.25564E+11
        -0.18325E+11
        -0.11159E+11
        -0.58824E+10
        -0.32851E+10
        -0.27902E+10
        -0.29478E+10
        -0.39216E+10
        -0.57122E+10
        -0.74934E+10
        -0.75844E+10
        -0.51603E+10
        -0.30817E+09
         0.36443E+10
         0.39483E+10
         0.42470E+09
         0.24732E+09
        -0.22891E+09
        -0.14943E+09
        -0.77563E+09
        -0.13292E+10
         0.78155E+09
         0.95808E+09
         0.70950E+09
         0.84986E+09
         0.10383E+10
         0.53981E+09
         0.56222E+09
         0.92294E+09
        -0.31866E+09
         0.70537E+09
         0.97927E+09
         0.34056E+09
         0.66512E+09
         0.46569E+09
        -0.74333E+09
        -0.18077E+10
        -0.44357E+09
         0.28529E+09
         0.20045E+09
         0.24237E+09
        -0.27854E+09
        -0.22585E+10
        -0.47639E+10
        -0.13269E+10
         0.78342E+07
        -0.17404E+09
        -0.61108E+09
        -0.17187E+10
        -0.84295E+09
        -0.47045E+09
         0.98133E+08
        -0.28463E+10
        -0.63225E+10
        -0.10112E+11
        -0.13000E+11
        -0.86951E+10
        -0.46152E+10
        -0.57552E+09
        -0.93132E+09
        -0.14317E+10
        -0.13313E+10
        -0.20530E+10
        -0.35603E+10
        -0.48454E+10
        -0.52307E+10
        -0.30727E+10
        -0.12051E+10
        -0.11909E+10
        -0.79644E+09
        -0.84889E+08
         0.53772E+08
        -0.11185E+10
        -0.32632E+10
        -0.70251E+10
        -0.13680E+11
        -0.19750E+11
        -0.21561E+11
        -0.17908E+11
        -0.11747E+11
        -0.65554E+10
        -0.30297E+10
        -0.15035E+10
        -0.17734E+10
        -0.24812E+10
        -0.27535E+10
        -0.36773E+10
        -0.63031E+10
        -0.94941E+10
        -0.10395E+11
        -0.80769E+10
        -0.43559E+10
        -0.19031E+10
         0.39314E+09
         0.34683E+09
         0.81578E+08
         0.42082E+07
        -0.38772E+09
        -0.83694E+09
         0.60463E+09
         0.66260E+09
         0.48236E+09
         0.61890E+09
         0.79913E+09
         0.65986E+09
         0.53336E+09
         0.74416E+09
         0.17640E+09
         0.32406E+09
         0.58736E+09
         0.21965E+09
         0.32638E+09
         0.36078E+09
        -0.31919E+09
        -0.83005E+09
        -0.13522E+09
         0.11316E+09
         0.31440E+09
         0.53089E+08
         0.95405E+08
        -0.10967E+10
        -0.27374E+10
        -0.54587E+09
        -0.44410E+08
        -0.96602E+08
        -0.25860E+09
        -0.73012E+09
        -0.16330E+09
         0.84245E+08
         0.29301E+09
        -0.15129E+10
        -0.39500E+10
        -0.66191E+10
        -0.86893E+10
        -0.54466E+10
        -0.25747E+10
        -0.16088E+09
        -0.20586E+09
        -0.18111E+09
        -0.21731E+09
        -0.50141E+09
        -0.10773E+10
        -0.17326E+10
        -0.22045E+10
        -0.15448E+10
        -0.29008E+09
        -0.90324E+09
        -0.37106E+08
         0.97893E+08
         0.21282E+09
        -0.12557E+09
        -0.13526E+10
        -0.44623E+10
        -0.97639E+10
        -0.14373E+11
        -0.15680E+11
        -0.12259E+11
        -0.70624E+10
        -0.32359E+10
        -0.11988E+10
        -0.26845E+09
        -0.19729E+09
        -0.31372E+09
        -0.18041E+09
        -0.28163E+09
        -0.10494E+10
        -0.23429E+10
        -0.33277E+10
        -0.34735E+10
        -0.27203E+10
        -0.17155E+10
         0.21722E+09
         0.20070E+09
         0.68402E+08
         0.11615E+08
        -0.20511E+09
        -0.38164E+09
         0.32437E+09
         0.34644E+09
         0.26593E+09
         0.34917E+09
         0.46829E+09
         0.49391E+09
         0.32319E+09
         0.46703E+09
         0.32313E+09
         0.15242E+09
         0.28375E+09
         0.12974E+09
         0.12757E+09
         0.18651E+09
        -0.10232E+09
        -0.25218E+09
        -0.96565E+08
        -0.44584E+06
         0.22774E+09
        -0.34654E+08
         0.19773E+09
        -0.38024E+09
        -0.12234E+10
        -0.15886E+09
        -0.23335E+08
        -0.79342E+08
        -0.72868E+08
        -0.24727E+09
        -0.17456E+08
         0.15427E+09
         0.22300E+09
        -0.61118E+09
        -0.20141E+10
        -0.34447E+10
        -0.44573E+10
        -0.25541E+10
        -0.10395E+10
        -0.14122E+09
        -0.13020E+09
        -0.17358E+08
        -0.36099E+08
        -0.40485E+08
        -0.11208E+09
        -0.25368E+09
        -0.43702E+09
        -0.47731E+09
        -0.62420E+08
        -0.51345E+09
         0.18320E+09
         0.11883E+09
         0.18440E+09
         0.25046E+09
        -0.37682E+09
        -0.25155E+10
        -0.60266E+10
        -0.86447E+10
        -0.86540E+10
        -0.59311E+10
        -0.28427E+10
        -0.98896E+09
        -0.22353E+09
         0.22499E+08
         0.40907E+08
         0.10686E+09
         0.24816E+09
         0.38806E+09
         0.44822E+09
         0.33667E+09
         0.18645E+08
        -0.51621E+09
        -0.83736E+09
        -0.78830E+09
         0.77650E+08
         0.78739E+08
        -0.44387E+07
        -0.20327E+08
        -0.22148E+09
        -0.27358E+09
         0.11832E+09
         0.10296E+09
         0.92592E+08
         0.10718E+09
         0.20715E+09
         0.29671E+09
         0.16442E+09
         0.21898E+09
         0.28933E+09
         0.51733E+08
         0.77504E+08
         0.57241E+08
         0.63622E+07
         0.54176E+08
        -0.12774E+08
         0.74514E+08
        -0.95074E+08
        -0.56315E+08
         0.95773E+08
        -0.58142E+08
         0.17219E+09
         0.30577E+08
        -0.20034E+09
         0.35653E+08
        -0.26286E+08
        -0.68244E+08
        -0.54455E+08
        -0.15130E+09
        -0.88648E+08
         0.68386E+08
         0.11447E+09
         0.27701E+08
        -0.42112E+09
        -0.89212E+09
        -0.11819E+10
        -0.49416E+09
        -0.52396E+08
        -0.12574E+09
        -0.10603E+09
        -0.79560E+08
        -0.81494E+08
        -0.92186E+08
        -0.13181E+09
        -0.19055E+09
        -0.26208E+09
        -0.28326E+09
        -0.14232E+09
        -0.46542E+09
         0.11561E+09
         0.42649E+08
         0.91850E+08
         0.26776E+09
         0.10793E+09
        -0.75945E+09
        -0.21384E+10
        -0.29917E+10
        -0.26083E+10
        -0.13039E+10
        -0.12839E+09
         0.33482E+09
         0.24134E+09
         0.39631E+08
        -0.15385E+08
         0.44808E+08
         0.56223E+08
         0.58360E+08
         0.68566E+08
         0.37802E+07
        -0.10115E+09
        -0.28774E+09
        -0.44354E+09
        -0.52166E+09
         0.26195E+08
         0.34073E+08
        -0.34674E+08
        -0.45365E+08
        -0.25803E+09
        -0.31236E+09
         0.24129E+08
        -0.73432E+07
         0.13753E+08
        -0.14631E+08
         0.63658E+08
         0.14474E+09
         0.64013E+08
         0.75221E+08
         0.22126E+09
         0.10669E+08
        -0.34620E+08
         0.30580E+08
        -0.63846E+08
        -0.32498E+08
         0.75892E+07
         0.20325E+09
        -0.11093E+09
        -0.91385E+08
         0.13958E+08
        -0.67755E+08
         0.12985E+09
         0.19381E+09
         0.22402E+09
         0.11300E+09
        -0.34244E+08
        -0.65640E+08
        -0.83234E+08
        -0.20446E+09
        -0.12818E+09
         0.29542E+08
         0.62962E+08
         0.22702E+09
         0.22131E+09
         0.24398E+09
         0.31948E+09
         0.34586E+09
         0.33902E+09
        -0.13530E+09
        -0.11483E+09
        -0.11711E+09
        -0.12187E+09
        -0.16484E+09
        -0.25716E+09
        -0.35247E+09
        -0.42838E+09
        -0.36713E+09
        -0.19391E+09
        -0.50168E+09
         0.39023E+08
        -0.16518E+08
        -0.13742E+07
         0.15806E+09
         0.23089E+09
         0.78208E+08
        -0.12601E+09
        -0.25687E+08
         0.41456E+09
         0.85366E+09
         0.10367E+10
         0.85336E+09
         0.37930E+09
         0.14653E+08
        -0.62466E+08
        -0.34327E+08
        -0.66460E+08
        -0.12504E+09
        -0.22343E+09
        -0.38883E+09
        -0.50497E+09
        -0.57342E+09
        -0.56614E+09
        -0.57111E+09
         0.15773E+08
         0.28188E+08
        -0.37375E+08
        -0.45083E+08
        -0.29608E+09
        -0.38299E+09
        -0.20781E+07
        -0.45270E+08
        -0.86258E+07
        -0.59788E+08
         0.23689E+08
         0.10948E+09
         0.44898E+08
         0.32783E+08
         0.20311E+09
         0.13186E+08
        -0.67926E+08
         0.42354E+08
        -0.72501E+08
        -0.59864E+08
         0.33599E+08
         0.21949E+09
        -0.66086E+08
        -0.92408E+08
        -0.18553E+08
        -0.67401E+08
         0.12098E+09
         0.25960E+09
         0.37442E+09
         0.13305E+09
        -0.26788E+08
        -0.61633E+08
        -0.86120E+08
        -0.24910E+09
        -0.14300E+09
         0.33337E+08
         0.60948E+08
         0.29620E+09
         0.44124E+09
         0.64260E+09
         0.84330E+09
         0.62846E+09
         0.44260E+09
        -0.10044E+09
        -0.94619E+08
        -0.10343E+09
        -0.12618E+09
        -0.19290E+09
        -0.32082E+09
        -0.47043E+09
        -0.60129E+09
        -0.48697E+09
        -0.21238E+09
        -0.59407E+09
         0.38919E+08
        -0.19056E+08
        -0.38292E+07
         0.15775E+09
         0.26220E+09
         0.26517E+09
         0.43040E+09
         0.94082E+09
         0.14837E+10
         0.15442E+10
         0.13189E+10
         0.91358E+09
         0.41582E+09
         0.11596E+09
         0.12168E+08
         0.12222E+08
        -0.31996E+08
        -0.12448E+09
        -0.29080E+09
        -0.55357E+09
        -0.77223E+09
        -0.88872E+09
        -0.83345E+09
        -0.75415E+09
         0.15472E+08
         0.31530E+08
        -0.30129E+08
        -0.30813E+08
        -0.31680E+09
        -0.40368E+09
        -0.15418E+08
        -0.71664E+08
        -0.12149E+08
        -0.91046E+08
         0.31571E+07
         0.10217E+09
         0.49406E+08
         0.51507E+07
         0.20333E+09
         0.21899E+08
        -0.75582E+08
         0.61646E+08
        -0.79330E+08
        -0.75114E+08
         0.36631E+08
         0.21428E+09
        -0.55637E+08
        -0.10785E+09
        -0.40114E+08
        -0.80471E+08
         0.10481E+09
         0.27174E+09
         0.40958E+09
         0.13816E+09
        -0.23806E+08
        -0.75009E+08
        -0.82887E+08
        -0.24835E+09
        -0.14881E+09
         0.54095E+08
         0.81099E+08
         0.35480E+09
         0.55995E+09
         0.78889E+09
         0.99485E+09
         0.68739E+09
         0.45635E+09
        -0.93716E+08
        -0.87162E+08
        -0.93984E+08
        -0.15564E+09
        -0.21676E+09
        -0.34054E+09
        -0.48906E+09
        -0.62102E+09
        -0.50401E+09
        -0.22591E+09
        -0.66727E+09
         0.67932E+08
        -0.64138E+06
         0.61117E+07
         0.15191E+09
         0.29613E+09
         0.47160E+09
         0.87017E+09
         0.14162E+10
         0.18206E+10
         0.16932E+10
         0.13921E+10
         0.96470E+09
         0.43115E+09
         0.14652E+09
         0.25993E+08
         0.23634E+08
        -0.13173E+08
        -0.11352E+09
        -0.29424E+09
        -0.56407E+09
        -0.78353E+09
        -0.91065E+09
        -0.87435E+09
        -0.82557E+09
         0.89234E+07
         0.24402E+08
        -0.20962E+08
        -0.23374E+08
        -0.29564E+09
        -0.37326E+09
        -0.37507E+08
        -0.96363E+08
        -0.21233E+08
        -0.11989E+09
        -0.23741E+08
         0.76946E+08
         0.25114E+08
        -0.25757E+08
         0.18488E+09
         0.18056E+08
        -0.90545E+08
         0.62744E+08
        -0.95811E+08
        -0.86446E+08
         0.24558E+08
         0.23602E+09
        -0.63114E+08
        -0.11924E+09
        -0.65136E+08
        -0.88127E+08
         0.68174E+08
         0.23573E+09
         0.39231E+09
         0.15004E+09
        -0.33543E+08
        -0.94773E+08
        -0.90261E+08
        -0.23683E+09
        -0.12718E+09
         0.69815E+08
         0.76831E+08
         0.34333E+09
         0.55268E+09
         0.79955E+09
         0.10523E+10
         0.74867E+09
         0.52006E+09
        -0.10756E+09
        -0.11894E+09
        -0.13975E+09
        -0.18995E+09
        -0.23594E+09
        -0.33661E+09
        -0.45046E+09
        -0.54897E+09
        -0.45404E+09
        -0.19615E+09
        -0.63684E+09
         0.10555E+09
        -0.10720E+08
        -0.48357E+08
         0.93258E+08
         0.30836E+09
         0.58525E+09
         0.10693E+10
         0.16447E+10
         0.20381E+10
         0.20019E+10
         0.16642E+10
         0.10701E+10
         0.44758E+09
         0.15136E+09
         0.24814E+07
        -0.44453E+08
        -0.90630E+08
        -0.16413E+09
        -0.29115E+09
        -0.48799E+09
        -0.64441E+09
        -0.75404E+09
        -0.74635E+09
        -0.74828E+09
         0.82380E+07
         0.16932E+08
        -0.33027E+08
        -0.36323E+08
        -0.31415E+09
        -0.40376E+09
        -0.46051E+08
        -0.99423E+08
        -0.24026E+08
        -0.12746E+09
        -0.35205E+08
         0.56284E+08
         0.12766E+07
        -0.31931E+08
         0.16939E+09
         0.21754E+08
        -0.10307E+09
         0.60728E+08
        -0.10015E+09
        -0.99670E+08
         0.33541E+08
         0.25339E+09
        -0.40394E+08
        -0.10565E+09
        -0.74447E+08
        -0.81043E+08
         0.71650E+08
         0.25718E+09
         0.47659E+09
         0.17002E+09
        -0.50606E+08
        -0.11776E+09
        -0.10575E+09
        -0.25445E+09
        -0.14620E+09
         0.45361E+08
         0.50023E+08
         0.35909E+09
         0.64227E+09
         0.10100E+10
         0.14023E+10
         0.97349E+09
         0.61398E+09
        -0.10059E+09
        -0.14525E+09
        -0.19450E+09
        -0.24265E+09
        -0.27704E+09
        -0.35221E+09
        -0.46061E+09
        -0.57586E+09
        -0.49019E+09
        -0.21775E+09
        -0.65655E+09
         0.67535E+08
        -0.58800E+08
        -0.86242E+08
         0.83518E+08
         0.27159E+09
         0.58514E+09
         0.12852E+10
         0.21647E+10
         0.28052E+10
         0.25903E+10
         0.19058E+10
         0.11360E+10
         0.49482E+09
         0.20428E+09
         0.17663E+08
        -0.90594E+08
        -0.17565E+09
        -0.25652E+09
        -0.34966E+09
        -0.47752E+09
        -0.62949E+09
        -0.78943E+09
        -0.81847E+09
        -0.80110E+09
         0.83900E+07
         0.77737E+07
        -0.57372E+08
        -0.49346E+08
        -0.36315E+09
        -0.44352E+09
        -0.52544E+08
        -0.98023E+08
        -0.21609E+08
        -0.12192E+09
        -0.40799E+08
         0.43039E+08
        -0.15896E+08
        -0.26713E+08
         0.18230E+09
         0.26384E+08
        -0.10692E+09
         0.59742E+08
        -0.89695E+08
        -0.10641E+09
         0.69436E+08
         0.28284E+09
        -0.12738E+08
        -0.83658E+08
        -0.73867E+08
        -0.71742E+08
         0.91817E+08
         0.29468E+09
         0.53549E+09
         0.16136E+09
        -0.61059E+08
        -0.13018E+09
        -0.11082E+09
        -0.25499E+09
        -0.19693E+09
         0.34484E+07
         0.23506E+08
         0.42085E+09
         0.75684E+09
         0.11782E+10
         0.16150E+10
         0.10783E+10
         0.65141E+09
        -0.93608E+08
        -0.16319E+09
        -0.22778E+09
        -0.27437E+09
        -0.29964E+09
        -0.35082E+09
        -0.44338E+09
        -0.56268E+09
        -0.50237E+09
        -0.28053E+09
        -0.73013E+09
        -0.26476E+07
        -0.93633E+08
        -0.97449E+08
         0.73917E+08
         0.28838E+09
         0.71898E+09
         0.15476E+10
         0.25532E+10
         0.32418E+10
         0.28134E+10
         0.20397E+10
         0.12365E+10
         0.55487E+09
         0.24175E+09
         0.18119E+08
        -0.12500E+09
        -0.22044E+09
        -0.30217E+09
        -0.38309E+09
        -0.46145E+09
        -0.58559E+09
        -0.76715E+09
        -0.85203E+09
        -0.88428E+09
         0.10662E+08
         0.12853E+08
        -0.47987E+08
        -0.34301E+08
        -0.34071E+09
        -0.39044E+09
        -0.46766E+08
        -0.94879E+08
        -0.17713E+08
        -0.11448E+09
        -0.30263E+08
         0.60122E+08
        -0.31349E+07
        -0.17132E+08
         0.22044E+09
         0.34503E+08
        -0.10087E+09
         0.64179E+08
        -0.67733E+08
        -0.97679E+08
         0.99936E+08
         0.30274E+09
         0.46850E+07
        -0.55155E+08
        -0.65037E+08
        -0.57620E+08
         0.98418E+08
         0.30102E+09
         0.52624E+09
         0.15301E+09
        -0.62285E+08
        -0.13274E+09
        -0.10295E+09
        -0.22676E+09
        -0.18968E+09
         0.93894E+07
         0.35416E+08
         0.45824E+09
         0.76563E+09
         0.11414E+10
         0.15130E+10
         0.10168E+10
         0.63676E+09
        -0.95349E+08
        -0.18401E+09
        -0.25290E+09
        -0.28961E+09
        -0.30717E+09
        -0.34689E+09
        -0.41071E+09
        -0.48790E+09
        -0.42409E+09
        -0.27776E+09
        -0.68965E+09
         0.34920E+07
        -0.56266E+08
        -0.63572E+08
         0.10336E+09
         0.40610E+09
         0.90812E+09
         0.16263E+10
         0.24480E+10
         0.29483E+10
         0.25695E+10
         0.19904E+10
         0.12606E+10
         0.57621E+09
         0.23765E+09
        -0.24740E+07
        -0.16271E+09
        -0.24993E+09
        -0.31334E+09
        -0.39374E+09
        -0.47276E+09
        -0.55379E+09
        -0.65177E+09
        -0.67618E+09
        -0.75908E+09
         0.64215E+07
         0.13346E+08
        -0.38797E+08
        -0.30469E+08
        -0.29695E+09
        -0.34716E+09
        -0.42789E+08
        -0.92703E+08
        -0.15471E+08
        -0.10578E+09
        -0.24447E+08
         0.68501E+08
         0.89678E+07
        -0.14101E+08
         0.21795E+09
         0.34812E+08
        -0.89478E+08
         0.60160E+08
        -0.65637E+08
        -0.90531E+08
         0.67971E+08
         0.26310E+09
        -0.34636E+08
        -0.66605E+08
        -0.54734E+08
        -0.69058E+08
         0.96006E+08
         0.27327E+09
         0.43568E+09
         0.14475E+09
        -0.70612E+08
        -0.14164E+09
        -0.10772E+09
        -0.22632E+09
        -0.16274E+09
         0.19697E+08
         0.47677E+08
         0.41259E+09
         0.63976E+09
         0.89205E+09
         0.11333E+10
         0.80780E+09
         0.55554E+09
        -0.12238E+09
        -0.18960E+09
        -0.23905E+09
        -0.27778E+09
        -0.30092E+09
        -0.35010E+09
        -0.41809E+09
        -0.48761E+09
        -0.40225E+09
        -0.24707E+09
        -0.59670E+09
         0.21185E+08
        -0.19308E+08
        -0.39054E+08
         0.11382E+09
         0.41670E+09
         0.82665E+09
         0.12985E+10
         0.17954E+10
         0.20934E+10
         0.20490E+10
         0.17629E+10
         0.11099E+10
         0.49906E+09
         0.15624E+09
        -0.40847E+08
        -0.15243E+09
        -0.20952E+09
        -0.25445E+09
        -0.34626E+09
        -0.46216E+09
        -0.56813E+09
        -0.65664E+09
        -0.61473E+09
        -0.64016E+09
        -0.88251E+07
        -0.95175E+07
        -0.57145E+08
        -0.47670E+08
        -0.29388E+09
        -0.35850E+09
        -0.62354E+08
        -0.10038E+09
        -0.22198E+08
        -0.99282E+08
        -0.45098E+08
         0.40057E+08
        -0.19178E+08
        -0.27165E+08
         0.17482E+09
         0.16249E+08
        -0.85314E+08
         0.41247E+08
        -0.81479E+08
        -0.82010E+08
         0.28958E+08
         0.23177E+09
        -0.56991E+08
        -0.97151E+08
        -0.38377E+08
        -0.91225E+08
         0.98055E+08
         0.27623E+09
         0.43997E+09
         0.17412E+09
        -0.74684E+08
        -0.13905E+09
        -0.11273E+09
        -0.23691E+09
        -0.16825E+09
        -0.70670E+07
         0.16138E+08
         0.35883E+09
         0.58796E+09
         0.84370E+09
         0.11133E+10
         0.83479E+09
         0.56998E+09
        -0.12036E+09
        -0.16081E+09
        -0.19203E+09
        -0.23822E+09
        -0.26353E+09
        -0.32596E+09
        -0.41471E+09
        -0.50537E+09
        -0.42793E+09
        -0.24164E+09
        -0.56884E+09
        -0.77320E+07
        -0.53364E+08
        -0.73820E+08
         0.80832E+08
         0.34262E+09
         0.62171E+09
         0.10473E+10
         0.15878E+10
         0.20614E+10
         0.22146E+10
         0.17800E+10
         0.98600E+09
         0.42905E+09
         0.14275E+09
        -0.69933E+07
        -0.81253E+08
        -0.13215E+09
        -0.16714E+09
        -0.24767E+09
        -0.39578E+09
        -0.54383E+09
        -0.68232E+09
        -0.68178E+09
        -0.66283E+09
        -0.86648E+07
        -0.12164E+08
        -0.60725E+08
        -0.46544E+08
        -0.27629E+09
        -0.32432E+09
        -0.57191E+08
        -0.91607E+08
        -0.29065E+08
        -0.96903E+08
        -0.45754E+08
         0.27078E+08
        -0.25581E+08
        -0.28923E+08
         0.17480E+09
        -0.51800E+06
        -0.94199E+08
         0.29799E+08
        -0.82903E+08
        -0.80216E+08
         0.66474E+08
         0.25506E+09
        -0.10895E+08
        -0.89683E+08
        -0.35106E+08
        -0.85693E+08
         0.10316E+09
         0.32807E+09
         0.57064E+09
         0.19722E+09
        -0.62835E+08
        -0.11847E+09
        -0.92342E+08
        -0.20763E+09
        -0.17128E+09
        -0.27615E+08
        -0.31214E+07
         0.43833E+09
         0.80322E+09
         0.12037E+10
         0.15877E+10
         0.10876E+10
         0.65196E+09
        -0.77908E+08
        -0.12426E+09
        -0.16258E+09
        -0.21392E+09
        -0.22676E+09
        -0.26440E+09
        -0.32750E+09
        -0.40071E+09
        -0.36343E+09
        -0.24236E+09
        -0.51854E+09
        -0.51475E+08
        -0.93068E+08
        -0.83349E+08
         0.75460E+08
         0.35854E+09
         0.84177E+09
         0.16978E+10
         0.25988E+10
         0.31003E+10
         0.28264E+10
         0.19534E+10
         0.10529E+10
         0.52905E+09
         0.23864E+09
         0.67540E+08
        -0.28013E+08
        -0.10183E+09
        -0.14646E+09
        -0.19734E+09
        -0.28405E+09
        -0.37435E+09
        -0.50359E+09
        -0.55976E+09
        -0.58469E+09
        -0.79476E+07
        -0.35830E+07
        -0.49608E+08
        -0.38153E+08
        -0.24210E+09
        -0.27159E+09
        -0.37571E+08
        -0.77443E+08
        -0.39541E+08
        -0.10163E+09
        -0.27788E+08
         0.38305E+08
        -0.49996E+07
        -0.20640E+08
         0.17277E+09
        -0.12240E+08
        -0.10973E+09
         0.19781E+08
        -0.78879E+08
        -0.88362E+08
         0.10004E+09
         0.27628E+09
         0.10355E+08
        -0.77431E+08
        -0.63691E+08
        -0.77276E+08
         0.82775E+08
         0.28837E+09
         0.51690E+09
         0.15401E+09
        -0.54444E+08
        -0.10636E+09
        -0.69314E+08
        -0.15680E+09
        -0.15508E+09
        -0.23767E+08
         0.57196E+07
         0.41653E+09
         0.74805E+09
         0.11290E+10
         0.15074E+10
         0.10224E+10
         0.62389E+09
        -0.65857E+08
        -0.11709E+09
        -0.15829E+09
        -0.19508E+09
        -0.19233E+09
        -0.21349E+09
        -0.24295E+09
        -0.29576E+09
        -0.28764E+09
        -0.22535E+09
        -0.44348E+09
        -0.48970E+08
        -0.63649E+08
        -0.34203E+08
         0.10031E+09
         0.32963E+09
         0.80359E+09
         0.16317E+10
         0.24877E+10
         0.29786E+10
         0.26631E+10
         0.18871E+10
         0.11257E+10
         0.59726E+09
         0.25306E+09
         0.53114E+08
        -0.44754E+08
        -0.10276E+09
        -0.13815E+09
        -0.17165E+09
        -0.19112E+09
        -0.22361E+09
        -0.34298E+09
        -0.41508E+09
        -0.46306E+09
        -0.16697E+08
        -0.96623E+06
        -0.20537E+08
        -0.16605E+08
        -0.18622E+09
        -0.19757E+09
        -0.32579E+08
        -0.75560E+08
        -0.49253E+08
        -0.10144E+09
        -0.52616E+07
         0.75501E+08
         0.11349E+08
         0.31504E+07
         0.21157E+09
        -0.13915E+08
        -0.10771E+09
         0.15600E+08
        -0.70413E+08
        -0.72868E+08
         0.80471E+08
         0.29724E+09
        -0.22453E+08
        -0.73618E+08
        -0.59557E+08
        -0.70245E+08
         0.94634E+08
         0.27704E+09
         0.48205E+09
         0.16977E+09
        -0.33939E+08
        -0.83442E+08
        -0.25570E+08
        -0.67837E+08
        -0.78831E+08
         0.39224E+08
         0.32335E+08
         0.41516E+09
         0.68459E+09
         0.10038E+10
         0.13293E+10
         0.94622E+09
         0.63431E+09
        -0.80744E+08
        -0.10058E+09
        -0.10579E+09
        -0.12118E+09
        -0.97438E+08
        -0.89765E+08
        -0.10792E+09
        -0.14888E+09
        -0.17187E+09
        -0.11543E+09
        -0.39455E+09
         0.87965E+08
         0.62615E+07
         0.99728E+07
         0.15885E+09
         0.35851E+09
         0.72336E+09
         0.14127E+10
         0.21439E+10
         0.25637E+10
         0.24433E+10
         0.18704E+10
         0.11170E+10
         0.50959E+09
         0.15047E+09
        -0.16578E+07
        -0.21057E+08
        -0.44991E+07
         0.24841E+08
         0.14023E+08
         0.58907E+07
        -0.45175E+07
        -0.12027E+09
        -0.25167E+09
        -0.38513E+09
        -0.22035E+08
         0.11360E+08
         0.53423E+08
         0.57390E+08
        -0.34096E+08
         0.33104E+08
        -0.23045E+08
        -0.73975E+08
        -0.49051E+08
        -0.89898E+08
         0.46737E+08
         0.18205E+09
         0.59965E+08
         0.57253E+08
         0.33059E+09
        -0.37554E+07
        -0.91840E+08
         0.35982E+08
        -0.67290E+08
        -0.60378E+08
         0.50921E+08
         0.27916E+09
        -0.68023E+08
        -0.79457E+08
        -0.25183E+08
        -0.73052E+08
         0.14771E+09
         0.33395E+09
         0.57445E+09
         0.20637E+09
         0.21941E+08
        -0.54824E+08
         0.96423E+08
         0.15951E+09
         0.90680E+08
         0.16773E+09
         0.95338E+08
         0.55277E+09
         0.86208E+09
         0.12237E+10
         0.15588E+10
         0.10578E+10
         0.65737E+09
        -0.11501E+09
        -0.68047E+08
         0.33101E+08
         0.50094E+08
         0.12688E+09
         0.23109E+09
         0.32740E+09
         0.36356E+09
         0.20316E+09
         0.11702E+09
        -0.20999E+09
         0.32291E+09
         0.13237E+09
         0.11296E+09
         0.32530E+09
         0.61432E+09
         0.10890E+10
         0.19531E+10
         0.27942E+10
         0.30294E+10
         0.26476E+10
         0.18784E+10
         0.10323E+10
         0.45491E+09
         0.87288E+08
        -0.43832E+08
         0.62532E+08
         0.24891E+09
         0.44133E+09
         0.53653E+09
         0.60552E+09
         0.67077E+09
         0.57461E+09
         0.31063E+09
        -0.45428E+08
        -0.54374E+08
         0.14997E+07
         0.12225E+09
         0.11089E+09
         0.21575E+09
         0.33574E+09
        -0.29042E+08
        -0.74193E+08
        -0.66965E+08
        -0.77612E+08
         0.87207E+08
         0.22217E+09
         0.88701E+08
         0.11397E+09
         0.37310E+09
        -0.50433E+08
        -0.91428E+08
         0.21174E+08
        -0.12407E+09
        -0.85638E+08
        -0.30659E+08
         0.11989E+09
        -0.16553E+09
        -0.20776E+09
        -0.15758E+08
        -0.22939E+09
         0.18532E+09
         0.27857E+09
         0.34801E+09
         0.13027E+09
        -0.44965E+06
        -0.18780E+09
         0.18943E+09
         0.38333E+09
         0.31845E+09
         0.30105E+09
         0.15034E+09
         0.52469E+09
         0.66126E+09
         0.74612E+09
         0.78831E+09
         0.49492E+09
         0.32100E+09
        -0.26614E+09
        -0.16157E+09
         0.84931E+08
         0.14215E+09
         0.31138E+09
         0.53373E+09
         0.74509E+09
         0.87112E+09
         0.60689E+09
         0.43700E+09
         0.21649E+09
         0.59624E+09
         0.28384E+09
         0.16930E+09
         0.34948E+09
         0.61141E+09
         0.97285E+09
         0.14683E+10
         0.16928E+10
         0.15105E+10
         0.12925E+10
         0.10595E+10
         0.69013E+09
         0.39480E+09
         0.13476E+09
        -0.44095E+08
         0.14555E+09
         0.52611E+09
         0.89061E+09
         0.10725E+10
         0.11938E+10
         0.13282E+10
         0.12938E+10
         0.99809E+09
         0.52717E+09
        -0.14293E+09
        -0.15480E+09
        -0.10838E+09
        -0.98476E+08
         0.19849E+09
         0.34403E+09
        -0.10575E+09
        -0.98233E+08
        -0.55269E+08
        -0.12203E+08
        -0.25822E+08
         0.81055E+08
        -0.36419E+08
         0.19772E+08
         0.16772E+09
        -0.13579E+09
         0.18126E+08
        -0.12476E+09
         0.51220E+08
         0.23920E+09
         0.62185E+09
         0.88258E+09
         0.25021E+09
        -0.73457E+08
         0.14727E+09
        -0.28482E+09
         0.14422E+09
         0.22840E+09
         0.11372E+09
         0.38598E+09
        -0.15703E+09
        -0.21182E+09
        -0.73865E+07
         0.18613E+09
         0.95734E+08
        -0.65902E+08
        -0.93331E+08
         0.13452E+09
        -0.77006E+08
        -0.43389E+09
        -0.72422E+09
        -0.89856E+08
         0.67275E+09
        -0.70939E+08
         0.52692E+07
         0.41225E+09
         0.37308E+09
         0.42447E+09
         0.51582E+09
         0.66462E+09
         0.83608E+09
         0.56692E+09
         0.29361E+09
         0.69967E+09
         0.96761E+08
         0.24863E+07
        -0.50660E+08
         0.11270E+07
         0.23521E+08
        -0.14102E+09
        -0.70906E+09
        -0.15355E+10
        -0.16236E+10
        -0.24753E+08
         0.18829E+10
         0.25125E+10
         0.20857E+10
         0.13148E+10
         0.69207E+09
         0.72814E+09
         0.13376E+10
         0.18445E+10
         0.17528E+10
         0.14705E+10
         0.14252E+10
         0.14325E+10
         0.12612E+10
         0.10150E+10
        -0.20819E+09
        -0.37520E+09
        -0.75612E+09
        -0.56683E+09
        -0.21126E+09
         0.51373E+08
        -0.59209E+08
        -0.11617E+09
         0.12450E+09
         0.20579E+09
        -0.14301E+09
        -0.79744E+08
         0.23268E+08
        -0.21445E+09
        -0.28426E+09
         0.13337E+09
         0.45546E+09
        -0.26206E+09
         0.84710E+09
         0.13921E+10
         0.29224E+10
         0.40371E+10
         0.17128E+10
         0.72200E+09
         0.88000E+09
         0.14830E+09
         0.17550E+09
         0.86323E+09
         0.12831E+10
         0.18820E+10
        -0.15047E+09
         0.81009E+08
        -0.47675E+09
        -0.49993E+09
        -0.73901E+09
        -0.10920E+10
        -0.54686E+09
        -0.16198E+09
        -0.56103E+08
        -0.60248E+08
         0.16217E+09
         0.17800E+10
         0.37188E+10
         0.73952E+09
         0.51476E+09
         0.97356E+09
         0.80628E+09
         0.45370E+09
        -0.25217E+07
        -0.50797E+08
         0.23949E+09
         0.89955E+08
        -0.38002E+09
         0.11573E+10
        -0.12751E+10
        -0.69673E+09
        -0.22661E+09
        -0.16696E+09
        -0.39478E+09
        -0.89048E+09
        -0.17376E+10
        -0.20976E+10
        -0.65683E+09
         0.36494E+10
         0.82630E+10
         0.92754E+10
         0.69871E+10
         0.41096E+10
         0.21179E+10
         0.14392E+10
         0.22074E+10
         0.28692E+10
         0.20589E+10
         0.10087E+10
         0.81419E+09
         0.10615E+10
         0.12483E+10
         0.14707E+10
  
SCALARS                      stress_zz  double 1
LOOKUP_TABLE default
        -0.15361E+11
        -0.11564E+11
        -0.13796E+11
        -0.17210E+11
        -0.22655E+02
        -0.12846E+02
        -0.11178E+02
        -0.27111E+02
        -0.16755E+11
        -0.18051E+11
        -0.72914E+01
        -0.33428E+02
        -0.99216E+10
        -0.14610E+11
        -0.11890E+02
        -0.11964E+02
        -0.16091E+11
        -0.15456E+11
        -0.20450E+02
        -0.14574E+02
        -0.91792E+10
         0.55223E+09
         0.34514E+09
        -0.10980E+02
         0.37247E+01
         0.23510E+01
        -0.12771E+11
        -0.41886E+10
        -0.20679E+02
        -0.27564E+01
        -0.15715E+11
        -0.15306E+11
        -0.16316E+11
        -0.18039E+02
        -0.16185E+02
        -0.20367E+02
        -0.13691E+11
        -0.14407E+11
        -0.16902E+02
        -0.15910E+02
        -0.11526E+11
        -0.14366E+11
        -0.10653E+02
        -0.12919E+02
        -0.10890E+11
        -0.12987E+11
        -0.13251E+02
        -0.16900E+02
        -0.14368E+11
        -0.14889E+02
        -0.14757E+11
        -0.20502E+02
        -0.12574E+11
        -0.18780E+02
        -0.11801E+11
        -0.11953E+02
        -0.11307E+11
        -0.14556E+11
        -0.11211E+02
        -0.97146E+01
        -0.16307E+11
        -0.16405E+11
        -0.15626E+02
        -0.25782E+02
        -0.17555E+11
        -0.20635E+02
        -0.19199E+11
        -0.33725E+02
        -0.13025E+11
        -0.97544E+10
         0.80250E+00
        -0.91531E+01
        -0.49753E+10
         0.60828E+01
        -0.26754E+10
        -0.12360E+02
        -0.49255E+09
        -0.45649E+01
        -0.34416E+10
        -0.41995E+01
        -0.87609E+10
        -0.12512E+11
        -0.94087E+01
        -0.15939E+02
        -0.16047E+11
        -0.22154E+02
        -0.12983E+11
        -0.16888E+02
        -0.16433E+11
        -0.25918E+02
        -0.18139E+11
        -0.17081E+11
        -0.33577E+02
        -0.29998E+02
        -0.17482E+11
        -0.11556E+02
        -0.19380E+11
        -0.21253E+02
        -0.20141E+11
        -0.29168E+02
        -0.19768E+11
        -0.19027E+11
        -0.31540E+02
        -0.45311E+02
        -0.14073E+11
        -0.16464E+11
         0.10550E+02
        -0.59365E+02
        -0.97810E+10
         0.81878E+01
        -0.68219E+09
         0.94708E+01
         0.12389E+11
         0.15564E+02
         0.22297E+11
         0.92830E+01
         0.26637E+11
         0.14346E+01
         0.34843E+11
        -0.54146E+00
         0.62710E+11
         0.55112E+01
         0.34656E+11
        -0.59066E+01
        -0.17187E+11
        -0.17283E+02
        -0.28257E+11
        -0.17660E+02
        -0.27118E+11
        -0.18528E+02
        -0.19814E+11
        -0.14088E+02
        -0.14710E+11
        -0.13833E+02
        -0.12425E+11
        -0.13538E+02
        -0.14370E+11
        -0.85018E+01
        -0.20445E+11
        -0.44915E+01
        -0.21422E+11
        -0.14953E+02
        -0.19625E+11
        -0.11988E+02
        -0.19226E+11
        -0.90024E+01
        -0.20252E+11
        -0.21690E+02
        -0.20164E+11
        -0.23798E+02
        -0.19165E+11
        -0.28083E+02
        -0.17963E+11
        -0.18478E+02
        -0.15986E+11
        -0.13485E+02
        -0.35303E+10
        -0.16115E+10
        -0.29103E+09
        -0.19599E+10
         0.19202E+10
         0.33479E+10
        -0.30367E+10
        -0.42565E+10
        -0.44180E+10
        -0.39803E+10
        -0.32227E+10
        -0.18155E+10
        -0.14594E+10
        -0.38906E+10
        -0.21325E+10
        -0.51721E+10
        -0.33519E+10
        -0.45491E+10
        -0.15003E+10
        -0.22342E+10
        -0.41554E+09
        -0.44120E+10
         0.39299E+09
        -0.14371E+10
        -0.42369E+10
        -0.32089E+10
        -0.49937E+10
        -0.72350E+10
        -0.96222E+10
        -0.61692E+10
        -0.44961E+10
        -0.29393E+10
        -0.21719E+10
         0.22546E+10
         0.27039E+10
         0.14667E+10
         0.94440E+07
        -0.43890E+10
        -0.68258E+10
        -0.82482E+10
        -0.97570E+10
        -0.13098E+11
        -0.10581E+11
         0.48963E+09
         0.13652E+10
         0.25295E+10
         0.40827E+09
         0.13089E+10
         0.64132E+10
         0.13454E+11
         0.18562E+11
         0.95636E+10
         0.46962E+10
         0.73961E+10
         0.12386E+10
         0.93380E+08
         0.59571E+09
         0.13736E+10
         0.33461E+10
         0.36443E+10
         0.70678E+10
         0.17786E+11
         0.48634E+10
        -0.19490E+11
        -0.19985E+11
        -0.12761E+11
        -0.65428E+10
        -0.86440E+09
         0.40181E+10
         0.82254E+10
         0.78488E+10
         0.77981E+10
         0.15555E+11
         0.29266E+11
         0.41588E+11
         0.40944E+11
         0.25429E+11
         0.12603E+11
        -0.88977E+08
         0.18140E+09
         0.29673E+10
         0.20390E+10
         0.66197E+10
         0.89075E+10
        -0.10252E+10
         0.47746E+09
         0.45379E+09
         0.10869E+10
        -0.95397E+09
        -0.30562E+10
        -0.19193E+10
        -0.40332E+09
        -0.47295E+10
        -0.76339E+09
         0.15498E+10
        -0.22616E+09
         0.11580E+10
         0.10038E+10
        -0.85836E+09
        -0.43504E+10
         0.14775E+09
         0.38392E+09
        -0.35220E+08
        -0.23399E+09
        -0.28344E+10
        -0.69160E+10
        -0.12018E+11
        -0.38772E+10
         0.35872E+09
         0.45731E+09
         0.32917E+10
         0.78444E+10
         0.62652E+10
         0.42687E+10
         0.94690E+09
        -0.98328E+10
        -0.15304E+11
        -0.20735E+11
        -0.25001E+11
        -0.19905E+11
        -0.11906E+11
         0.11774E+10
         0.25032E+10
         0.31930E+10
         0.23170E+10
         0.43357E+10
         0.10221E+11
         0.17042E+11
         0.21167E+11
         0.14744E+11
         0.72657E+10
         0.10790E+11
         0.46915E+10
         0.13592E+10
        -0.17062E+10
        -0.59353E+10
        -0.11041E+11
        -0.17457E+11
        -0.23741E+11
        -0.27985E+11
        -0.28572E+11
        -0.28881E+11
        -0.24243E+11
        -0.15082E+11
        -0.77652E+10
        -0.20042E+10
         0.28852E+10
         0.70092E+10
         0.62963E+10
         0.48790E+10
         0.87103E+10
         0.19456E+11
         0.29615E+11
         0.32615E+11
         0.26588E+11
         0.17632E+11
         0.34208E+09
        -0.16066E+09
         0.59939E+06
         0.25560E+09
         0.67820E+09
         0.11614E+10
         0.26328E+09
         0.12055E+10
         0.11086E+10
         0.13940E+10
         0.53045E+09
        -0.90000E+09
        -0.47459E+09
         0.70381E+09
        -0.22515E+10
         0.91530E+09
         0.16717E+10
         0.57143E+09
         0.10768E+10
         0.76702E+09
        -0.11391E+10
        -0.31447E+10
        -0.68114E+09
         0.44399E+09
         0.44693E+09
         0.37145E+09
        -0.10584E+10
        -0.40526E+10
        -0.79657E+10
        -0.22922E+10
         0.42339E+09
        -0.75962E+08
         0.44666E+09
         0.30169E+09
        -0.10947E+08
        -0.22628E+09
        -0.33544E+09
        -0.60968E+10
        -0.10911E+11
        -0.15980E+11
        -0.19869E+11
        -0.14095E+11
        -0.78679E+10
        -0.70261E+09
        -0.10662E+10
        -0.20271E+10
        -0.18816E+10
        -0.19098E+10
        -0.18278E+10
        -0.12828E+10
        -0.26941E+09
         0.85587E+09
        -0.26519E+09
         0.17394E+10
        -0.46433E+09
        -0.33273E+09
        -0.11223E+10
        -0.39093E+10
        -0.78798E+10
        -0.13348E+11
        -0.21112E+11
        -0.26835E+11
        -0.28153E+11
        -0.25441E+11
        -0.18176E+11
        -0.10962E+11
        -0.56073E+10
        -0.29459E+10
        -0.25502E+10
        -0.29258E+10
        -0.40118E+10
        -0.58754E+10
        -0.77266E+10
        -0.78747E+10
        -0.54512E+10
        -0.58330E+09
         0.33945E+10
         0.37701E+10
         0.53799E+09
         0.33024E+09
        -0.12854E+09
        -0.73112E+07
        -0.74384E+09
        -0.13462E+10
         0.79561E+09
         0.10173E+10
         0.76919E+09
         0.88816E+09
         0.96462E+09
         0.36242E+09
         0.45983E+09
         0.90377E+09
        -0.43298E+09
         0.83478E+09
         0.10027E+10
         0.51496E+09
         0.72928E+09
         0.55117E+09
        -0.58326E+09
        -0.16438E+10
        -0.25548E+09
         0.41923E+09
         0.30426E+09
         0.41710E+09
        -0.21840E+09
        -0.21327E+10
        -0.46150E+10
        -0.11488E+10
         0.15504E+09
        -0.64951E+08
        -0.53202E+09
        -0.17341E+10
        -0.79377E+09
        -0.41610E+09
         0.10424E+09
        -0.28749E+10
        -0.62817E+10
        -0.10019E+11
        -0.12880E+11
        -0.85453E+10
        -0.44431E+10
        -0.41432E+09
        -0.91049E+09
        -0.15245E+10
        -0.14164E+10
        -0.21699E+10
        -0.37189E+10
        -0.49992E+10
        -0.53726E+10
        -0.31553E+10
        -0.11599E+10
        -0.11884E+10
        -0.74804E+09
        -0.86888E+08
        -0.11433E+09
        -0.13671E+10
        -0.34535E+10
        -0.71284E+10
        -0.13697E+11
        -0.19707E+11
        -0.21458E+11
        -0.17758E+11
        -0.11572E+11
        -0.63390E+10
        -0.27732E+10
        -0.12486E+10
        -0.16336E+10
        -0.25623E+10
        -0.29390E+10
        -0.39009E+10
        -0.65733E+10
        -0.97817E+10
        -0.10646E+11
        -0.82650E+10
        -0.44814E+10
        -0.19646E+10
         0.43413E+09
         0.37928E+09
         0.13276E+09
         0.95262E+08
        -0.32507E+09
        -0.76477E+09
         0.61923E+09
         0.71074E+09
         0.50028E+09
         0.66873E+09
         0.74381E+09
         0.44822E+09
         0.42441E+09
         0.74465E+09
         0.11733E+08
         0.33993E+09
         0.61048E+09
         0.25505E+09
         0.37884E+09
         0.44454E+09
        -0.16303E+09
        -0.66398E+09
         0.47026E+08
         0.20916E+09
         0.41499E+09
         0.17008E+09
         0.16985E+09
        -0.96744E+09
        -0.26024E+10
        -0.38271E+09
         0.52700E+08
         0.26881E+08
        -0.17480E+09
        -0.66390E+09
        -0.12296E+09
         0.10252E+09
         0.26459E+09
        -0.15795E+10
        -0.39416E+10
        -0.65602E+10
        -0.86065E+10
        -0.53219E+10
        -0.24082E+10
         0.50021E+08
        -0.70557E+08
        -0.11099E+09
        -0.16309E+09
        -0.47480E+09
        -0.10735E+10
        -0.17202E+10
        -0.21802E+10
        -0.14931E+10
        -0.25259E+09
        -0.85052E+09
        -0.18595E+08
         0.50865E+08
         0.23684E+08
        -0.38278E+09
        -0.15724E+10
        -0.46140E+10
        -0.98344E+10
        -0.14380E+11
        -0.15623E+11
        -0.12141E+11
        -0.68955E+10
        -0.30247E+10
        -0.96265E+09
        -0.27913E+08
         0.32475E+08
        -0.18270E+09
        -0.12884E+09
        -0.26265E+09
        -0.10980E+10
        -0.24286E+10
        -0.33823E+10
        -0.34735E+10
        -0.26821E+10
        -0.16605E+10
         0.19669E+09
         0.17235E+09
         0.53178E+08
        -0.13199E+08
        -0.13999E+09
        -0.24835E+09
         0.32062E+09
         0.39587E+09
         0.25250E+09
         0.42070E+09
         0.42407E+09
         0.32410E+09
         0.23241E+09
         0.46652E+09
         0.11099E+09
         0.44555E+08
         0.30895E+09
         0.13943E+08
         0.17557E+09
         0.27750E+09
         0.86584E+08
        -0.72850E+08
         0.95339E+08
         0.66899E+08
         0.33413E+09
        -0.28747E+08
         0.25342E+09
        -0.28127E+09
        -0.11193E+10
        -0.15282E+08
        -0.82610E+08
        -0.30199E+08
        -0.78997E+08
        -0.94874E+08
         0.51673E+07
         0.11239E+09
         0.14815E+09
        -0.77287E+09
        -0.20880E+10
        -0.34499E+10
        -0.44294E+10
        -0.24677E+10
        -0.88775E+09
         0.57569E+08
         0.11092E+09
         0.25142E+09
         0.20135E+09
         0.14591E+09
         0.81172E+08
        -0.43201E+08
        -0.21320E+09
        -0.27985E+09
        -0.27784E+08
        -0.42999E+09
         0.15057E+09
         0.56893E+08
         0.63936E+08
         0.19534E+08
        -0.64990E+09
        -0.27579E+10
        -0.61924E+10
        -0.87327E+10
        -0.86617E+10
        -0.58635E+10
        -0.27037E+10
        -0.78037E+09
         0.11657E+08
         0.26399E+09
         0.28003E+09
         0.37998E+09
         0.56271E+09
         0.70206E+09
         0.72151E+09
         0.59468E+09
         0.27433E+09
        -0.25791E+09
        -0.58959E+09
        -0.61351E+09
         0.48354E+08
         0.35762E+08
        -0.22354E+08
        -0.46306E+08
        -0.15882E+09
        -0.19579E+09
         0.93304E+08
         0.13042E+09
         0.70891E+08
         0.18576E+09
         0.15885E+09
         0.15548E+09
         0.79121E+08
         0.19758E+09
         0.93502E+08
        -0.23766E+08
         0.10600E+09
        -0.26957E+08
         0.52860E+08
         0.17633E+09
         0.14727E+09
         0.22707E+09
         0.41948E+08
        -0.62664E+07
         0.19753E+09
        -0.59873E+08
         0.17787E+09
         0.46842E+08
        -0.19570E+09
         0.13817E+09
        -0.84306E+08
        -0.63065E+08
        -0.81150E+08
        -0.89157E+08
        -0.59645E+08
         0.19515E+08
         0.31441E+08
        -0.23121E+09
        -0.68136E+09
        -0.10870E+10
        -0.13289E+10
        -0.57326E+09
         0.40580E+08
        -0.92325E+07
         0.14607E+08
         0.71684E+08
         0.22359E+08
        -0.61147E+07
        -0.31782E+08
        -0.74942E+08
        -0.13909E+09
        -0.18077E+09
        -0.94923E+08
        -0.38475E+09
         0.60258E+08
        -0.17393E+08
         0.21755E+08
         0.95825E+08
        -0.18020E+09
        -0.11027E+10
        -0.24435E+10
        -0.32219E+10
        -0.27574E+10
        -0.13821E+10
        -0.11525E+09
         0.44212E+09
         0.40792E+09
         0.21011E+09
         0.12759E+09
         0.18710E+09
         0.23156E+09
         0.25889E+09
         0.24291E+09
         0.15587E+09
         0.46189E+08
        -0.13916E+09
        -0.30564E+09
        -0.41392E+09
         0.12465E+08
        -0.66211E+07
        -0.39664E+08
        -0.34841E+08
        -0.17835E+09
        -0.22530E+09
        -0.52148E+07
         0.14648E+08
         0.14348E+08
         0.44524E+08
         0.17669E+08
         0.17065E+08
        -0.32508E+08
         0.50024E+08
         0.50630E+08
        -0.12716E+08
         0.11074E+08
        -0.26646E+07
         0.48734E+06
         0.50496E+08
         0.86876E+08
         0.19424E+09
         0.13923E+08
        -0.15409E+08
         0.87140E+08
        -0.34250E+08
         0.95781E+08
         0.12357E+09
         0.12381E+09
         0.13251E+09
        -0.52065E+08
        -0.48735E+08
        -0.73065E+08
        -0.13087E+09
        -0.97499E+08
        -0.30539E+08
        -0.36943E+08
         0.39339E+08
         0.17492E+08
         0.37365E+08
         0.10910E+09
         0.20225E+09
         0.26185E+09
        -0.15983E+08
        -0.21193E+08
        -0.33297E+08
        -0.77763E+08
        -0.13232E+09
        -0.19910E+09
        -0.27459E+09
        -0.34421E+09
        -0.28172E+09
        -0.15170E+09
        -0.40527E+09
        -0.38716E+08
        -0.11094E+09
        -0.10190E+09
        -0.53460E+07
         0.10913E+08
        -0.18925E+09
        -0.43763E+09
        -0.34089E+09
         0.12326E+09
         0.61714E+09
         0.88374E+09
         0.73945E+09
         0.37495E+09
         0.12895E+09
         0.54990E+08
         0.58084E+08
         0.18461E+08
        -0.63153E+08
        -0.20033E+09
        -0.35669E+09
        -0.44564E+09
        -0.48946E+09
        -0.47284E+09
        -0.46923E+09
         0.15652E+08
        -0.10232E+07
        -0.29304E+08
        -0.12528E+08
        -0.20282E+09
        -0.28437E+09
        -0.15783E+08
        -0.93465E+07
         0.71590E+07
         0.77958E+07
        -0.57547E+06
         0.12679E+08
        -0.33791E+08
         0.27757E+08
         0.71989E+08
         0.14389E+08
        -0.91558E+07
         0.31958E+08
         0.39371E+07
         0.17176E+08
         0.85444E+08
         0.18034E+09
         0.51814E+08
         0.12144E+08
         0.46497E+08
         0.54710E+07
         0.90528E+08
         0.16693E+09
         0.25906E+09
         0.11635E+09
        -0.87186E+07
        -0.23779E+07
        -0.41596E+08
        -0.14687E+09
        -0.10535E+09
        -0.24327E+08
        -0.31653E+08
         0.15842E+09
         0.28555E+09
         0.47520E+09
         0.67596E+09
         0.49837E+09
         0.34692E+09
         0.40577E+08
         0.38678E+08
         0.16075E+08
        -0.46548E+08
        -0.12914E+09
        -0.24981E+09
        -0.39536E+09
        -0.52920E+09
        -0.40267E+09
        -0.17068E+09
        -0.48633E+09
        -0.42375E+08
        -0.11152E+09
        -0.90327E+08
         0.23470E+08
         0.10280E+09
         0.94143E+08
         0.22718E+09
         0.72186E+09
         0.12762E+10
         0.13653E+10
         0.11583E+10
         0.76873E+09
         0.37892E+09
         0.19824E+09
         0.13944E+09
         0.12803E+09
         0.66031E+08
        -0.59764E+08
        -0.27924E+09
        -0.54612E+09
        -0.74647E+09
        -0.83798E+09
        -0.76083E+09
        -0.65004E+09
         0.20693E+08
         0.60002E+07
        -0.19760E+08
         0.30943E+07
        -0.22100E+09
        -0.29231E+09
        -0.19643E+08
        -0.20790E+08
         0.72737E+07
        -0.11902E+08
        -0.88007E+07
         0.14325E+08
        -0.28020E+08
         0.16805E+08
         0.95775E+08
         0.23751E+08
        -0.15442E+08
         0.46800E+08
         0.57702E+07
         0.43572E+07
         0.97608E+08
         0.18810E+09
         0.63234E+08
         0.17057E+08
         0.19451E+08
         0.14639E+08
         0.83449E+08
         0.16433E+09
         0.26978E+09
         0.86833E+08
         0.54621E+07
         0.13419E+08
        -0.25427E+08
        -0.13002E+09
        -0.11188E+09
        -0.96525E+07
        -0.17654E+08
         0.24454E+09
         0.42528E+09
         0.62638E+09
         0.81964E+09
         0.53594E+09
         0.34899E+09
         0.54349E+08
         0.61973E+08
         0.42501E+08
        -0.31316E+08
        -0.12087E+09
        -0.24573E+09
        -0.38424E+09
        -0.51299E+09
        -0.39254E+09
        -0.18617E+09
        -0.55476E+09
        -0.19767E+08
        -0.93152E+08
        -0.73289E+08
         0.38780E+08
         0.17427E+09
         0.35181E+09
         0.72067E+09
         0.12302E+10
         0.16162E+10
         0.15001E+10
         0.12321E+10
         0.84705E+09
         0.41960E+09
         0.23059E+09
         0.16245E+09
         0.15953E+09
         0.10323E+09
        -0.31774E+08
        -0.25238E+09
        -0.51717E+09
        -0.70975E+09
        -0.80806E+09
        -0.75677E+09
        -0.69801E+09
         0.15324E+08
        -0.36462E+07
        -0.18883E+08
         0.34183E+07
        -0.20938E+09
        -0.25956E+09
        -0.42188E+08
        -0.41857E+08
        -0.24722E+07
        -0.43322E+08
        -0.40209E+08
        -0.25571E+08
        -0.68048E+08
        -0.20578E+08
         0.73379E+08
         0.15276E+08
        -0.34086E+08
         0.40383E+08
        -0.88288E+07
        -0.15259E+08
         0.93544E+08
         0.20304E+09
         0.59615E+08
         0.85703E+07
        -0.20535E+08
         0.83522E+07
         0.27786E+08
         0.11005E+09
         0.24850E+09
         0.57228E+08
        -0.39221E+06
         0.44011E+07
        -0.29462E+08
        -0.11387E+09
        -0.10513E+09
        -0.94950E+07
        -0.37215E+08
         0.23440E+09
         0.42600E+09
         0.64779E+09
         0.88436E+09
         0.59293E+09
         0.39763E+09
         0.43273E+08
         0.37798E+08
         0.79809E+07
        -0.50209E+08
        -0.12168E+09
        -0.21974E+09
        -0.32020E+09
        -0.41188E+09
        -0.32534E+09
        -0.17031E+09
        -0.53277E+09
        -0.72447E+06
        -0.12038E+09
        -0.14932E+09
        -0.23737E+08
         0.20401E+09
         0.48896E+09
         0.94803E+09
         0.14847E+10
         0.18455E+10
         0.18039E+10
         0.14915E+10
         0.95124E+09
         0.44858E+09
         0.24227E+09
         0.14214E+09
         0.99448E+08
         0.38917E+08
        -0.57325E+08
        -0.20619E+09
        -0.38929E+09
        -0.51659E+09
        -0.60392E+09
        -0.59407E+09
        -0.60988E+09
         0.14770E+08
        -0.52115E+07
        -0.30103E+08
        -0.10316E+08
        -0.23793E+09
        -0.30709E+09
        -0.40538E+08
        -0.44166E+08
        -0.72819E+07
        -0.56215E+08
        -0.39277E+08
        -0.23251E+08
        -0.68152E+08
        -0.24405E+08
         0.66187E+08
         0.16855E+08
        -0.46119E+08
         0.38992E+08
        -0.14098E+08
        -0.27584E+08
         0.95845E+08
         0.21181E+09
         0.79430E+08
         0.16835E+08
        -0.35518E+08
         0.14423E+08
         0.23043E+08
         0.13409E+09
         0.34688E+09
         0.73197E+08
        -0.65131E+07
        -0.69760E+07
        -0.36243E+08
        -0.13959E+09
        -0.12502E+09
        -0.22963E+08
        -0.45199E+08
         0.25409E+09
         0.52803E+09
         0.87951E+09
         0.12588E+10
         0.83441E+09
         0.49402E+09
         0.53890E+08
         0.19661E+08
        -0.38672E+08
        -0.93425E+08
        -0.14721E+09
        -0.22555E+09
        -0.33415E+09
        -0.45453E+09
        -0.38124E+09
        -0.19259E+09
        -0.57073E+09
        -0.24448E+08
        -0.14945E+09
        -0.16414E+09
        -0.16356E+08
         0.17402E+09
         0.49199E+09
         0.11792E+10
         0.20350E+10
         0.26439E+10
         0.24117E+10
         0.17311E+10
         0.10005E+10
         0.48043E+09
         0.29056E+09
         0.16239E+09
         0.62775E+08
        -0.37647E+08
        -0.13706E+09
        -0.24052E+09
        -0.35905E+09
        -0.50171E+09
        -0.66149E+09
        -0.70284E+09
        -0.69615E+09
         0.62077E+07
        -0.17864E+08
        -0.52138E+08
        -0.27092E+08
        -0.27720E+09
        -0.34638E+09
        -0.49134E+08
        -0.47938E+08
        -0.11573E+08
        -0.56716E+08
        -0.45522E+08
        -0.33774E+08
        -0.77297E+08
        -0.20634E+08
         0.81639E+08
         0.12111E+08
        -0.57008E+08
         0.31658E+08
        -0.18662E+08
        -0.44427E+08
         0.11106E+09
         0.23750E+09
         0.85670E+08
         0.14879E+08
        -0.45415E+08
         0.63784E+07
         0.43996E+08
         0.16557E+09
         0.40333E+09
         0.60335E+08
        -0.20052E+08
        -0.25659E+08
        -0.40989E+08
        -0.14244E+09
        -0.15503E+09
        -0.45304E+08
        -0.59292E+08
         0.32035E+09
         0.64680E+09
         0.10542E+10
         0.14810E+10
         0.94626E+09
         0.53795E+09
         0.45080E+08
        -0.28539E+07
        -0.66661E+08
        -0.11822E+09
        -0.16158E+09
        -0.21953E+09
        -0.31882E+09
        -0.44872E+09
        -0.39877E+09
        -0.23007E+09
        -0.63082E+09
        -0.61677E+08
        -0.16636E+09
        -0.16229E+09
        -0.23636E+08
         0.19761E+09
         0.63159E+09
         0.14486E+10
         0.24387E+10
         0.30971E+10
         0.26502E+10
         0.18810E+10
         0.11025E+10
         0.51630E+09
         0.30077E+09
         0.14461E+09
         0.26735E+08
        -0.70096E+08
        -0.16363E+09
        -0.25629E+09
        -0.33725E+09
        -0.46504E+09
        -0.65417E+09
        -0.74793E+09
        -0.77626E+09
         0.36445E+07
        -0.15373E+08
        -0.45095E+08
        -0.17833E+08
        -0.24454E+09
        -0.27576E+09
        -0.44701E+08
        -0.47723E+08
        -0.12668E+08
        -0.55953E+08
        -0.35308E+08
        -0.92483E+07
        -0.63427E+08
        -0.13401E+08
         0.12801E+09
         0.11919E+08
        -0.55709E+08
         0.28079E+08
        -0.92183E+07
        -0.40278E+08
         0.12898E+09
         0.25158E+09
         0.88736E+08
         0.20260E+08
        -0.41523E+08
         0.62509E+06
         0.45339E+08
         0.16316E+09
         0.39315E+09
         0.62353E+08
        -0.31714E+08
        -0.41996E+08
        -0.40734E+08
        -0.10379E+09
        -0.13979E+09
        -0.36203E+08
        -0.46384E+08
         0.35879E+09
         0.64812E+09
         0.10106E+10
         0.13793E+10
         0.89031E+09
         0.52746E+09
         0.30435E+08
        -0.26259E+08
        -0.84114E+08
        -0.12780E+09
        -0.16948E+09
        -0.21455E+09
        -0.27465E+09
        -0.35177E+09
        -0.29711E+09
        -0.21792E+09
        -0.57325E+09
        -0.49903E+08
        -0.13137E+09
        -0.12869E+09
         0.20149E+08
         0.33907E+09
         0.83488E+09
         0.15256E+10
         0.23244E+10
         0.28043E+10
         0.24132E+10
         0.18305E+10
         0.11159E+10
         0.52302E+09
         0.28349E+09
         0.11175E+09
        -0.10941E+08
        -0.84251E+08
        -0.15426E+09
        -0.26138E+09
        -0.35227E+09
        -0.42350E+09
        -0.50875E+09
        -0.53108E+09
        -0.61691E+09
         0.25444E+07
        -0.11047E+08
        -0.42161E+08
        -0.25859E+08
        -0.21523E+09
        -0.24099E+09
        -0.39479E+08
        -0.46735E+08
        -0.99827E+07
        -0.54086E+08
        -0.31230E+08
        -0.89218E+06
        -0.53585E+08
        -0.16693E+08
         0.12548E+09
         0.10938E+08
        -0.43355E+08
         0.17907E+08
        -0.26246E+07
        -0.31134E+08
         0.10656E+09
         0.20773E+09
         0.68705E+08
         0.18011E+08
        -0.38661E+08
        -0.44735E+07
         0.24970E+08
         0.11680E+09
         0.28857E+09
         0.42509E+08
        -0.42689E+08
        -0.43221E+08
        -0.58540E+08
        -0.11404E+09
        -0.12775E+09
        -0.31103E+08
        -0.34810E+08
         0.30429E+09
         0.50545E+09
         0.74364E+09
         0.98411E+09
         0.66722E+09
         0.43288E+09
         0.19925E+08
        -0.20178E+08
        -0.56301E+08
        -0.10091E+09
        -0.15513E+09
        -0.21639E+09
        -0.28126E+09
        -0.34844E+09
        -0.27615E+09
        -0.20163E+09
        -0.49325E+09
        -0.44065E+08
        -0.10585E+09
        -0.11515E+09
         0.26868E+08
         0.35446E+09
         0.75255E+09
         0.11821E+10
         0.16484E+10
         0.19310E+10
         0.18741E+10
         0.15834E+10
         0.95872E+09
         0.45395E+09
         0.23103E+09
         0.94341E+08
         0.11259E+08
        -0.24823E+08
        -0.65573E+08
        -0.18964E+09
        -0.32871E+09
        -0.42855E+09
        -0.50455E+09
        -0.46097E+09
        -0.49982E+09
        -0.74692E+07
        -0.31836E+08
        -0.53523E+08
        -0.38397E+08
        -0.21260E+09
        -0.25701E+09
        -0.67574E+08
        -0.59619E+08
        -0.14071E+08
        -0.50411E+08
        -0.66138E+08
        -0.48577E+08
        -0.96316E+08
        -0.40350E+08
         0.73516E+08
        -0.37051E+07
        -0.42992E+08
         0.26933E+07
        -0.15268E+08
        -0.32036E+08
         0.74097E+08
         0.17697E+09
         0.50931E+08
         0.19403E+07
        -0.29586E+08
        -0.13460E+08
         0.22149E+08
         0.12430E+09
         0.28532E+09
         0.46349E+08
        -0.44755E+08
        -0.30859E+08
        -0.68540E+08
        -0.13335E+09
        -0.12837E+09
        -0.50708E+08
        -0.69638E+08
         0.25055E+09
         0.45386E+09
         0.68906E+09
         0.95051E+09
         0.67786E+09
         0.43361E+09
         0.24833E+08
         0.11517E+08
        -0.21635E+07
        -0.49517E+08
        -0.10790E+09
        -0.18889E+09
        -0.28201E+09
        -0.37478E+09
        -0.31042E+09
        -0.19194E+09
        -0.47024E+09
        -0.67994E+08
        -0.14990E+09
        -0.16655E+09
        -0.17412E+08
         0.27058E+09
         0.53726E+09
         0.92060E+09
         0.14280E+10
         0.18806E+10
         0.20174E+10
         0.15881E+10
         0.84614E+09
         0.39925E+09
         0.22081E+09
         0.12744E+09
         0.84878E+08
         0.60726E+08
         0.33826E+08
        -0.72059E+08
        -0.24589E+09
        -0.40145E+09
        -0.54028E+09
        -0.53972E+09
        -0.53074E+09
        -0.37745E+07
        -0.29402E+08
        -0.43758E+08
        -0.22003E+08
        -0.17531E+09
        -0.19812E+09
        -0.61070E+08
        -0.52466E+08
        -0.16468E+08
        -0.41368E+08
        -0.58604E+08
        -0.39966E+08
        -0.92069E+08
        -0.27034E+08
         0.96590E+08
        -0.12831E+08
        -0.49237E+08
         0.35625E+07
        -0.21127E+08
        -0.28719E+08
         0.10281E+09
         0.21170E+09
         0.77194E+08
         0.16722E+07
        -0.68929E+07
        -0.12739E+08
         0.68792E+08
         0.22323E+09
         0.45273E+09
         0.10240E+09
        -0.33734E+08
        -0.23318E+08
        -0.41612E+08
        -0.76307E+08
        -0.11226E+09
        -0.56876E+08
        -0.78533E+08
         0.36854E+09
         0.71781E+09
         0.10936E+10
         0.14614E+10
         0.95839E+09
         0.53606E+09
         0.46340E+08
         0.29354E+08
         0.11127E+08
        -0.35135E+08
        -0.67768E+08
        -0.11030E+09
        -0.16907E+09
        -0.23816E+09
        -0.21598E+09
        -0.17878E+09
        -0.40470E+09
        -0.10176E+09
        -0.18356E+09
        -0.16426E+09
        -0.15596E+07
         0.31461E+09
         0.80398E+09
         0.16310E+10
         0.24961E+10
         0.29603E+10
         0.26560E+10
         0.17831E+10
         0.93235E+09
         0.49329E+09
         0.29106E+09
         0.17735E+09
         0.12046E+09
         0.72755E+08
         0.31505E+08
        -0.25114E+08
        -0.11172E+09
        -0.19688E+09
        -0.31968E+09
        -0.37818E+09
        -0.42674E+09
        -0.91792E+07
        -0.20983E+08
        -0.40882E+08
        -0.28911E+08
        -0.13812E+09
        -0.14403E+09
        -0.36861E+08
        -0.41576E+08
        -0.31522E+08
        -0.51702E+08
        -0.28964E+08
        -0.62344E+07
        -0.55490E+08
        -0.10430E+08
         0.99318E+08
        -0.26418E+08
        -0.70284E+08
        -0.10351E+08
        -0.24753E+08
        -0.42723E+08
         0.13691E+09
         0.23551E+09
         0.92935E+08
         0.18470E+07
        -0.40182E+08
        -0.18518E+08
         0.53269E+08
         0.16438E+09
         0.39085E+09
         0.60712E+08
        -0.40980E+08
        -0.32732E+08
        -0.40906E+08
        -0.55325E+08
        -0.94504E+08
        -0.48809E+08
        -0.58099E+08
         0.33385E+09
         0.64807E+09
         0.10106E+10
         0.13784E+10
         0.89187E+09
         0.50869E+09
         0.45075E+08
         0.17882E+08
        -0.10484E+07
        -0.43597E+08
        -0.60420E+08
        -0.55269E+08
        -0.74275E+08
        -0.11816E+09
        -0.13093E+09
        -0.15339E+09
        -0.32388E+09
        -0.91570E+08
        -0.14970E+09
        -0.11250E+09
         0.23485E+08
         0.27584E+09
         0.75498E+09
         0.15541E+10
         0.23803E+10
         0.28397E+10
         0.24963E+10
         0.17225E+10
         0.10091E+10
         0.56879E+09
         0.30792E+09
         0.15550E+09
         0.90304E+08
         0.58296E+08
         0.32742E+08
         0.47931E+07
        -0.72145E+07
        -0.27809E+08
        -0.13637E+09
        -0.21848E+09
        -0.30202E+09
        -0.13899E+08
        -0.16232E+08
        -0.26905E+08
        -0.33278E+08
        -0.10608E+09
        -0.11651E+09
        -0.22756E+08
        -0.28090E+08
        -0.37358E+08
        -0.43647E+08
         0.73342E+05
         0.29370E+08
        -0.35297E+08
         0.18071E+08
         0.12085E+09
        -0.34154E+08
        -0.62983E+08
        -0.26961E+08
        -0.56137E+07
        -0.16083E+08
         0.14626E+09
         0.24968E+09
         0.89907E+08
         0.12328E+08
        -0.36119E+08
        -0.19619E+08
         0.58360E+08
         0.13343E+09
         0.33389E+09
         0.61158E+08
        -0.48200E+08
        -0.27498E+08
        -0.40672E+08
        -0.35794E+08
        -0.42900E+08
        -0.50578E+07
        -0.36817E+08
         0.30334E+09
         0.55107E+09
         0.85406E+09
         0.11721E+10
         0.79003E+09
         0.49454E+09
         0.43121E+08
         0.37091E+08
         0.62566E+08
         0.25397E+08
         0.67671E+07
         0.19487E+08
         0.38960E+08
         0.26771E+08
        -0.56956E+08
        -0.57280E+08
        -0.27337E+09
         0.13248E+08
        -0.99100E+08
        -0.78190E+08
         0.67668E+08
         0.26021E+09
         0.62692E+09
         0.12942E+10
         0.19996E+10
         0.23952E+10
         0.22470E+10
         0.16674E+10
         0.97310E+09
         0.51680E+09
         0.25543E+09
         0.12958E+09
         0.12972E+09
         0.18104E+09
         0.22737E+09
         0.21289E+09
         0.19510E+09
         0.18154E+09
         0.61459E+08
        -0.97314E+08
        -0.25144E+09
         0.71085E+07
         0.97350E+07
         0.40910E+08
         0.18241E+08
         0.19402E+08
         0.48705E+08
        -0.36723E+07
        -0.53275E+07
        -0.55845E+07
        -0.83676E+07
         0.38354E+08
         0.10092E+09
         0.34428E+07
         0.57625E+08
         0.23145E+09
        -0.22187E+08
        -0.14035E+08
        -0.12095E+08
         0.26482E+08
         0.33827E+08
         0.14504E+09
         0.24586E+09
         0.89671E+08
         0.27053E+08
         0.20992E+08
        -0.15340E+08
         0.10379E+09
         0.22227E+09
         0.44652E+09
         0.13596E+09
        -0.21130E+08
         0.12360E+08
         0.28700E+08
         0.11501E+09
         0.10018E+09
         0.10136E+09
         0.14635E+08
         0.44879E+09
         0.74987E+09
         0.10994E+10
         0.14271E+10
         0.92034E+09
         0.53323E+09
         0.53198E+08
         0.11040E+09
         0.23783E+09
         0.21652E+09
         0.23026E+09
         0.29295E+09
         0.37463E+09
         0.40666E+09
         0.21177E+09
         0.13976E+09
        -0.10755E+09
         0.23945E+09
         0.11032E+08
         0.19106E+08
         0.23012E+09
         0.51845E+09
         0.10167E+10
         0.18792E+10
         0.26952E+10
         0.28975E+10
         0.24764E+10
         0.16893E+10
         0.89937E+09
         0.47686E+09
         0.25340E+09
         0.16613E+09
         0.28800E+09
         0.49386E+09
         0.67264E+09
         0.73802E+09
         0.77114E+09
         0.79663E+09
         0.65446E+09
         0.35654E+09
         0.22432E+08
        -0.12164E+08
        -0.18071E+08
         0.56097E+08
         0.37677E+08
         0.16756E+09
         0.27270E+09
        -0.41865E+08
        -0.98403E+07
         0.57159E+07
         0.19981E+08
         0.70688E+07
         0.60061E+08
        -0.39529E+08
         0.48837E+08
         0.21735E+09
        -0.69015E+08
         0.18763E+08
        -0.31359E+08
         0.66804E+07
         0.41420E+08
         0.53510E+08
         0.89695E+08
         0.15770E+07
        -0.39264E+08
         0.47762E+08
        -0.10414E+09
         0.92889E+08
         0.15886E+09
         0.21134E+09
         0.61830E+08
        -0.32986E+08
         0.65356E+06
         0.88827E+08
         0.28491E+09
         0.24622E+09
         0.19617E+09
         0.13155E+08
         0.38465E+09
         0.53044E+09
         0.60921E+09
         0.64506E+09
         0.34943E+09
         0.19610E+09
        -0.31317E+08
         0.10321E+09
         0.35862E+09
         0.36408E+09
         0.44054E+09
         0.58843E+09
         0.75632E+09
         0.86427E+09
         0.55731E+09
         0.36203E+09
         0.22413E+09
         0.47441E+09
         0.15309E+09
         0.36894E+08
         0.20571E+09
         0.48514E+09
         0.88449E+09
         0.13907E+10
         0.15863E+10
         0.13666E+10
         0.11140E+10
         0.87453E+09
         0.58174E+09
         0.41966E+09
         0.29140E+09
         0.22306E+09
         0.45404E+09
         0.83058E+09
         0.11479E+10
         0.12733E+10
         0.13475E+10
         0.14267E+10
         0.13234E+10
         0.98507E+09
         0.52269E+09
        -0.14671E+09
        -0.20791E+09
        -0.21232E+09
        -0.16897E+09
         0.44383E+08
         0.22457E+09
        -0.14866E+09
        -0.78935E+08
        -0.12122E+08
         0.62380E+08
        -0.12300E+09
        -0.19617E+09
        -0.18537E+09
        -0.58236E+08
        -0.14872E+09
        -0.12499E+09
         0.10833E+09
        -0.16203E+09
         0.14100E+09
         0.32990E+09
         0.69250E+09
         0.87289E+09
         0.35505E+09
         0.19588E+08
         0.20783E+09
        -0.19380E+09
         0.33119E+08
         0.36329E+08
        -0.10545E+09
         0.29127E+09
        -0.13333E+09
        -0.88700E+08
        -0.47589E+08
         0.12995E+09
        -0.60998E+08
        -0.19673E+09
        -0.20600E+09
        -0.77434E+08
        -0.27052E+09
        -0.65048E+09
        -0.95282E+09
        -0.31110E+09
         0.51983E+09
         0.68620E+08
         0.18474E+09
         0.62219E+09
         0.54994E+09
         0.52606E+09
         0.54576E+09
         0.65417E+09
         0.80771E+09
         0.50327E+09
         0.11664E+09
         0.52313E+09
        -0.58475E+08
        -0.13851E+09
        -0.23894E+09
        -0.22373E+09
        -0.15729E+09
        -0.27367E+09
        -0.85046E+09
        -0.17271E+10
        -0.18607E+10
        -0.27680E+09
         0.16735E+10
         0.24386E+10
         0.21177E+10
         0.14101E+10
         0.85015E+09
         0.94893E+09
         0.15846E+10
         0.20600E+10
         0.19047E+10
         0.15649E+10
         0.14688E+10
         0.14243E+10
         0.12041E+10
         0.89791E+09
        -0.23235E+09
        -0.41657E+09
        -0.85288E+09
        -0.62487E+09
        -0.38951E+09
        -0.82378E+08
        -0.83096E+08
        -0.11462E+09
         0.13714E+09
         0.25129E+09
        -0.16859E+09
        -0.14208E+09
        -0.13031E+08
        -0.22095E+09
        -0.38341E+09
         0.16435E+09
         0.52147E+09
        -0.28644E+09
         0.93238E+09
         0.14660E+10
         0.29856E+10
         0.40404E+10
         0.18054E+10
         0.81201E+09
         0.91588E+09
         0.24122E+09
         0.16733E+09
         0.73106E+09
         0.10685E+10
         0.18191E+10
        -0.11604E+09
         0.19614E+09
        -0.50442E+09
        -0.53897E+09
        -0.89217E+09
        -0.11802E+10
        -0.58699E+09
        -0.28529E+09
        -0.22493E+09
        -0.29085E+09
        -0.82647E+08
         0.15642E+10
         0.36060E+10
         0.86279E+09
         0.67089E+09
         0.11507E+10
         0.95324E+09
         0.52729E+09
         0.18598E+07
        -0.74000E+08
         0.20679E+09
         0.33415E+08
        -0.55672E+09
         0.92203E+09
        -0.13534E+10
        -0.72358E+09
        -0.28249E+09
        -0.32893E+09
        -0.54857E+09
        -0.10002E+10
        -0.18782E+10
        -0.23019E+10
        -0.90831E+09
         0.34068E+10
         0.80850E+10
         0.92097E+10
         0.70057E+10
         0.41842E+10
         0.22495E+10
         0.16258E+10
         0.24119E+10
         0.30384E+10
         0.21643E+10
         0.10546E+10
         0.81598E+09
         0.10326E+10
         0.11763E+10
         0.12829E+10
  
SCALARS                      stress_yz  double 1
LOOKUP_TABLE default
         0.35507E+08
         0.22558E+08
        -0.70185E+07
         0.36655E+08
         0.15970E+01
         0.15862E+01
         0.25786E+01
         0.18114E+01
        -0.11589E+09
        -0.12994E+09
         0.16975E+01
         0.90369E+00
         0.20115E+08
         0.22626E+08
         0.16883E+01
        -0.20452E+00
         0.17361E+08
         0.40762E+08
        -0.45476E+00
         0.58045E+00
         0.15741E+08
         0.16870E+08
         0.23695E+08
         0.50520E+00
         0.13443E+01
         0.14031E+01
         0.39076E+08
         0.22469E+08
         0.17919E+01
         0.22548E+01
        -0.62285E+07
         0.45749E+07
         0.42512E+08
         0.17422E+00
         0.69706E+00
        -0.40726E+00
        -0.26401E+08
        -0.86653E+07
         0.50261E+00
         0.82896E+00
        -0.10204E+08
        -0.17319E+08
        -0.93353E+00
        -0.17023E+01
         0.39639E+08
        -0.20181E+06
        -0.68390E+00
         0.70448E-01
         0.60190E+08
         0.81449E+00
         0.20972E+08
        -0.49144E+00
         0.11800E+09
         0.18076E+01
         0.15438E+09
         0.15540E+01
         0.10460E+09
         0.39693E+08
        -0.18787E-01
        -0.25981E+00
         0.54265E+08
         0.45796E+08
         0.23604E+00
        -0.17676E+01
         0.68194E+08
         0.21999E+01
        -0.23596E+08
         0.13167E+01
        -0.12449E+09
        -0.66509E+08
        -0.13086E+00
         0.12133E+01
        -0.15637E+07
         0.16537E+01
         0.14771E+09
         0.22275E+01
         0.17640E+09
         0.18820E+01
         0.95890E+08
        -0.23455E+00
         0.66820E+08
         0.49580E+08
        -0.36204E+00
        -0.11664E+01
         0.32975E+08
        -0.21008E+01
         0.90749E+08
        -0.32468E-02
         0.11327E+09
        -0.80469E+00
         0.12587E+09
         0.90692E+08
        -0.31612E+01
        -0.19346E+01
         0.81546E+08
         0.10227E+01
        -0.13701E+08
         0.11601E+01
        -0.13143E+09
         0.57543E+00
        -0.17357E+09
        -0.16969E+09
        -0.14160E+01
         0.65574E+00
        -0.17411E+09
        -0.19868E+09
        -0.62820E+01
        -0.53135E+01
        -0.12562E+09
        -0.96345E+00
        -0.29043E+08
         0.32317E+00
         0.65961E+08
        -0.12799E+00
         0.46032E+08
         0.91601E-01
        -0.65380E+08
         0.16994E+00
        -0.12933E+09
         0.56584E+00
        -0.13270E+09
         0.40316E+00
         0.50714E+08
         0.40857E+01
         0.75555E+08
         0.98017E+01
         0.82537E+08
         0.80545E+01
         0.10396E+09
         0.43594E+01
         0.98651E+08
         0.25843E+01
         0.88477E+08
         0.22264E+01
         0.11899E+09
         0.20933E+01
         0.16552E+09
         0.26325E+01
         0.18942E+09
         0.43865E+01
         0.17746E+09
         0.25271E+00
         0.15662E+09
        -0.18688E+01
         0.45319E+08
        -0.17399E+01
        -0.12897E+09
        -0.42888E+01
        -0.18243E+09
        -0.55893E+01
        -0.18383E+09
        -0.90094E+01
        -0.19413E+09
        -0.74248E+01
        -0.21847E+09
        -0.58613E+01
         0.47982E+08
         0.33876E+08
         0.38041E+07
         0.73361E+08
        -0.11590E+09
        -0.14583E+09
         0.41213E+08
         0.45888E+08
         0.35392E+08
         0.72151E+08
         0.74558E+08
         0.11610E+09
         0.59086E+08
         0.11417E+09
         0.18967E+09
         0.52697E+08
         0.14966E+07
         0.99900E+08
        -0.83298E+07
         0.25710E+07
         0.13355E+08
         0.21915E+08
         0.64126E+08
         0.50527E+08
         0.10210E+09
         0.92759E+08
         0.17067E+09
         0.19112E+09
         0.16594E+09
         0.11992E+09
         0.58621E+08
         0.74420E+08
         0.67648E+07
        -0.77575E+08
        -0.10986E+09
        -0.47784E+08
         0.14896E+08
         0.21116E+09
         0.19230E+09
         0.15390E+09
         0.12186E+09
         0.11823E+09
         0.89991E+08
         0.11494E+09
         0.97012E+08
         0.23772E+08
        -0.31520E+08
        -0.10528E+09
        -0.16425E+09
        -0.17752E+09
        -0.17643E+09
        -0.15494E+09
        -0.16820E+09
        -0.20673E+09
        -0.10536E+09
        -0.12293E+08
         0.94660E+08
         0.16847E+09
         0.14818E+09
         0.10778E+09
         0.88732E+08
         0.87332E+08
         0.88428E+08
         0.87736E+08
         0.70081E+08
         0.23709E+08
         0.23542E+08
         0.75582E+08
         0.13418E+09
         0.10800E+09
         0.61590E+07
        -0.68137E+08
        -0.13522E+09
        -0.19304E+09
        -0.21274E+09
        -0.19594E+09
        -0.17715E+09
        -0.20651E+09
         0.33405E+08
        -0.27776E+07
        -0.19696E+08
         0.19374E+08
        -0.64267E+08
        -0.72467E+08
         0.27834E+08
         0.35086E+08
         0.41468E+08
         0.75168E+08
         0.96623E+08
         0.12031E+09
         0.39846E+08
         0.13331E+09
         0.17338E+09
         0.83466E+08
        -0.15683E+08
         0.74875E+08
         0.55666E+08
         0.19840E+08
         0.10155E+09
         0.87641E+08
         0.14359E+09
         0.12787E+09
         0.12268E+09
         0.83360E+08
         0.17428E+09
         0.18139E+09
         0.16094E+09
         0.11730E+09
        -0.45970E+08
        -0.34125E+08
        -0.99658E+08
        -0.95647E+08
        -0.67061E+08
        -0.44969E+08
        -0.15532E+08
         0.19439E+09
         0.19141E+09
         0.17640E+09
         0.16507E+09
         0.15053E+09
         0.12218E+09
         0.61205E+08
        -0.47061E+08
        -0.11720E+09
        -0.15880E+09
        -0.20145E+09
        -0.19929E+09
        -0.16098E+09
        -0.13258E+09
        -0.98627E+08
        -0.87347E+08
        -0.97720E+08
        -0.59287E+08
        -0.20077E+08
         0.42707E+08
         0.12283E+09
         0.17983E+09
         0.19045E+09
         0.17266E+09
         0.16004E+09
         0.15464E+09
         0.15540E+09
         0.13672E+09
         0.11911E+09
         0.10768E+09
         0.97147E+08
         0.23958E+08
        -0.73020E+08
        -0.13742E+09
        -0.20007E+09
        -0.22428E+09
        -0.21433E+09
        -0.18207E+09
        -0.14267E+09
        -0.10258E+09
        -0.86986E+08
        -0.34330E+08
        -0.35511E+08
        -0.95589E+07
        -0.20877E+08
         0.20400E+08
         0.86201E+07
        -0.22658E+08
        -0.37390E+08
        -0.40262E+08
        -0.37257E+08
         0.57325E+08
         0.10541E+09
         0.88083E+07
         0.99211E+08
         0.16689E+09
         0.87091E+07
        -0.80444E+08
        -0.15084E+08
        -0.25683E+08
        -0.56905E+08
         0.38587E+08
         0.63152E+08
        -0.46443E+07
         0.93542E+07
        -0.12054E+07
        -0.11482E+08
         0.14582E+09
         0.15293E+09
         0.13830E+09
         0.65684E+08
        -0.90580E+08
        -0.95299E+08
        -0.10826E+09
        -0.62954E+08
         0.10280E+08
        -0.63483E+07
        -0.19028E+08
         0.18230E+09
         0.17800E+09
         0.16707E+09
         0.15888E+09
         0.13685E+09
         0.10397E+09
        -0.80454E+08
        -0.13333E+09
        -0.16599E+09
        -0.18048E+09
        -0.19867E+09
        -0.17880E+09
        -0.10328E+09
        -0.45274E+08
        -0.13413E+08
         0.19067E+08
         0.47540E+08
         0.62620E+07
        -0.68211E+06
         0.18962E+08
         0.10489E+09
         0.16724E+09
         0.18028E+09
         0.17201E+09
         0.16890E+09
         0.16830E+09
         0.15696E+09
         0.14090E+09
         0.12444E+09
         0.75913E+08
        -0.22247E+08
        -0.14584E+09
        -0.17694E+09
        -0.17572E+09
        -0.18229E+09
        -0.17320E+09
        -0.15395E+09
        -0.96545E+08
        -0.30211E+08
         0.22733E+08
         0.52875E+08
        -0.11155E+09
        -0.81030E+08
         0.20469E+06
        -0.48285E+08
         0.77388E+08
         0.63898E+08
        -0.74172E+08
        -0.11113E+09
        -0.11784E+09
        -0.10021E+09
         0.27427E+08
         0.91427E+08
        -0.83153E+07
         0.68606E+08
         0.15161E+09
        -0.87056E+08
        -0.12943E+09
        -0.89942E+08
        -0.96742E+08
        -0.98142E+08
        -0.90295E+07
         0.30698E+08
        -0.41626E+08
        -0.66806E+08
        -0.75807E+08
        -0.76085E+08
         0.10548E+09
         0.11780E+09
         0.11346E+09
         0.91916E+07
        -0.10156E+09
        -0.97843E+08
        -0.86641E+08
        -0.11015E+08
         0.64550E+08
         0.27018E+08
        -0.18236E+08
         0.16500E+09
         0.16291E+09
         0.15460E+09
         0.14720E+09
         0.12131E+09
         0.84430E+08
        -0.89507E+08
        -0.10366E+09
        -0.89474E+08
        -0.93404E+08
        -0.95855E+08
        -0.54785E+08
         0.71005E+07
         0.48654E+08
         0.56109E+08
         0.81279E+08
         0.11847E+09
         0.47190E+08
         0.12673E+08
         0.90735E+07
         0.82855E+08
         0.13491E+09
         0.15693E+09
         0.16151E+09
         0.16425E+09
         0.16173E+09
         0.14904E+09
         0.13989E+09
         0.11962E+09
         0.59181E+08
        -0.21647E+08
        -0.10837E+09
        -0.11452E+09
        -0.77267E+08
        -0.65834E+08
        -0.49490E+08
        -0.13232E+08
         0.35056E+08
         0.73873E+08
         0.98936E+08
         0.11556E+09
        -0.12982E+09
        -0.11491E+09
        -0.65283E+08
        -0.89995E+08
         0.20401E+08
         0.28047E+08
        -0.11779E+09
        -0.12519E+09
        -0.12573E+09
        -0.11495E+09
        -0.79748E+08
         0.12113E+08
        -0.65627E+08
        -0.56252E+08
         0.97581E+08
        -0.12497E+09
        -0.13437E+09
        -0.12159E+09
        -0.11868E+09
        -0.10905E+09
        -0.27937E+08
         0.13375E+08
        -0.53390E+08
        -0.10232E+09
        -0.99540E+08
        -0.11571E+09
         0.96073E+07
         0.62801E+08
         0.91564E+08
        -0.25194E+08
        -0.83265E+08
        -0.56593E+08
        -0.54444E+08
         0.13037E+07
         0.14330E+08
        -0.24728E+08
        -0.64215E+08
         0.13313E+09
         0.14537E+09
         0.14773E+09
         0.14790E+09
         0.12148E+09
         0.78996E+08
        -0.74046E+08
        -0.16812E+08
         0.39241E+08
         0.47903E+08
         0.50492E+08
         0.49711E+08
         0.49087E+08
         0.51266E+08
         0.39587E+08
         0.35329E+08
         0.60592E+08
         0.59410E+07
        -0.28243E+08
        -0.34911E+08
         0.25939E+08
         0.86837E+08
         0.12729E+09
         0.15178E+09
         0.16548E+09
         0.16794E+09
         0.15908E+09
         0.14689E+09
         0.11916E+09
         0.62488E+08
         0.12046E+08
        -0.22413E+08
         0.87716E+07
         0.56310E+08
         0.75467E+08
         0.75450E+08
         0.65122E+08
         0.62504E+08
         0.62653E+08
         0.60970E+08
         0.63048E+08
        -0.13103E+09
        -0.11156E+09
        -0.86936E+08
        -0.50686E+08
        -0.42659E+08
        -0.21595E+08
        -0.13230E+09
        -0.13927E+09
        -0.13388E+09
        -0.12519E+09
        -0.11108E+09
        -0.56857E+08
        -0.79692E+08
        -0.10478E+09
         0.20324E+07
        -0.10572E+09
        -0.13390E+09
        -0.67682E+08
        -0.12738E+09
        -0.10812E+09
        -0.54390E+08
        -0.85044E+07
        -0.78748E+08
        -0.11638E+09
        -0.10339E+09
        -0.81064E+08
        -0.55884E+08
         0.12839E+08
         0.69755E+08
        -0.46231E+08
         0.17517E+08
        -0.94966E+06
         0.32153E+08
         0.14821E+08
        -0.56418E+08
        -0.90950E+08
        -0.87793E+08
         0.82090E+08
         0.12534E+09
         0.14154E+09
         0.14811E+09
         0.12004E+09
         0.68281E+08
        -0.73565E+08
        -0.24093E+08
         0.27571E+08
         0.81503E+08
         0.10429E+09
         0.71461E+08
         0.30124E+08
         0.34337E+07
        -0.72179E+07
        -0.35705E+08
        -0.20730E+08
        -0.49286E+08
        -0.29805E+08
        -0.23490E+08
        -0.13087E+08
         0.26626E+08
         0.90063E+08
         0.13671E+09
         0.16311E+09
         0.17122E+09
         0.16392E+09
         0.14800E+09
         0.10693E+09
         0.38863E+08
        -0.11035E+08
        -0.23131E+08
        -0.52871E+07
         0.24285E+08
         0.55912E+08
         0.62843E+08
         0.36654E+08
         0.42661E+07
        -0.14693E+08
        -0.25833E+08
        -0.25551E+08
        -0.54400E+08
        -0.40694E+08
        -0.22414E+08
         0.13651E+07
         0.80176E+07
         0.33594E+08
        -0.52706E+08
        -0.82349E+08
        -0.59004E+08
        -0.10993E+09
        -0.68840E+08
        -0.50450E+08
        -0.18511E+08
        -0.10079E+09
        -0.69292E+08
        -0.13850E+08
        -0.68553E+08
        -0.74908E+07
        -0.37188E+08
        -0.90363E+08
        -0.54795E+08
        -0.55755E+08
        -0.50673E+08
        -0.34540E+08
        -0.10114E+09
        -0.15367E+08
        -0.10599E+09
        -0.73553E+08
        -0.28244E+08
        -0.82030E+08
         0.37645E+08
         0.14638E+08
         0.52918E+08
         0.65023E+08
         0.39086E+07
        -0.67513E+07
        -0.94564E+07
        -0.42952E+08
         0.23943E+08
         0.83712E+08
         0.12029E+09
         0.71921E+08
        -0.17298E+08
        -0.42764E+08
        -0.24840E+08
        -0.11418E+08
         0.36323E+08
         0.78869E+08
         0.69778E+08
         0.52713E+08
         0.43548E+08
         0.45895E+08
         0.23420E+08
         0.18961E+08
         0.59870E+08
         0.44323E+08
         0.44993E+08
         0.94086E+07
        -0.32787E+08
         0.13735E+08
         0.83715E+08
         0.13269E+09
         0.15597E+09
         0.16620E+09
         0.15129E+09
         0.27030E+08
        -0.38952E+08
        -0.53767E+08
        -0.51625E+08
        -0.50142E+08
        -0.50872E+08
        -0.36093E+08
         0.65014E+07
         0.18947E+08
         0.20096E+08
         0.26183E+08
         0.33313E+08
         0.29770E+08
        -0.29915E+08
        -0.18866E+08
        -0.66607E+07
         0.87625E+07
         0.26285E+08
         0.50924E+08
        -0.17080E+08
        -0.35485E+08
        -0.17828E+08
        -0.42429E+08
        -0.29331E+08
        -0.18841E+08
         0.15409E+08
        -0.64234E+08
        -0.88567E+08
         0.89156E+07
        -0.43433E+06
         0.26246E+07
         0.14878E+08
        -0.85497E+07
        -0.22342E+07
        -0.34569E+08
        -0.12475E+08
        -0.60910E+06
        -0.58431E+08
        -0.63065E+06
        -0.11429E+09
        -0.12798E+09
        -0.10875E+09
        -0.96653E+08
         0.31364E+08
         0.11795E+08
         0.47474E+08
         0.76524E+08
         0.28390E+08
         0.16514E+08
         0.16292E+08
        -0.11321E+09
        -0.10775E+09
        -0.89806E+08
        -0.72337E+08
        -0.77893E+08
        -0.70340E+08
        -0.26154E+08
        -0.23198E+08
        -0.20789E+08
         0.19447E+08
         0.61760E+08
         0.81518E+08
         0.79116E+08
         0.77687E+08
         0.71978E+08
         0.45593E+08
         0.37274E+08
         0.72757E+08
         0.65456E+08
         0.73447E+08
         0.40674E+08
        -0.55017E+08
        -0.87585E+08
        -0.69726E+08
        -0.44211E+08
        -0.38510E+08
        -0.36718E+08
        -0.32308E+08
        -0.32630E+08
        -0.16105E+08
        -0.20473E+08
        -0.45085E+08
        -0.59060E+08
        -0.69952E+08
        -0.63985E+08
        -0.44587E+07
         0.38438E+08
         0.61055E+08
         0.74644E+08
         0.73481E+08
         0.55938E+08
        -0.28105E+08
        -0.16557E+08
        -0.34715E+07
         0.41266E+07
         0.42471E+08
         0.65138E+08
        -0.98565E+07
        -0.23599E+08
        -0.87413E+07
        -0.19239E+08
        -0.22635E+08
        -0.13939E+08
         0.25506E+08
        -0.59662E+08
        -0.99906E+08
         0.29760E+07
         0.19972E+08
        -0.59893E+07
         0.29955E+08
         0.22981E+08
         0.30373E+08
        -0.66997E+07
         0.18431E+08
         0.11270E+08
        -0.26367E+08
        -0.18431E+07
        -0.11760E+09
        -0.13688E+09
        -0.11019E+09
        -0.74439E+08
         0.19973E+08
         0.71238E+07
         0.39650E+08
         0.82598E+08
         0.46937E+08
         0.27522E+08
         0.25129E+08
        -0.12715E+09
        -0.12639E+09
        -0.11350E+09
        -0.99950E+08
        -0.88375E+08
        -0.63373E+08
        -0.12408E+07
        -0.59525E+07
        -0.70849E+07
         0.22209E+08
         0.65925E+08
         0.86559E+08
         0.90963E+08
         0.95222E+08
         0.86556E+08
         0.66229E+08
         0.61737E+08
         0.87434E+08
         0.78947E+08
         0.88079E+08
         0.49476E+08
        -0.64549E+08
        -0.10840E+09
        -0.11010E+09
        -0.10008E+09
        -0.93922E+08
        -0.84919E+08
        -0.57635E+08
        -0.21295E+08
         0.32790E+08
         0.35736E+08
         0.56077E+07
        -0.19377E+08
        -0.40525E+08
        -0.40480E+08
         0.16924E+08
         0.62379E+08
         0.88876E+08
         0.10361E+09
         0.10257E+09
         0.85048E+08
        -0.28252E+08
        -0.13461E+08
         0.20704E+05
         0.28266E+07
         0.45074E+08
         0.63590E+08
        -0.51148E+07
        -0.18225E+08
        -0.60079E+07
        -0.73193E+07
        -0.20069E+08
        -0.12949E+08
         0.35271E+08
        -0.59826E+08
        -0.10665E+09
         0.62338E+07
         0.30780E+08
        -0.82598E+07
         0.37268E+08
         0.40175E+08
         0.19656E+08
        -0.48169E+07
         0.10143E+08
         0.14280E+08
        -0.74253E+07
         0.17199E+07
        -0.12235E+09
        -0.13706E+09
        -0.10232E+09
        -0.54413E+08
         0.26316E+08
         0.12028E+08
         0.48263E+08
         0.79600E+08
         0.52558E+08
         0.38522E+08
         0.36441E+08
        -0.13525E+09
        -0.13399E+09
        -0.11884E+09
        -0.10215E+09
        -0.81263E+08
        -0.52088E+08
        -0.39960E+07
        -0.43480E+07
         0.11894E+07
         0.37098E+08
         0.82291E+08
         0.90076E+08
         0.90073E+08
         0.91061E+08
         0.82093E+08
         0.69709E+08
         0.64828E+08
         0.93553E+08
         0.83002E+08
         0.89410E+08
         0.42364E+08
        -0.74659E+08
        -0.11970E+09
        -0.12640E+09
        -0.11744E+09
        -0.10355E+09
        -0.83465E+08
        -0.55648E+08
        -0.31088E+08
         0.63542E+07
         0.13675E+08
        -0.45918E+07
        -0.16620E+08
        -0.20162E+08
        -0.62057E+07
         0.41048E+08
         0.72937E+08
         0.89588E+08
         0.98438E+08
         0.97264E+08
         0.83925E+08
        -0.27716E+08
        -0.16947E+08
        -0.72108E+07
         0.33180E+07
         0.33116E+08
         0.54458E+08
        -0.42335E+07
        -0.11945E+08
        -0.82591E+06
         0.26163E+07
        -0.17361E+08
        -0.18406E+08
         0.26675E+08
        -0.53132E+08
        -0.10696E+09
         0.13709E+08
         0.41549E+08
        -0.36431E+07
         0.42514E+08
         0.49190E+08
         0.93258E+07
        -0.11400E+08
        -0.53377E+07
         0.10390E+08
         0.16483E+07
         0.17512E+07
        -0.11647E+09
        -0.13333E+09
        -0.10034E+09
        -0.55862E+08
         0.38765E+08
         0.18667E+08
         0.61925E+08
         0.81051E+08
         0.37905E+08
         0.26486E+08
         0.24983E+08
        -0.13540E+09
        -0.13448E+09
        -0.12097E+09
        -0.10534E+09
        -0.82399E+08
        -0.54589E+08
        -0.18558E+08
        -0.10395E+08
         0.60923E+07
         0.48992E+08
         0.88265E+08
         0.92418E+08
         0.87310E+08
         0.83217E+08
         0.74426E+08
         0.56067E+08
         0.50366E+08
         0.79178E+08
         0.66479E+08
         0.70468E+08
         0.20794E+08
        -0.82072E+08
        -0.12242E+09
        -0.12924E+09
        -0.12354E+09
        -0.10992E+09
        -0.85949E+08
        -0.61375E+08
        -0.44216E+08
        -0.17951E+08
        -0.19139E+08
        -0.35116E+08
        -0.32335E+08
        -0.14231E+08
         0.14381E+08
         0.54921E+08
         0.74031E+08
         0.81013E+08
         0.83844E+08
         0.79878E+08
         0.65715E+08
        -0.26835E+08
        -0.19647E+08
        -0.10770E+08
         0.62172E+07
         0.36782E+08
         0.64110E+08
        -0.23057E+07
        -0.72982E+07
         0.80697E+06
         0.61699E+07
        -0.14668E+08
        -0.20900E+08
         0.20483E+08
        -0.49884E+08
        -0.10701E+09
         0.11592E+08
         0.44907E+08
        -0.41523E+07
         0.44923E+08
         0.53930E+08
         0.13053E+08
        -0.86730E+07
        -0.66691E+07
         0.77968E+07
         0.79616E+06
        -0.11076E+07
        -0.11630E+09
        -0.13679E+09
        -0.11047E+09
        -0.69439E+08
         0.39476E+08
         0.21492E+08
         0.63891E+08
         0.85887E+08
         0.33476E+08
         0.13957E+08
         0.11572E+08
        -0.13495E+09
        -0.13700E+09
        -0.12841E+09
        -0.11680E+09
        -0.95447E+08
        -0.62581E+08
        -0.19862E+08
        -0.56085E+07
         0.15557E+08
         0.53511E+08
         0.86611E+08
         0.90612E+08
         0.89316E+08
         0.89612E+08
         0.83879E+08
         0.52998E+08
         0.57417E+08
         0.62510E+08
         0.47343E+08
         0.58280E+08
         0.14316E+08
        -0.84776E+08
        -0.12064E+09
        -0.12975E+09
        -0.13016E+09
        -0.12236E+09
        -0.10125E+09
        -0.68615E+08
        -0.40170E+08
        -0.12865E+08
        -0.19304E+08
        -0.34718E+08
        -0.24581E+08
        -0.17907E+07
         0.24764E+08
         0.57119E+08
         0.71764E+08
         0.81452E+08
         0.91310E+08
         0.93987E+08
         0.80501E+08
        -0.19229E+08
        -0.83663E+07
        -0.63619E+06
         0.14249E+08
         0.40980E+08
         0.65947E+08
         0.72265E+07
        -0.12819E+07
         0.30282E+07
         0.10179E+08
        -0.96655E+07
        -0.16608E+08
         0.33246E+08
        -0.47889E+08
        -0.11045E+09
         0.11185E+08
         0.47880E+08
        -0.20412E+07
         0.48334E+08
         0.63356E+08
         0.10894E+08
        -0.71811E+07
        -0.12348E+08
         0.54697E+07
         0.78351E+07
        -0.19797E+07
        -0.11114E+09
        -0.13789E+09
        -0.11316E+09
        -0.58659E+08
         0.40299E+08
         0.24507E+08
         0.62704E+08
         0.82111E+08
         0.34837E+08
         0.19951E+08
         0.23515E+08
        -0.13830E+09
        -0.14042E+09
        -0.13243E+09
        -0.12207E+09
        -0.10022E+09
        -0.62959E+08
        -0.23922E+08
        -0.42058E+07
         0.20544E+08
         0.58591E+08
         0.86840E+08
         0.86477E+08
         0.84100E+08
         0.85024E+08
         0.80927E+08
         0.46960E+08
         0.57367E+08
         0.60449E+08
         0.53046E+08
         0.70486E+08
         0.21260E+08
        -0.88454E+08
        -0.12735E+09
        -0.13695E+09
        -0.13632E+09
        -0.12920E+09
        -0.10953E+09
        -0.75775E+08
        -0.48146E+08
        -0.26141E+08
        -0.31873E+08
        -0.43296E+08
        -0.26966E+08
         0.15857E+07
         0.27614E+08
         0.53963E+08
         0.64375E+08
         0.74875E+08
         0.87139E+08
         0.91649E+08
         0.81926E+08
        -0.17220E+08
        -0.25893E+07
         0.39931E+07
         0.12732E+08
         0.35537E+08
         0.52202E+08
         0.10523E+08
         0.28815E+06
         0.23144E+07
         0.11053E+08
        -0.82604E+07
        -0.15557E+08
         0.40911E+08
        -0.45881E+08
        -0.11442E+09
         0.72340E+07
         0.43285E+08
        -0.28712E+07
         0.39897E+08
         0.55304E+08
         0.54715E+07
        -0.11174E+08
        -0.17402E+08
        -0.62889E+06
         0.86232E+07
        -0.42986E+07
        -0.10439E+09
        -0.13412E+09
        -0.10692E+09
        -0.53498E+08
         0.40026E+08
         0.26451E+08
         0.59704E+08
         0.74872E+08
         0.37900E+08
         0.31121E+08
         0.36281E+08
        -0.13910E+09
        -0.13888E+09
        -0.12787E+09
        -0.11498E+09
        -0.92559E+08
        -0.59764E+08
        -0.25013E+08
        -0.56806E+06
         0.26125E+08
         0.65254E+08
         0.91107E+08
         0.86882E+08
         0.78556E+08
         0.73239E+08
         0.65789E+08
         0.47420E+08
         0.45844E+08
         0.80422E+08
         0.74808E+08
         0.88898E+08
         0.29897E+08
        -0.92495E+08
        -0.13242E+09
        -0.13933E+09
        -0.13372E+09
        -0.12216E+09
        -0.10171E+09
        -0.74404E+08
        -0.49937E+08
        -0.31617E+08
        -0.35593E+08
        -0.41336E+08
        -0.23318E+08
         0.51451E+07
         0.32060E+08
         0.59237E+08
         0.67263E+08
         0.70889E+08
         0.72924E+08
         0.67035E+08
         0.57283E+08
        -0.18119E+08
        -0.22554E+07
         0.10283E+08
         0.15543E+08
         0.40072E+08
         0.53935E+08
         0.64005E+07
        -0.37482E+07
        -0.71441E+06
         0.55454E+07
        -0.11787E+08
        -0.19108E+08
         0.34801E+08
        -0.46128E+08
        -0.10970E+09
         0.47427E+07
         0.34986E+08
        -0.97870E+06
         0.30579E+08
         0.42293E+08
         0.95470E+07
        -0.13931E+08
        -0.47756E+07
         0.14864E+07
         0.26879E+07
         0.82057E+05
        -0.10160E+09
        -0.12463E+09
        -0.97612E+08
        -0.54437E+08
         0.43554E+08
         0.31413E+08
         0.63785E+08
         0.81659E+08
         0.49731E+08
         0.42446E+08
         0.37818E+08
        -0.13202E+09
        -0.12948E+09
        -0.11663E+09
        -0.10281E+09
        -0.83531E+08
        -0.58487E+08
        -0.10218E+08
         0.97751E+07
         0.27706E+08
         0.61659E+08
         0.89619E+08
         0.89851E+08
         0.83289E+08
         0.78020E+08
         0.69529E+08
         0.59751E+08
         0.46694E+08
         0.10155E+09
         0.84457E+08
         0.90068E+08
         0.31351E+08
        -0.88687E+08
        -0.12639E+09
        -0.12820E+09
        -0.11952E+09
        -0.10728E+09
        -0.92001E+08
        -0.72667E+08
        -0.42162E+08
        -0.74733E+07
        -0.45533E+07
        -0.14153E+08
        -0.63444E+07
         0.69954E+07
         0.24136E+08
         0.54198E+08
         0.69348E+08
         0.75542E+08
         0.77953E+08
         0.68693E+08
         0.53605E+08
        -0.17051E+08
        -0.68588E+07
         0.48996E+07
         0.16317E+08
         0.35592E+08
         0.54794E+08
         0.11921E+07
        -0.67574E+07
         0.28966E+07
         0.55344E+06
        -0.16176E+08
        -0.24902E+08
         0.22054E+08
        -0.51103E+08
        -0.10716E+09
         0.18729E+08
         0.40161E+08
         0.78404E+07
         0.45644E+08
         0.51388E+08
         0.22257E+08
        -0.49606E+07
         0.84459E+07
         0.19078E+08
        -0.19371E+07
         0.13772E+08
        -0.11420E+09
        -0.12709E+09
        -0.99727E+08
        -0.55462E+08
         0.48125E+08
         0.33169E+08
         0.64684E+08
         0.82230E+08
         0.42051E+08
         0.30710E+08
         0.24320E+08
        -0.13130E+09
        -0.13064E+09
        -0.11814E+09
        -0.10437E+09
        -0.85132E+08
        -0.57277E+08
        -0.27465E+07
         0.57788E+07
         0.13062E+08
         0.45889E+08
         0.78113E+08
         0.82159E+08
         0.79667E+08
         0.78415E+08
         0.72789E+08
         0.54910E+08
         0.44385E+08
         0.90933E+08
         0.71378E+08
         0.74904E+08
         0.21489E+08
        -0.84951E+08
        -0.12125E+09
        -0.12467E+09
        -0.11747E+09
        -0.10735E+09
        -0.92691E+08
        -0.70929E+08
        -0.36145E+08
         0.40926E+07
         0.49272E+07
        -0.13600E+08
        -0.15940E+08
        -0.13195E+08
        -0.56365E+07
         0.27356E+08
         0.52476E+08
         0.66280E+08
         0.78275E+08
         0.75912E+08
         0.57497E+08
        -0.12780E+08
        -0.78361E+07
        -0.42649E+07
         0.12388E+08
         0.18140E+08
         0.37065E+08
         0.27923E+07
        -0.43865E+07
         0.97018E+07
         0.30222E+07
        -0.11227E+08
        -0.14737E+08
         0.21642E+08
        -0.46527E+08
        -0.11099E+09
         0.29949E+08
         0.48857E+08
         0.13576E+08
         0.55161E+08
         0.58809E+08
         0.15011E+08
        -0.88502E+07
         0.71095E+06
         0.24318E+08
         0.29216E+06
         0.18075E+08
        -0.11329E+09
        -0.13858E+09
        -0.10994E+09
        -0.60662E+08
         0.43071E+08
         0.26541E+08
         0.52605E+08
         0.68218E+08
         0.20846E+08
         0.11421E+08
         0.14656E+08
        -0.13841E+09
        -0.14060E+09
        -0.12991E+09
        -0.11828E+09
        -0.98015E+08
        -0.65519E+08
        -0.98289E+07
        -0.55444E+07
        -0.24989E+07
         0.31625E+08
         0.64351E+08
         0.63032E+08
         0.57890E+08
         0.54850E+08
         0.52896E+08
         0.33543E+08
         0.24902E+08
         0.59618E+08
         0.54986E+08
         0.71544E+08
         0.36300E+08
        -0.77171E+08
        -0.12469E+09
        -0.13571E+09
        -0.13309E+09
        -0.12529E+09
        -0.10925E+09
        -0.82105E+08
        -0.49230E+08
        -0.21944E+08
        -0.21045E+08
        -0.32535E+08
        -0.33310E+08
        -0.32803E+08
        -0.29245E+08
        -0.25500E+06
         0.21338E+08
         0.33230E+08
         0.46317E+08
         0.45521E+08
         0.31012E+08
        -0.58873E+07
         0.99619E+05
         0.17537E+07
         0.17445E+08
         0.10516E+08
         0.28998E+08
         0.56798E+07
        -0.30360E+07
         0.15380E+08
         0.90326E+07
        -0.70877E+07
        -0.32896E+07
         0.29687E+08
        -0.37466E+08
        -0.10880E+09
         0.31822E+08
         0.54517E+08
         0.18731E+08
         0.52665E+08
         0.61382E+08
         0.37733E+07
        -0.18867E+08
        -0.53614E+07
         0.20751E+08
         0.15958E+08
         0.15143E+08
        -0.88440E+08
        -0.13180E+09
        -0.97097E+08
        -0.38133E+08
         0.35965E+08
         0.18274E+08
         0.42429E+08
         0.51344E+08
         0.11786E+08
         0.14715E+08
         0.25389E+08
        -0.13483E+09
        -0.13296E+09
        -0.11961E+09
        -0.10778E+09
        -0.88728E+08
        -0.63814E+08
        -0.13581E+08
        -0.13029E+08
        -0.15411E+08
         0.14153E+08
         0.42660E+08
         0.46190E+08
         0.35612E+08
         0.29997E+08
         0.38318E+08
         0.16873E+08
         0.36446E+07
         0.62513E+08
         0.76268E+08
         0.98627E+08
         0.70883E+08
        -0.57511E+08
        -0.11743E+09
        -0.12869E+09
        -0.12416E+09
        -0.11616E+09
        -0.10375E+09
        -0.88624E+08
        -0.70942E+08
        -0.43704E+08
        -0.29283E+08
        -0.34105E+08
        -0.40289E+08
        -0.48158E+08
        -0.52311E+08
        -0.33519E+08
        -0.19397E+08
        -0.10948E+08
         0.55147E+07
         0.12539E+08
         0.50235E+07
        -0.99215E+07
        -0.61800E+07
        -0.77550E+07
         0.95762E+07
        -0.15974E+08
        -0.10196E+07
        -0.48797E+07
        -0.12693E+08
         0.11556E+08
         0.16960E+07
        -0.18453E+08
        -0.93816E+07
         0.22112E+08
        -0.46648E+08
        -0.10389E+09
         0.23618E+08
         0.44092E+08
         0.16129E+08
         0.39017E+08
         0.43738E+08
         0.41574E+07
        -0.22174E+08
        -0.97468E+07
         0.82951E+07
         0.56737E+07
        -0.23554E+06
        -0.90765E+08
        -0.12200E+09
        -0.89071E+08
        -0.52152E+08
         0.15447E+08
        -0.83329E+07
         0.19263E+08
         0.14059E+08
        -0.17536E+08
         0.18452E+06
         0.19075E+08
        -0.12858E+09
        -0.12359E+09
        -0.10934E+09
        -0.96904E+08
        -0.79385E+08
        -0.61741E+08
        -0.25799E+08
        -0.38559E+08
        -0.56891E+08
        -0.39556E+08
        -0.15652E+08
        -0.16481E+08
        -0.30686E+08
        -0.43071E+08
        -0.85181E+07
        -0.19701E+08
        -0.31605E+08
         0.35791E+08
         0.78438E+08
         0.10781E+09
         0.80472E+08
        -0.47062E+08
        -0.11112E+09
        -0.11894E+09
        -0.11340E+09
        -0.10394E+09
        -0.89975E+08
        -0.78939E+08
        -0.61811E+08
        -0.29145E+08
        -0.22146E+08
        -0.38679E+08
        -0.60923E+08
        -0.86871E+08
        -0.10221E+09
        -0.97901E+08
        -0.96671E+08
        -0.99767E+08
        -0.84201E+08
        -0.56665E+08
        -0.39237E+08
        -0.37001E+08
        -0.40957E+08
        -0.56654E+08
        -0.26162E+08
        -0.10732E+09
        -0.10834E+09
        -0.35663E+08
        -0.43050E+08
        -0.16019E+08
        -0.32391E+08
        -0.44527E+08
        -0.28964E+08
        -0.96595E+07
        -0.71196E+08
        -0.84582E+08
        -0.29757E+07
         0.80299E+07
        -0.52329E+07
         0.36425E+07
        -0.25397E+07
        -0.54694E+07
        -0.32236E+08
        -0.28749E+08
        -0.25350E+08
        -0.40635E+08
        -0.37182E+08
        -0.11732E+09
        -0.12499E+09
        -0.10085E+09
        -0.89781E+08
        -0.35661E+08
        -0.67883E+08
        -0.37859E+08
        -0.70830E+08
        -0.86344E+08
        -0.67707E+08
        -0.30378E+08
        -0.11963E+09
        -0.12427E+09
        -0.11711E+09
        -0.10919E+09
        -0.92349E+08
        -0.71838E+08
        -0.55800E+08
        -0.80478E+08
        -0.10548E+09
        -0.11969E+09
        -0.12739E+09
        -0.13570E+09
        -0.13940E+09
        -0.14220E+09
        -0.12896E+09
        -0.84123E+08
        -0.11173E+09
        -0.43916E+08
         0.11522E+08
         0.68979E+08
         0.46219E+08
        -0.49424E+08
        -0.11044E+09
        -0.12555E+09
        -0.12634E+09
        -0.11993E+09
        -0.10267E+09
        -0.77284E+08
        -0.36439E+08
         0.69427E+06
        -0.17852E+08
        -0.54217E+08
        -0.82363E+08
        -0.10942E+09
        -0.12245E+09
        -0.13087E+09
        -0.14159E+09
        -0.15233E+09
        -0.15420E+09
        -0.14601E+09
        -0.13530E+09
        -0.23761E+08
        -0.25012E+08
        -0.30603E+08
         0.77774E+06
        -0.77137E+08
        -0.92169E+08
        -0.28781E+08
        -0.45610E+08
        -0.11925E+08
        -0.53906E+08
        -0.41373E+08
        -0.18364E+08
        -0.41224E+06
        -0.77115E+08
        -0.63052E+08
         0.10429E+08
        -0.10123E+08
         0.20249E+08
         0.56214E+07
        -0.38890E+08
         0.31745E+08
        -0.66330E+07
         0.30194E+08
         0.51618E+07
        -0.89953E+08
        -0.17302E+08
        -0.13307E+09
        -0.11764E+09
        -0.95466E+08
        -0.99915E+08
        -0.48663E+08
        -0.82694E+08
        -0.40661E+08
        -0.61433E+08
        -0.45723E+08
        -0.23606E+08
        -0.11208E+08
        -0.97797E+08
        -0.10672E+09
        -0.10203E+09
        -0.93058E+08
        -0.78226E+08
        -0.54433E+08
         0.22315E+06
        -0.45150E+08
        -0.85615E+08
        -0.12373E+09
        -0.15031E+09
        -0.15463E+09
        -0.14280E+09
        -0.13562E+09
        -0.10717E+09
        -0.50458E+08
        -0.12310E+09
        -0.11005E+08
         0.17416E+08
         0.49880E+08
         0.23306E+08
        -0.40008E+08
        -0.87982E+08
        -0.10748E+09
        -0.10908E+09
        -0.99421E+08
        -0.74673E+08
        -0.32053E+08
         0.28823E+08
         0.74046E+08
         0.77382E+08
         0.39645E+08
        -0.20464E+08
        -0.77894E+08
        -0.11475E+09
        -0.13243E+09
        -0.14287E+09
        -0.15232E+09
        -0.15251E+09
        -0.14460E+09
        -0.13848E+09
         0.10352E+09
         0.10845E+09
         0.11429E+09
         0.11549E+09
         0.87117E+08
         0.61650E+08
         0.85279E+08
         0.66252E+08
         0.87611E+08
         0.25841E+08
         0.59647E+08
         0.60603E+08
         0.10706E+09
         0.12747E+08
        -0.48925E+08
         0.71505E+08
         0.37322E+08
         0.10913E+09
         0.38421E+08
        -0.70027E+07
         0.42893E+08
         0.18365E+08
         0.44752E+08
         0.39976E+08
        -0.57747E+08
         0.35523E+08
        -0.10366E+09
        -0.14293E+09
        -0.10337E+09
        -0.10165E+09
         0.19642E+08
         0.13193E+07
         0.41793E+08
         0.51314E+08
         0.99155E+08
         0.11469E+09
         0.12055E+09
        -0.98189E+08
        -0.95708E+08
        -0.79876E+08
        -0.60518E+08
        -0.54270E+08
        -0.27686E+08
         0.32451E+08
         0.38037E+07
        -0.34042E+08
        -0.63621E+08
        -0.83093E+08
        -0.66164E+08
        -0.37024E+08
        -0.26347E+08
         0.16893E+08
         0.93141E+08
         0.40874E+08
         0.12498E+09
         0.13890E+09
         0.11043E+09
         0.38982E+08
        -0.27515E+08
        -0.61558E+08
        -0.69758E+08
        -0.60775E+08
        -0.45267E+08
        -0.21250E+08
         0.19295E+08
         0.56130E+08
         0.69359E+08
         0.66918E+08
         0.51978E+08
         0.15725E+08
        -0.37731E+08
        -0.82247E+08
        -0.97923E+08
        -0.89568E+08
        -0.75019E+08
        -0.60822E+08
        -0.48233E+08
        -0.26887E+08
         0.12216E+09
         0.12722E+09
         0.12945E+09
         0.11769E+09
         0.10972E+09
         0.88921E+08
         0.10407E+09
         0.91604E+08
         0.98724E+08
         0.47772E+08
         0.79313E+08
         0.66560E+08
         0.10156E+09
         0.46878E+08
        -0.92694E+07
         0.64448E+08
         0.45093E+08
         0.10421E+09
         0.35825E+08
        -0.57809E+07
         0.25656E+08
        -0.53630E+07
         0.30705E+08
         0.33773E+08
        -0.41014E+08
         0.29422E+08
        -0.39724E+08
        -0.13821E+09
        -0.12413E+09
        -0.96796E+08
         0.15464E+08
        -0.27237E+07
         0.36540E+08
         0.51016E+08
         0.11930E+09
         0.12969E+09
         0.12813E+09
        -0.82203E+08
        -0.91661E+08
        -0.84183E+08
        -0.72740E+08
        -0.76666E+08
        -0.51972E+08
         0.20633E+08
        -0.55397E+07
        -0.41836E+08
        -0.65605E+08
        -0.79563E+08
        -0.52929E+08
        -0.19317E+08
        -0.24805E+07
         0.40210E+08
         0.11425E+09
         0.77625E+08
         0.13310E+09
         0.13818E+09
         0.11801E+09
         0.63609E+08
        -0.15039E+08
        -0.41973E+08
        -0.49144E+08
        -0.49713E+08
        -0.54848E+08
        -0.51848E+08
        -0.27702E+08
         0.71151E+07
         0.32970E+08
         0.39877E+08
         0.29722E+08
        -0.27455E+07
        -0.53527E+08
        -0.95026E+08
        -0.10335E+09
        -0.82891E+08
        -0.57346E+08
        -0.31169E+08
         0.12096E+07
         0.48896E+08
  
SCALARS                      stress_xz  double 1
LOOKUP_TABLE default
         0.20491E+09
         0.22095E+09
         0.21301E+09
         0.20318E+09
        -0.10534E+01
         0.89543E+01
         0.53286E+01
         0.38420E+01
         0.15575E+09
         0.13700E+09
        -0.12781E+01
         0.53608E+01
         0.21927E+09
         0.21049E+09
        -0.17665E+01
         0.33941E+01
         0.18172E+09
         0.19555E+09
        -0.10420E+01
         0.26312E+01
         0.22325E+09
         0.23391E+09
         0.22285E+09
        -0.17833E+01
         0.59117E+01
         0.51480E+01
         0.21359E+09
         0.22121E+09
        -0.22520E+01
         0.54567E+01
         0.14644E+09
         0.15511E+09
         0.15550E+09
        -0.58831E+00
        -0.22155E+00
         0.50175E+00
         0.13126E+09
         0.14100E+09
        -0.10791E+01
        -0.10889E+01
         0.90556E+08
         0.71858E+08
        -0.18633E+01
        -0.22639E+01
         0.82101E+08
         0.12327E+09
        -0.24778E+01
        -0.11471E+01
         0.15604E+09
        -0.15617E+01
         0.13439E+09
        -0.88606E+00
         0.17586E+09
        -0.16226E+01
         0.97468E+08
        -0.15299E+01
         0.25021E+08
         0.15579E+09
        -0.38305E+01
         0.47639E+01
         0.12260E+09
         0.14999E+09
        -0.60717E+00
         0.21772E+01
         0.91935E+08
        -0.13714E+01
         0.12372E+09
        -0.19440E+01
         0.13013E+09
         0.17848E+09
        -0.91313E+00
         0.55408E+01
         0.21431E+09
        -0.61016E+00
         0.14411E+09
        -0.20542E+01
        -0.58715E+08
        -0.25906E+01
        -0.78484E+08
        -0.27052E+01
        -0.77879E+08
        -0.44853E+08
        -0.21303E+01
         0.16067E+01
         0.13659E+08
        -0.25069E+01
         0.59996E+08
        -0.30678E+01
         0.55476E+08
        -0.38613E+01
         0.44357E+08
         0.11101E+09
        -0.34031E+01
         0.50343E+01
         0.39291E+08
        -0.17916E+01
        -0.54637E+08
        -0.30078E+01
        -0.64512E+08
        -0.40510E+01
        -0.72405E+08
         0.28213E+08
        -0.35991E+01
         0.49757E+01
         0.84541E+08
         0.12356E+09
        -0.13962E+01
         0.88231E+01
         0.82679E+08
        -0.60710E+00
         0.14815E+09
        -0.31860E+00
         0.17978E+09
        -0.57078E+00
         0.21658E+09
        -0.16036E+00
         0.17450E+09
         0.15405E+00
        -0.48252E+07
        -0.68369E+00
        -0.11531E+09
        -0.11985E+01
        -0.18727E+09
        -0.11145E+01
        -0.89793E+08
        -0.22268E+00
        -0.70095E+08
        -0.14346E+01
        -0.46638E+08
        -0.26654E+01
         0.13804E+07
        -0.29943E+01
         0.24779E+08
        -0.39729E+01
         0.34458E+07
        -0.51555E+01
        -0.23424E+08
        -0.57645E+01
        -0.52309E+08
        -0.73527E+01
        -0.85442E+08
        -0.76287E+01
        -0.14174E+09
        -0.54374E+01
        -0.20829E+09
        -0.48235E+01
        -0.18112E+09
        -0.57729E+01
        -0.14109E+09
        -0.60211E+01
        -0.13568E+09
        -0.53237E+01
        -0.11154E+09
        -0.20626E+01
        -0.35697E+08
        -0.59654E+00
         0.19654E+09
         0.19539E+09
         0.17619E+09
         0.15095E+09
         0.14483E+09
         0.93374E+08
         0.20034E+09
         0.19816E+09
         0.19473E+09
         0.18397E+09
         0.18707E+09
         0.14609E+09
         0.17677E+09
         0.16295E+09
         0.60904E+08
         0.18061E+09
         0.18946E+09
         0.15846E+09
         0.18609E+09
         0.18725E+09
         0.18808E+09
         0.12626E+09
         0.20286E+09
         0.19006E+09
         0.16204E+09
         0.18560E+09
         0.10069E+09
         0.46194E+08
        -0.18107E+08
         0.97336E+08
         0.19116E+09
         0.20496E+09
         0.14945E+09
         0.97750E+08
         0.14478E+09
         0.16106E+09
         0.17504E+09
        -0.36944E+08
        -0.86564E+08
        -0.11905E+09
        -0.13317E+09
        -0.77995E+08
         0.45270E+07
         0.19741E+09
         0.19586E+09
         0.18653E+09
         0.18447E+09
         0.15494E+09
         0.98680E+08
         0.50057E+08
         0.18786E+08
         0.30411E+08
         0.11607E+09
         0.93564E+08
         0.12462E+09
         0.12420E+09
         0.75214E+08
        -0.60959E+08
        -0.17037E+09
        -0.20542E+09
        -0.22348E+09
        -0.22245E+09
        -0.18981E+09
        -0.13664E+09
        -0.64333E+08
         0.91261E+08
         0.19812E+09
         0.22149E+09
         0.19844E+09
         0.17053E+09
         0.16529E+09
         0.15597E+09
         0.12413E+09
         0.69478E+08
         0.18213E+08
        -0.14807E+08
        -0.29814E+08
         0.76976E+07
        -0.16412E+09
        -0.18272E+09
        -0.20033E+09
        -0.20103E+09
        -0.20901E+09
        -0.18411E+09
        -0.14719E+09
        -0.14662E+09
        -0.17760E+09
        -0.16007E+09
        -0.11690E+09
        -0.10140E+09
        -0.13928E+09
        -0.10146E+09
        -0.77825E+08
        -0.17678E+09
        -0.17362E+09
        -0.16633E+09
        -0.14156E+09
        -0.14030E+09
         0.48983E+08
        -0.91707E+07
        -0.58291E+07
        -0.13015E+09
        -0.14412E+09
        -0.17371E+09
        -0.90510E+08
        -0.85032E+08
        -0.83894E+08
        -0.83384E+08
        -0.16397E+09
        -0.17094E+09
        -0.16806E+09
        -0.16375E+09
        -0.20757E+09
        -0.19609E+09
        -0.17990E+09
        -0.80342E+08
        -0.94416E+08
        -0.10380E+09
        -0.10537E+09
        -0.86790E+08
        -0.59866E+08
        -0.13709E+09
        -0.16411E+09
        -0.14160E+09
        -0.99863E+08
        -0.54779E+08
        -0.79171E+08
        -0.12274E+09
        -0.14662E+09
        -0.16138E+09
        -0.21138E+09
        -0.20633E+09
        -0.20142E+09
        -0.18061E+09
        -0.13794E+09
        -0.97163E+08
        -0.69089E+08
        -0.87640E+08
        -0.12711E+09
        -0.14039E+09
        -0.10844E+09
        -0.97228E+08
        -0.66787E+08
         0.27178E+07
         0.75436E+08
         0.59647E+08
        -0.73179E+08
        -0.14408E+09
        -0.13620E+09
        -0.57035E+08
        -0.10156E+08
        -0.57431E+08
        -0.11923E+09
        -0.15655E+09
        -0.17784E+09
        -0.18962E+09
        -0.18998E+09
        -0.18777E+09
        -0.17820E+09
        -0.15410E+09
        -0.14948E+09
        -0.10259E+09
        -0.18456E+09
        -0.19329E+09
        -0.18381E+09
        -0.17798E+09
        -0.17546E+09
        -0.13313E+09
        -0.15529E+09
        -0.17009E+09
        -0.10570E+09
        -0.17409E+09
        -0.14628E+09
        -0.16069E+09
        -0.12766E+09
        -0.90333E+08
        -0.55316E+07
        -0.25146E+08
        -0.54580E+08
        -0.13640E+09
        -0.15207E+09
        -0.16301E+09
        -0.13875E+09
        -0.10307E+09
        -0.84235E+08
        -0.83878E+08
        -0.11290E+09
        -0.13830E+09
        -0.89453E+08
        -0.76713E+08
        -0.16152E+09
        -0.16892E+09
        -0.16996E+09
        -0.99139E+08
        -0.99414E+08
        -0.95789E+08
        -0.92091E+08
        -0.79436E+08
        -0.58029E+08
        -0.13256E+09
        -0.14030E+09
        -0.10953E+09
        -0.68090E+08
        -0.11684E+08
        -0.71048E+07
        -0.38735E+08
        -0.59335E+08
        -0.70240E+08
        -0.15721E+09
        -0.14198E+09
        -0.16220E+09
        -0.15883E+09
        -0.13584E+09
        -0.10762E+09
        -0.86644E+08
        -0.10287E+09
        -0.12415E+09
        -0.11987E+09
        -0.10143E+09
        -0.82168E+08
        -0.57710E+08
        -0.11854E+08
         0.24030E+08
         0.71149E+07
        -0.68247E+08
        -0.11299E+09
        -0.94850E+08
        -0.20428E+08
         0.43696E+08
         0.37773E+08
        -0.32745E+08
        -0.75266E+08
        -0.88883E+08
        -0.10378E+09
        -0.80622E+08
        -0.58990E+08
        -0.13334E+07
         0.74067E+07
         0.81363E+08
         0.11630E+09
        -0.58259E+08
        -0.47090E+08
        -0.47093E+08
        -0.56962E+07
        -0.89693E+08
        -0.88012E+08
        -0.40849E+08
        -0.98980E+08
        -0.99022E+08
        -0.65669E+08
        -0.74890E+07
        -0.57376E+08
        -0.28388E+07
        -0.14415E+07
         0.25098E+08
        -0.69657E+07
         0.26812E+08
        -0.84407E+07
        -0.14238E+08
        -0.32610E+08
        -0.77036E+08
        -0.73244E+08
        -0.71028E+08
        -0.45097E+08
         0.16568E+08
         0.28182E+08
         0.62455E+08
         0.12039E+09
         0.71493E+08
         0.41406E+08
        -0.17755E+07
        -0.99993E+08
        -0.96374E+08
        -0.89192E+08
        -0.83155E+08
        -0.67777E+08
        -0.43213E+08
         0.25375E+08
         0.61987E+08
         0.90497E+08
         0.98558E+08
         0.12113E+09
         0.14508E+09
         0.15584E+09
         0.15816E+09
         0.14548E+09
         0.95240E+08
         0.10881E+09
         0.74549E+08
         0.25250E+08
        -0.45535E+08
        -0.10950E+09
        -0.12075E+09
        -0.12680E+09
        -0.12757E+09
        -0.11401E+09
        -0.92438E+08
        -0.66348E+08
        -0.38688E+08
        -0.44232E+07
         0.21227E+08
         0.35517E+08
         0.56606E+08
         0.86495E+08
         0.10127E+09
         0.11301E+09
         0.13337E+09
         0.15219E+09
         0.16495E+09
         0.16466E+09
         0.15361E+09
         0.13165E+09
         0.85935E+08
         0.94300E+08
         0.13314E+09
         0.12218E+09
         0.14518E+09
         0.14619E+09
         0.59650E+08
         0.66780E+08
         0.59655E+08
         0.47314E+08
         0.15692E+07
        -0.82525E+08
         0.68377E+07
        -0.95090E+07
        -0.11465E+09
         0.13674E+08
         0.26768E+08
         0.49776E+08
         0.86348E+07
        -0.55946E+07
        -0.51372E+07
        -0.22941E+08
        -0.13483E+08
        -0.37221E+07
        -0.29086E+07
         0.90629E+07
        -0.44310E+08
        -0.75012E+08
        -0.78342E+08
        -0.52678E+08
         0.88980E+08
         0.10997E+09
         0.11530E+09
         0.14683E+09
         0.15463E+09
         0.13780E+09
         0.79161E+08
        -0.11225E+09
        -0.10047E+09
        -0.86918E+08
        -0.76769E+08
        -0.66589E+08
        -0.48781E+08
         0.16654E+08
         0.11659E+09
         0.14810E+09
         0.14393E+09
         0.13498E+09
         0.13795E+09
         0.15231E+09
         0.16302E+09
         0.15856E+09
         0.16632E+09
         0.15211E+09
         0.15083E+09
         0.69342E+08
        -0.44157E+08
        -0.12192E+09
        -0.14026E+09
        -0.13659E+09
        -0.12211E+09
        -0.10024E+09
        -0.77129E+08
        -0.51090E+08
        -0.30103E+08
        -0.19744E+08
        -0.22396E+08
        -0.26620E+08
         0.13562E+08
         0.12175E+09
         0.16031E+09
         0.15549E+09
         0.14738E+09
         0.14842E+09
         0.16481E+09
         0.17502E+09
         0.17391E+09
         0.16059E+09
         0.73583E+08
         0.54598E+08
         0.37738E+08
         0.20807E+08
         0.93725E+07
        -0.14713E+08
         0.39485E+08
         0.49187E+08
         0.58427E+08
         0.32746E+08
         0.78413E+06
        -0.53464E+08
        -0.14174E+07
        -0.73667E+07
        -0.10080E+09
         0.14961E+08
         0.21280E+08
         0.29291E+08
        -0.15567E+08
        -0.17327E+08
        -0.63821E+08
        -0.50117E+08
        -0.99530E+08
        -0.56333E+08
        -0.99372E+07
        -0.41407E+08
        -0.38884E+08
        -0.71025E+08
        -0.78640E+08
        -0.51924E+08
        -0.16824E+08
        -0.16585E+08
        -0.41649E+08
        -0.58943E+08
         0.35169E+08
         0.51570E+08
         0.34829E+08
        -0.11242E+09
        -0.94202E+08
        -0.76645E+08
        -0.66162E+08
        -0.64620E+08
        -0.58868E+08
        -0.96340E+08
        -0.41842E+08
        -0.43108E+07
        -0.60471E+07
        -0.39700E+08
        -0.62540E+08
        -0.61182E+08
        -0.50036E+08
        -0.34900E+08
         0.57601E+08
         0.19453E+08
         0.12289E+09
         0.38916E+08
        -0.25571E+08
        -0.95039E+08
        -0.12336E+09
        -0.11860E+09
        -0.98285E+08
        -0.76218E+08
        -0.59778E+08
        -0.44161E+08
        -0.36644E+08
        -0.53833E+08
        -0.88236E+08
        -0.12401E+09
        -0.10856E+09
        -0.61437E+08
        -0.18769E+08
        -0.21193E+08
        -0.52379E+08
        -0.72160E+08
        -0.68040E+08
        -0.46089E+08
        -0.84112E+07
         0.16624E+08
         0.11367E+08
         0.13473E+08
        -0.12760E+08
        -0.28955E+08
        -0.46581E+08
        -0.84401E+08
         0.11981E+08
         0.66697E+07
         0.14005E+08
         0.18071E+06
         0.11618E+07
        -0.38389E+07
         0.22234E+08
        -0.12290E+08
        -0.34061E+08
         0.11675E+08
         0.21807E+07
         0.12345E+07
        -0.25043E+08
        -0.32426E+08
        -0.81128E+08
        -0.56219E+08
        -0.83476E+08
        -0.45540E+08
        -0.17703E+08
        -0.27332E+08
        -0.26182E+08
        -0.33321E+08
        -0.48864E+08
        -0.36731E+08
        -0.17553E+08
        -0.25631E+08
        -0.60825E+08
        -0.12156E+09
        -0.21036E+08
         0.69067E+07
         0.28623E+08
        -0.53091E+08
        -0.56498E+08
        -0.51394E+08
        -0.47701E+08
        -0.64366E+08
        -0.61372E+08
        -0.72469E+08
        -0.63416E+08
        -0.59467E+08
        -0.48176E+08
        -0.76388E+08
        -0.10926E+09
        -0.11803E+09
        -0.11702E+09
        -0.10968E+09
         0.13991E+08
        -0.27552E+08
         0.91096E+08
         0.62784E+08
         0.37351E+08
        -0.36538E+07
        -0.50519E+08
        -0.67195E+08
        -0.58962E+08
        -0.45019E+08
        -0.38694E+08
        -0.37573E+08
        -0.52148E+08
        -0.88414E+08
        -0.12252E+09
        -0.10990E+09
        -0.82168E+08
        -0.76217E+08
        -0.71940E+08
        -0.68430E+08
        -0.92517E+08
        -0.11698E+09
        -0.12322E+09
        -0.11476E+09
        -0.94515E+08
        -0.60865E+08
        -0.44388E+07
         0.10889E+08
        -0.54735E+07
        -0.23540E+08
        -0.26936E+08
        -0.56584E+08
         0.61845E+07
        -0.17031E+08
        -0.94894E+07
        -0.29794E+08
         0.13544E+07
         0.27050E+08
         0.37047E+08
        -0.15089E+08
         0.21347E+08
         0.97353E+07
        -0.15990E+08
        -0.16428E+07
        -0.32657E+08
        -0.29480E+08
        -0.74280E+08
        -0.19554E+08
        -0.75391E+08
        -0.41883E+08
        -0.22237E+08
        -0.16089E+08
        -0.13221E+08
         0.18709E+08
         0.37098E+08
         0.42265E+07
         0.20483E+06
        -0.68594E+07
        -0.35227E+08
        -0.79004E+08
         0.94147E+07
         0.28528E+08
         0.41942E+08
         0.29071E+08
         0.39962E+08
         0.48917E+08
         0.56788E+08
         0.50175E+08
         0.25574E+08
        -0.61009E+08
        -0.47286E+08
        -0.39889E+08
        -0.18574E+08
        -0.35013E+08
        -0.74885E+08
        -0.81744E+08
        -0.77569E+08
        -0.72201E+08
         0.48647E+08
        -0.56512E+07
         0.10271E+09
         0.80777E+08
         0.68639E+08
         0.62063E+08
         0.49486E+08
         0.42820E+08
         0.49146E+08
         0.59999E+08
         0.60923E+08
         0.50158E+08
         0.15841E+08
        -0.36375E+08
        -0.10175E+09
        -0.97402E+08
        -0.74395E+08
        -0.67553E+08
        -0.57497E+08
        -0.40016E+08
        -0.57891E+08
        -0.81779E+08
        -0.82014E+08
        -0.68488E+08
        -0.51316E+08
        -0.31907E+08
        -0.84067E+07
         0.85097E+07
        -0.11966E+07
        -0.18613E+08
        -0.17163E+08
        -0.43028E+08
        -0.10477E+07
        -0.28457E+08
        -0.18082E+08
        -0.44331E+08
        -0.55895E+07
         0.27180E+08
         0.27931E+08
        -0.20414E+08
         0.43068E+08
         0.83321E+07
        -0.24808E+08
         0.32716E+06
        -0.39399E+08
        -0.28823E+08
        -0.58220E+08
        -0.82844E+06
        -0.72998E+08
        -0.50498E+08
        -0.23826E+08
        -0.21003E+08
        -0.74175E+07
         0.41576E+08
         0.63635E+08
         0.32014E+08
         0.29957E+07
        -0.13334E+08
        -0.28259E+08
        -0.66377E+08
         0.19739E+08
         0.31120E+08
         0.34431E+08
         0.56852E+08
         0.65319E+08
         0.71567E+08
         0.78374E+08
         0.72925E+08
         0.48773E+08
        -0.70077E+08
        -0.69034E+08
        -0.71470E+08
        -0.40294E+08
        -0.45223E+08
        -0.66220E+08
        -0.65457E+08
        -0.58195E+08
        -0.53872E+08
         0.54390E+08
         0.14336E+07
         0.90845E+08
         0.62974E+08
         0.55840E+08
         0.73204E+08
         0.90020E+08
         0.91909E+08
         0.91110E+08
         0.89260E+08
         0.84978E+08
         0.71309E+08
         0.41042E+08
        -0.73281E+07
        -0.67786E+08
        -0.91396E+08
        -0.94017E+08
        -0.97968E+08
        -0.91596E+08
        -0.79619E+08
        -0.79790E+08
        -0.77808E+08
        -0.65090E+08
        -0.47163E+08
        -0.31290E+08
        -0.19174E+08
        -0.98987E+07
         0.75543E+07
        -0.27130E+07
        -0.21469E+08
        -0.18968E+08
        -0.46269E+08
        -0.44347E+07
        -0.35949E+08
        -0.22972E+08
        -0.55867E+08
        -0.98980E+07
         0.29954E+08
         0.25107E+08
        -0.27604E+08
         0.49457E+08
         0.77659E+07
        -0.30735E+08
         0.80412E+06
        -0.36793E+08
        -0.24450E+08
        -0.33524E+08
         0.17745E+08
        -0.50759E+08
        -0.45625E+08
        -0.28458E+08
        -0.20219E+08
        -0.11284E+08
         0.47408E+08
         0.70927E+08
         0.47651E+08
        -0.29255E+06
        -0.17998E+08
        -0.36270E+08
        -0.72740E+08
         0.16592E+08
         0.30401E+08
         0.32318E+08
         0.62888E+08
         0.70544E+08
         0.75443E+08
         0.81177E+08
         0.79975E+08
         0.61917E+08
        -0.54242E+08
        -0.60518E+08
        -0.68297E+08
        -0.60783E+08
        -0.65174E+08
        -0.74577E+08
        -0.73477E+08
        -0.66935E+08
        -0.60786E+08
         0.48085E+08
        -0.29837E+07
         0.84128E+08
         0.51749E+08
         0.44849E+08
         0.78139E+08
         0.10543E+09
         0.10347E+09
         0.98639E+08
         0.91733E+08
         0.85402E+08
         0.77930E+08
         0.57901E+08
         0.18830E+08
        -0.30407E+08
        -0.60516E+08
        -0.73592E+08
        -0.86982E+08
        -0.88417E+08
        -0.91275E+08
        -0.98267E+08
        -0.92603E+08
        -0.78263E+08
        -0.59660E+08
        -0.40244E+08
        -0.23818E+08
        -0.10623E+08
         0.85983E+07
        -0.43074E+07
        -0.24661E+08
        -0.23607E+08
        -0.53415E+08
        -0.34687E+07
        -0.40188E+08
        -0.24885E+08
        -0.61727E+08
        -0.80035E+07
         0.44691E+08
         0.38014E+08
        -0.30374E+08
         0.55901E+08
         0.94865E+07
        -0.32567E+08
         0.40733E+06
        -0.33721E+08
        -0.23494E+08
        -0.28499E+08
         0.19848E+08
        -0.40443E+08
        -0.37019E+08
        -0.28986E+08
        -0.12699E+08
        -0.12132E+08
         0.53350E+08
         0.72882E+08
         0.57184E+08
        -0.24274E+07
        -0.12180E+08
        -0.44115E+08
        -0.79982E+08
         0.11527E+08
         0.31492E+08
         0.40713E+08
         0.68799E+08
         0.77071E+08
         0.79893E+08
         0.81613E+08
         0.77456E+08
         0.60351E+08
        -0.40877E+08
        -0.44865E+08
        -0.50588E+08
        -0.48936E+08
        -0.61900E+08
        -0.76455E+08
        -0.78781E+08
        -0.75436E+08
        -0.69959E+08
         0.41442E+08
        -0.91822E+07
         0.89558E+08
         0.65656E+08
         0.67482E+08
         0.98775E+08
         0.11310E+09
         0.11012E+09
         0.10601E+09
         0.96819E+08
         0.84943E+08
         0.72995E+08
         0.55833E+08
         0.19829E+08
        -0.24261E+08
        -0.46397E+08
        -0.54602E+08
        -0.66850E+08
        -0.67530E+08
        -0.76362E+08
        -0.93362E+08
        -0.94196E+08
        -0.84482E+08
        -0.70811E+08
        -0.53552E+08
        -0.33760E+08
        -0.74771E+07
         0.12533E+08
        -0.14010E+07
        -0.23317E+08
        -0.24087E+08
        -0.54141E+08
        -0.47064E+06
        -0.38059E+08
        -0.22977E+08
        -0.61801E+08
        -0.38727E+07
         0.52952E+08
         0.45181E+08
        -0.25676E+08
         0.63199E+08
         0.11003E+08
        -0.33893E+08
         0.21159E+07
        -0.37649E+08
        -0.32678E+08
        -0.37837E+08
         0.49308E+07
        -0.48465E+08
        -0.41347E+08
        -0.34124E+08
        -0.14059E+08
        -0.86032E+07
         0.50680E+08
         0.64219E+08
         0.42092E+08
        -0.24717E+07
        -0.11476E+08
        -0.45417E+08
        -0.78889E+08
         0.12052E+08
         0.36978E+08
         0.48331E+08
         0.72316E+08
         0.77858E+08
         0.76442E+08
         0.72545E+08
         0.62345E+08
         0.42028E+08
        -0.46553E+08
        -0.45114E+08
        -0.44633E+08
        -0.39187E+08
        -0.53773E+08
        -0.72842E+08
        -0.77381E+08
        -0.74493E+08
        -0.69486E+08
         0.38514E+08
        -0.12025E+08
         0.99109E+08
         0.78270E+08
         0.81851E+08
         0.11402E+09
         0.11732E+09
         0.11253E+09
         0.10800E+09
         0.96087E+08
         0.75675E+08
         0.52225E+08
         0.31459E+08
         0.11576E+07
        -0.37132E+08
        -0.58124E+08
        -0.63568E+08
        -0.68876E+08
        -0.60269E+08
        -0.60770E+08
        -0.79028E+08
        -0.87401E+08
        -0.81789E+08
        -0.69596E+08
        -0.53340E+08
        -0.36215E+08
        -0.80887E+07
         0.12217E+08
        -0.14332E+07
        -0.26992E+08
        -0.22874E+08
        -0.55654E+08
        -0.11126E+07
        -0.38295E+08
        -0.22141E+08
        -0.61868E+08
        -0.43593E+07
         0.55372E+08
         0.46507E+08
        -0.27224E+08
         0.60678E+08
         0.12033E+08
        -0.34417E+08
         0.23777E+07
        -0.40818E+08
        -0.39524E+08
        -0.43047E+08
        -0.42065E+07
        -0.51716E+08
        -0.43469E+08
        -0.37902E+08
        -0.13012E+08
        -0.13999E+08
         0.45929E+08
         0.61045E+08
         0.29327E+08
         0.16131E+07
        -0.50524E+07
        -0.44483E+08
        -0.81168E+08
         0.17718E+08
         0.45201E+08
         0.53424E+08
         0.64134E+08
         0.70550E+08
         0.71941E+08
         0.69526E+08
         0.58511E+08
         0.33981E+08
        -0.45189E+08
        -0.37677E+08
        -0.32463E+08
        -0.24437E+08
        -0.41582E+08
        -0.69862E+08
        -0.80334E+08
        -0.79133E+08
        -0.72827E+08
         0.43876E+08
        -0.11641E+08
         0.12000E+09
         0.91962E+08
         0.88752E+08
         0.12528E+09
         0.11719E+09
         0.10245E+09
         0.97009E+08
         0.89607E+08
         0.72708E+08
         0.49009E+08
         0.22698E+08
        -0.75752E+07
        -0.42468E+08
        -0.61006E+08
        -0.60638E+08
        -0.60738E+08
        -0.46804E+08
        -0.40368E+08
        -0.59876E+08
        -0.81860E+08
        -0.85888E+08
        -0.76175E+08
        -0.59177E+08
        -0.39352E+08
        -0.11604E+08
         0.72324E+07
        -0.57963E+07
        -0.30529E+08
        -0.25924E+08
        -0.59634E+08
        -0.62986E+07
        -0.40866E+08
        -0.21465E+08
        -0.59406E+08
        -0.95989E+07
         0.48505E+08
         0.39436E+08
        -0.31315E+08
         0.55056E+08
         0.15766E+08
        -0.29271E+08
         0.22235E+07
        -0.32129E+08
        -0.29501E+08
        -0.33429E+08
         0.78535E+07
        -0.43903E+08
        -0.32640E+08
        -0.30582E+08
        -0.53967E+07
        -0.16101E+08
         0.49745E+08
         0.71055E+08
         0.42881E+08
         0.49846E+07
        -0.82833E+06
        -0.41982E+08
        -0.84682E+08
         0.15719E+08
         0.41047E+08
         0.47808E+08
         0.59300E+08
         0.69611E+08
         0.77680E+08
         0.81541E+08
         0.73304E+08
         0.47672E+08
        -0.40082E+08
        -0.37178E+08
        -0.34479E+08
        -0.23969E+08
        -0.38730E+08
        -0.68623E+08
        -0.81503E+08
        -0.82120E+08
        -0.76961E+08
         0.42997E+08
        -0.12982E+08
         0.12458E+09
         0.93454E+08
         0.85790E+08
         0.12576E+09
         0.11456E+09
         0.96566E+08
         0.92834E+08
         0.92606E+08
         0.86291E+08
         0.69491E+08
         0.40756E+08
         0.98299E+07
        -0.25949E+08
        -0.49579E+08
        -0.56350E+08
        -0.65122E+08
        -0.52639E+08
        -0.42204E+08
        -0.56864E+08
        -0.79970E+08
        -0.86673E+08
        -0.79430E+08
        -0.64173E+08
        -0.42485E+08
        -0.11418E+08
         0.60729E+07
        -0.11256E+08
        -0.31347E+08
        -0.33164E+08
        -0.62684E+08
        -0.42072E+07
        -0.35682E+08
        -0.19737E+08
        -0.51710E+08
        -0.61996E+07
         0.45318E+08
         0.37308E+08
        -0.23715E+08
         0.55141E+08
         0.15265E+08
        -0.24402E+08
         0.27664E+06
        -0.27646E+08
        -0.19269E+08
        -0.30475E+08
         0.18436E+08
        -0.47579E+08
        -0.32251E+08
        -0.20995E+08
        -0.92036E+07
        -0.47777E+07
         0.58845E+08
         0.81070E+08
         0.60480E+08
         0.15859E+07
        -0.90280E+07
        -0.41043E+08
        -0.83370E+08
         0.36791E+07
         0.28089E+08
         0.41372E+08
         0.64815E+08
         0.78475E+08
         0.88807E+08
         0.94621E+08
         0.86555E+08
         0.61301E+08
        -0.50153E+08
        -0.50739E+08
        -0.46020E+08
        -0.31533E+08
        -0.39910E+08
        -0.64968E+08
        -0.76131E+08
        -0.76408E+08
        -0.74946E+08
         0.33011E+08
        -0.16984E+08
         0.10948E+09
         0.87004E+08
         0.83285E+08
         0.11922E+09
         0.11044E+09
         0.99424E+08
         0.10312E+09
         0.10668E+09
         0.10203E+09
         0.84345E+08
         0.54928E+08
         0.20564E+08
        -0.23668E+08
        -0.57908E+08
        -0.72800E+08
        -0.81760E+08
        -0.63868E+08
        -0.49211E+08
        -0.58393E+08
        -0.75184E+08
        -0.78328E+08
        -0.70158E+08
        -0.58038E+08
        -0.43099E+08
        -0.10730E+08
         0.10552E+08
        -0.81335E+07
        -0.30279E+08
        -0.30524E+08
        -0.60184E+08
         0.31000E+07
        -0.30923E+08
        -0.22916E+08
        -0.50531E+08
         0.29737E+07
         0.55700E+08
         0.47833E+08
        -0.14419E+08
         0.63923E+08
         0.48518E+07
        -0.29695E+08
        -0.55259E+07
        -0.40828E+08
        -0.27669E+08
        -0.43557E+08
         0.94480E+07
        -0.61848E+08
        -0.51618E+08
        -0.24234E+08
        -0.25391E+08
         0.25701E+07
         0.53570E+08
         0.69920E+08
         0.50898E+08
        -0.60636E+07
        -0.18947E+08
        -0.43649E+08
        -0.82014E+08
         0.68711E+07
         0.31020E+08
         0.47576E+08
         0.70364E+08
         0.77044E+08
         0.80446E+08
         0.82213E+08
         0.74057E+08
         0.53058E+08
        -0.61309E+08
        -0.54661E+08
        -0.44702E+08
        -0.32349E+08
        -0.42160E+08
        -0.66474E+08
        -0.76439E+08
        -0.75077E+08
        -0.72250E+08
         0.37915E+08
        -0.13052E+08
         0.11525E+09
         0.95368E+08
         0.98199E+08
         0.12544E+09
         0.11637E+09
         0.10724E+09
         0.10595E+09
         0.10106E+09
         0.88763E+08
         0.69299E+08
         0.46189E+08
         0.86548E+07
        -0.44619E+08
        -0.75992E+08
        -0.82331E+08
        -0.79221E+08
        -0.56337E+08
        -0.43898E+08
        -0.58675E+08
        -0.76541E+08
        -0.79946E+08
        -0.68960E+08
        -0.52628E+08
        -0.38486E+08
        -0.15536E+08
         0.84673E+07
        -0.55908E+07
        -0.29351E+08
        -0.23631E+08
        -0.56475E+08
         0.11131E+06
        -0.37358E+08
        -0.27809E+08
        -0.58199E+08
        -0.14545E+07
         0.54809E+08
         0.52085E+08
        -0.24274E+08
         0.66962E+08
        -0.11224E+07
        -0.34261E+08
        -0.88158E+07
        -0.48483E+08
        -0.35684E+08
        -0.51288E+08
        -0.29625E+07
        -0.64914E+08
        -0.59950E+08
        -0.32025E+08
        -0.30974E+08
        -0.11782E+08
         0.44665E+08
         0.58711E+08
         0.35529E+08
        -0.57320E+07
        -0.19157E+08
        -0.39550E+08
        -0.82228E+08
         0.19199E+08
         0.39651E+08
         0.53729E+08
         0.67954E+08
         0.70585E+08
         0.69690E+08
         0.67164E+08
         0.58135E+08
         0.38381E+08
        -0.60019E+08
        -0.51849E+08
        -0.42751E+08
        -0.30877E+08
        -0.41332E+08
        -0.66673E+08
        -0.76133E+08
        -0.74205E+08
        -0.70335E+08
         0.54278E+08
        -0.37284E+07
         0.13919E+09
         0.11323E+09
         0.11232E+09
         0.13357E+09
         0.12688E+09
         0.10959E+09
         0.10008E+09
         0.88770E+08
         0.70469E+08
         0.48712E+08
         0.27246E+08
        -0.92872E+07
        -0.58499E+08
        -0.78608E+08
        -0.75497E+08
        -0.70995E+08
        -0.53068E+08
        -0.40941E+08
        -0.56100E+08
        -0.73734E+08
        -0.77937E+08
        -0.68223E+08
        -0.49917E+08
        -0.31406E+08
        -0.15969E+08
         0.42236E+07
        -0.26380E+07
        -0.22612E+08
        -0.12195E+08
        -0.47596E+08
        -0.53869E+07
        -0.38161E+08
        -0.25959E+08
        -0.58044E+08
        -0.10471E+08
         0.32135E+08
         0.34602E+08
        -0.33242E+08
         0.52779E+08
         0.45568E+07
        -0.28949E+08
        -0.60113E+07
        -0.37370E+08
        -0.28543E+08
        -0.44528E+08
        -0.85222E+05
        -0.51923E+08
        -0.44410E+08
        -0.30387E+08
        -0.19410E+08
        -0.23769E+08
         0.47890E+08
         0.68291E+08
         0.40310E+08
         0.47318E+07
        -0.81832E+07
        -0.24506E+08
        -0.59652E+08
         0.33615E+08
         0.38099E+08
         0.40917E+08
         0.64848E+08
         0.75995E+08
         0.80150E+08
         0.79636E+08
         0.69114E+08
         0.45022E+08
        -0.47721E+08
        -0.42702E+08
        -0.34018E+08
        -0.12632E+08
        -0.15483E+08
        -0.51996E+08
        -0.64702E+08
        -0.61668E+08
        -0.60579E+08
         0.82097E+08
         0.16804E+08
         0.14553E+09
         0.10366E+09
         0.94545E+08
         0.11235E+09
         0.12169E+09
         0.11097E+09
         0.10555E+09
         0.99038E+08
         0.84460E+08
         0.62149E+08
         0.35296E+08
        -0.85571E+07
        -0.51793E+08
        -0.62170E+08
        -0.61425E+08
        -0.63316E+08
        -0.45725E+08
        -0.22219E+08
        -0.24902E+08
        -0.45426E+08
        -0.54971E+08
        -0.48282E+08
        -0.30247E+08
        -0.11807E+08
        -0.69874E+07
         0.12359E+08
         0.18624E+08
        -0.45839E+06
         0.31620E+08
         0.19409E+07
        -0.17587E+07
        -0.28587E+08
        -0.18959E+08
        -0.47096E+08
        -0.12742E+08
         0.85774E+07
         0.19082E+08
        -0.31246E+08
         0.22273E+08
         0.12549E+08
        -0.22457E+08
         0.31701E+07
        -0.27264E+08
        -0.21798E+08
        -0.36211E+08
         0.74331E+07
        -0.39026E+08
        -0.27768E+08
        -0.20944E+08
        -0.11595E+07
        -0.18373E+08
         0.51528E+08
         0.69995E+08
         0.48778E+08
         0.29650E+08
         0.21907E+08
         0.10060E+08
        -0.15641E+07
         0.77482E+08
         0.59500E+08
         0.37879E+08
         0.53748E+08
         0.74562E+08
         0.81217E+08
         0.81624E+08
         0.71676E+08
         0.49570E+08
        -0.28654E+08
        -0.11421E+08
         0.11425E+08
         0.44247E+08
         0.47004E+08
         0.21988E+08
         0.56761E+07
         0.10213E+08
         0.30057E+07
         0.14149E+09
         0.64267E+08
         0.14573E+09
         0.85843E+08
         0.54615E+08
         0.53108E+08
         0.81297E+08
         0.98284E+08
         0.10339E+09
         0.98871E+08
         0.86447E+08
         0.65913E+08
         0.41286E+08
         0.52977E+07
        -0.33287E+08
        -0.43617E+08
        -0.42510E+08
        -0.35031E+08
        -0.37829E+06
         0.39091E+08
         0.51280E+08
         0.36946E+08
         0.23809E+08
         0.32066E+08
         0.47215E+08
         0.44788E+08
         0.10240E+08
         0.36527E+08
         0.61672E+08
         0.33109E+08
         0.11394E+09
         0.92753E+08
         0.19590E+08
        -0.66211E+07
        -0.51872E+07
        -0.25949E+08
         0.66397E+07
         0.18119E+08
         0.35571E+08
        -0.11685E+08
         0.15911E+08
         0.27612E+08
        -0.80373E+07
         0.18646E+08
        -0.52212E+07
         0.23912E+07
        -0.49448E+07
         0.33416E+08
        -0.74140E+07
         0.24310E+07
         0.11646E+07
         0.28925E+08
        -0.52674E+06
         0.53406E+08
         0.66592E+08
         0.61592E+08
         0.64229E+08
         0.61863E+08
         0.57458E+08
         0.76198E+08
         0.12806E+09
         0.11684E+09
         0.71002E+08
         0.41512E+08
         0.63048E+08
         0.70696E+08
         0.71069E+08
         0.65490E+08
         0.54775E+08
         0.75942E+07
         0.29023E+08
         0.49445E+08
         0.80024E+08
         0.95946E+08
         0.90790E+08
         0.87481E+08
         0.87302E+08
         0.10027E+09
         0.14020E+09
         0.11238E+09
         0.12273E+09
         0.10718E+09
         0.57305E+08
         0.33137E+08
         0.47889E+08
         0.72770E+08
         0.84029E+08
         0.81816E+08
         0.71597E+08
         0.56520E+08
         0.45435E+08
         0.36123E+08
         0.12966E+08
        -0.44202E+07
        -0.48918E+07
         0.62417E+07
         0.36677E+08
         0.53247E+08
         0.54402E+08
         0.59746E+08
         0.61958E+08
         0.68939E+08
         0.80945E+08
         0.93662E+08
         0.34075E+07
         0.28559E+08
         0.42999E+08
         0.11179E+08
         0.72614E+08
         0.49168E+08
         0.24934E+08
        -0.16406E+07
        -0.60705E+07
        -0.13286E+08
         0.32712E+08
         0.62435E+08
         0.66217E+08
         0.18539E+08
         0.55727E+08
         0.68241E+07
        -0.67233E+07
         0.18364E+07
        -0.36722E+08
         0.94845E+07
        -0.37174E+08
         0.26032E+08
        -0.67879E+08
        -0.64297E+08
         0.31965E+08
        -0.40673E+08
         0.40905E+08
         0.81800E+08
         0.94749E+08
         0.86466E+08
         0.27582E+07
        -0.44945E+08
        -0.11667E+07
         0.17550E+07
         0.66944E+08
         0.60452E+08
         0.77607E+08
         0.71453E+08
         0.91620E+08
         0.10269E+09
         0.10509E+09
         0.94654E+08
         0.72417E+08
        -0.76226E+08
        -0.69064E+08
        -0.51798E+08
        -0.32249E+08
        -0.21032E+08
        -0.25960E+08
        -0.21132E+08
        -0.87235E+07
         0.15503E+08
         0.83176E+08
         0.99823E+08
         0.69508E+08
         0.93189E+08
         0.88148E+08
         0.85284E+08
         0.91901E+08
         0.10145E+09
         0.11291E+09
         0.11772E+09
         0.11099E+09
         0.90410E+08
         0.60365E+08
         0.15949E+08
        -0.34001E+08
        -0.73031E+08
        -0.88364E+08
        -0.73458E+08
        -0.48719E+08
        -0.36054E+08
        -0.41408E+08
        -0.40925E+08
        -0.34695E+08
        -0.17424E+08
         0.13255E+08
         0.56481E+08
        -0.13140E+09
        -0.12482E+09
        -0.11793E+09
        -0.12450E+09
        -0.11799E+09
        -0.14167E+09
        -0.14319E+09
        -0.15475E+09
        -0.13893E+09
        -0.15608E+09
        -0.15092E+09
        -0.68938E+08
        -0.94120E+08
        -0.16314E+09
         0.26139E+08
        -0.15223E+09
        -0.15260E+09
        -0.12523E+09
        -0.16522E+09
        -0.16314E+09
        -0.15288E+09
        -0.11453E+09
        -0.16592E+09
        -0.16620E+09
        -0.15250E+09
        -0.16667E+09
        -0.11433E+09
         0.12708E+08
         0.64265E+08
        -0.81662E+08
        -0.17063E+09
        -0.16880E+09
        -0.16413E+09
        -0.16774E+09
        -0.11750E+09
        -0.11018E+09
        -0.94333E+08
         0.10357E+09
         0.12663E+09
         0.12871E+09
         0.11997E+09
         0.72388E+08
        -0.21539E+08
        -0.16696E+09
        -0.16385E+09
        -0.15774E+09
        -0.15609E+09
        -0.15507E+09
        -0.16059E+09
        -0.17214E+09
        -0.17647E+09
        -0.17205E+09
        -0.11456E+09
        -0.10046E+09
        -0.86933E+08
        -0.33731E+07
         0.73023E+08
         0.12290E+09
         0.15077E+09
         0.16471E+09
         0.17383E+09
         0.16884E+09
         0.13975E+09
         0.77883E+08
        -0.27703E+08
        -0.12495E+09
        -0.16194E+09
        -0.17268E+09
        -0.17183E+09
        -0.16325E+09
        -0.15288E+09
        -0.14491E+09
        -0.14562E+09
        -0.15211E+09
        -0.16451E+09
        -0.17279E+09
        -0.16687E+09
        -0.12771E+09
        -0.12994E+09
        -0.11953E+09
        -0.11820E+09
        -0.11757E+09
        -0.12486E+09
        -0.14587E+09
        -0.13424E+09
        -0.15534E+09
        -0.13990E+09
        -0.15648E+09
        -0.14148E+09
        -0.92719E+08
        -0.84720E+08
        -0.14565E+09
        -0.43702E+08
        -0.14517E+09
        -0.15237E+09
        -0.12045E+09
        -0.15866E+09
        -0.15261E+09
        -0.15657E+09
        -0.12437E+09
        -0.16923E+09
        -0.16367E+09
        -0.15156E+09
        -0.16313E+09
        -0.10506E+09
        -0.14144E+08
         0.38791E+08
        -0.99809E+08
        -0.16237E+09
        -0.16866E+09
        -0.13943E+09
        -0.14197E+09
        -0.12661E+09
        -0.11256E+09
        -0.90394E+08
         0.85712E+08
         0.13785E+09
         0.13555E+09
         0.11267E+09
         0.40079E+08
        -0.58691E+08
        -0.16996E+09
        -0.17018E+09
        -0.17025E+09
        -0.16934E+09
        -0.16260E+09
        -0.14950E+09
        -0.15503E+09
        -0.16802E+09
        -0.16607E+09
        -0.12915E+09
        -0.10971E+09
        -0.10097E+09
        -0.42284E+08
         0.10020E+08
         0.62679E+08
         0.13174E+09
         0.16678E+09
         0.18898E+09
         0.18462E+09
         0.13713E+09
         0.42417E+08
        -0.75082E+08
        -0.15114E+09
        -0.17619E+09
        -0.18255E+09
        -0.18063E+09
        -0.17607E+09
        -0.17089E+09
        -0.16771E+09
        -0.16430E+09
        -0.15866E+09
        -0.16419E+09
        -0.17823E+09
        -0.18592E+09
        -0.15696E+09
  
SCALARS                      stress_xy  double 1
LOOKUP_TABLE default
        -0.22598E+08
         0.69473E+07
         0.59640E+08
         0.11260E+08
        -0.55109E+01
         0.29092E+01
         0.74605E+01
        -0.37760E+00
         0.12436E+09
         0.71332E+08
         0.10831E+02
         0.12793E+02
        -0.21629E+08
        -0.17829E+08
         0.20912E+01
        -0.39529E+01
        -0.19446E+08
        -0.23121E+08
        -0.46042E+01
        -0.37224E+01
        -0.28119E+08
        -0.33107E+08
        -0.18658E+08
        -0.39100E+00
        -0.85151E+01
        -0.18673E+01
        -0.17033E+08
        -0.29557E+08
         0.10985E+01
        -0.63070E+01
         0.15443E+08
        -0.39516E+08
        -0.95970E+07
         0.28294E+00
        -0.20130E+01
        -0.37318E+01
         0.20970E+08
        -0.34489E+08
         0.14006E+01
        -0.30181E+01
         0.91857E+08
         0.11966E+09
         0.32467E+01
         0.28578E+01
         0.77818E+08
         0.64000E+08
         0.45289E+01
         0.40818E+01
        -0.43035E+08
        -0.23698E+01
         0.59509E+08
         0.52084E+01
        -0.19548E+08
         0.13254E+01
         0.22388E+07
         0.61430E+00
         0.81488E+08
        -0.30351E+07
         0.53046E+01
        -0.24028E+01
         0.10632E+05
         0.28568E+08
        -0.15508E+01
         0.59600E+01
        -0.97012E+07
        -0.32074E+01
         0.65273E+07
         0.35364E-01
         0.15440E+09
         0.12628E+09
         0.18146E+02
         0.11755E+02
         0.60046E+08
         0.13356E+02
        -0.51379E+08
         0.32179E+01
         0.60002E+08
         0.39980E+01
         0.12604E+09
         0.10247E+02
         0.14981E+09
         0.14276E+09
         0.14219E+02
         0.12452E+02
         0.14942E+09
         0.35405E+01
         0.67122E+08
         0.65713E+01
         0.58700E+08
         0.56330E+01
         0.25252E+08
        -0.27551E+08
         0.11316E+01
         0.88012E+01
        -0.33637E+08
        -0.44356E+01
        -0.21014E+08
        -0.92558E+00
        -0.12796E+08
         0.20220E+01
        -0.16739E+08
         0.11787E+08
         0.36713E+01
         0.66188E+01
         0.15792E+09
         0.82288E+08
         0.38548E+02
         0.32402E+02
         0.17284E+09
         0.17692E+02
         0.13226E+09
         0.11943E+02
        -0.94695E+07
         0.11252E+02
        -0.52943E+08
         0.75172E+01
        -0.80299E+08
         0.46378E+01
        -0.14362E+09
         0.33060E+01
        -0.11165E+09
         0.42665E+01
         0.15611E+09
         0.11389E+02
         0.17188E+09
         0.27037E+02
         0.15641E+09
         0.23015E+02
         0.14670E+09
         0.11982E+02
         0.16124E+09
         0.92773E+01
         0.10326E+09
         0.93729E+01
         0.53439E+08
         0.86221E+01
         0.27503E+08
         0.81703E+01
         0.46964E+08
         0.94622E+01
         0.51965E+08
        -0.78944E+01
         0.28197E+08
        -0.12301E+02
         0.39800E+08
        -0.74973E+01
         0.17339E+08
        -0.49354E+01
        -0.12791E+08
        -0.16355E+01
        -0.26381E+08
         0.12076E+02
        -0.15138E+08
         0.18404E+02
         0.20758E+08
         0.16814E+02
         0.35859E+08
         0.26129E+08
         0.40301E+08
        -0.14745E+08
         0.31396E+08
        -0.93674E+08
         0.14952E+07
         0.16042E+08
         0.33110E+08
        -0.44865E+07
        -0.21528E+08
        -0.66667E+08
        -0.44154E+08
        -0.20691E+08
        -0.57875E+08
         0.15745E+08
        -0.32974E+08
         0.21935E+08
         0.23132E+08
         0.25660E+08
         0.10241E+09
         0.16421E+09
         0.56228E+08
         0.43340E+08
        -0.19530E+08
         0.23195E+08
        -0.28824E+08
         0.39362E+07
         0.71949E+08
         0.77170E+08
         0.61970E+07
        -0.60380E+05
        -0.50957E+08
        -0.13242E+09
         0.51097E+08
         0.33448E+08
        -0.55560E+07
        -0.28843E+08
         0.13311E+08
         0.58370E+08
         0.84613E+08
         0.11418E+09
         0.15407E+09
         0.98003E+07
        -0.23505E+08
        -0.17349E+08
        -0.23139E+07
        -0.19658E+08
        -0.77097E+08
        -0.12867E+09
        -0.15185E+09
        -0.15589E+09
         0.45048E+08
         0.30872E+08
         0.81465E+07
        -0.41241E+08
        -0.10508E+09
        -0.12057E+09
        -0.64123E+08
        -0.21419E+08
         0.10554E+08
         0.40830E+08
         0.67384E+08
         0.95854E+08
         0.14500E+09
         0.19200E+09
         0.12341E+09
         0.46586E+08
        -0.21302E+08
        -0.47275E+08
        -0.11291E+08
         0.93210E+07
        -0.22780E+08
        -0.83722E+08
        -0.12666E+09
        -0.15444E+09
        -0.14816E+09
        -0.81234E+08
         0.99413E+08
         0.32780E+08
        -0.17264E+08
        -0.23530E+08
        -0.39985E+08
        -0.80422E+08
         0.35454E+08
         0.63206E+08
         0.61883E+08
         0.11947E+08
        -0.41280E+07
        -0.36665E+08
        -0.39188E+08
        -0.32588E+07
        -0.16180E+08
         0.98825E+07
        -0.62673E+08
         0.50047E+08
        -0.11521E+08
         0.12191E+09
         0.15761E+09
         0.19386E+09
         0.63032E+08
         0.66815E+07
         0.47676E+08
         0.41766E+07
         0.82109E+07
         0.61747E+08
         0.11113E+09
         0.13743E+09
         0.42373E+08
         0.18568E+08
        -0.28004E+08
        -0.10224E+09
        -0.39480E+08
        -0.48138E+08
        -0.46532E+08
         0.15233E+08
         0.53262E+08
         0.87112E+08
         0.10527E+09
         0.13284E+09
         0.16610E+09
        -0.24826E+08
        -0.30050E+08
        -0.15364E+08
         0.72966E+07
        -0.14724E+08
        -0.76048E+08
        -0.11891E+09
        -0.12716E+09
        -0.11349E+09
        -0.42541E+08
        -0.31536E+08
        -0.63010E+08
        -0.69210E+08
        -0.72545E+08
        -0.49592E+08
        -0.22105E+08
         0.76948E+07
         0.39031E+08
         0.59928E+08
         0.93608E+08
         0.11555E+09
         0.15734E+09
         0.18556E+09
         0.15472E+09
         0.76790E+08
        -0.34591E+08
        -0.62988E+08
        -0.30270E+08
        -0.13772E+08
        -0.53771E+08
        -0.11005E+09
        -0.13586E+09
        -0.13340E+09
        -0.10289E+09
        -0.60960E+08
         0.13993E+08
        -0.12447E+08
        -0.44818E+08
         0.13746E+08
        -0.53970E+08
        -0.20595E+08
         0.13299E+08
        -0.14064E+07
        -0.76108E+07
        -0.28092E+08
         0.15643E+08
         0.20750E+08
        -0.10816E+07
         0.74289E+07
         0.32096E+08
         0.20158E+07
        -0.43534E+08
         0.41256E+08
         0.68862E+07
         0.10794E+09
         0.13981E+09
         0.18475E+09
         0.83200E+08
         0.15023E+08
         0.53135E+08
         0.34932E+08
         0.35361E+08
         0.95404E+08
         0.13230E+09
         0.15769E+09
         0.82705E+08
         0.86937E+08
         0.44859E+08
        -0.11493E+08
        -0.87253E+08
        -0.78389E+08
        -0.43686E+08
         0.60196E+08
         0.91843E+08
         0.11438E+09
         0.12477E+09
         0.14578E+09
         0.17256E+09
         0.58711E+08
         0.68726E+08
         0.75574E+08
         0.86607E+08
         0.60068E+08
        -0.58652E+06
        -0.47190E+08
        -0.51937E+08
        -0.31510E+08
        -0.10434E+09
        -0.60043E+08
        -0.84776E+08
        -0.56368E+08
        -0.22007E+08
         0.21102E+08
         0.42279E+08
         0.64384E+08
         0.91460E+08
         0.10306E+09
         0.10936E+09
         0.12944E+09
         0.15756E+09
         0.16672E+09
         0.14680E+09
         0.11895E+09
         0.73352E+08
         0.43659E+08
         0.51906E+08
         0.48369E+08
         0.87303E+07
        -0.54625E+08
        -0.90209E+08
        -0.63759E+08
        -0.17836E+08
         0.20648E+07
        -0.18228E+08
         0.10355E+08
        -0.21802E+08
         0.38374E+08
        -0.63276E+04
         0.50708E+08
         0.44849E+08
        -0.15406E+08
        -0.45925E+08
        -0.26217E+08
         0.53277E+08
         0.60145E+08
         0.58328E+08
         0.23448E+08
         0.51151E+08
        -0.42380E+08
        -0.25531E+08
        -0.13894E+07
         0.10508E+08
         0.94229E+08
         0.11347E+09
         0.17168E+09
         0.76583E+08
         0.80698E+07
         0.48907E+08
         0.40127E+08
         0.53871E+08
         0.11408E+09
         0.14511E+09
         0.15968E+09
         0.89207E+08
         0.13334E+09
         0.66703E+08
         0.54385E+08
        -0.43145E+08
        -0.32832E+08
         0.15920E+08
         0.74722E+08
         0.10330E+09
         0.12385E+09
         0.13303E+09
         0.15110E+09
         0.17108E+09
         0.10978E+09
         0.14625E+09
         0.12952E+09
         0.12525E+09
         0.98066E+08
         0.62271E+08
         0.44285E+08
         0.43464E+08
         0.51529E+08
        -0.52668E+08
        -0.40214E+06
        -0.24531E+08
         0.54257E+07
         0.32870E+08
         0.46390E+08
         0.55567E+08
         0.76680E+08
         0.10298E+09
         0.11411E+09
         0.11894E+09
         0.13122E+09
         0.14517E+09
         0.14836E+09
         0.13187E+09
         0.12685E+09
         0.13803E+09
         0.12357E+09
         0.92070E+08
         0.69316E+08
         0.41563E+08
         0.20355E+08
         0.20042E+08
         0.37418E+08
         0.55021E+08
         0.56320E+08
        -0.27398E+08
         0.37123E+08
         0.56354E+08
         0.32546E+08
         0.85569E+08
         0.94799E+08
         0.28157E+08
        -0.17101E+08
        -0.44562E+08
        -0.13726E+08
         0.15890E+08
         0.27005E+08
         0.58135E+08
         0.82370E+05
         0.31454E+08
        -0.72941E+08
        -0.12150E+08
        -0.60420E+08
        -0.44590E+07
         0.75231E+08
         0.77581E+08
         0.14585E+09
         0.35745E+08
        -0.30278E+08
         0.42633E+08
        -0.17861E+08
         0.50762E+08
         0.11390E+09
         0.14305E+09
         0.13659E+09
         0.54098E+08
         0.89495E+08
         0.72032E+08
         0.89426E+08
         0.60897E+08
         0.56916E+08
         0.66861E+08
         0.73328E+08
         0.10366E+09
         0.12181E+09
         0.12901E+09
         0.14458E+09
         0.15818E+09
         0.76191E+08
         0.11268E+09
         0.84514E+08
         0.86923E+08
         0.10340E+09
         0.10720E+09
         0.98516E+08
         0.88667E+08
         0.89551E+08
         0.48498E+08
         0.81689E+08
         0.36585E+08
         0.50809E+08
         0.40073E+08
         0.11861E+08
         0.29772E+08
         0.66675E+08
         0.96914E+08
         0.10891E+09
         0.11510E+09
         0.12202E+09
         0.12678E+09
         0.12268E+09
         0.10019E+09
         0.99155E+08
         0.13380E+09
         0.12049E+09
         0.57036E+08
         0.51533E+08
         0.80233E+08
         0.93595E+08
         0.86483E+08
         0.77278E+08
         0.73551E+08
         0.81803E+08
        -0.35407E+08
         0.20842E+08
         0.86031E+08
         0.10874E+08
         0.16125E+09
         0.15214E+09
        -0.88533E+07
        -0.23450E+08
        -0.41511E+08
        -0.18402E+07
        -0.34511E+08
        -0.42530E+08
         0.17169E+07
        -0.23817E+08
        -0.15975E+08
        -0.78079E+08
         0.53565E+07
        -0.71204E+08
        -0.30198E+08
         0.60241E+08
        -0.29437E+06
         0.95381E+08
        -0.51341E+08
        -0.85896E+08
         0.44840E+08
        -0.61578E+08
         0.40492E+08
         0.10398E+09
         0.13327E+09
         0.10840E+09
        -0.13845E+08
         0.13093E+07
         0.17397E+08
         0.11036E+09
         0.15627E+09
         0.10475E+09
         0.41023E+08
         0.62423E+08
         0.10042E+09
         0.11494E+09
         0.11876E+09
         0.13221E+09
         0.13563E+09
        -0.20537E+08
         0.28519E+08
         0.46129E+08
         0.67316E+08
         0.83655E+08
         0.10205E+09
         0.11368E+09
         0.11834E+09
         0.12969E+09
         0.15849E+09
         0.16989E+09
         0.61982E+08
         0.26078E+08
        -0.31422E+07
        -0.49389E+08
        -0.75335E+07
         0.52293E+08
         0.86249E+08
         0.97370E+08
         0.10442E+09
         0.11029E+09
         0.10622E+09
         0.77966E+08
         0.39452E+08
         0.27121E+08
         0.38652E+08
         0.31920E+08
         0.18718E+08
         0.41494E+08
         0.75152E+08
         0.96945E+08
         0.11134E+09
         0.11406E+09
         0.11936E+09
         0.14922E+09
        -0.17894E+08
         0.60137E+07
         0.65870E+08
         0.18518E+08
         0.15917E+09
         0.13824E+09
        -0.14733E+08
        -0.11898E+08
        -0.14582E+08
         0.23360E+08
        -0.40848E+08
        -0.71286E+08
        -0.23102E+08
        -0.31342E+08
        -0.64805E+08
        -0.27422E+08
         0.29768E+08
        -0.32215E+08
        -0.34313E+08
         0.38425E+08
        -0.10945E+09
        -0.64896E+08
        -0.82186E+08
        -0.66275E+08
         0.57132E+08
        -0.33992E+08
         0.23218E+08
         0.62358E+08
         0.79186E+08
         0.58744E+08
         0.56676E+07
         0.87898E+07
         0.22123E+08
         0.81223E+08
         0.16396E+09
         0.63100E+08
         0.48611E+07
        -0.56033E+07
         0.55324E+08
         0.83817E+08
         0.84135E+08
         0.60658E+08
         0.11395E+07
        -0.35977E+08
         0.71803E+07
         0.49811E+08
         0.74215E+08
         0.95216E+08
         0.95619E+08
         0.96642E+08
         0.10446E+09
         0.11325E+09
         0.16583E+09
         0.16645E+09
         0.30583E+08
        -0.12915E+07
        -0.27226E+08
        -0.91251E+08
        -0.69072E+08
         0.44483E+07
         0.57202E+08
         0.74060E+08
         0.80733E+08
         0.66161E+08
        -0.26478E+08
        -0.86527E+08
        -0.77082E+08
        -0.41919E+08
        -0.77810E+07
         0.79222E+07
         0.36845E+08
         0.90140E+08
         0.11446E+09
         0.10457E+09
         0.10368E+09
         0.11143E+09
         0.12754E+09
         0.15072E+09
        -0.68676E+07
         0.96665E+07
         0.65425E+08
         0.31308E+08
         0.15768E+09
         0.14488E+09
        -0.53677E+07
         0.52541E+07
         0.28191E+07
         0.38132E+08
        -0.29135E+08
        -0.67963E+08
        -0.19369E+08
        -0.22822E+08
        -0.93455E+08
        -0.81685E+07
         0.38240E+08
        -0.17090E+08
        -0.26136E+08
        -0.51006E+07
        -0.13639E+09
        -0.16150E+09
        -0.77918E+08
        -0.46833E+08
         0.55879E+08
        -0.19152E+08
         0.51883E+07
         0.36416E+07
        -0.32088E+08
        -0.23521E+08
         0.16133E+08
         0.13475E+08
         0.37596E+08
         0.10189E+09
         0.15655E+09
         0.60550E+08
         0.58565E+07
        -0.58259E+08
        -0.30318E+08
        -0.25656E+08
        -0.44115E+08
        -0.80820E+08
        -0.12828E+09
        -0.35426E+08
         0.57998E+07
         0.53968E+08
         0.78505E+08
         0.10567E+09
         0.12329E+09
         0.12167E+09
         0.12762E+09
         0.13188E+09
         0.15015E+09
         0.16150E+09
         0.32530E+08
         0.11062E+07
        -0.27458E+08
        -0.92874E+08
        -0.10629E+09
        -0.65507E+08
        -0.34020E+08
        -0.28090E+08
        -0.42219E+08
        -0.98997E+08
        -0.14479E+09
        -0.14896E+09
        -0.13859E+09
        -0.70458E+08
        -0.23030E+08
         0.41400E+07
         0.47848E+08
         0.11371E+09
         0.15576E+09
         0.14607E+09
         0.13890E+09
         0.13822E+09
         0.14436E+09
         0.15330E+09
        -0.17295E+07
         0.13204E+08
         0.68073E+08
         0.35962E+08
         0.15477E+09
         0.14371E+09
         0.91080E+06
         0.15245E+08
         0.10715E+08
         0.47438E+08
        -0.23939E+08
        -0.67734E+08
        -0.16965E+08
        -0.18045E+08
        -0.99141E+08
        -0.10641E+07
         0.43137E+08
        -0.14529E+08
        -0.33584E+08
        -0.27752E+08
        -0.13802E+09
        -0.17062E+09
        -0.87845E+08
        -0.55777E+08
         0.49747E+08
        -0.20027E+08
        -0.17670E+07
        -0.22311E+08
        -0.63519E+08
        -0.69675E+08
         0.15855E+08
         0.10416E+08
         0.41790E+08
         0.11717E+09
         0.15108E+09
         0.60428E+08
         0.72307E+07
        -0.65866E+08
        -0.50070E+08
        -0.55723E+08
        -0.74479E+08
        -0.10166E+09
        -0.14218E+09
        -0.46450E+08
        -0.52432E+07
         0.45863E+08
         0.76528E+08
         0.10927E+09
         0.12301E+09
         0.12281E+09
         0.12711E+09
         0.13283E+09
         0.14124E+09
         0.15426E+09
         0.30308E+08
         0.22507E+07
        -0.26537E+08
        -0.95992E+08
        -0.10499E+09
        -0.74643E+08
        -0.64301E+08
        -0.66266E+08
        -0.77509E+08
        -0.11162E+09
        -0.14698E+09
        -0.16371E+09
        -0.15383E+09
        -0.99176E+08
        -0.49506E+08
        -0.12075E+08
         0.38429E+08
         0.10249E+09
         0.14460E+09
         0.14033E+09
         0.13315E+09
         0.13012E+09
         0.13547E+09
         0.14448E+09
         0.14579E+07
         0.17924E+08
         0.77645E+08
         0.38274E+08
         0.15533E+09
         0.14256E+09
         0.56527E+07
         0.22210E+08
         0.15322E+08
         0.55366E+08
        -0.21466E+08
        -0.70245E+08
        -0.16063E+08
        -0.14813E+08
        -0.96176E+08
         0.15128E+06
         0.47409E+08
        -0.16167E+08
        -0.49537E+08
        -0.42703E+08
        -0.14748E+09
        -0.17189E+09
        -0.10294E+09
        -0.78181E+08
         0.50057E+08
        -0.28204E+08
        -0.32125E+07
        -0.34988E+08
        -0.75142E+08
        -0.91806E+08
         0.17431E+08
         0.12443E+08
         0.44244E+08
         0.11130E+09
         0.15268E+09
         0.68422E+08
         0.92434E+07
        -0.64419E+08
        -0.56506E+08
        -0.66598E+08
        -0.82247E+08
        -0.10525E+09
        -0.14411E+09
        -0.57358E+08
        -0.85279E+07
         0.44966E+08
         0.94383E+08
         0.11596E+09
         0.11215E+09
         0.11383E+09
         0.11989E+09
         0.12844E+09
         0.14514E+09
         0.15454E+09
         0.31171E+08
         0.30502E+07
        -0.24712E+08
        -0.91950E+08
        -0.96337E+08
        -0.72166E+08
        -0.71232E+08
        -0.77618E+08
        -0.83996E+08
        -0.11011E+09
        -0.14680E+09
        -0.16988E+09
        -0.17008E+09
        -0.12309E+09
        -0.66852E+08
        -0.17946E+08
         0.38697E+08
         0.94447E+08
         0.12695E+09
         0.12598E+09
         0.12281E+09
         0.12214E+09
         0.12968E+09
         0.14145E+09
         0.34305E+07
         0.23872E+08
         0.85466E+08
         0.37809E+08
         0.15901E+09
         0.14339E+09
         0.10473E+08
         0.26174E+08
         0.17045E+08
         0.59147E+08
        -0.18990E+08
        -0.70363E+08
        -0.10970E+08
        -0.12853E+08
        -0.93766E+08
        -0.11709E+07
         0.49445E+08
        -0.18221E+08
        -0.52555E+08
        -0.44946E+08
        -0.15037E+09
        -0.17183E+09
        -0.10739E+09
        -0.83775E+08
         0.47633E+08
        -0.29792E+08
        -0.42556E+07
        -0.45356E+08
        -0.82905E+08
        -0.11074E+09
         0.20679E+08
         0.18834E+08
         0.45070E+08
         0.10421E+09
         0.15857E+09
         0.81363E+08
         0.18181E+08
        -0.63864E+08
        -0.60609E+08
        -0.74495E+08
        -0.90223E+08
        -0.10820E+09
        -0.13959E+09
        -0.58061E+08
        -0.13039E+07
         0.55351E+08
         0.10072E+09
         0.11137E+09
         0.10546E+09
         0.10748E+09
         0.11476E+09
         0.12512E+09
         0.15420E+09
         0.16089E+09
         0.42837E+08
         0.96129E+07
        -0.21403E+08
        -0.84668E+08
        -0.88118E+08
        -0.69267E+08
        -0.73830E+08
        -0.84292E+08
        -0.92380E+08
        -0.11203E+09
        -0.13927E+09
        -0.16552E+09
        -0.17223E+09
        -0.12853E+09
        -0.67101E+08
        -0.90306E+07
         0.51341E+08
         0.10142E+09
         0.12299E+09
         0.11974E+09
         0.11717E+09
         0.11797E+09
         0.12925E+09
         0.14620E+09
         0.95502E+06
         0.23545E+08
         0.89412E+08
         0.38711E+08
         0.15993E+09
         0.14258E+09
         0.98353E+07
         0.24669E+08
         0.15078E+08
         0.60258E+08
        -0.19248E+08
        -0.69507E+08
        -0.82069E+07
        -0.13899E+08
        -0.95330E+08
        -0.23841E+07
         0.51236E+08
        -0.19680E+08
        -0.50465E+08
        -0.44434E+08
        -0.14925E+09
        -0.17296E+09
        -0.10622E+09
        -0.80689E+08
         0.49708E+08
        -0.26447E+08
        -0.28693E+07
        -0.45311E+08
        -0.87739E+08
        -0.12230E+09
         0.25457E+08
         0.26502E+08
         0.48821E+08
         0.10287E+09
         0.16056E+09
         0.89493E+08
         0.21704E+08
        -0.63178E+08
        -0.60129E+08
        -0.78483E+08
        -0.98397E+08
        -0.11623E+09
        -0.14479E+09
        -0.53012E+08
         0.82352E+07
         0.63605E+08
         0.10472E+09
         0.11346E+09
         0.10673E+09
         0.10729E+09
         0.11419E+09
         0.12365E+09
         0.15718E+09
         0.16146E+09
         0.53523E+08
         0.14520E+08
        -0.16044E+08
        -0.83097E+08
        -0.87138E+08
        -0.70485E+08
        -0.73359E+08
        -0.88245E+08
        -0.10288E+09
        -0.12183E+09
        -0.14393E+09
        -0.16501E+09
        -0.17103E+09
        -0.12733E+09
        -0.61466E+08
         0.11928E+07
         0.60920E+08
         0.10774E+09
         0.12698E+09
         0.12136E+09
         0.11765E+09
         0.11843E+09
         0.12854E+09
         0.14537E+09
        -0.77882E+05
         0.21218E+08
         0.90836E+08
         0.41825E+08
         0.15934E+09
         0.14195E+09
         0.93895E+07
         0.23378E+08
         0.13316E+08
         0.58159E+08
        -0.18413E+08
        -0.66692E+08
        -0.82731E+07
        -0.16425E+08
        -0.97472E+08
        -0.45106E+07
         0.48737E+08
        -0.20347E+08
        -0.51649E+08
        -0.50715E+08
        -0.14688E+09
        -0.17239E+09
        -0.10375E+09
        -0.77773E+08
         0.49750E+08
        -0.26128E+08
        -0.55075E+07
        -0.45553E+08
        -0.92257E+08
        -0.12600E+09
         0.25040E+08
         0.25455E+08
         0.50536E+08
         0.10529E+09
         0.16220E+09
         0.88689E+08
         0.17129E+08
        -0.65518E+08
        -0.60802E+08
        -0.80519E+08
        -0.10289E+09
        -0.12393E+09
        -0.15400E+09
        -0.51078E+08
         0.94292E+07
         0.64692E+08
         0.10404E+09
         0.11525E+09
         0.11015E+09
         0.11031E+09
         0.11758E+09
         0.12570E+09
         0.15896E+09
         0.16115E+09
         0.51774E+08
         0.99719E+07
        -0.15525E+08
        -0.81594E+08
        -0.88980E+08
        -0.74317E+08
        -0.73524E+08
        -0.90225E+08
        -0.10768E+09
        -0.12989E+09
        -0.15386E+09
        -0.16587E+09
        -0.16629E+09
        -0.12285E+09
        -0.58318E+08
         0.36053E+07
         0.63701E+08
         0.11062E+09
         0.13322E+09
         0.12681E+09
         0.12135E+09
         0.12286E+09
         0.13144E+09
         0.14445E+09
         0.12333E+07
         0.20655E+08
         0.84109E+08
         0.38337E+08
         0.15862E+09
         0.14257E+09
         0.12733E+08
         0.23708E+08
         0.13088E+08
         0.53997E+08
        -0.14223E+08
        -0.59226E+08
        -0.50571E+07
        -0.17545E+08
        -0.99075E+08
        -0.79131E+07
         0.44000E+08
        -0.20878E+08
        -0.51967E+08
        -0.54817E+08
        -0.14719E+09
        -0.17029E+09
        -0.10414E+09
        -0.74796E+08
         0.45009E+08
        -0.29026E+08
        -0.12543E+08
        -0.50144E+08
        -0.94923E+08
        -0.12577E+09
         0.21311E+08
         0.20063E+08
         0.47366E+08
         0.10600E+09
         0.16242E+09
         0.80459E+08
         0.13643E+08
        -0.70154E+08
        -0.64414E+08
        -0.82032E+08
        -0.10415E+09
        -0.12557E+09
        -0.15354E+09
        -0.53605E+08
         0.78898E+07
         0.64581E+08
         0.10130E+09
         0.11315E+09
         0.11045E+09
         0.11162E+09
         0.11952E+09
         0.12762E+09
         0.15876E+09
         0.16177E+09
         0.45300E+08
         0.39345E+07
        -0.17605E+08
        -0.82167E+08
        -0.91941E+08
        -0.76901E+08
        -0.75991E+08
        -0.90192E+08
        -0.10769E+09
        -0.13054E+09
        -0.15200E+09
        -0.16295E+09
        -0.16491E+09
        -0.12067E+09
        -0.58423E+08
         0.45782E+07
         0.64800E+08
         0.10895E+09
         0.13141E+09
         0.12749E+09
         0.12266E+09
         0.12519E+09
         0.13593E+09
         0.14796E+09
         0.36433E+07
         0.22675E+08
         0.80233E+08
         0.35360E+08
         0.15745E+09
         0.14114E+09
         0.14262E+08
         0.22521E+08
         0.14754E+08
         0.51216E+08
        -0.14965E+08
        -0.58249E+08
        -0.31685E+07
        -0.22057E+08
        -0.10410E+09
        -0.64031E+07
         0.45159E+08
        -0.17695E+08
        -0.49298E+08
        -0.49176E+08
        -0.15142E+09
        -0.16978E+09
        -0.10630E+09
        -0.73660E+08
         0.45088E+08
        -0.28980E+08
        -0.18835E+08
        -0.48997E+08
        -0.88176E+08
        -0.11588E+09
         0.23177E+08
         0.21338E+08
         0.47214E+08
         0.10395E+09
         0.16061E+09
         0.78231E+08
         0.14979E+08
        -0.75737E+08
        -0.65591E+08
        -0.77731E+08
        -0.97074E+08
        -0.11615E+09
        -0.14473E+09
        -0.53728E+08
         0.88158E+07
         0.63510E+08
         0.10012E+09
         0.11226E+09
         0.10971E+09
         0.11076E+09
         0.11803E+09
         0.12583E+09
         0.15756E+09
         0.16199E+09
         0.44818E+08
         0.13434E+07
        -0.20183E+08
        -0.86231E+08
        -0.99167E+08
        -0.82436E+08
        -0.77820E+08
        -0.85245E+08
        -0.99891E+08
        -0.11880E+09
        -0.14016E+09
        -0.16094E+09
        -0.17034E+09
        -0.12249E+09
        -0.56896E+08
         0.55164E+07
         0.61923E+08
         0.10503E+09
         0.12851E+09
         0.12634E+09
         0.12192E+09
         0.12322E+09
         0.13390E+09
         0.14781E+09
         0.75224E+07
         0.24950E+08
         0.80943E+08
         0.38043E+08
         0.15843E+09
         0.14199E+09
         0.14121E+08
         0.22998E+08
         0.18488E+08
         0.50918E+08
        -0.16964E+08
        -0.60148E+08
        -0.39932E+07
        -0.24175E+08
        -0.10198E+09
        -0.14686E+06
         0.47334E+08
        -0.10856E+08
        -0.50751E+08
        -0.49419E+08
        -0.14973E+09
        -0.17159E+09
        -0.10575E+09
        -0.77637E+08
         0.42037E+08
        -0.27080E+08
        -0.22283E+08
        -0.51310E+08
        -0.88154E+08
        -0.11999E+09
         0.26892E+08
         0.22947E+08
         0.50203E+08
         0.10550E+09
         0.16162E+09
         0.78460E+08
         0.16224E+08
        -0.74646E+08
        -0.66741E+08
        -0.79660E+08
        -0.97400E+08
        -0.11340E+09
        -0.14210E+09
        -0.54166E+08
         0.54311E+07
         0.59277E+08
         0.10025E+09
         0.11633E+09
         0.11347E+09
         0.11341E+09
         0.11949E+09
         0.12643E+09
         0.15719E+09
         0.16252E+09
         0.45011E+08
         0.77969E+06
        -0.21504E+08
        -0.84521E+08
        -0.95831E+08
        -0.81674E+08
        -0.80124E+08
        -0.89523E+08
        -0.10103E+09
        -0.11309E+09
        -0.13473E+09
        -0.16499E+09
        -0.16895E+09
        -0.12194E+09
        -0.59992E+08
         0.90705E+06
         0.56600E+08
         0.10343E+09
         0.13179E+09
         0.12962E+09
         0.12495E+09
         0.12465E+09
         0.13351E+09
         0.14819E+09
         0.71822E+07
         0.19981E+08
         0.72530E+08
         0.33636E+08
         0.15861E+09
         0.14289E+09
         0.11468E+08
         0.24950E+08
         0.19415E+08
         0.52728E+08
        -0.12533E+08
        -0.51654E+08
        -0.74061E+07
        -0.13243E+08
        -0.99486E+08
         0.16497E+07
         0.44272E+08
        -0.98333E+07
        -0.53122E+08
        -0.58311E+08
        -0.14471E+09
        -0.17215E+09
        -0.10047E+09
        -0.76503E+08
         0.34872E+08
        -0.25787E+08
        -0.13959E+08
        -0.60885E+08
        -0.10027E+09
        -0.13759E+09
         0.23242E+08
         0.19154E+08
         0.44545E+08
         0.10750E+09
         0.16236E+09
         0.67570E+08
         0.91248E+07
        -0.73950E+08
        -0.72938E+08
        -0.90674E+08
        -0.10809E+09
        -0.12262E+09
        -0.14887E+09
        -0.53310E+08
         0.10799E+07
         0.55971E+08
         0.10160E+09
         0.12190E+09
         0.11956E+09
         0.11898E+09
         0.12387E+09
         0.12903E+09
         0.15616E+09
         0.16298E+09
         0.34754E+08
        -0.39131E+07
        -0.20973E+08
        -0.76064E+08
        -0.91403E+08
        -0.79379E+08
        -0.85487E+08
        -0.10056E+09
        -0.11197E+09
        -0.12090E+09
        -0.14041E+09
        -0.16618E+09
        -0.16131E+09
        -0.11644E+09
        -0.61799E+08
        -0.41840E+07
         0.53961E+08
         0.10437E+09
         0.13568E+09
         0.13272E+09
         0.12935E+09
         0.12896E+09
         0.13637E+09
         0.14914E+09
         0.71214E+07
         0.13934E+08
         0.54711E+08
         0.22492E+08
         0.15864E+09
         0.14469E+09
         0.10154E+08
         0.27319E+08
         0.19345E+08
         0.53709E+08
        -0.73464E+07
        -0.44224E+08
        -0.11061E+08
        -0.15361E+07
        -0.99206E+08
         0.69161E+05
         0.39304E+08
        -0.11576E+08
        -0.46291E+08
        -0.56053E+08
        -0.13391E+09
        -0.16764E+09
        -0.89704E+08
        -0.65612E+08
         0.30547E+08
        -0.24404E+08
        -0.60226E+06
        -0.68801E+08
        -0.11068E+09
        -0.13784E+09
         0.15361E+08
         0.13060E+08
         0.31082E+08
         0.83531E+08
         0.14444E+09
         0.43442E+08
        -0.18853E+07
        -0.76852E+08
        -0.78895E+08
        -0.98831E+08
        -0.11539E+09
        -0.12856E+09
        -0.14999E+09
        -0.49541E+08
        -0.19029E+07
         0.52601E+08
         0.91029E+08
         0.10872E+09
         0.12963E+09
         0.12772E+09
         0.13084E+09
         0.13290E+09
         0.14399E+09
         0.16052E+09
         0.51019E+07
        -0.16858E+08
        -0.27021E+08
        -0.84225E+08
        -0.10499E+09
        -0.82764E+08
        -0.88586E+08
        -0.10558E+09
        -0.11784E+09
        -0.12573E+09
        -0.13896E+09
        -0.15900E+09
        -0.14991E+09
        -0.10661E+09
        -0.59696E+08
        -0.77367E+07
         0.51723E+08
         0.10133E+09
         0.13750E+09
         0.13845E+09
         0.13493E+09
         0.13425E+09
         0.13918E+09
         0.14853E+09
         0.98586E+07
         0.85229E+07
         0.29531E+08
         0.53441E+07
         0.12131E+09
         0.11308E+09
         0.67307E+07
         0.27524E+08
         0.19465E+08
         0.49587E+08
        -0.17506E+08
        -0.65298E+08
        -0.25589E+08
        -0.10533E+08
        -0.11703E+09
        -0.28698E+07
         0.35059E+08
        -0.15407E+08
        -0.39809E+08
        -0.50564E+08
        -0.13082E+09
        -0.16628E+09
        -0.87095E+08
        -0.59050E+08
         0.22728E+08
        -0.28499E+08
        -0.11333E+08
        -0.76849E+08
        -0.11239E+09
        -0.14144E+09
        -0.67842E+06
        -0.34091E+07
         0.54799E+07
         0.36257E+08
         0.79106E+08
        -0.28119E+07
        -0.23743E+08
        -0.86741E+08
        -0.85383E+08
        -0.10271E+09
        -0.11795E+09
        -0.12772E+09
        -0.14348E+09
        -0.54338E+08
        -0.18175E+08
         0.28660E+08
         0.55716E+08
         0.65348E+08
         0.82217E+08
         0.10908E+09
         0.13550E+09
         0.11445E+09
         0.85805E+08
         0.14353E+09
        -0.60976E+08
        -0.46951E+08
        -0.48967E+08
        -0.11732E+09
        -0.13411E+09
        -0.95057E+08
        -0.95236E+08
        -0.11001E+09
        -0.12126E+09
        -0.12536E+09
        -0.12856E+09
        -0.15485E+09
        -0.15244E+09
        -0.10495E+09
        -0.63728E+08
        -0.23180E+08
         0.28086E+08
         0.60909E+08
         0.84573E+08
         0.98721E+08
         0.10360E+09
         0.11338E+09
         0.12477E+09
         0.13636E+09
         0.13380E+08
        -0.41350E+07
        -0.18050E+08
        -0.36525E+08
         0.24460E+08
        -0.92784E+07
        -0.33640E+07
         0.25051E+08
         0.22458E+08
         0.43096E+08
        -0.47383E+08
        -0.12034E+09
        -0.62943E+08
        -0.44205E+08
        -0.13608E+09
        -0.81902E+07
         0.37737E+08
        -0.27786E+08
        -0.46992E+08
        -0.54451E+08
        -0.15626E+09
        -0.16662E+09
        -0.11811E+09
        -0.75995E+08
         0.14842E+08
        -0.48281E+08
        -0.49404E+08
        -0.87172E+08
        -0.11509E+09
        -0.12478E+09
        -0.36266E+08
        -0.42191E+08
        -0.50896E+08
        -0.64434E+08
        -0.17561E+08
        -0.81415E+08
        -0.73915E+08
        -0.10931E+09
        -0.10254E+09
        -0.11358E+09
        -0.12664E+09
        -0.13270E+09
        -0.14280E+09
        -0.80362E+08
        -0.53734E+08
        -0.26361E+08
        -0.15048E+08
        -0.17459E+08
        -0.27452E+08
        -0.34871E+08
        -0.32757E+08
        -0.38943E+08
        -0.14786E+08
         0.52058E+08
        -0.10390E+09
        -0.10414E+09
        -0.99447E+08
        -0.14535E+09
        -0.15200E+09
        -0.12062E+09
        -0.11421E+09
        -0.12301E+09
        -0.13249E+09
        -0.13663E+09
        -0.13767E+09
        -0.16061E+09
        -0.17492E+09
        -0.13442E+09
        -0.79779E+08
        -0.48614E+08
        -0.22158E+08
        -0.13276E+08
        -0.11770E+08
        -0.16257E+08
        -0.22165E+08
        -0.24257E+08
        -0.18846E+08
         0.10204E+08
         0.26345E+08
        -0.91447E+07
        -0.70380E+08
        -0.76954E+08
        -0.84573E+08
        -0.12737E+09
        -0.46982E+07
         0.29214E+08
         0.34302E+08
         0.42978E+08
        -0.68463E+08
        -0.12898E+09
        -0.93599E+08
        -0.70203E+08
        -0.12903E+09
        -0.28339E+07
         0.55811E+08
        -0.26947E+08
        -0.77447E+08
        -0.64208E+08
        -0.16101E+09
        -0.17168E+09
        -0.13265E+09
        -0.12901E+09
         0.22102E+08
        -0.70410E+08
        -0.71103E+08
        -0.77267E+08
        -0.10172E+09
        -0.10170E+09
        -0.49557E+08
        -0.65868E+08
        -0.83872E+08
        -0.14061E+09
        -0.82034E+08
        -0.10443E+09
        -0.11657E+09
        -0.10912E+09
        -0.99622E+08
        -0.10565E+09
        -0.11964E+09
        -0.12908E+09
        -0.14704E+09
        -0.88876E+08
        -0.58945E+08
        -0.44864E+08
        -0.40191E+08
        -0.42004E+08
        -0.61771E+08
        -0.94071E+08
        -0.10622E+09
        -0.13079E+09
        -0.80252E+08
        -0.58772E+08
        -0.12020E+09
        -0.12481E+09
        -0.11863E+09
        -0.13006E+09
        -0.13421E+09
        -0.12112E+09
        -0.11207E+09
        -0.11493E+09
        -0.12748E+09
        -0.14520E+09
        -0.16005E+09
        -0.17203E+09
        -0.15663E+09
        -0.12208E+09
        -0.70203E+08
        -0.46514E+08
        -0.42700E+08
        -0.41787E+08
        -0.40265E+08
        -0.48316E+08
        -0.64408E+08
        -0.81698E+08
        -0.95019E+08
        -0.93180E+08
         0.29694E+08
         0.20384E+08
        -0.76648E+07
         0.85714E+07
        -0.59806E+08
        -0.63458E+08
         0.22201E+08
         0.29868E+08
         0.42516E+08
         0.54591E+08
         0.16696E+08
        -0.74472E+07
         0.12518E+08
         0.23438E+08
        -0.34243E+08
         0.41382E+08
         0.60911E+08
         0.42196E+08
        -0.26337E+08
        -0.47298E+08
        -0.99892E+08
        -0.15052E+09
        -0.62474E+08
        -0.32033E+08
         0.48086E+08
        -0.10695E+07
         0.39358E+08
        -0.23230E+08
        -0.84224E+08
        -0.10742E+09
         0.41531E+08
         0.10991E+08
         0.47500E+08
         0.12022E+08
        -0.36380E+08
        -0.74994E+07
         0.11294E+08
        -0.24425E+08
        -0.31870E+08
        -0.62389E+08
        -0.98603E+08
        -0.13445E+09
        -0.17158E+09
        -0.32370E+08
        -0.12926E+08
        -0.67575E+07
         0.57218E+07
         0.24283E+08
         0.34461E+08
         0.17649E+08
        -0.83174E+07
        -0.34812E+08
        -0.47521E+08
        -0.10764E+09
        -0.11313E+08
        -0.11100E+08
        -0.27936E+08
        -0.39724E+08
        -0.44328E+08
        -0.37146E+08
        -0.36152E+08
        -0.58598E+08
        -0.10156E+09
        -0.15222E+09
        -0.17923E+09
        -0.15282E+09
        -0.10885E+09
        -0.73814E+08
        -0.42177E+08
        -0.20050E+08
        -0.15378E+08
        -0.15570E+08
        -0.28014E+07
         0.10525E+08
         0.78231E+07
        -0.12089E+08
        -0.48479E+08
        -0.10589E+09
         0.30846E+08
         0.44794E+08
         0.48328E+08
         0.79238E+08
        -0.46521E+07
         0.37552E+08
         0.38062E+08
         0.31776E+08
         0.50142E+08
         0.70998E+08
         0.79251E+08
         0.12625E+09
         0.82419E+08
         0.10031E+09
         0.16259E+09
         0.67863E+08
         0.66122E+08
         0.90769E+08
        -0.42051E+07
        -0.40391E+08
        -0.82211E+08
        -0.13398E+09
        -0.46728E+08
        -0.81135E+07
         0.63326E+08
         0.19133E+08
         0.14155E+09
         0.68203E+08
        -0.57907E+08
        -0.81187E+08
         0.85718E+08
         0.33775E+08
         0.12055E+09
         0.10793E+09
         0.20128E+08
         0.71665E+08
         0.89685E+08
         0.12515E+09
         0.57043E+08
        -0.23693E+08
        -0.90589E+08
        -0.13666E+09
        -0.16030E+09
        -0.21791E+08
        -0.16409E+05
         0.11944E+08
         0.34204E+08
         0.71635E+08
         0.99189E+08
         0.97446E+08
         0.83531E+08
         0.75981E+08
        -0.25080E+07
        -0.70059E+08
         0.92021E+08
         0.11215E+09
         0.10212E+09
         0.11806E+09
         0.96990E+08
         0.63568E+08
         0.32580E+08
        -0.20974E+08
        -0.10045E+09
        -0.16726E+09
        -0.17872E+09
        -0.14685E+09
        -0.10913E+09
        -0.78110E+08
        -0.49863E+08
        -0.18526E+08
        -0.48385E+06
         0.43419E+07
         0.29584E+08
         0.60237E+08
         0.72684E+08
         0.67655E+08
         0.48385E+08
        -0.56476E+07
  
SCALARS                      strain_xx  double 1
LOOKUP_TABLE default
        -0.21871E-01
         0.24227E-01
         0.18925E-01
        -0.10290E-01
        -0.26600E-09
        -0.12803E-09
        -0.18193E-10
        -0.21734E-09
        -0.19957E-01
        -0.30339E-02
         0.17021E-09
        -0.15294E-09
         0.20761E-01
        -0.23168E-01
        -0.13088E-09
        -0.47709E-10
        -0.22492E-01
        -0.78694E-02
        -0.15382E-09
        -0.23713E-10
         0.13088E-01
         0.94789E-01
         0.11964E+00
        -0.14919E-09
         0.10395E-09
         0.67216E-10
        -0.21089E-01
         0.11178E-01
        -0.23744E-09
         0.60924E-10
        -0.12949E-01
         0.21558E-02
        -0.13823E-01
        -0.47514E-10
        -0.26490E-10
        -0.13487E-09
         0.13555E-01
         0.32015E-01
        -0.28594E-10
        -0.45792E-11
         0.48808E-01
         0.48758E-01
        -0.26993E-11
        -0.17432E-10
         0.20273E-01
         0.84908E-02
        -0.62486E-10
        -0.54182E-10
         0.40635E-01
         0.14073E-10
        -0.65412E-02
        -0.96461E-10
         0.14409E-01
        -0.13710E-09
         0.62585E-01
         0.67729E-10
         0.87675E-01
         0.61553E-01
         0.18232E-09
         0.17668E-09
         0.11225E-01
        -0.15723E-02
         0.49812E-10
        -0.13588E-09
        -0.72811E-03
        -0.38052E-10
        -0.13758E-01
        -0.13231E-09
        -0.10283E-01
         0.35674E-01
         0.27266E-09
        -0.11376E-10
         0.74262E-01
         0.22122E-09
         0.30315E-01
        -0.13585E-09
         0.90801E-01
         0.72790E-10
         0.72785E-01
         0.14368E-09
        -0.64618E-01
         0.22620E-01
         0.10885E-09
         0.14104E-09
         0.35360E-01
        -0.50774E-10
        -0.14392E-01
        -0.13937E-09
        -0.35095E-01
        -0.23431E-09
        -0.32416E-01
         0.11025E-01
        -0.22143E-09
        -0.15713E-09
         0.24515E-01
         0.18035E-09
         0.86064E-03
         0.74108E-10
        -0.88889E-02
         0.30231E-10
        -0.60361E-02
        -0.21260E-02
         0.94716E-10
        -0.24982E-09
        -0.58053E-01
        -0.23986E-01
         0.35867E-09
        -0.87032E-09
        -0.36731E-02
         0.25570E-09
         0.55035E-01
         0.20436E-09
         0.14520E+00
         0.19738E-09
         0.16393E+00
         0.92372E-10
         0.75071E-01
        -0.26985E-10
         0.75355E-01
        -0.35227E-10
         0.66255E-01
         0.47577E-10
        -0.54034E+00
         0.83969E-10
        -0.70708E+00
         0.10377E-09
        -0.21870E+00
        -0.76611E-10
        -0.54065E-01
        -0.66633E-10
         0.30755E-01
        -0.12766E-10
         0.58010E-01
        -0.74315E-10
         0.39655E-01
        -0.16997E-09
         0.32743E-02
        -0.19489E-09
        -0.42231E-01
        -0.30891E-09
        -0.35896E-01
        -0.23566E-09
         0.70286E-02
         0.53908E-10
         0.13441E-01
         0.13010E-09
        -0.10391E-01
         0.13461E-09
        -0.16860E-01
         0.20336E-09
        -0.10731E-01
         0.38095E-09
        -0.70321E-02
         0.36017E-09
        -0.13685E-01
         0.33875E-09
         0.17099E-02
         0.39001E-01
         0.79548E-01
         0.45083E-01
         0.11778E+00
         0.84844E-01
         0.17565E-01
        -0.27498E-03
        -0.17451E-01
         0.48000E-02
         0.23824E-01
         0.32588E-01
         0.32795E-01
         0.28409E-01
         0.53022E-01
        -0.19892E-01
        -0.69464E-02
         0.31499E-02
         0.77558E-02
         0.21798E-01
         0.24708E-01
         0.25141E-01
         0.11565E-01
         0.44706E-02
         0.20943E-01
        -0.67307E-02
         0.37255E-01
         0.42206E-01
         0.40220E-01
         0.33816E-01
         0.18948E-02
        -0.79506E-02
         0.38152E-01
         0.79789E-01
         0.16276E+00
         0.13141E+00
         0.75480E-01
         0.59393E-01
         0.55671E-01
         0.27435E-01
        -0.38482E-01
        -0.38703E-02
         0.15447E-01
         0.16016E-02
        -0.63476E-02
        -0.23317E-01
        -0.17983E-01
         0.15555E-01
         0.79256E-01
         0.14504E+00
         0.16413E+00
         0.10703E+00
         0.23312E+00
         0.18064E+00
         0.19627E+00
         0.11751E+00
         0.58014E-01
         0.41878E-01
         0.62871E-01
         0.64152E-01
        -0.42142E-02
        -0.20963E+00
        -0.32869E+00
        -0.14228E+00
        -0.55867E-01
        -0.22609E-01
        -0.96193E-02
        -0.67739E-02
        -0.33523E-02
        -0.74715E-02
        -0.50027E-01
        -0.61858E-01
         0.22792E-01
         0.17534E+00
         0.29760E+00
         0.25975E+00
         0.13514E+00
         0.11182E+00
         0.34714E-02
         0.17601E-01
         0.63995E-01
         0.28300E-01
         0.10271E+00
         0.69533E-01
        -0.35223E-02
         0.13526E-01
        -0.13060E-02
         0.10893E-01
         0.91053E-02
        -0.53049E-02
        -0.94374E-02
         0.27565E-01
         0.15211E-01
        -0.14545E-01
        -0.42936E-03
         0.80373E-03
        -0.99959E-02
        -0.64045E-02
        -0.41119E-01
        -0.51304E-01
        -0.32419E-01
        -0.17161E-01
         0.48818E-03
        -0.19423E-01
         0.76489E-02
        -0.17237E-01
        -0.34790E-01
        -0.12361E-01
        -0.71723E-02
        -0.22971E-01
         0.26280E-01
         0.55733E-01
         0.14042E+00
         0.10975E+00
         0.43896E-01
        -0.10059E-01
        -0.45261E-01
        -0.76428E-01
        -0.10019E+00
        -0.77201E-01
        -0.59573E-01
        -0.24710E-01
        -0.23823E-01
        -0.28668E-01
        -0.22000E-01
         0.14046E-01
         0.71178E-01
         0.11755E+00
         0.13569E+00
         0.84224E-01
         0.20025E+00
         0.15605E+00
         0.17719E+00
         0.90676E-01
         0.18182E-01
        -0.14628E-01
        -0.16019E-01
        -0.40701E-01
        -0.99798E-01
        -0.13048E+00
        -0.10453E+00
        -0.10706E+00
        -0.12689E+00
        -0.13286E+00
        -0.11275E+00
        -0.76273E-01
        -0.38926E-01
        -0.10613E-01
        -0.23085E-01
        -0.22003E-01
         0.45442E-01
         0.16337E+00
         0.25847E+00
         0.26228E+00
         0.15916E+00
         0.11752E+00
         0.20429E-04
        -0.63014E-02
        -0.64798E-02
        -0.12248E-01
        -0.14540E-01
        -0.32615E-01
        -0.46945E-02
         0.68123E-02
         0.32126E-02
         0.18849E-02
         0.18027E-02
        -0.76068E-02
        -0.15693E-01
         0.78576E-02
         0.11728E-03
        -0.45155E-02
        -0.75589E-03
        -0.44178E-02
        -0.12436E-01
        -0.14675E-01
        -0.38100E-01
        -0.45624E-01
        -0.24407E-01
        -0.14500E-01
        -0.92601E-02
        -0.10548E-01
        -0.77319E-02
        -0.23833E-01
        -0.33959E-01
        -0.20468E-01
        -0.10617E-01
        -0.92826E-02
        -0.17275E-01
        -0.35878E-01
        -0.11129E-01
        -0.97797E-02
        -0.13055E-01
        -0.19520E-01
        -0.44717E-01
        -0.62718E-01
        -0.73478E-01
        -0.55052E-01
        -0.46990E-01
        -0.13157E-01
        -0.62799E-02
        -0.13569E-02
        -0.51381E-02
        -0.13243E-01
        -0.31849E-01
        -0.59149E-01
        -0.75662E-01
        -0.58438E-01
        -0.14595E-01
        -0.16583E-01
        -0.18262E-01
        -0.18549E-01
        -0.20318E-01
        -0.21992E-01
        -0.17775E-01
        -0.40136E-01
        -0.95524E-01
        -0.11622E+00
        -0.98307E-01
        -0.89214E-01
        -0.90648E-01
        -0.90131E-01
        -0.69648E-01
        -0.36086E-01
        -0.11497E-01
         0.10833E-02
         0.73276E-02
         0.36975E-02
        -0.13802E-01
        -0.48523E-01
        -0.87697E-01
        -0.98156E-01
        -0.69883E-01
        -0.35588E-01
        -0.29606E-02
        -0.68038E-02
        -0.13109E-01
        -0.11915E-01
        -0.25113E-01
        -0.30917E-01
        -0.46664E-02
        -0.26364E-02
        -0.38044E-02
        -0.86108E-02
        -0.33137E-02
        -0.64908E-02
        -0.10861E-01
        -0.37170E-02
        -0.48999E-02
        -0.41938E-02
        -0.72969E-02
        -0.60940E-02
        -0.11390E-01
        -0.15530E-01
        -0.27648E-01
        -0.30972E-01
        -0.17365E-01
        -0.11249E-01
        -0.16793E-01
        -0.70728E-02
        -0.14716E-01
        -0.25558E-01
        -0.30472E-01
        -0.21513E-01
        -0.79863E-02
        -0.43152E-02
        -0.17185E-01
        -0.31874E-01
        -0.28963E-01
        -0.23170E-01
        -0.15883E-01
        -0.18511E-01
        -0.34662E-01
        -0.44223E-01
        -0.46323E-01
        -0.34384E-01
        -0.29721E-01
        -0.86308E-02
        -0.18664E-02
         0.44064E-02
         0.23328E-03
        -0.11663E-01
        -0.31450E-01
        -0.51583E-01
        -0.59764E-01
        -0.46515E-01
        -0.41208E-01
        -0.34280E-01
        -0.41303E-01
        -0.29334E-01
        -0.20186E-01
        -0.16053E-01
        -0.10299E-01
        -0.25063E-01
        -0.60911E-01
        -0.77099E-01
        -0.65442E-01
        -0.46734E-01
        -0.45313E-01
        -0.53137E-01
        -0.43493E-01
        -0.21014E-01
        -0.53161E-02
         0.30040E-02
         0.12108E-01
         0.85473E-02
        -0.15085E-01
        -0.49454E-01
        -0.73613E-01
        -0.72526E-01
        -0.52019E-01
        -0.36894E-01
        -0.64656E-03
        -0.99610E-03
        -0.18463E-02
        -0.17007E-02
        -0.52471E-02
        -0.70085E-02
        -0.13483E-02
        -0.18468E-02
        -0.28251E-02
        -0.65406E-02
        -0.18505E-02
        -0.31258E-02
        -0.40319E-02
        -0.35387E-02
        -0.47082E-02
        -0.23646E-02
        -0.54603E-02
        -0.21051E-02
        -0.63032E-02
        -0.97736E-02
        -0.14340E-01
        -0.17087E-01
        -0.79078E-02
        -0.54727E-02
        -0.12108E-01
        -0.32244E-02
        -0.11010E-01
        -0.18494E-01
        -0.21866E-01
        -0.14882E-01
        -0.25648E-02
        -0.14849E-02
        -0.39470E-02
        -0.63596E-02
        -0.55374E-02
        -0.45901E-02
        -0.44373E-02
        -0.14402E-01
        -0.24682E-01
        -0.30136E-01
        -0.28859E-01
        -0.21242E-01
        -0.17408E-01
        -0.29984E-02
         0.39469E-03
         0.33789E-02
         0.14359E-02
        -0.21056E-02
        -0.64827E-02
        -0.10539E-01
        -0.12815E-01
        -0.10312E-01
        -0.82042E-02
        -0.90573E-02
        -0.97786E-02
        -0.10647E-01
        -0.91234E-02
        -0.75180E-02
        -0.68031E-02
        -0.18392E-01
        -0.36439E-01
        -0.42606E-01
        -0.34323E-01
        -0.20097E-01
        -0.21403E-01
        -0.27416E-01
        -0.21434E-01
        -0.82687E-02
         0.49956E-03
         0.45733E-02
         0.78049E-02
         0.60871E-02
        -0.16229E-02
        -0.10432E-01
        -0.15672E-01
        -0.16321E-01
        -0.13516E-01
        -0.10902E-01
         0.36074E-03
        -0.94292E-04
         0.39609E-03
         0.70022E-03
        -0.49765E-03
        -0.78694E-03
        -0.58963E-03
        -0.42291E-03
        -0.70347E-03
        -0.27372E-02
        -0.10864E-02
        -0.20049E-02
        -0.24694E-02
        -0.19073E-02
        -0.34125E-02
        -0.70762E-03
        -0.23296E-02
        -0.47170E-04
        -0.21794E-02
        -0.44643E-02
        -0.45885E-02
        -0.73075E-02
        -0.84723E-03
        -0.11315E-02
        -0.58623E-02
        -0.45258E-03
        -0.56005E-02
        -0.98040E-02
        -0.12616E-01
        -0.79698E-02
        -0.21145E-03
         0.27559E-03
         0.36122E-03
         0.81533E-03
         0.12733E-03
        -0.22914E-03
        -0.20021E-02
        -0.85879E-02
        -0.14142E-01
        -0.17872E-01
        -0.17692E-01
        -0.13022E-01
        -0.93665E-02
         0.13333E-02
         0.24070E-02
         0.31448E-02
         0.17063E-02
         0.87378E-03
         0.89843E-03
         0.11153E-02
         0.49035E-03
        -0.23376E-03
        -0.27462E-05
        -0.29213E-02
        -0.12222E-02
        -0.52522E-02
        -0.55703E-02
        -0.39868E-02
        -0.48291E-02
        -0.12062E-01
        -0.20731E-01
        -0.23947E-01
        -0.19977E-01
        -0.12258E-01
        -0.10707E-01
        -0.10570E-01
        -0.56673E-02
         0.12379E-02
         0.51139E-02
         0.60753E-02
         0.55825E-02
         0.40876E-02
         0.22904E-02
         0.13954E-02
         0.12360E-02
         0.27542E-04
        -0.19601E-02
        -0.35661E-02
         0.33260E-03
        -0.42929E-03
        -0.31136E-03
         0.29103E-03
        -0.13265E-02
        -0.13345E-02
        -0.69986E-03
        -0.16881E-03
        -0.97825E-04
        -0.10268E-02
        -0.98756E-03
        -0.17660E-02
        -0.23815E-02
        -0.10667E-02
        -0.20674E-02
        -0.17269E-03
        -0.89213E-03
         0.17059E-03
        -0.27236E-03
        -0.16511E-02
        -0.22075E-04
        -0.21215E-02
         0.21165E-02
         0.71046E-03
        -0.24922E-02
         0.61081E-03
        -0.24269E-02
        -0.45339E-02
        -0.66269E-02
        -0.37683E-02
         0.79330E-05
         0.76591E-03
         0.20287E-03
         0.24845E-03
        -0.10096E-02
        -0.11225E-02
        -0.22772E-02
        -0.42140E-02
        -0.71022E-02
        -0.10012E-01
        -0.10798E-01
        -0.73931E-02
        -0.42224E-02
         0.29327E-02
         0.30962E-02
         0.30033E-02
         0.13165E-02
         0.34810E-03
         0.18190E-03
         0.17082E-03
        -0.39128E-03
        -0.84283E-03
        -0.13906E-02
        -0.36035E-02
        -0.20961E-02
        -0.49116E-02
        -0.48144E-02
        -0.30350E-02
        -0.28064E-02
        -0.63136E-02
        -0.11051E-01
        -0.14554E-01
        -0.13691E-01
        -0.76315E-02
        -0.39085E-02
        -0.19968E-02
         0.15762E-02
         0.50082E-02
         0.64011E-02
         0.63174E-02
         0.48657E-02
         0.28247E-02
         0.10595E-02
         0.10341E-03
        -0.16301E-03
        -0.90196E-03
        -0.21868E-02
        -0.36835E-02
         0.23275E-03
        -0.53882E-03
        -0.67237E-03
        -0.26913E-04
        -0.18941E-02
        -0.19072E-02
        -0.75048E-03
        -0.15244E-03
        -0.22891E-04
        -0.37265E-03
        -0.88785E-03
        -0.15113E-02
        -0.22438E-02
        -0.58005E-03
        -0.10540E-02
        -0.10205E-03
        -0.39732E-03
         0.72987E-04
         0.30275E-03
        -0.48050E-03
         0.14341E-02
         0.89749E-04
         0.26248E-02
         0.10910E-02
        -0.10137E-02
         0.76581E-03
        -0.91888E-03
        -0.20359E-02
        -0.34112E-02
        -0.16542E-02
        -0.12025E-03
         0.72704E-03
        -0.24177E-03
        -0.53004E-03
        -0.17538E-02
        -0.16214E-02
        -0.22918E-02
        -0.19057E-02
        -0.37242E-02
        -0.59033E-02
        -0.64870E-02
        -0.37587E-02
        -0.13936E-02
         0.28993E-02
         0.28301E-02
         0.25454E-02
         0.87338E-03
        -0.31230E-03
        -0.81590E-03
        -0.11042E-02
        -0.16607E-02
        -0.17460E-02
        -0.23939E-02
        -0.40929E-02
        -0.27563E-02
        -0.45634E-02
        -0.42216E-02
        -0.23591E-02
        -0.11300E-02
        -0.29820E-02
        -0.68964E-02
        -0.10343E-01
        -0.94309E-02
        -0.36070E-02
        -0.18919E-04
         0.15557E-02
         0.36482E-02
         0.52200E-02
         0.56325E-02
         0.53733E-02
         0.40545E-02
         0.19379E-02
        -0.26792E-03
        -0.16040E-02
        -0.19397E-02
        -0.23585E-02
        -0.30338E-02
        -0.41003E-02
         0.19093E-03
        -0.58254E-03
        -0.70164E-03
        -0.33787E-04
        -0.19918E-02
        -0.20185E-02
        -0.84150E-03
        -0.18246E-03
        -0.24195E-04
        -0.13096E-03
        -0.90928E-03
        -0.14811E-02
        -0.23220E-02
        -0.40276E-03
        -0.70800E-03
        -0.84827E-04
        -0.23589E-03
         0.83517E-04
         0.67771E-03
         0.67238E-04
         0.25455E-02
         0.13425E-02
         0.34535E-02
         0.15298E-02
        -0.43484E-03
         0.99833E-03
        -0.30628E-03
        -0.10382E-02
        -0.21351E-02
        -0.77447E-03
        -0.64260E-04
         0.89540E-03
        -0.20352E-03
        -0.53303E-03
        -0.18577E-02
        -0.16993E-02
        -0.23683E-02
        -0.10457E-02
        -0.24344E-02
        -0.43243E-02
        -0.48924E-02
        -0.23666E-02
        -0.12038E-03
         0.34440E-02
         0.31973E-02
         0.28641E-02
         0.10472E-02
        -0.27325E-03
        -0.82048E-03
        -0.11198E-02
        -0.17157E-02
        -0.18375E-02
        -0.25534E-02
        -0.42578E-02
        -0.29379E-02
        -0.46967E-02
        -0.42082E-02
        -0.21258E-02
        -0.65458E-03
        -0.19965E-02
        -0.55514E-02
        -0.89412E-02
        -0.81190E-02
        -0.23913E-02
         0.18618E-02
         0.39057E-02
         0.55363E-02
         0.64156E-02
         0.63024E-02
         0.57691E-02
         0.45129E-02
         0.22818E-02
        -0.25871E-03
        -0.16947E-02
        -0.19939E-02
        -0.24194E-02
        -0.32063E-02
        -0.43362E-02
         0.18555E-03
        -0.67619E-03
        -0.68524E-03
         0.76315E-04
        -0.20085E-02
        -0.19481E-02
        -0.10427E-02
        -0.24921E-03
        -0.17462E-04
        -0.54429E-04
        -0.11385E-02
        -0.18694E-02
        -0.27204E-02
        -0.45916E-03
        -0.83578E-03
        -0.19918E-04
        -0.17259E-03
         0.15392E-03
         0.94452E-03
         0.27480E-03
         0.32305E-02
         0.17830E-02
         0.42975E-02
         0.19877E-02
        -0.23806E-03
         0.13550E-02
        -0.10213E-03
        -0.70403E-03
        -0.19109E-02
        -0.57978E-03
         0.94736E-04
         0.12671E-02
         0.41798E-05
        -0.21525E-03
        -0.18457E-02
        -0.17501E-02
        -0.26454E-02
        -0.81280E-03
        -0.20226E-02
        -0.40792E-02
        -0.50852E-02
        -0.25024E-02
        -0.64902E-05
         0.43087E-02
         0.40274E-02
         0.37324E-02
         0.16041E-02
         0.75177E-04
        -0.44763E-03
        -0.59756E-03
        -0.11755E-02
        -0.15185E-02
        -0.25377E-02
        -0.45031E-02
        -0.30307E-02
        -0.51779E-02
        -0.47529E-02
        -0.27586E-02
        -0.10252E-02
        -0.18661E-02
        -0.52255E-02
        -0.91244E-02
        -0.91676E-02
        -0.34113E-02
         0.18174E-02
         0.48120E-02
         0.67846E-02
         0.77875E-02
         0.76447E-02
         0.69940E-02
         0.58002E-02
         0.33970E-02
         0.46603E-03
        -0.11041E-02
        -0.12612E-02
        -0.17106E-02
        -0.29040E-02
        -0.44916E-02
         0.17821E-03
        -0.75857E-03
        -0.71571E-03
         0.11117E-03
        -0.20197E-02
        -0.18975E-02
        -0.11790E-02
        -0.28522E-03
        -0.87720E-05
        -0.41288E-04
        -0.12869E-02
        -0.21328E-02
        -0.29842E-02
        -0.48985E-03
        -0.88874E-03
        -0.88864E-05
        -0.18744E-03
         0.18341E-03
         0.91818E-03
         0.16636E-03
         0.31360E-02
         0.14929E-02
         0.42987E-02
         0.19906E-02
        -0.26687E-03
         0.13794E-02
        -0.27553E-04
        -0.67405E-03
        -0.21385E-02
        -0.78949E-03
         0.12720E-03
         0.13101E-02
         0.76317E-04
        -0.78013E-04
        -0.18182E-02
        -0.17619E-02
        -0.27888E-02
        -0.65426E-03
        -0.18502E-02
        -0.42138E-02
        -0.57255E-02
        -0.32023E-02
        -0.56139E-03
         0.43568E-02
         0.40950E-02
         0.38279E-02
         0.16832E-02
         0.15943E-03
        -0.28755E-03
        -0.33249E-03
        -0.88663E-03
        -0.13410E-02
        -0.24331E-02
        -0.45682E-02
        -0.28609E-02
        -0.52872E-02
        -0.51241E-02
        -0.32299E-02
        -0.11962E-02
        -0.16506E-02
        -0.48989E-02
        -0.93718E-02
        -0.10432E-01
        -0.50583E-02
         0.69540E-03
         0.44039E-02
         0.66611E-02
         0.78060E-02
         0.77173E-02
         0.70236E-02
         0.59163E-02
         0.35942E-02
         0.71174E-03
        -0.75078E-03
        -0.78583E-03
        -0.12959E-02
        -0.26803E-02
        -0.44583E-02
         0.20610E-03
        -0.76133E-03
        -0.76859E-03
         0.97821E-04
        -0.20932E-02
        -0.19365E-02
        -0.11257E-02
        -0.23893E-03
         0.75817E-05
        -0.28927E-04
        -0.11750E-02
        -0.19297E-02
        -0.29645E-02
        -0.41197E-03
        -0.74227E-03
        -0.25739E-04
        -0.19742E-03
         0.18602E-03
         0.89754E-03
         0.18341E-03
         0.31395E-02
         0.15757E-02
         0.42640E-02
         0.19524E-02
        -0.23149E-03
         0.13251E-02
         0.19034E-04
        -0.48759E-03
        -0.15893E-02
        -0.59099E-03
         0.69633E-04
         0.12158E-02
         0.61149E-04
        -0.80853E-04
        -0.19054E-02
        -0.18468E-02
        -0.28583E-02
        -0.55650E-03
        -0.14844E-02
        -0.31930E-02
        -0.41373E-02
        -0.22131E-02
        -0.17519E-03
         0.42676E-02
         0.39565E-02
         0.36314E-02
         0.15009E-02
         0.46108E-04
        -0.27105E-03
        -0.26771E-03
        -0.87616E-03
        -0.13612E-02
        -0.25121E-02
        -0.46420E-02
        -0.29641E-02
        -0.55531E-02
        -0.52902E-02
        -0.28122E-02
        -0.90915E-03
        -0.16684E-02
        -0.43777E-02
        -0.74354E-02
        -0.75916E-02
        -0.33633E-02
         0.11154E-02
         0.44825E-02
         0.67224E-02
         0.77902E-02
         0.75839E-02
         0.67843E-02
         0.56258E-02
         0.32985E-02
         0.56298E-03
        -0.55572E-03
        -0.53641E-03
        -0.12906E-02
        -0.27058E-02
        -0.44533E-02
         0.25393E-03
        -0.68103E-03
        -0.68599E-03
         0.13265E-03
        -0.19891E-02
        -0.19245E-02
        -0.95845E-03
        -0.12705E-03
         0.51215E-04
         0.48279E-04
        -0.92533E-03
        -0.15416E-02
        -0.27085E-02
        -0.24206E-03
        -0.41276E-03
         0.12630E-04
        -0.12482E-03
         0.20718E-03
         0.10499E-02
         0.54970E-03
         0.35494E-02
         0.25298E-02
         0.44383E-02
         0.20592E-02
        -0.11434E-04
         0.13667E-02
         0.15114E-03
        -0.46616E-04
        -0.35398E-03
         0.18399E-03
         0.62257E-04
         0.11798E-02
         0.77112E-04
        -0.48232E-04
        -0.16866E-02
        -0.16575E-02
        -0.27043E-02
        -0.28174E-03
        -0.79576E-03
        -0.13905E-02
        -0.11071E-02
         0.31613E-03
         0.15940E-02
         0.42943E-02
         0.38529E-02
         0.34260E-02
         0.13441E-02
        -0.37419E-04
        -0.25937E-03
        -0.23174E-03
        -0.89498E-03
        -0.13785E-02
        -0.21949E-02
        -0.45640E-02
        -0.27103E-02
        -0.53959E-02
        -0.49396E-02
        -0.21617E-02
        -0.21359E-03
        -0.11069E-02
        -0.31450E-02
        -0.39542E-02
        -0.23709E-02
         0.14927E-02
         0.43203E-02
         0.58509E-02
         0.73449E-02
         0.80678E-02
         0.75953E-02
         0.65386E-02
         0.52699E-02
         0.29748E-02
         0.37848E-03
        -0.47941E-03
        -0.45431E-03
        -0.13987E-02
        -0.28398E-02
        -0.45419E-02
         0.26285E-03
        -0.53456E-03
        -0.44229E-03
         0.20118E-03
        -0.16242E-02
        -0.17192E-02
        -0.80175E-03
        -0.62838E-04
         0.64387E-04
         0.10264E-03
        -0.72742E-03
        -0.12612E-02
        -0.23511E-02
        -0.88558E-04
        -0.52436E-04
         0.50336E-04
        -0.58121E-04
         0.22086E-03
         0.11006E-02
         0.77231E-03
         0.36145E-02
         0.29933E-02
         0.42615E-02
         0.19999E-02
         0.14993E-03
         0.12959E-02
         0.30995E-03
         0.25256E-03
         0.22487E-03
         0.60834E-03
         0.47498E-04
         0.10419E-02
         0.74803E-04
        -0.40255E-04
        -0.11554E-02
        -0.11532E-02
        -0.22691E-02
         0.18549E-03
        -0.18334E-03
        -0.52578E-03
        -0.16033E-04
         0.12901E-02
         0.24194E-02
         0.39849E-02
         0.34344E-02
         0.29507E-02
         0.10865E-02
        -0.14543E-03
        -0.35128E-03
        -0.36729E-03
        -0.10024E-02
        -0.13264E-02
        -0.15200E-02
        -0.41089E-02
        -0.19209E-02
        -0.45407E-02
        -0.41975E-02
        -0.17951E-02
         0.46177E-03
         0.13583E-03
        -0.15850E-02
        -0.20499E-02
        -0.72264E-03
         0.29000E-02
         0.57667E-02
         0.64346E-02
         0.73260E-02
         0.77293E-02
         0.70332E-02
         0.57456E-02
         0.45078E-02
         0.24993E-02
         0.15205E-03
        -0.74788E-03
        -0.85849E-03
        -0.16516E-02
        -0.27351E-02
        -0.42442E-02
         0.21646E-03
        -0.48871E-03
        -0.37252E-03
         0.18193E-03
        -0.14916E-02
        -0.16219E-02
        -0.78912E-03
        -0.11024E-03
         0.19188E-04
         0.43394E-04
        -0.73116E-03
        -0.12386E-02
        -0.22152E-02
        -0.10580E-03
        -0.43065E-05
         0.31577E-05
        -0.10851E-03
         0.19731E-03
         0.85468E-03
         0.50693E-03
         0.29293E-02
         0.22307E-02
         0.37023E-02
         0.17008E-02
         0.68673E-05
         0.11360E-02
         0.24003E-03
        -0.98139E-04
        -0.71479E-03
         0.12961E-03
         0.10608E-04
         0.95876E-03
         0.48846E-04
        -0.86668E-04
        -0.10015E-02
        -0.97043E-03
        -0.20434E-02
         0.14319E-03
        -0.75573E-03
        -0.21431E-02
        -0.26058E-02
        -0.52439E-03
         0.13470E-02
         0.36429E-02
         0.32756E-02
         0.29031E-02
         0.10656E-02
        -0.16040E-03
        -0.39721E-03
        -0.46158E-03
        -0.10796E-02
        -0.13148E-02
        -0.13409E-02
        -0.38428E-02
        -0.15925E-02
        -0.40227E-02
        -0.38595E-02
        -0.17652E-02
         0.59149E-03
         0.32900E-03
        -0.24670E-02
        -0.53050E-02
        -0.55165E-02
        -0.68775E-03
         0.40439E-02
         0.50143E-02
         0.60635E-02
         0.67775E-02
         0.64773E-02
         0.55807E-02
         0.45327E-02
         0.25561E-02
         0.16434E-03
        -0.86675E-03
        -0.10664E-02
        -0.17549E-02
        -0.25779E-02
        -0.39298E-02
         0.21182E-03
        -0.49929E-03
        -0.43947E-03
         0.15194E-03
        -0.16184E-02
        -0.17182E-02
        -0.79678E-03
        -0.12921E-03
         0.68641E-05
         0.35735E-04
        -0.75229E-03
        -0.12253E-02
        -0.21886E-02
        -0.12587E-03
        -0.22672E-04
        -0.14090E-04
        -0.14194E-03
         0.19376E-03
         0.79032E-03
         0.34175E-03
         0.27423E-02
         0.16970E-02
         0.37385E-02
         0.17086E-02
        -0.78386E-04
         0.11878E-02
         0.22903E-03
        -0.31145E-03
        -0.14179E-02
        -0.23951E-03
         0.48577E-04
         0.10747E-02
         0.58451E-04
        -0.11094E-03
        -0.11753E-02
        -0.10912E-02
        -0.20617E-02
         0.71539E-04
        -0.11735E-02
        -0.33988E-02
        -0.47313E-02
        -0.20737E-02
         0.34623E-03
         0.38460E-02
         0.35881E-02
         0.32474E-02
         0.12798E-02
        -0.49349E-04
        -0.39352E-03
        -0.49274E-03
        -0.11033E-02
        -0.13767E-02
        -0.15883E-02
        -0.39863E-02
        -0.18154E-02
        -0.40828E-02
        -0.38518E-02
        -0.16989E-02
         0.63010E-03
         0.16478E-03
        -0.33225E-02
        -0.81486E-02
        -0.97821E-02
        -0.40747E-02
         0.19378E-02
         0.40882E-02
         0.58064E-02
         0.68684E-02
         0.68782E-02
         0.62666E-02
         0.50883E-02
         0.29110E-02
         0.33570E-03
        -0.99071E-03
        -0.11669E-02
        -0.17395E-02
        -0.26808E-02
        -0.40638E-02
         0.32234E-03
        -0.36111E-03
        -0.36093E-03
         0.22729E-03
        -0.15977E-02
        -0.17261E-02
        -0.60861E-03
         0.21284E-05
         0.92527E-04
         0.17396E-03
        -0.56787E-03
        -0.97890E-03
        -0.19153E-02
         0.23185E-04
         0.16932E-03
         0.90671E-04
        -0.53957E-04
         0.26357E-03
         0.10841E-02
         0.58960E-03
         0.33953E-02
         0.21945E-02
         0.44240E-02
         0.21197E-02
         0.13116E-03
         0.14589E-02
         0.52232E-03
         0.25730E-03
        -0.53339E-03
         0.16965E-03
         0.15403E-03
         0.12449E-02
         0.12654E-03
        -0.64996E-04
        -0.11603E-02
        -0.10346E-02
        -0.19030E-02
         0.68436E-03
         0.87793E-04
        -0.16066E-02
        -0.28006E-02
        -0.96016E-03
         0.90831E-03
         0.43546E-02
         0.38705E-02
         0.33588E-02
         0.13698E-02
         0.41410E-04
        -0.35731E-03
        -0.49725E-03
        -0.11268E-02
        -0.14011E-02
        -0.16285E-02
        -0.40023E-02
        -0.18884E-02
        -0.40467E-02
        -0.35784E-02
        -0.13666E-02
         0.85370E-03
         0.12056E-02
        -0.55295E-03
        -0.44897E-02
        -0.67194E-02
        -0.26957E-02
         0.23401E-02
         0.48794E-02
         0.69882E-02
         0.79651E-02
         0.76463E-02
         0.66400E-02
         0.51104E-02
         0.28876E-02
         0.39408E-03
        -0.10568E-02
        -0.12772E-02
        -0.18176E-02
        -0.28390E-02
        -0.41864E-02
         0.40440E-03
        -0.13538E-03
        -0.13168E-03
         0.32280E-03
        -0.12846E-02
        -0.15448E-02
        -0.36103E-03
         0.10607E-03
         0.14360E-03
         0.26767E-03
        -0.37108E-03
        -0.69535E-03
        -0.14301E-02
         0.10957E-03
         0.19347E-03
         0.17515E-03
         0.23734E-04
         0.31500E-03
         0.13510E-02
         0.87917E-03
         0.40698E-02
         0.29776E-02
         0.48289E-02
         0.23953E-02
         0.32890E-03
         0.16305E-02
         0.69895E-03
         0.77491E-03
         0.51504E-03
         0.66304E-03
         0.25045E-03
         0.13608E-02
         0.20420E-03
         0.30906E-05
        -0.81481E-03
        -0.70213E-03
        -0.14779E-02
         0.10437E-02
         0.11994E-02
         0.46653E-03
        -0.47651E-04
         0.75722E-03
         0.18990E-02
         0.45212E-02
         0.39134E-02
         0.33379E-02
         0.13967E-02
         0.10600E-03
        -0.22912E-03
        -0.36864E-03
        -0.10660E-02
        -0.13412E-02
        -0.12353E-02
        -0.34970E-02
        -0.15590E-02
        -0.34763E-02
        -0.27871E-02
        -0.89575E-03
         0.67446E-03
         0.17101E-02
         0.19452E-02
         0.25393E-04
        -0.15797E-02
         0.48563E-03
         0.39519E-02
         0.64103E-02
         0.81186E-02
         0.84483E-02
         0.76449E-02
         0.64197E-02
         0.49344E-02
         0.27741E-02
         0.41100E-03
        -0.73779E-03
        -0.96815E-03
        -0.17911E-02
        -0.28718E-02
        -0.39318E-02
         0.50376E-03
        -0.12544E-04
         0.26699E-03
         0.56562E-03
        -0.63922E-03
        -0.11441E-02
        -0.34683E-03
         0.20110E-03
         0.22102E-03
         0.39034E-03
        -0.36497E-03
        -0.74522E-03
        -0.14564E-02
         0.17882E-03
         0.12275E-03
         0.17104E-03
         0.47667E-04
         0.43875E-03
         0.11778E-02
         0.76729E-03
         0.36108E-02
         0.26330E-02
         0.42452E-02
         0.21148E-02
         0.43202E-03
         0.15182E-02
         0.85231E-03
         0.99613E-03
         0.67165E-03
         0.61796E-03
         0.40120E-03
         0.14014E-02
         0.50436E-03
         0.40905E-03
         0.46628E-04
        -0.93508E-04
        -0.12874E-02
         0.11637E-02
         0.15883E-02
         0.96176E-03
         0.23533E-03
         0.60682E-03
         0.15497E-02
         0.41399E-02
         0.37964E-02
         0.33492E-02
         0.15074E-02
         0.36861E-03
         0.26547E-03
         0.25868E-03
        -0.52447E-03
        -0.96065E-03
        -0.48686E-04
        -0.26402E-02
        -0.58322E-03
        -0.30944E-02
        -0.26718E-02
        -0.83771E-03
         0.42377E-03
         0.17054E-02
         0.28035E-02
         0.12056E-02
        -0.11024E-02
        -0.23707E-03
         0.31731E-02
         0.58651E-02
         0.71120E-02
         0.72746E-02
         0.68575E-02
         0.62002E-02
         0.49263E-02
         0.28087E-02
         0.67691E-03
         0.77489E-05
        -0.56724E-04
        -0.12366E-02
        -0.26787E-02
        -0.35715E-02
         0.74329E-03
         0.33920E-03
         0.13748E-02
         0.12997E-02
         0.10245E-02
         0.14359E-03
        -0.30266E-03
         0.44774E-03
         0.36823E-03
         0.64636E-03
        -0.18347E-03
        -0.54631E-03
        -0.14492E-02
         0.60653E-03
         0.76515E-03
         0.71545E-04
        -0.42449E-05
         0.77591E-03
         0.51285E-03
         0.32903E-03
         0.19570E-02
         0.14557E-02
         0.25642E-02
         0.11803E-02
         0.61186E-03
         0.98656E-03
         0.14068E-02
         0.16667E-02
         0.15253E-02
         0.65978E-03
         0.67639E-03
         0.11989E-02
         0.13639E-02
         0.17520E-02
         0.23895E-02
         0.17762E-02
        -0.55282E-03
         0.21522E-02
         0.30375E-02
         0.30148E-02
         0.26869E-02
         0.16753E-02
         0.12550E-02
         0.29674E-02
         0.31673E-02
         0.30062E-02
         0.15271E-02
         0.99815E-03
         0.16412E-02
         0.21767E-02
         0.14518E-02
         0.58286E-03
         0.30789E-02
        -0.79890E-03
         0.26237E-02
        -0.14710E-02
        -0.21768E-02
        -0.16460E-03
         0.16949E-02
         0.35365E-02
         0.59888E-02
         0.61943E-02
         0.37355E-02
         0.15366E-02
         0.22121E-02
         0.33339E-02
         0.39114E-02
         0.44458E-02
         0.50309E-02
         0.55175E-02
         0.45476E-02
         0.27262E-02
         0.14791E-02
         0.18229E-02
         0.23732E-02
         0.99143E-03
        -0.10973E-02
        -0.22802E-02
         0.90629E-03
         0.93376E-03
         0.30120E-02
         0.20797E-02
         0.37880E-02
         0.22959E-02
        -0.15536E-03
         0.72106E-03
         0.35921E-03
         0.70254E-03
         0.14029E-03
        -0.17750E-03
        -0.96118E-03
         0.11603E-02
         0.15030E-02
        -0.46999E-03
        -0.44245E-03
         0.89982E-03
        -0.74796E-03
        -0.89381E-03
        -0.60469E-03
        -0.10061E-02
         0.39724E-03
        -0.36111E-03
         0.10962E-03
        -0.21081E-03
         0.16377E-02
         0.12801E-02
         0.66136E-03
        -0.44332E-03
         0.40344E-03
         0.35581E-03
         0.18310E-02
         0.28760E-02
         0.59906E-02
         0.47761E-02
         0.11857E-02
         0.26910E-02
         0.30327E-02
         0.25125E-02
         0.22673E-02
         0.76540E-03
        -0.54428E-03
         0.13599E-02
         0.21529E-02
         0.23535E-02
         0.96929E-03
         0.85069E-03
         0.22073E-02
         0.34440E-02
         0.31828E-02
         0.24584E-02
         0.79199E-02
         0.31119E-02
         0.79971E-02
         0.24782E-02
        -0.49647E-03
         0.63101E-03
         0.27538E-02
         0.47172E-02
         0.69587E-02
         0.67500E-02
         0.45025E-02
         0.12447E-02
        -0.79558E-03
        -0.12540E-02
        -0.42898E-03
         0.15655E-02
         0.34233E-02
         0.50924E-02
         0.42776E-02
         0.20936E-02
         0.89629E-03
         0.19115E-02
         0.35505E-02
         0.30282E-02
         0.17460E-02
         0.11646E-02
         0.59855E-03
         0.87773E-03
         0.10666E-02
         0.34790E-03
         0.24352E-02
         0.17208E-02
         0.74636E-03
         0.58976E-03
         0.82584E-03
         0.95934E-03
         0.33116E-03
         0.59340E-03
         0.13396E-02
         0.30253E-03
         0.19158E-03
         0.11333E-02
         0.96112E-03
         0.28002E-03
         0.42317E-02
         0.33169E-02
         0.11258E-01
         0.98459E-02
         0.11827E-01
         0.62255E-02
         0.11275E-02
         0.42506E-02
         0.87901E-03
         0.12469E-02
         0.18152E-02
         0.26465E-02
         0.32117E-03
         0.35285E-02
        -0.83482E-03
        -0.58549E-03
         0.30927E-02
         0.22530E-02
         0.18600E-02
         0.42791E-03
         0.62430E-03
         0.66318E-03
         0.15029E-02
         0.41347E-02
         0.73786E-02
         0.10668E-01
         0.95391E-02
         0.87061E-02
         0.36843E-02
        -0.77629E-03
        -0.28463E-02
        -0.22377E-02
        -0.78216E-03
         0.55084E-03
         0.50492E-02
         0.49749E-02
         0.49045E-02
         0.38412E-02
         0.16452E-02
         0.10803E-02
         0.10622E-02
         0.21684E-03
        -0.96682E-03
        -0.20875E-02
        -0.11780E-02
         0.46729E-02
         0.13656E-01
         0.20018E-01
         0.21920E-01
         0.21017E-01
         0.18675E-01
         0.16509E-01
         0.13537E-01
         0.68227E-02
        -0.18410E-02
        -0.63885E-02
        -0.42112E-02
        -0.10113E-03
         0.29952E-02
         0.44736E-02
        -0.57484E-04
        -0.17129E-03
        -0.78712E-02
        -0.55302E-02
        -0.70314E-02
        -0.38895E-02
         0.35584E-02
         0.89893E-04
         0.31073E-02
         0.29254E-02
         0.71258E-03
         0.26423E-02
         0.69588E-02
        -0.27616E-02
        -0.40885E-02
         0.97865E-02
         0.82368E-02
        -0.55924E-03
         0.23384E-01
         0.21574E-01
         0.52052E-01
         0.51819E-01
         0.47432E-01
         0.29481E-01
         0.94580E-02
         0.21746E-01
         0.71606E-03
         0.91948E-02
         0.16970E-01
         0.20391E-01
         0.42102E-02
         0.17315E-01
        -0.75208E-02
        -0.10459E-01
        -0.10992E-01
        -0.10390E-01
        -0.20200E-03
        -0.30574E-02
         0.44407E-02
         0.11239E-01
         0.15760E-01
         0.26329E-01
         0.41735E-01
         0.39022E-01
         0.31853E-01
         0.28243E-01
         0.15836E-01
        -0.80627E-03
        -0.14425E-01
        -0.15895E-01
        -0.10494E-01
        -0.59400E-02
        -0.95908E-02
         0.16602E-02
        -0.12020E-01
        -0.11887E-02
         0.39699E-02
         0.20763E-02
        -0.33871E-02
        -0.75761E-02
        -0.73986E-02
        -0.23249E-02
         0.41985E-02
         0.26752E-01
         0.64862E-01
         0.90486E-01
         0.89762E-01
         0.73753E-01
         0.57331E-01
         0.44003E-01
         0.37114E-01
         0.22704E-01
        -0.37189E-02
        -0.22026E-01
        -0.19707E-01
        -0.70068E-02
         0.32081E-02
         0.57311E-02
  
SCALARS                      strain_yy  double 1
LOOKUP_TABLE default
         0.20188E-01
         0.48069E-01
         0.13324E-01
        -0.19736E-01
         0.92320E-10
         0.17539E-09
         0.10289E-09
        -0.43482E-10
         0.33421E-02
        -0.29556E-01
        -0.57675E-11
        -0.21648E-09
         0.65143E-01
         0.30729E-01
         0.20008E-09
         0.12849E-09
         0.76059E-02
         0.78545E-02
         0.75577E-11
         0.27842E-10
         0.60788E-01
         0.97408E-01
         0.11348E+00
         0.20993E-09
         0.19813E-09
         0.24007E-09
         0.26122E-01
         0.48192E-01
         0.83474E-10
         0.60349E-10
        -0.11929E-02
         0.47054E-02
        -0.68460E-02
        -0.24997E-10
        -0.99354E-11
        -0.13903E-10
         0.21459E-01
         0.23402E-02
         0.15086E-10
        -0.27167E-11
         0.55350E-01
        -0.13876E-01
         0.99694E-10
         0.28941E-10
         0.10292E+00
         0.43919E-01
         0.13515E-09
         0.63125E-10
        -0.12217E-01
        -0.11973E-10
         0.26724E-01
         0.38266E-10
        -0.10981E-01
         0.53464E-12
        -0.59493E-01
        -0.74047E-10
        -0.11803E+00
        -0.46347E-01
        -0.20805E-09
        -0.63118E-10
        -0.16048E-01
         0.13105E-01
        -0.39719E-10
         0.10813E-11
        -0.30871E-01
        -0.63084E-10
        -0.46585E-01
        -0.19525E-09
         0.52968E-01
         0.50646E-01
         0.31894E-10
         0.92161E-10
         0.82435E-01
         0.18332E-09
        -0.17415E-01
        -0.61788E-11
        -0.10766E+00
        -0.86142E-10
        -0.19973E+00
        -0.19081E-09
        -0.18475E+00
        -0.15930E+00
        -0.29687E-09
        -0.35731E-09
        -0.99278E-01
        -0.19058E-09
         0.11169E+00
         0.17274E-09
         0.87196E-01
         0.12537E-09
         0.70162E-01
         0.17716E-01
        -0.27682E-10
        -0.28881E-10
        -0.30059E-01
        -0.18620E-10
        -0.57262E-01
        -0.12259E-09
        -0.62903E-01
        -0.20276E-09
        -0.47911E-01
        -0.42406E-01
        -0.31400E-09
        -0.30943E-09
         0.11832E+00
         0.11751E+00
         0.78059E-10
        -0.21116E-09
         0.40919E-01
         0.90948E-10
         0.89851E-01
         0.14883E-09
         0.16109E+00
         0.27331E-09
         0.16986E+00
         0.20072E-09
         0.14787E+00
         0.96671E-10
         0.71316E-01
         0.18938E-10
         0.13182E+00
         0.22810E-10
         0.29609E+00
        -0.30682E-09
         0.10489E+00
        -0.55934E-09
        -0.20742E+00
        -0.28787E-09
        -0.22682E+00
        -0.21452E-09
        -0.78494E-01
        -0.11260E-09
         0.66174E-01
        -0.79925E-11
         0.16313E+00
         0.12972E-09
         0.21452E+00
         0.30189E-09
         0.16004E+00
         0.56746E-09
         0.86558E-01
         0.32354E-09
         0.27042E-01
         0.71984E-10
        -0.15955E-01
         0.17640E-10
        -0.39415E-01
        -0.26271E-09
        -0.23258E-01
        -0.34750E-09
         0.14605E-01
        -0.60756E-09
         0.33074E-01
        -0.42922E-09
         0.65733E-01
        -0.36609E-09
         0.15191E-01
         0.34855E-01
         0.78579E-02
        -0.15597E-01
         0.15086E-01
         0.13740E-01
         0.52029E-01
         0.28944E-01
         0.87745E-02
         0.13903E-01
         0.50449E-01
         0.65784E-01
         0.80404E-01
         0.21618E-01
         0.10481E-01
         0.46179E-02
         0.13357E-01
        -0.12535E-01
         0.33324E-01
         0.65812E-02
         0.43895E-01
        -0.24190E-01
         0.66151E-01
         0.42966E-01
        -0.91567E-02
         0.21832E-01
        -0.20204E-01
        -0.74060E-01
        -0.13486E+00
        -0.57450E-01
        -0.19224E-01
        -0.25402E-02
        -0.28380E-01
        -0.22785E-01
         0.33279E-01
         0.34206E-01
         0.60542E-01
        -0.72824E-01
        -0.15699E+00
        -0.22087E+00
        -0.23980E+00
        -0.20118E+00
        -0.12706E+00
         0.53436E-01
         0.24652E-01
         0.20788E-02
        -0.21489E-01
        -0.38343E-01
        -0.37526E-01
        -0.83065E-02
         0.48763E-01
         0.31006E-01
         0.88546E-01
         0.12257E+00
         0.51034E-01
         0.75189E-01
         0.10928E+00
         0.95453E-01
         0.30276E-01
        -0.93011E-01
        -0.21322E+00
        -0.14456E+00
        -0.14157E+00
        -0.30038E+00
        -0.24447E+00
        -0.89041E-01
         0.21376E-01
         0.84049E-01
         0.98532E-01
         0.62376E-01
         0.13262E-01
        -0.30655E-01
        -0.68001E-01
        -0.72493E-01
         0.29116E-01
         0.19499E+00
         0.22113E+00
         0.16548E+00
         0.34733E-02
         0.15286E-01
         0.46902E-02
        -0.28767E-02
         0.20802E-01
         0.46695E-01
         0.29805E-01
         0.16755E-01
         0.48773E-02
         0.12063E-01
         0.34931E-01
         0.47269E-01
         0.52599E-01
         0.17374E-01
         0.87085E-02
         0.48263E-02
         0.15047E-01
        -0.90974E-02
         0.25042E-01
         0.86976E-02
         0.10705E-01
        -0.25764E-01
         0.99925E-02
         0.18518E-01
        -0.41945E-02
         0.47735E-02
        -0.11426E-01
        -0.54599E-01
        -0.10937E+00
        -0.45233E-01
        -0.12452E-01
        -0.12581E-01
        -0.59455E-02
         0.22008E-01
         0.17338E-01
         0.20131E-01
         0.37034E-01
        -0.47951E-01
        -0.10763E+00
        -0.16747E+00
        -0.20323E+00
        -0.16761E+00
        -0.10225E+00
        -0.19078E-02
        -0.17176E-01
        -0.33053E-01
        -0.33767E-01
        -0.27616E-01
        -0.16442E-03
         0.56553E-01
         0.11713E+00
         0.88918E-01
         0.31878E-01
         0.63461E-01
         0.36973E-01
         0.57450E-01
         0.79113E-01
         0.65465E-01
         0.10027E-01
        -0.66594E-01
        -0.14484E+00
        -0.19875E+00
        -0.21613E+00
        -0.23126E+00
        -0.18733E+00
        -0.96738E-01
        -0.43567E-01
        -0.20453E-01
        -0.20011E-01
        -0.32166E-01
        -0.50784E-01
        -0.66946E-01
        -0.77061E-01
        -0.46202E-01
         0.67458E-01
         0.21044E+00
         0.22593E+00
         0.14437E+00
         0.24221E-03
         0.50558E-02
         0.35392E-02
         0.20254E-02
         0.17109E-01
         0.34636E-01
         0.13267E-01
         0.84438E-02
         0.38618E-02
         0.88388E-02
         0.17989E-01
         0.25500E-01
         0.25896E-01
         0.10924E-01
         0.73370E-02
         0.37008E-02
         0.11698E-01
        -0.32342E-02
         0.12863E-01
         0.64992E-02
        -0.69010E-02
        -0.23790E-01
        -0.12026E-01
         0.34592E-02
        -0.22657E-03
        -0.24761E-02
        -0.36046E-02
        -0.32144E-01
        -0.73034E-01
        -0.27304E-01
        -0.57345E-02
        -0.10871E-01
         0.20810E-02
         0.21608E-01
         0.11484E-01
         0.10777E-01
         0.17169E-01
        -0.24141E-01
        -0.67792E-01
        -0.12276E+00
        -0.16204E+00
        -0.12229E+00
        -0.70482E-01
        -0.17509E-01
        -0.21093E-01
        -0.25556E-01
        -0.20937E-01
        -0.11513E-01
         0.88125E-02
         0.41729E-01
         0.73116E-01
         0.59084E-01
         0.15779E-01
         0.32915E-01
         0.23114E-01
         0.31869E-01
         0.42204E-01
         0.35784E-01
         0.57817E-02
        -0.36867E-01
        -0.99809E-01
        -0.16765E+00
        -0.21221E+00
        -0.20378E+00
        -0.14437E+00
        -0.93739E-01
        -0.64123E-01
        -0.53166E-01
        -0.48503E-01
        -0.38166E-01
        -0.34020E-01
        -0.33434E-01
        -0.26937E-01
         0.43492E-03
         0.56673E-01
         0.11855E+00
         0.12393E+00
         0.77939E-01
         0.20957E-02
         0.31463E-02
         0.15961E-02
         0.36061E-03
         0.42738E-02
         0.63937E-02
         0.73894E-02
         0.65354E-02
         0.51753E-02
         0.82993E-02
         0.10573E-01
         0.14676E-01
         0.12821E-01
         0.84942E-02
         0.80996E-02
         0.34924E-02
         0.92366E-02
         0.61880E-03
         0.69396E-02
         0.53894E-02
        -0.53908E-02
        -0.16479E-01
        -0.67042E-02
         0.16248E-02
         0.38964E-02
        -0.74965E-03
         0.16982E-02
        -0.15159E-01
        -0.42501E-01
        -0.13490E-01
        -0.17803E-02
        -0.42843E-02
        -0.29706E-03
         0.31409E-02
         0.45125E-02
         0.51154E-02
         0.81974E-02
        -0.90729E-02
        -0.38723E-01
        -0.79884E-01
        -0.11453E+00
        -0.83715E-01
        -0.47656E-01
        -0.86560E-02
        -0.96575E-02
        -0.10366E-01
        -0.78281E-02
        -0.49949E-02
        -0.68331E-03
         0.60998E-02
         0.12765E-01
         0.10377E-01
         0.70598E-02
         0.81723E-02
         0.10780E-01
         0.14794E-01
         0.20412E-01
         0.20494E-01
         0.96270E-02
        -0.14750E-01
        -0.68093E-01
        -0.13371E+00
        -0.18202E+00
        -0.17059E+00
        -0.11549E+00
        -0.67708E-01
        -0.39670E-01
        -0.28407E-01
        -0.24161E-01
        -0.17859E-01
        -0.12944E-01
        -0.10791E-01
        -0.89183E-02
        -0.32471E-02
         0.93464E-02
         0.23188E-01
         0.24723E-01
         0.15833E-01
         0.25042E-02
         0.24674E-02
         0.71645E-03
        -0.24839E-03
        -0.18415E-02
        -0.50076E-02
         0.46157E-02
         0.45810E-02
         0.42418E-02
         0.57687E-02
         0.69936E-02
         0.98387E-02
         0.70076E-02
         0.66475E-02
         0.89571E-02
         0.29232E-02
         0.58363E-02
         0.19258E-02
         0.35094E-02
         0.36002E-02
        -0.25595E-02
        -0.83141E-02
        -0.26863E-02
         0.10200E-02
         0.38281E-02
         0.22741E-03
         0.34842E-02
        -0.56728E-02
        -0.21448E-01
        -0.55463E-02
        -0.17735E-03
        -0.14865E-02
        -0.12385E-02
        -0.40201E-02
         0.41071E-03
         0.22618E-02
         0.43211E-02
         0.57070E-03
        -0.17433E-01
        -0.43320E-01
        -0.66358E-01
        -0.48066E-01
        -0.26513E-01
        -0.35207E-02
        -0.43701E-02
        -0.48759E-02
        -0.35700E-02
        -0.33814E-02
        -0.50310E-02
        -0.79306E-02
        -0.10726E-01
        -0.85171E-02
         0.47807E-03
        -0.42886E-02
         0.36429E-02
         0.64710E-02
         0.10053E-01
         0.13483E-01
         0.13147E-01
         0.22286E-02
        -0.34111E-01
        -0.80432E-01
        -0.11428E+00
        -0.10941E+00
        -0.70963E-01
        -0.35344E-01
        -0.17817E-01
        -0.10976E-01
        -0.94349E-02
        -0.83068E-02
        -0.64045E-02
        -0.48175E-02
        -0.44649E-02
        -0.66546E-02
        -0.10795E-01
        -0.15357E-01
        -0.15156E-01
        -0.10058E-01
         0.14389E-02
         0.15047E-02
         0.41445E-03
        -0.82943E-05
        -0.18241E-02
        -0.35310E-02
         0.23830E-02
         0.21377E-02
         0.21535E-02
         0.25671E-02
         0.39125E-02
         0.58963E-02
         0.36975E-02
         0.39526E-02
         0.70020E-02
         0.17637E-02
         0.25885E-02
         0.14540E-02
         0.12637E-02
         0.15799E-02
        -0.13968E-02
        -0.27195E-02
        -0.20792E-02
        -0.27765E-04
         0.19507E-02
        -0.12251E-03
         0.28456E-02
        -0.74547E-03
        -0.70387E-02
        -0.13835E-02
         0.20408E-03
        -0.85509E-03
        -0.56170E-03
        -0.26434E-02
        -0.34353E-03
         0.13074E-02
         0.25196E-02
         0.43728E-02
        -0.32920E-02
        -0.14668E-01
        -0.24829E-01
        -0.17669E-01
        -0.91768E-02
        -0.26752E-02
        -0.30027E-02
        -0.32022E-02
        -0.21134E-02
        -0.19047E-02
        -0.32441E-02
        -0.55455E-02
        -0.75585E-02
        -0.58463E-02
        -0.83896E-03
        -0.38540E-02
         0.18381E-02
         0.34098E-02
         0.48145E-02
         0.78237E-02
         0.10962E-01
         0.89140E-02
        -0.73786E-02
        -0.29782E-01
        -0.45676E-01
        -0.42738E-01
        -0.25617E-01
        -0.11672E-01
        -0.63660E-02
        -0.52844E-02
        -0.56459E-02
        -0.54312E-02
        -0.43924E-02
        -0.29667E-02
        -0.25026E-02
        -0.42644E-02
        -0.75649E-02
        -0.11032E-01
        -0.10547E-01
        -0.69688E-02
         0.56263E-03
         0.86676E-03
         0.15431E-03
        -0.92770E-04
        -0.15252E-02
        -0.20496E-02
         0.11218E-02
         0.59889E-03
         0.75343E-03
         0.62981E-03
         0.19153E-02
         0.33174E-02
         0.22322E-02
         0.18849E-02
         0.44995E-02
         0.77226E-03
         0.64125E-03
         0.74934E-03
        -0.10745E-03
         0.24679E-03
        -0.96558E-03
         0.20244E-03
        -0.22330E-02
        -0.83615E-03
         0.72690E-03
        -0.56087E-03
         0.19416E-02
         0.17592E-02
         0.11680E-02
         0.62295E-03
         0.11208E-03
        -0.70979E-03
        -0.28994E-03
        -0.13986E-02
        -0.43740E-03
         0.10364E-02
         0.18579E-02
         0.50861E-02
         0.43999E-02
         0.27992E-02
         0.12430E-02
         0.30985E-03
         0.40049E-03
        -0.25454E-02
        -0.23542E-02
        -0.23211E-02
        -0.14572E-02
        -0.11480E-02
        -0.17819E-02
        -0.28607E-02
        -0.36394E-02
        -0.28595E-02
        -0.91053E-03
        -0.30209E-02
         0.16679E-02
         0.26401E-02
         0.30244E-02
         0.46368E-02
         0.72888E-02
         0.98447E-02
         0.86335E-02
         0.50279E-02
         0.18189E-02
         0.18714E-03
         0.17699E-02
         0.21703E-02
        -0.87514E-03
        -0.38305E-02
        -0.46119E-02
        -0.39671E-02
        -0.32189E-02
        -0.21566E-02
        -0.16538E-02
        -0.24704E-02
        -0.38263E-02
        -0.50505E-02
        -0.47523E-02
        -0.37675E-02
         0.17276E-03
         0.59122E-03
        -0.30963E-05
        -0.34594E-03
        -0.16946E-02
        -0.22151E-02
         0.53196E-03
        -0.11269E-03
         0.95392E-04
        -0.28029E-03
         0.91873E-03
         0.20506E-02
         0.15788E-02
         0.79988E-03
         0.30442E-02
         0.21810E-03
        -0.33882E-03
         0.34725E-03
        -0.83634E-03
        -0.48580E-03
        -0.84520E-03
         0.14517E-02
        -0.24106E-02
        -0.13133E-02
         0.32292E-04
        -0.84722E-03
         0.13087E-02
         0.25232E-02
         0.41900E-02
         0.11506E-02
        -0.10294E-03
        -0.73927E-03
        -0.53196E-03
        -0.15675E-02
        -0.47774E-03
         0.98336E-03
         0.16038E-02
         0.48131E-02
         0.70938E-02
         0.97235E-02
         0.11721E-01
         0.72074E-02
         0.40854E-02
        -0.24988E-02
        -0.20811E-02
        -0.19638E-02
        -0.12945E-02
        -0.11659E-02
        -0.18642E-02
        -0.28845E-02
        -0.35409E-02
        -0.28613E-02
        -0.84747E-03
        -0.32719E-02
         0.17395E-02
         0.24220E-02
         0.23664E-02
         0.32748E-02
         0.53051E-02
         0.92094E-02
         0.14604E-01
         0.20205E-01
         0.22231E-01
         0.17906E-01
         0.13621E-01
         0.85829E-02
         0.13646E-02
        -0.33166E-02
        -0.40708E-02
        -0.33155E-02
        -0.26868E-02
        -0.18872E-02
        -0.16086E-02
        -0.25116E-02
        -0.38117E-02
        -0.47268E-02
        -0.44347E-02
        -0.39506E-02
         0.48135E-04
         0.50795E-03
        -0.77364E-04
        -0.45184E-03
        -0.20729E-02
        -0.28647E-02
         0.30698E-03
        -0.42543E-03
        -0.12878E-03
        -0.69518E-03
         0.55087E-03
         0.16528E-02
         0.13862E-02
         0.36340E-03
         0.25640E-02
         0.10705E-03
        -0.67400E-03
         0.30844E-03
        -0.10668E-02
        -0.80261E-03
        -0.11228E-02
         0.14667E-02
        -0.27294E-02
        -0.15941E-02
        -0.31707E-03
        -0.11109E-02
         0.10465E-02
         0.28368E-02
         0.53431E-02
         0.12013E-02
        -0.24924E-03
        -0.97437E-03
        -0.73411E-03
        -0.20103E-02
        -0.58946E-03
         0.10199E-02
         0.15769E-02
         0.48254E-02
         0.85054E-02
         0.13009E-01
         0.16287E-01
         0.96912E-02
         0.50484E-02
        -0.28988E-02
        -0.24316E-02
        -0.22451E-02
        -0.15526E-02
        -0.15204E-02
        -0.24740E-02
        -0.38297E-02
        -0.47701E-02
        -0.38035E-02
        -0.92144E-03
        -0.41320E-02
         0.19049E-02
         0.24395E-02
         0.22149E-02
         0.29170E-02
         0.47495E-02
         0.91098E-02
         0.17867E-01
         0.28150E-01
         0.31721E-01
         0.24536E-01
         0.16863E-01
         0.92525E-02
         0.12104E-02
        -0.32668E-02
        -0.43651E-02
        -0.36734E-02
        -0.29423E-02
        -0.21487E-02
        -0.20368E-02
        -0.33920E-02
        -0.52706E-02
        -0.65860E-02
        -0.61877E-02
        -0.54117E-02
         0.21080E-04
         0.53996E-03
        -0.45212E-04
        -0.39662E-03
        -0.23376E-02
        -0.33144E-02
         0.23139E-03
        -0.65546E-03
        -0.17238E-03
        -0.98367E-03
         0.42158E-03
         0.16752E-02
         0.15291E-02
         0.11317E-03
         0.25697E-02
         0.14226E-03
        -0.75079E-03
         0.43780E-03
        -0.12352E-02
        -0.97849E-03
        -0.16624E-02
         0.11466E-02
        -0.33429E-02
        -0.19348E-02
        -0.49219E-03
        -0.14156E-02
         0.83168E-03
         0.29927E-02
         0.62658E-02
         0.13502E-02
        -0.33305E-03
        -0.13205E-02
        -0.83961E-03
        -0.23628E-02
        -0.64751E-03
         0.12041E-02
         0.18247E-02
         0.51332E-02
         0.95795E-02
         0.15397E-01
         0.19992E-01
         0.11791E-01
         0.56445E-02
        -0.36406E-02
        -0.31867E-02
        -0.30293E-02
        -0.21398E-02
        -0.20459E-02
        -0.32210E-02
        -0.49398E-02
        -0.61448E-02
        -0.46628E-02
        -0.10284E-02
        -0.48527E-02
         0.23004E-02
         0.29185E-02
         0.25682E-02
         0.31020E-02
         0.50300E-02
         0.10122E-01
         0.20884E-01
         0.34132E-01
         0.39603E-01
         0.29765E-01
         0.18486E-01
         0.88730E-02
         0.23174E-03
        -0.40116E-02
        -0.54091E-02
        -0.47778E-02
        -0.39562E-02
        -0.30171E-02
        -0.28634E-02
        -0.46250E-02
        -0.71800E-02
        -0.88503E-02
        -0.79345E-02
        -0.65355E-02
        -0.26162E-04
         0.52993E-03
         0.66524E-04
        -0.32212E-03
        -0.21243E-02
        -0.31611E-02
         0.12773E-03
        -0.82705E-03
        -0.23213E-03
        -0.11667E-02
         0.30969E-03
         0.16592E-02
         0.15251E-02
        -0.50928E-04
         0.25605E-02
         0.13652E-03
        -0.82759E-03
         0.47372E-03
        -0.13463E-02
        -0.98004E-03
        -0.18320E-02
         0.15095E-02
        -0.34612E-02
        -0.20257E-02
        -0.57543E-03
        -0.14806E-02
         0.66037E-03
         0.29977E-02
         0.68734E-02
         0.16996E-02
        -0.42696E-03
        -0.15186E-02
        -0.92708E-03
        -0.24377E-02
        -0.40716E-03
         0.13903E-02
         0.19157E-02
         0.51247E-02
         0.97077E-02
         0.16178E-01
         0.21984E-01
         0.13875E-01
         0.70989E-02
        -0.37928E-02
        -0.35466E-02
        -0.36256E-02
        -0.26814E-02
        -0.25420E-02
        -0.37086E-02
        -0.53637E-02
        -0.64410E-02
        -0.46878E-02
        -0.69564E-03
        -0.45285E-02
         0.26667E-02
         0.31060E-02
         0.26033E-02
         0.31382E-02
         0.51904E-02
         0.10324E-01
         0.21224E-01
         0.35631E-01
         0.43510E-01
         0.35842E-01
         0.22804E-01
         0.99541E-02
         0.75228E-04
        -0.41068E-02
        -0.56057E-02
        -0.53767E-02
        -0.48340E-02
        -0.39424E-02
        -0.37752E-02
        -0.55875E-02
        -0.80601E-02
        -0.93332E-02
        -0.79188E-02
        -0.62139E-02
        -0.39753E-04
         0.45163E-03
        -0.19703E-05
        -0.40032E-03
        -0.21575E-02
        -0.32060E-02
         0.40761E-05
        -0.86510E-03
        -0.24557E-03
        -0.11942E-02
         0.13815E-03
         0.13466E-02
         0.12425E-02
        -0.12705E-03
         0.23560E-02
         0.17673E-03
        -0.91039E-03
         0.45642E-03
        -0.13644E-02
        -0.10777E-02
        -0.17138E-02
         0.17398E-02
        -0.32194E-02
        -0.18974E-02
        -0.61965E-03
        -0.14122E-02
         0.71020E-03
         0.31343E-02
         0.71855E-02
         0.17932E-02
        -0.57776E-03
        -0.17013E-02
        -0.10690E-02
        -0.25409E-02
        -0.50170E-03
         0.11985E-02
         0.16645E-02
         0.52086E-02
         0.99825E-02
         0.16554E-01
         0.22848E-01
         0.14871E-01
         0.78018E-02
        -0.36912E-02
        -0.37732E-02
        -0.41297E-02
        -0.32057E-02
        -0.30107E-02
        -0.39947E-02
        -0.54122E-02
        -0.63293E-02
        -0.46767E-02
        -0.81223E-03
        -0.43772E-02
         0.22802E-02
         0.26342E-02
         0.21401E-02
         0.26794E-02
         0.47292E-02
         0.10375E-01
         0.21705E-01
         0.35778E-01
         0.45200E-01
         0.39060E-01
         0.25291E-01
         0.11074E-01
         0.61749E-03
        -0.36363E-02
        -0.54790E-02
        -0.57710E-02
        -0.55370E-02
        -0.47467E-02
        -0.45539E-02
        -0.60360E-02
        -0.79863E-02
        -0.89197E-02
        -0.76626E-02
        -0.60529E-02
        -0.96892E-05
         0.38398E-03
        -0.20018E-03
        -0.47864E-03
        -0.27013E-02
        -0.36169E-02
        -0.78818E-04
        -0.86360E-03
        -0.20914E-03
        -0.11504E-02
         0.29436E-04
         0.11292E-02
         0.10118E-02
        -0.13612E-03
         0.23335E-02
         0.24279E-03
        -0.92258E-03
         0.47518E-03
        -0.12656E-02
        -0.11820E-02
        -0.14145E-02
         0.16552E-02
        -0.28283E-02
        -0.16639E-02
        -0.62950E-03
        -0.12763E-02
         0.80071E-03
         0.31490E-02
         0.68546E-02
         0.15236E-02
        -0.62966E-03
        -0.17417E-02
        -0.11091E-02
        -0.25973E-02
        -0.11028E-02
         0.76529E-03
         0.13799E-02
         0.54464E-02
         0.10148E-01
         0.16169E-01
         0.21836E-01
         0.13830E-01
         0.71014E-02
        -0.34511E-02
        -0.37664E-02
        -0.42908E-02
        -0.34108E-02
        -0.31602E-02
        -0.39823E-02
        -0.52836E-02
        -0.61905E-02
        -0.48194E-02
        -0.17566E-02
        -0.53663E-02
         0.14073E-02
         0.21273E-02
         0.17781E-02
         0.23219E-02
         0.46084E-02
         0.11077E-01
         0.22352E-01
         0.34801E-01
         0.43412E-01
         0.36519E-01
         0.23993E-01
         0.11429E-01
         0.12314E-02
        -0.30161E-02
        -0.51470E-02
        -0.57912E-02
        -0.57653E-02
        -0.50650E-02
        -0.47735E-02
        -0.58309E-02
        -0.74348E-02
        -0.84610E-02
        -0.78659E-02
        -0.69454E-02
         0.26857E-04
         0.38671E-03
        -0.19944E-03
        -0.37034E-03
        -0.27542E-02
        -0.35015E-02
        -0.80642E-04
        -0.84733E-03
        -0.16229E-03
        -0.10839E-02
         0.41843E-04
         0.11220E-02
         0.98422E-03
        -0.10675E-03
         0.23504E-02
         0.32691E-03
        -0.87863E-03
         0.54054E-03
        -0.10723E-02
        -0.11678E-02
        -0.10081E-02
         0.16831E-02
        -0.23392E-02
        -0.13414E-02
        -0.59452E-03
        -0.10621E-02
         0.82333E-03
         0.30441E-02
         0.63109E-02
         0.12887E-02
        -0.58133E-03
        -0.16486E-02
        -0.10180E-02
        -0.24344E-02
        -0.12862E-02
         0.63722E-03
         0.13236E-02
         0.53586E-02
         0.98296E-02
         0.15275E-01
         0.19918E-01
         0.12299E-01
         0.63945E-02
        -0.30597E-02
        -0.35541E-02
        -0.42119E-02
        -0.33969E-02
        -0.31202E-02
        -0.38592E-02
        -0.51226E-02
        -0.60277E-02
        -0.46220E-02
        -0.21232E-02
        -0.55946E-02
         0.10788E-02
         0.20089E-02
         0.16828E-02
         0.21809E-02
         0.45352E-02
         0.10955E-01
         0.21672E-01
         0.33209E-01
         0.39441E-01
         0.32441E-01
         0.22493E-01
         0.11548E-01
         0.17240E-02
        -0.24819E-02
        -0.46416E-02
        -0.55203E-02
        -0.57145E-02
        -0.51161E-02
        -0.47525E-02
        -0.56175E-02
        -0.72386E-02
        -0.83840E-02
        -0.76475E-02
        -0.68641E-02
        -0.30482E-05
         0.35716E-03
        -0.12820E-03
        -0.27996E-03
        -0.22737E-02
        -0.29798E-02
        -0.64179E-04
        -0.81266E-03
        -0.13601E-03
        -0.97419E-03
         0.90248E-04
         0.11709E-02
         0.10352E-02
        -0.49870E-04
         0.22734E-02
         0.34953E-03
        -0.79246E-03
         0.55155E-03
        -0.10071E-02
        -0.10505E-02
        -0.10016E-02
         0.17420E-02
        -0.24901E-02
        -0.13739E-02
        -0.44598E-03
        -0.11218E-02
         0.91802E-03
         0.31864E-02
         0.64221E-02
         0.14352E-02
        -0.61242E-03
        -0.17212E-02
        -0.97676E-03
        -0.22565E-02
        -0.10242E-02
         0.67676E-03
         0.13409E-02
         0.51089E-02
         0.96421E-02
         0.15152E-01
         0.19625E-01
         0.12376E-01
         0.65947E-02
        -0.32088E-02
        -0.36590E-02
        -0.42900E-02
        -0.34494E-02
        -0.31425E-02
        -0.38478E-02
        -0.50333E-02
        -0.58534E-02
        -0.42419E-02
        -0.17492E-02
        -0.45492E-02
         0.11231E-02
         0.21020E-02
         0.17681E-02
         0.22092E-02
         0.42685E-02
         0.99179E-02
         0.20530E-01
         0.32581E-01
         0.38236E-01
         0.32653E-01
         0.22782E-01
         0.11197E-01
         0.16091E-02
        -0.29427E-02
        -0.49124E-02
        -0.56325E-02
        -0.57894E-02
        -0.51350E-02
        -0.47717E-02
        -0.57363E-02
        -0.74267E-02
        -0.84010E-02
        -0.70729E-02
        -0.56917E-02
        -0.12912E-03
         0.19801E-03
        -0.26495E-03
        -0.40859E-03
        -0.21564E-02
        -0.28805E-02
        -0.14943E-03
        -0.83212E-03
        -0.19022E-03
        -0.91460E-03
         0.30328E-04
         0.10736E-02
         0.91280E-03
        -0.77935E-04
         0.20946E-02
         0.21175E-03
        -0.73580E-03
         0.40842E-03
        -0.11090E-02
        -0.89722E-03
        -0.13402E-02
         0.17347E-02
        -0.28804E-02
        -0.16513E-02
        -0.27541E-03
        -0.13505E-02
         0.95895E-03
         0.34355E-02
         0.71895E-02
         0.18687E-02
        -0.66076E-03
        -0.17874E-02
        -0.98796E-03
        -0.22234E-02
        -0.10250E-02
         0.49935E-03
         0.11531E-02
         0.48891E-02
         0.97877E-02
         0.16233E-01
         0.22013E-01
         0.14353E-01
         0.75455E-02
        -0.34758E-02
        -0.37235E-02
        -0.41467E-02
        -0.32247E-02
        -0.28722E-02
        -0.35964E-02
        -0.47951E-02
        -0.56414E-02
        -0.41365E-02
        -0.16509E-02
        -0.40604E-02
         0.92363E-03
         0.19274E-02
         0.16380E-02
         0.20902E-02
         0.39418E-02
         0.90179E-02
         0.20249E-01
         0.34603E-01
         0.43343E-01
         0.38469E-01
         0.24611E-01
         0.10280E-01
         0.95769E-03
        -0.33573E-02
        -0.50303E-02
        -0.55322E-02
        -0.55015E-02
        -0.45937E-02
        -0.41792E-02
        -0.53150E-02
        -0.70545E-02
        -0.80871E-02
        -0.69355E-02
        -0.53493E-02
        -0.17887E-03
         0.11351E-03
        -0.37913E-03
        -0.49993E-03
        -0.21329E-02
        -0.27459E-02
        -0.17830E-03
        -0.80515E-03
        -0.28389E-03
        -0.97350E-03
        -0.70069E-04
         0.80642E-03
         0.73529E-03
        -0.20949E-03
         0.16850E-02
         0.30761E-04
        -0.83451E-03
         0.24993E-03
        -0.11843E-02
        -0.96712E-03
        -0.12778E-02
         0.15485E-02
        -0.27133E-02
        -0.16863E-02
        -0.41339E-03
        -0.13710E-02
         0.69782E-03
         0.30957E-02
         0.70088E-02
         0.17355E-02
        -0.60935E-03
        -0.16364E-02
        -0.90530E-03
        -0.20653E-02
        -0.11366E-02
         0.27367E-03
         0.92571E-03
         0.43591E-02
         0.92006E-02
         0.15983E-01
         0.22471E-01
         0.14582E-01
         0.73805E-02
        -0.32636E-02
        -0.33939E-02
        -0.36664E-02
        -0.27749E-02
        -0.24092E-02
        -0.30569E-02
        -0.41898E-02
        -0.50367E-02
        -0.38131E-02
        -0.17575E-02
        -0.38353E-02
         0.56134E-03
         0.15665E-02
         0.13666E-02
         0.16775E-02
         0.33147E-02
         0.82701E-02
         0.19544E-01
         0.34726E-01
         0.45298E-01
         0.39918E-01
         0.24028E-01
         0.96574E-02
         0.12930E-02
        -0.28042E-02
        -0.45149E-02
        -0.49668E-02
        -0.48353E-02
        -0.38816E-02
        -0.34364E-02
        -0.44309E-02
        -0.59959E-02
        -0.71317E-02
        -0.62979E-02
        -0.49190E-02
        -0.16821E-03
         0.10356E-03
        -0.33338E-03
        -0.39658E-03
        -0.18312E-02
        -0.21603E-02
        -0.14503E-03
        -0.72583E-03
        -0.34605E-03
        -0.10051E-02
        -0.67768E-04
         0.68437E-03
         0.64700E-03
        -0.22165E-03
         0.14526E-02
        -0.63224E-04
        -0.93363E-03
         0.18733E-03
        -0.11996E-02
        -0.10791E-02
        -0.12304E-02
         0.13081E-02
        -0.25825E-02
        -0.16276E-02
        -0.63934E-03
        -0.12958E-02
         0.48573E-03
         0.25080E-02
         0.60120E-02
         0.12924E-02
        -0.50440E-03
        -0.14831E-02
        -0.66402E-03
        -0.15496E-02
        -0.10855E-02
         0.17772E-03
         0.79912E-03
         0.38343E-02
         0.80652E-02
         0.14087E-01
         0.20092E-01
         0.13049E-01
         0.65500E-02
        -0.30658E-02
        -0.31411E-02
        -0.33602E-02
        -0.24745E-02
        -0.19699E-02
        -0.22840E-02
        -0.30635E-02
        -0.36951E-02
        -0.28536E-02
        -0.17440E-02
        -0.33163E-02
         0.38491E-03
         0.14050E-02
         0.12492E-02
         0.14632E-02
         0.29204E-02
         0.74648E-02
         0.17526E-01
         0.30928E-01
         0.40874E-01
         0.36337E-01
         0.21815E-01
         0.88386E-02
         0.11515E-02
        -0.28372E-02
        -0.44370E-02
        -0.47097E-02
        -0.44621E-02
        -0.35187E-02
        -0.28911E-02
        -0.32964E-02
        -0.42595E-02
        -0.51595E-02
        -0.45948E-02
        -0.37615E-02
        -0.27621E-03
         0.73497E-04
        -0.18461E-03
        -0.19694E-03
        -0.14435E-02
        -0.13719E-02
        -0.16156E-03
        -0.79952E-03
        -0.45315E-03
        -0.10798E-02
         0.47394E-04
         0.95370E-03
         0.74391E-03
        -0.10783E-03
         0.18386E-02
        -0.42992E-04
        -0.95378E-03
         0.18433E-03
        -0.11449E-02
        -0.99813E-03
        -0.13028E-02
         0.16301E-02
        -0.26730E-02
        -0.15518E-02
        -0.64243E-03
        -0.11748E-02
         0.55242E-03
         0.25683E-02
         0.62369E-02
         0.14956E-02
        -0.27488E-03
        -0.12543E-02
        -0.24607E-03
        -0.73344E-03
        -0.71566E-03
         0.50937E-03
         0.94524E-03
         0.41289E-02
         0.82346E-02
         0.14251E-01
         0.20478E-01
         0.13887E-01
         0.74225E-02
        -0.30002E-02
        -0.29073E-02
        -0.29653E-02
        -0.19905E-02
        -0.12782E-02
        -0.12207E-02
        -0.15252E-02
        -0.17561E-02
        -0.14243E-02
        -0.12150E-02
        -0.30512E-02
         0.12996E-02
         0.18503E-02
         0.14869E-02
         0.18871E-02
         0.35938E-02
         0.80343E-02
         0.17825E-01
         0.31189E-01
         0.41231E-01
         0.39090E-01
         0.24724E-01
         0.93559E-02
         0.38960E-03
        -0.36402E-02
        -0.47331E-02
        -0.45152E-02
        -0.39772E-02
        -0.28416E-02
        -0.19589E-02
        -0.18557E-02
        -0.21062E-02
        -0.23571E-02
        -0.22076E-02
        -0.26203E-02
        -0.51422E-03
        -0.17376E-04
         0.67225E-05
         0.18747E-03
        -0.80166E-03
         0.10482E-03
        -0.15860E-03
        -0.96773E-03
        -0.65288E-03
        -0.11974E-02
         0.40649E-03
         0.17740E-02
         0.11130E-02
         0.19581E-03
         0.28235E-02
         0.45627E-04
        -0.99700E-03
         0.24631E-03
        -0.10688E-02
        -0.96965E-03
        -0.11318E-02
         0.18347E-02
        -0.25493E-02
        -0.14121E-02
        -0.58059E-03
        -0.10686E-02
         0.77661E-03
         0.27851E-02
         0.65232E-02
         0.17206E-02
         0.15806E-03
        -0.10588E-02
         0.57006E-03
         0.75861E-03
        -0.25907E-03
         0.93537E-03
         0.12013E-02
         0.48466E-02
         0.85786E-02
         0.14298E-01
         0.20334E-01
         0.14261E-01
         0.79378E-02
        -0.30827E-02
        -0.30055E-02
        -0.28743E-02
        -0.14531E-02
        -0.12486E-03
         0.61956E-03
         0.10971E-02
         0.15652E-02
         0.11407E-02
        -0.61209E-03
        -0.24445E-02
         0.24903E-02
         0.25162E-02
         0.21447E-02
         0.31119E-02
         0.52456E-02
         0.94271E-02
         0.18281E-01
         0.30627E-01
         0.40120E-01
         0.40256E-01
         0.27010E-01
         0.10537E-01
         0.10657E-02
        -0.34709E-02
        -0.51192E-02
        -0.50077E-02
        -0.40106E-02
        -0.20744E-02
        -0.39606E-03
         0.53680E-03
         0.13616E-02
         0.22793E-02
         0.20348E-02
        -0.27549E-03
        -0.84337E-03
        -0.17198E-03
         0.24057E-03
         0.47888E-03
         0.54629E-03
         0.20118E-02
        -0.82036E-04
        -0.10298E-02
        -0.91481E-03
        -0.12124E-02
         0.93594E-03
         0.27031E-02
         0.15150E-02
         0.73303E-03
         0.39340E-02
        -0.10188E-03
        -0.10235E-02
         0.13252E-03
        -0.12529E-02
        -0.93382E-03
        -0.13400E-02
         0.18541E-02
        -0.36265E-02
        -0.21264E-02
        -0.45289E-03
        -0.20867E-02
         0.12331E-02
         0.30386E-02
         0.63095E-02
         0.18083E-02
         0.37339E-04
        -0.22980E-02
         0.12115E-02
         0.22483E-02
         0.74758E-03
         0.13520E-02
         0.13274E-02
         0.56646E-02
         0.86734E-02
         0.13257E-01
         0.17897E-01
         0.12736E-01
         0.74551E-02
        -0.52287E-02
        -0.56469E-02
        -0.53868E-02
        -0.26011E-02
         0.32492E-03
         0.22996E-02
         0.37547E-02
         0.49669E-02
         0.38869E-02
         0.99470E-03
         0.32361E-05
         0.34073E-02
         0.28347E-02
         0.27454E-02
         0.42788E-02
         0.66526E-02
         0.10531E-01
         0.17428E-01
         0.26736E-01
         0.33875E-01
         0.35463E-01
         0.26676E-01
         0.12283E-01
         0.22978E-02
        -0.40170E-02
        -0.80371E-02
        -0.91091E-02
        -0.72762E-02
        -0.32324E-02
         0.43498E-03
         0.27275E-02
         0.47013E-02
         0.68699E-02
         0.65805E-02
         0.32037E-02
        -0.12689E-02
        -0.77931E-03
         0.36767E-03
         0.61500E-04
         0.31052E-02
         0.34162E-02
        -0.54936E-03
        -0.12717E-02
        -0.13116E-02
        -0.14805E-02
         0.64353E-03
         0.23919E-02
         0.73394E-03
         0.66483E-03
         0.41947E-02
        -0.16911E-02
        -0.17784E-02
        -0.54118E-03
        -0.41780E-02
        -0.17856E-02
        -0.46156E-02
         0.31791E-02
        -0.10520E-01
        -0.72035E-02
        -0.24047E-03
        -0.73200E-02
         0.14956E-02
         0.41627E-02
         0.89174E-02
         0.32716E-02
        -0.19899E-02
        -0.78767E-02
         0.68294E-03
         0.21363E-02
         0.28631E-02
         0.12165E-02
         0.24787E-03
         0.66028E-02
         0.10197E-01
         0.16015E-01
         0.22653E-01
         0.18061E-01
         0.12156E-01
        -0.14447E-01
        -0.15614E-01
        -0.14858E-01
        -0.83706E-02
        -0.15169E-02
         0.25840E-02
         0.45593E-02
         0.56667E-02
         0.44060E-02
         0.49237E-02
         0.62573E-02
         0.30376E-02
         0.12248E-02
         0.17900E-02
         0.41722E-02
         0.74834E-02
         0.12145E-01
         0.19056E-01
         0.29348E-01
         0.42187E-01
         0.52579E-01
         0.47282E-01
         0.25456E-01
         0.44944E-02
        -0.98042E-02
        -0.19405E-01
        -0.22647E-01
        -0.18564E-01
        -0.91317E-02
        -0.75763E-03
         0.38018E-02
         0.62313E-02
         0.80027E-02
         0.79776E-02
         0.71265E-02
        -0.17204E-02
        -0.22584E-02
         0.31397E-03
        -0.87840E-03
         0.71268E-02
         0.48589E-02
        -0.21032E-02
        -0.19884E-02
        -0.17492E-02
        -0.21515E-02
        -0.11720E-02
        -0.55211E-04
        -0.20672E-02
        -0.67502E-03
         0.26713E-02
        -0.58900E-02
        -0.40705E-02
        -0.17188E-02
        -0.12005E-01
        -0.49149E-02
        -0.11292E-01
         0.79337E-02
        -0.23917E-01
        -0.18356E-01
         0.21804E-03
        -0.18193E-01
         0.10599E-02
         0.68850E-02
         0.18065E-01
         0.78828E-02
        -0.62869E-02
        -0.18587E-01
        -0.68749E-03
         0.63533E-03
         0.54285E-02
        -0.37677E-03
        -0.30157E-02
         0.70691E-02
         0.13881E-01
         0.25986E-01
         0.40703E-01
         0.37673E-01
         0.28466E-01
        -0.31167E-01
        -0.32649E-01
        -0.30325E-01
        -0.18365E-01
        -0.51682E-02
         0.25273E-02
         0.45647E-02
         0.45066E-02
         0.30064E-02
         0.97387E-02
         0.16273E-01
        -0.28388E-03
        -0.35893E-02
        -0.16091E-02
         0.20818E-02
         0.72915E-02
         0.14251E-01
         0.23854E-01
         0.41639E-01
         0.71770E-01
         0.10175E+00
         0.10263E+00
         0.61166E-01
         0.12272E-01
        -0.19678E-01
        -0.38115E-01
        -0.43520E-01
        -0.35503E-01
        -0.17846E-01
        -0.28084E-02
         0.54119E-02
         0.81464E-02
         0.72306E-02
         0.69969E-02
         0.12421E-01
  
SCALARS                      strain_zz  double 1
LOOKUP_TABLE default
        -0.23248E+00
        -0.24834E+00
        -0.24251E+00
        -0.23229E+00
        -0.14078E-09
        -0.14233E-09
        -0.14249E-09
        -0.14576E-09
        -0.23946E+00
        -0.24252E+00
        -0.13974E-09
        -0.15922E-09
        -0.23679E+00
        -0.23041E+00
        -0.14260E-09
        -0.14828E-09
        -0.22974E+00
        -0.23521E+00
        -0.13158E-09
        -0.14022E-09
        -0.21378E+00
        -0.18310E+00
        -0.22641E+00
        -0.13034E-09
        -0.94082E-10
        -0.10936E-09
        -0.20013E+00
        -0.12384E+00
        -0.13046E-09
        -0.78158E-10
        -0.22400E+00
        -0.23884E+00
        -0.22690E+00
        -0.14028E-09
        -0.13814E-09
        -0.12972E-09
        -0.24183E+00
        -0.25229E+00
        -0.15477E-09
        -0.14801E-09
        -0.27753E+00
        -0.25244E+00
        -0.14277E-09
        -0.12765E-09
        -0.28673E+00
        -0.24846E+00
        -0.15702E-09
        -0.16437E-09
        -0.24632E+00
        -0.14234E-09
        -0.24358E+00
        -0.16982E-09
        -0.19489E+00
        -0.11987E-09
        -0.18298E+00
        -0.11084E-09
        -0.14336E+00
        -0.23641E+00
        -0.95477E-10
        -0.14096E-09
        -0.24224E+00
        -0.26029E+00
        -0.15276E-09
        -0.18714E-09
        -0.23454E+00
        -0.15267E-09
        -0.23128E+00
        -0.17998E-09
        -0.24174E+00
        -0.23484E+00
        -0.12290E-09
        -0.12157E-09
        -0.23157E+00
        -0.11559E-09
        -0.54874E-01
        -0.56540E-10
         0.79436E-02
        -0.37642E-10
         0.72740E-01
        -0.19696E-10
         0.11365E+00
        -0.56355E-01
        -0.87951E-11
        -0.58722E-10
        -0.18191E+00
        -0.10701E-09
        -0.29316E+00
        -0.17473E-09
        -0.30104E+00
        -0.19952E-09
        -0.31275E+00
        -0.28762E+00
        -0.21221E-09
        -0.20524E-09
        -0.25967E+00
        -0.17909E-09
        -0.23829E+00
        -0.18112E-09
        -0.23501E+00
        -0.20314E-09
        -0.24743E+00
        -0.24510E+00
        -0.20564E-09
        -0.19075E-09
        -0.27618E+00
        -0.34577E+00
        -0.86950E-10
        -0.10045E-09
        -0.18719E+00
        -0.70783E-10
        -0.15455E+00
        -0.61399E-10
        -0.11492E+00
        -0.53870E-10
         0.84869E-02
        -0.37429E-10
         0.18419E+00
        -0.16238E-10
         0.38649E+00
         0.18375E-11
         0.76334E+00
         0.22188E-10
         0.77414E+00
         0.39397E-10
         0.33734E+00
         0.31070E-10
        -0.81492E-02
        -0.11552E-10
        -0.13591E+00
        -0.55514E-10
        -0.25496E+00
        -0.80102E-10
        -0.34647E+00
        -0.96129E-10
        -0.38976E+00
        -0.11135E-09
        -0.43511E+00
        -0.12662E-09
        -0.42899E+00
        -0.15348E-09
        -0.37700E+00
        -0.17971E-09
        -0.33342E+00
        -0.16783E-09
        -0.29228E+00
        -0.14883E-09
        -0.26108E+00
        -0.15114E-09
        -0.26862E+00
        -0.16429E-09
        -0.29666E+00
        -0.16966E-09
        -0.30006E+00
        -0.14594E-09
        -0.29566E+00
        -0.11638E-09
        -0.69803E-01
        -0.96747E-01
        -0.89907E-01
        -0.57863E-01
        -0.10142E+00
        -0.45358E-01
        -0.11449E+00
        -0.92494E-01
        -0.58087E-01
        -0.78155E-01
        -0.12190E+00
        -0.12422E+00
        -0.13338E+00
        -0.10785E+00
        -0.94481E-01
        -0.62771E-01
        -0.56418E-01
        -0.59114E-01
        -0.62337E-01
        -0.60952E-01
        -0.73607E-01
        -0.67962E-01
        -0.70534E-01
        -0.68021E-01
        -0.75249E-01
        -0.63325E-01
        -0.92091E-01
        -0.78297E-01
        -0.52994E-01
        -0.70328E-01
        -0.51176E-01
        -0.35092E-01
        -0.42041E-01
        -0.21183E-01
        -0.15254E+00
        -0.14077E+00
        -0.13333E+00
        -0.53095E-01
        -0.33059E-02
         0.66517E-01
         0.12795E+00
         0.34649E-02
        -0.51131E-01
        -0.47190E-01
         0.13814E-02
         0.57600E-01
         0.43470E-01
         0.41103E-01
         0.55936E-01
         0.69950E-01
         0.72564E-01
         0.96766E-02
        -0.24777E+00
        -0.18823E+00
        -0.22571E+00
        -0.18810E+00
        -0.15523E+00
        -0.11483E+00
        -0.42018E-01
         0.83783E-01
         0.32490E+00
         0.62589E+00
         0.54354E+00
         0.14275E+00
        -0.72824E-02
        -0.84209E-01
        -0.11132E+00
        -0.89893E-01
        -0.33993E-01
         0.69072E-01
         0.15403E+00
         0.20912E+00
         0.28133E+00
         0.34481E+00
         0.31132E+00
         0.17418E+00
         0.34738E-01
        -0.82811E-01
        -0.78004E-02
        -0.28577E-01
        -0.22204E-01
         0.55213E-02
        -0.21292E-01
         0.20573E-01
        -0.39935E-01
        -0.20882E-01
         0.31627E-02
        -0.47889E-02
        -0.56174E-01
        -0.86474E-01
        -0.70440E-01
        -0.48822E-01
        -0.94388E-01
        -0.26035E-02
         0.90445E-02
         0.38112E-02
         0.27348E-02
         0.12394E-01
         0.16019E-01
         0.94552E-02
         0.22329E-01
         0.36810E-02
         0.32531E-02
         0.97462E-02
        -0.38355E-01
        -0.33836E-01
        -0.40225E-01
        -0.23403E-02
         0.23162E-01
         0.40384E-01
         0.28899E-01
         0.42180E-01
        -0.60614E-01
        -0.63004E-01
        -0.64488E-01
        -0.91437E-01
        -0.81072E-01
        -0.73824E-01
        -0.79982E-01
        -0.60740E-01
        -0.21424E-01
         0.42020E-01
         0.76970E-01
         0.10837E+00
         0.89180E-01
         0.78779E-01
         0.85342E-01
         0.87341E-01
         0.72045E-01
         0.53067E-01
        -0.11965E+00
        -0.53316E-01
        -0.14069E+00
        -0.12517E+00
        -0.12093E+00
        -0.13934E+00
        -0.16114E+00
        -0.15877E+00
        -0.11835E+00
        -0.99335E-01
        -0.11749E+00
        -0.10487E+00
        -0.58269E-01
        -0.28532E-02
         0.35331E-01
         0.62859E-01
         0.99591E-01
         0.14764E+00
         0.16816E+00
         0.16194E+00
         0.16441E+00
         0.18124E+00
         0.12875E+00
         0.28095E-01
         0.23225E-01
         0.90560E-02
         0.41714E-02
        -0.18595E-02
         0.18738E-02
         0.12343E-01
         0.67766E-02
         0.14852E-01
        -0.45796E-02
         0.31022E-02
         0.90104E-02
         0.99820E-02
        -0.10905E-01
        -0.30405E-01
        -0.17167E-01
        -0.72817E-02
        -0.40708E-01
         0.13282E-01
         0.13708E-01
         0.14502E-01
         0.14480E-01
         0.18197E-01
         0.25137E-01
         0.19662E-01
         0.22909E-01
         0.15647E-01
         0.14555E-01
         0.16763E-01
        -0.49513E-02
        -0.67618E-02
        -0.15810E-01
         0.11271E-01
         0.20847E-01
         0.17521E-01
         0.20093E-01
         0.17515E-01
        -0.15594E-02
        -0.53833E-02
        -0.97637E-02
        -0.49150E-01
        -0.54632E-01
        -0.59726E-01
        -0.69474E-01
        -0.39357E-01
        -0.41319E-02
         0.17736E-01
         0.10248E-01
        -0.39371E-02
        -0.26221E-02
        -0.42982E-02
        -0.48096E-02
        -0.22789E-02
        -0.15650E-02
         0.12000E-01
        -0.63249E-02
         0.95437E-02
        -0.12971E-01
        -0.18930E-01
        -0.38302E-01
        -0.71784E-01
        -0.10694E+00
        -0.12636E+00
        -0.12774E+00
        -0.12740E+00
        -0.12131E+00
        -0.97556E-01
        -0.44501E-01
         0.14192E-01
         0.45168E-01
         0.40989E-01
         0.19095E-01
        -0.75839E-02
        -0.33564E-01
        -0.58465E-01
        -0.75546E-01
        -0.70693E-01
        -0.51387E-01
        -0.28612E-01
        -0.15224E-02
         0.15387E-01
         0.73769E-02
         0.68215E-02
         0.72345E-02
         0.89741E-02
         0.78160E-02
         0.28121E-02
         0.80766E-02
         0.10106E-01
         0.89381E-02
         0.12306E-01
         0.68577E-02
        -0.20711E-02
         0.44372E-02
         0.80532E-02
        -0.91595E-02
         0.11443E-01
         0.12119E-01
         0.10992E-01
         0.13778E-01
         0.16808E-01
         0.21654E-01
         0.20374E-01
         0.17479E-01
         0.13630E-01
         0.15376E-01
         0.11723E-01
         0.81307E-02
         0.65053E-02
         0.10516E-02
         0.15454E-01
         0.10132E-01
         0.62713E-02
         0.75385E-02
         0.99569E-03
         0.10465E-01
         0.96766E-02
         0.76090E-02
        -0.16376E-01
        -0.23226E-01
        -0.30017E-01
        -0.37195E-01
        -0.13765E-01
         0.79730E-02
         0.89013E-02
        -0.26425E-02
        -0.16248E-01
        -0.13173E-01
        -0.15850E-01
        -0.24306E-01
        -0.30903E-01
        -0.35215E-01
        -0.12654E-01
         0.14683E-01
         0.67661E-02
         0.17114E-01
         0.11522E-01
        -0.21423E-02
        -0.24052E-01
        -0.50747E-01
        -0.68540E-01
        -0.80700E-01
        -0.91370E-01
        -0.81877E-01
        -0.55582E-01
        -0.17631E-01
         0.21776E-01
         0.37923E-01
         0.27576E-01
         0.31591E-02
        -0.23412E-01
        -0.42054E-01
        -0.55132E-01
        -0.74354E-01
        -0.95190E-01
        -0.97559E-01
        -0.76661E-01
        -0.41206E-01
        -0.94346E-02
         0.38901E-02
         0.34216E-02
         0.22246E-02
         0.22124E-02
         0.12032E-02
        -0.53189E-03
         0.51621E-02
         0.69094E-02
         0.52459E-02
         0.95055E-02
         0.53678E-02
         0.80498E-03
         0.31271E-02
         0.68537E-02
        -0.33267E-02
         0.36956E-02
         0.77791E-02
         0.30128E-02
         0.70475E-02
         0.11267E-01
         0.11908E-01
         0.13145E-01
         0.86806E-02
         0.57633E-02
         0.12615E-01
         0.37282E-02
         0.81144E-02
         0.74775E-02
         0.21436E-02
         0.12525E-01
         0.19841E-02
         0.20156E-02
         0.11562E-02
        -0.64607E-03
         0.23688E-02
         0.29634E-02
         0.32950E-02
        -0.10194E-01
        -0.18477E-01
        -0.27447E-01
        -0.37081E-01
        -0.13047E-01
         0.55970E-02
         0.48812E-02
         0.17665E-02
        -0.46728E-03
        -0.55366E-03
        -0.19664E-02
        -0.50549E-02
        -0.80776E-02
        -0.10135E-01
        -0.46080E-02
         0.30527E-02
        -0.42308E-03
         0.48385E-02
         0.39552E-02
        -0.32792E-03
        -0.10359E-01
        -0.28811E-01
        -0.53355E-01
        -0.79505E-01
        -0.97045E-01
        -0.90917E-01
        -0.57062E-01
        -0.14376E-01
         0.14384E-01
         0.21763E-01
         0.16060E-01
         0.72527E-02
         0.10191E-03
        -0.33515E-02
        -0.50158E-02
        -0.10163E-01
        -0.19395E-01
        -0.24906E-01
        -0.21558E-01
        -0.12780E-01
        -0.50663E-02
         0.10971E-02
         0.10324E-02
         0.15711E-03
        -0.42228E-03
        -0.19925E-03
        -0.26326E-03
         0.23125E-02
         0.32974E-02
         0.18696E-02
         0.50992E-02
         0.29481E-02
         0.13275E-02
         0.17753E-02
         0.39428E-02
        -0.10976E-02
        -0.29195E-04
         0.33582E-02
        -0.47032E-03
         0.23213E-02
         0.54287E-02
         0.48161E-02
         0.65626E-02
         0.26221E-02
         0.11842E-02
         0.71039E-02
        -0.27668E-04
         0.48629E-02
         0.44348E-02
         0.11886E-02
         0.70931E-02
        -0.78174E-03
        -0.39202E-04
        -0.66448E-03
        -0.11794E-03
         0.18097E-03
         0.60473E-03
         0.12042E-02
        -0.69145E-02
        -0.14186E-01
        -0.20281E-01
        -0.25449E-01
        -0.78377E-02
         0.33537E-02
         0.12204E-02
         0.13579E-02
         0.26343E-02
         0.21526E-02
         0.20353E-02
         0.23606E-02
         0.25524E-02
         0.25117E-02
         0.69205E-03
         0.27703E-03
        -0.40026E-03
         0.12177E-02
         0.17771E-02
         0.12611E-02
        -0.24716E-02
        -0.14194E-01
        -0.37239E-01
        -0.65320E-01
        -0.79137E-01
        -0.66717E-01
        -0.35098E-01
        -0.61463E-02
         0.80933E-02
         0.95770E-02
         0.59524E-02
         0.34922E-02
         0.38533E-02
         0.56242E-02
         0.74319E-02
         0.90555E-02
         0.99373E-02
         0.87203E-02
         0.54170E-02
         0.19504E-02
        -0.60409E-04
         0.75713E-04
         0.15224E-03
        -0.14509E-03
        -0.52481E-03
        -0.17448E-03
        -0.25112E-03
         0.70539E-03
         0.10542E-02
         0.39239E-03
         0.19341E-02
         0.11110E-02
         0.81312E-03
         0.81606E-03
         0.15252E-02
        -0.35051E-03
        -0.48266E-03
         0.11142E-02
        -0.65031E-03
         0.66478E-03
         0.22762E-02
         0.18844E-02
         0.32549E-02
         0.47534E-03
        -0.58622E-05
         0.30283E-02
        -0.59026E-03
         0.20494E-02
         0.21506E-02
         0.11554E-02
         0.33868E-02
        -0.85226E-03
        -0.62319E-03
        -0.73343E-03
        -0.35217E-03
         0.78463E-04
         0.22241E-03
         0.47870E-03
        -0.32510E-02
        -0.65022E-02
        -0.86398E-02
        -0.10228E-01
        -0.21968E-02
         0.24035E-02
        -0.27999E-03
        -0.19446E-03
         0.38975E-03
         0.27261E-03
         0.28505E-03
         0.52538E-03
         0.85613E-03
         0.11083E-02
         0.24563E-03
         0.29575E-03
        -0.59801E-04
         0.76067E-03
         0.11364E-02
         0.12919E-02
         0.15720E-03
        -0.54527E-02
        -0.17952E-01
        -0.32656E-01
        -0.38041E-01
        -0.29295E-01
        -0.13282E-01
        -0.39463E-03
         0.48094E-02
         0.39890E-02
         0.14559E-02
         0.19478E-03
         0.58154E-03
         0.15638E-02
         0.23716E-02
         0.30524E-02
         0.35617E-02
         0.36135E-02
         0.27746E-02
         0.12287E-02
         0.11928E-03
        -0.55332E-04
        -0.85339E-04
        -0.87316E-04
        -0.17111E-03
        -0.67586E-05
        -0.15115E-03
         0.44091E-04
         0.25276E-03
         0.10522E-03
         0.70274E-03
         0.15463E-03
        -0.68594E-04
        -0.23357E-04
         0.38096E-03
        -0.48200E-03
        -0.17047E-03
         0.42074E-03
        -0.20542E-03
         0.23354E-03
         0.89379E-03
         0.58204E-03
         0.12143E-02
         0.36895E-04
        -0.50993E-04
         0.12481E-02
        -0.29046E-03
         0.74291E-03
         0.10326E-02
         0.87407E-03
         0.14751E-02
        -0.39885E-03
        -0.45771E-03
        -0.36219E-03
        -0.34319E-03
         0.54694E-04
        -0.16453E-04
        -0.55747E-04
        -0.14398E-02
        -0.22805E-02
        -0.25987E-02
        -0.29380E-02
        -0.20000E-03
         0.11962E-02
        -0.33967E-03
        -0.52179E-03
        -0.56501E-03
        -0.55811E-03
        -0.62301E-03
        -0.70031E-03
        -0.68759E-03
        -0.63255E-03
        -0.37344E-03
         0.20794E-03
         0.14953E-03
         0.12360E-03
         0.33006E-04
        -0.49700E-04
        -0.54745E-03
        -0.26880E-02
        -0.74506E-02
        -0.12532E-01
        -0.13378E-01
        -0.95332E-02
        -0.38217E-02
         0.42740E-03
         0.14837E-02
         0.96477E-03
         0.17166E-03
        -0.41089E-03
        -0.63353E-03
        -0.58356E-03
        -0.66094E-03
        -0.11124E-02
        -0.15179E-02
        -0.14126E-02
        -0.95199E-03
        -0.49642E-03
        -0.11775E-03
         0.46274E-04
         0.22268E-04
         0.55490E-04
         0.89179E-04
         0.22857E-04
        -0.30778E-03
         0.79142E-04
         0.17182E-03
         0.13358E-03
         0.42830E-03
         0.14817E-03
         0.47102E-04
         0.80425E-04
         0.28078E-03
        -0.20270E-03
         0.12722E-03
         0.30317E-03
         0.13560E-03
         0.20453E-03
         0.47855E-03
         0.11723E-03
         0.30686E-03
         0.14505E-03
         0.14310E-03
         0.76387E-03
         0.10024E-03
         0.54370E-03
         0.80945E-03
         0.90973E-03
         0.92311E-03
         0.51666E-04
         0.11275E-04
         0.71558E-05
        -0.30205E-03
         0.98112E-04
         0.60297E-04
         0.38825E-04
        -0.71133E-03
        -0.10499E-02
        -0.81724E-03
        -0.48470E-03
         0.65079E-03
         0.70213E-03
         0.13837E-03
         0.26306E-04
        -0.12232E-03
        -0.22539E-03
        -0.45716E-03
        -0.88497E-03
        -0.14308E-02
        -0.19306E-02
        -0.10612E-02
         0.16031E-03
        -0.86134E-04
         0.10523E-03
         0.99999E-04
         0.15997E-03
        -0.16647E-03
        -0.16074E-02
        -0.46827E-02
        -0.77346E-02
        -0.70937E-02
        -0.31681E-02
        -0.46401E-03
        -0.18501E-03
        -0.49697E-03
        -0.26336E-03
         0.14723E-03
         0.32310E-03
         0.12858E-03
        -0.20002E-03
        -0.69477E-03
        -0.17368E-02
        -0.30960E-02
        -0.40364E-02
        -0.38912E-02
        -0.26253E-02
        -0.10578E-02
         0.10807E-03
         0.11541E-03
         0.12536E-03
         0.16675E-03
         0.56971E-04
        -0.94894E-04
         0.16111E-03
         0.19035E-03
         0.15049E-03
         0.33219E-03
         0.22371E-03
         0.21959E-03
         0.24480E-03
         0.30827E-03
         0.82294E-04
         0.17324E-03
         0.24935E-03
         0.19098E-03
         0.17981E-03
         0.34336E-03
         0.11767E-03
         0.26675E-03
         0.10748E-03
         0.13956E-03
         0.49778E-03
         0.16504E-03
         0.48141E-03
         0.51525E-03
         0.22724E-03
         0.49534E-03
         0.15420E-03
         0.15039E-03
         0.11714E-03
        -0.60555E-04
         0.10834E-03
         0.14249E-03
         0.18437E-03
        -0.10519E-03
        -0.47837E-03
        -0.10682E-02
        -0.16424E-02
        -0.49436E-03
         0.18023E-03
         0.20244E-03
         0.20385E-03
         0.73336E-04
        -0.67564E-04
        -0.27611E-03
        -0.55481E-03
        -0.82264E-03
        -0.10441E-02
        -0.49933E-03
         0.90928E-04
        -0.14369E-03
         0.19863E-03
         0.35115E-03
         0.50235E-03
         0.24281E-03
        -0.76980E-03
        -0.22904E-02
        -0.39093E-02
        -0.52885E-02
        -0.47467E-02
        -0.24579E-02
        -0.58714E-03
         0.37787E-04
        -0.55327E-04
         0.45473E-04
         0.35636E-03
         0.38054E-03
         0.92259E-05
        -0.57947E-03
        -0.13840E-02
        -0.22491E-02
        -0.26071E-02
        -0.22062E-02
        -0.13920E-02
        -0.62822E-03
         0.80475E-04
         0.63370E-04
         0.98840E-04
         0.12295E-03
         0.86081E-04
         0.16023E-03
         0.49782E-04
         0.79266E-04
         0.79824E-04
         0.10666E-03
         0.36900E-04
        -0.39622E-04
        -0.20622E-04
         0.36682E-04
        -0.13651E-03
         0.90460E-04
         0.11161E-03
         0.10199E-03
         0.10005E-03
         0.20425E-03
         0.23036E-03
         0.38624E-03
         0.13483E-03
         0.96669E-04
         0.16602E-03
         0.12273E-03
        -0.57691E-05
        -0.10848E-03
        -0.39864E-03
         0.15436E-03
         0.12494E-03
         0.13123E-03
         0.85484E-04
         0.98242E-04
         0.60337E-04
         0.69327E-04
         0.21067E-04
        -0.36862E-03
        -0.77503E-03
        -0.14193E-02
        -0.20244E-02
        -0.98093E-03
         0.55143E-04
         0.13774E-03
         0.10191E-03
        -0.27340E-04
        -0.26659E-04
        -0.25110E-04
        -0.73536E-06
         0.10819E-03
         0.26068E-03
         0.22277E-03
         0.15203E-04
        -0.25383E-04
         0.10726E-03
        -0.10059E-04
        -0.15357E-03
        -0.21189E-03
        -0.44461E-03
        -0.78049E-03
        -0.12925E-02
        -0.28108E-02
        -0.39345E-02
        -0.22262E-02
         0.18134E-03
         0.87522E-03
         0.51779E-03
         0.23471E-03
         0.17664E-03
         0.31500E-04
        -0.26168E-03
        -0.42947E-03
        -0.36025E-03
        -0.11401E-03
         0.28751E-03
         0.56466E-03
         0.53384E-03
         0.22734E-03
         0.69089E-04
         0.83237E-04
         0.44269E-04
         0.31731E-04
        -0.15076E-03
        -0.31633E-03
         0.95615E-04
         0.53818E-04
         0.32888E-04
        -0.93011E-05
         0.71287E-04
         0.29320E-04
         0.90979E-04
        -0.44775E-06
        -0.18770E-03
         0.95443E-04
         0.37089E-04
         0.95072E-04
         0.66599E-04
         0.12179E-03
         0.18699E-03
         0.27345E-03
         0.23931E-03
         0.13660E-03
         0.27509E-04
         0.17434E-03
        -0.91984E-04
        -0.48248E-04
         0.18053E-03
         0.18089E-03
         0.15610E-03
         0.14186E-03
         0.88436E-04
        -0.10036E-03
        -0.35931E-04
         0.59908E-04
         0.82625E-04
        -0.27652E-03
         0.45252E-04
         0.59111E-03
         0.11081E-02
         0.63505E-03
         0.43370E-03
         0.24928E-03
         0.10613E-03
        -0.14108E-03
        -0.99153E-04
         0.45049E-04
         0.11701E-03
        -0.73515E-04
        -0.37181E-03
        -0.43983E-03
        -0.10050E-03
        -0.53334E-03
         0.11716E-03
         0.99236E-04
         0.51206E-04
        -0.94098E-04
        -0.69805E-03
        -0.78879E-03
         0.11016E-02
         0.33112E-02
         0.35632E-02
         0.20441E-02
         0.95384E-03
         0.55059E-03
         0.49767E-03
         0.52294E-03
         0.43095E-03
         0.16330E-04
        -0.52045E-03
        -0.65578E-03
        -0.12980E-03
         0.46473E-03
         0.21143E-03
        -0.54554E-03
        -0.10442E-02
        -0.96429E-03
        -0.45597E-04
        -0.42365E-04
        -0.11548E-03
        -0.10894E-03
        -0.29418E-03
        -0.46598E-03
        -0.22209E-04
        -0.30600E-04
        -0.42179E-04
        -0.65913E-04
        -0.48503E-04
        -0.14391E-03
        -0.68108E-05
        -0.33569E-04
        -0.20047E-03
         0.56094E-05
        -0.92270E-04
         0.82962E-05
        -0.84431E-04
        -0.15053E-03
        -0.73593E-04
        -0.20333E-04
        -0.19859E-04
        -0.27881E-04
        -0.15660E-03
         0.21882E-04
         0.11647E-04
         0.74485E-04
         0.28353E-03
        -0.15794E-03
         0.52892E-04
        -0.28280E-05
         0.53709E-04
        -0.10075E-03
        -0.13626E-03
        -0.47769E-04
         0.46484E-05
         0.18064E-03
         0.97711E-03
         0.18549E-02
         0.25283E-02
         0.97423E-03
         0.20331E-03
         0.84926E-05
        -0.79256E-04
        -0.23980E-03
        -0.17235E-03
         0.46411E-05
         0.15271E-03
         0.39088E-05
        -0.35724E-03
        -0.49797E-03
        -0.11058E-03
        -0.56922E-03
         0.52937E-04
         0.12036E-03
         0.70660E-04
        -0.35784E-03
        -0.89135E-03
         0.19657E-04
         0.32731E-02
         0.69079E-02
         0.70464E-02
         0.34318E-02
         0.13981E-02
         0.47957E-03
         0.45126E-04
         0.38560E-04
        -0.44512E-05
        -0.23010E-03
        -0.52656E-03
        -0.57104E-03
        -0.96319E-04
         0.47159E-03
         0.18110E-03
        -0.68951E-03
        -0.13007E-02
        -0.11735E-02
        -0.89426E-04
        -0.82642E-04
        -0.15333E-03
        -0.96759E-04
        -0.12870E-03
         0.13839E-03
        -0.46469E-04
        -0.63048E-04
        -0.78310E-04
        -0.11050E-03
        -0.41617E-04
        -0.28066E-04
        -0.16410E-04
        -0.43220E-04
         0.10412E-03
        -0.48430E-04
        -0.12742E-03
        -0.59577E-04
        -0.99303E-04
        -0.21267E-03
        -0.13342E-03
        -0.17601E-03
        -0.14178E-03
        -0.89523E-04
        -0.20380E-03
        -0.94260E-04
        -0.53450E-04
        -0.22247E-04
         0.18419E-03
        -0.22003E-03
        -0.72265E-04
        -0.13886E-03
         0.18039E-04
         0.19879E-03
        -0.17770E-03
        -0.12251E-03
        -0.35082E-04
         0.42270E-03
         0.81596E-03
         0.13325E-02
         0.18682E-02
         0.72657E-03
         0.32634E-05
        -0.17664E-03
        -0.21068E-03
        -0.21157E-03
        -0.15989E-03
        -0.58312E-04
         0.16913E-03
         0.51586E-03
         0.83205E-03
         0.56584E-03
        -0.17644E-03
        -0.11155E-04
        -0.73420E-04
         0.55103E-04
         0.41894E-04
        -0.69411E-05
         0.48267E-03
         0.19230E-02
         0.36373E-02
         0.49791E-02
         0.49431E-02
         0.24937E-02
         0.76812E-03
         0.10559E-03
        -0.16398E-03
        -0.25921E-03
        -0.32360E-03
        -0.30756E-03
        -0.22288E-03
        -0.13464E-03
        -0.38264E-04
         0.29926E-03
         0.88817E-03
         0.13972E-02
         0.12936E-02
         0.57959E-03
        -0.67195E-04
        -0.48540E-04
        -0.18589E-03
        -0.20349E-03
        -0.20130E-03
         0.84478E-04
        -0.93243E-05
        -0.48248E-04
        -0.44701E-04
        -0.11448E-03
        -0.21994E-04
         0.20756E-04
        -0.29067E-05
        -0.91513E-04
         0.10460E-03
        -0.47214E-04
        -0.25464E-04
        -0.15084E-03
         0.40761E-04
        -0.62386E-04
         0.38509E-04
        -0.20943E-03
         0.52885E-04
         0.31214E-04
        -0.17899E-03
        -0.48548E-04
        -0.25767E-03
        -0.42182E-03
        -0.55828E-03
        -0.26614E-03
        -0.14738E-03
        -0.83703E-04
        -0.15774E-03
        -0.47723E-06
        -0.28211E-03
        -0.16932E-03
        -0.29203E-04
        -0.30390E-04
        -0.48010E-03
        -0.92060E-03
        -0.12521E-02
        -0.93623E-03
        -0.57274E-03
        -0.24089E-04
        -0.12962E-04
         0.16027E-03
         0.15774E-03
         0.11478E-03
         0.16129E-03
         0.41615E-03
         0.76364E-03
         0.48688E-03
        -0.35969E-03
        -0.37736E-04
        -0.20753E-03
        -0.37122E-04
        -0.71214E-04
         0.34147E-04
         0.81502E-03
         0.15384E-02
         0.53927E-03
        -0.13375E-02
        -0.23637E-02
        -0.23423E-02
        -0.15056E-02
        -0.55479E-03
        -0.22081E-05
         0.75024E-04
         0.15073E-04
         0.12897E-03
         0.50380E-03
         0.86798E-03
         0.82156E-03
         0.77779E-03
         0.11411E-02
         0.15247E-02
         0.15517E-02
         0.83915E-03
        -0.10630E-03
        -0.17331E-03
        -0.20653E-03
        -0.25459E-03
        -0.19296E-03
        -0.14094E-03
        -0.23641E-03
        -0.15416E-03
        -0.55003E-04
        -0.10185E-03
        -0.31885E-03
        -0.39622E-03
        -0.36785E-03
        -0.29559E-03
        -0.35751E-03
        -0.11988E-03
        -0.31931E-04
        -0.23250E-03
        -0.80701E-05
        -0.65919E-04
        -0.34471E-04
        -0.21773E-03
         0.41308E-04
        -0.58699E-05
        -0.12934E-03
        -0.58102E-04
        -0.29713E-03
        -0.41818E-03
        -0.70298E-03
        -0.25698E-03
        -0.16261E-03
         0.12395E-04
        -0.25214E-03
        -0.21239E-03
        -0.20982E-03
        -0.22781E-03
        -0.27182E-03
        -0.52974E-03
        -0.10112E-02
        -0.15931E-02
        -0.20197E-02
        -0.12010E-02
        -0.54457E-03
         0.54390E-04
         0.19034E-03
         0.47046E-03
         0.44020E-03
         0.36749E-03
         0.28207E-03
         0.23200E-03
         0.25617E-03
         0.15387E-05
        -0.16340E-03
        -0.51847E-04
        -0.24629E-03
        -0.39853E-03
        -0.56640E-03
        -0.42227E-03
        -0.41261E-04
        -0.55416E-03
        -0.22316E-02
        -0.38404E-02
        -0.39339E-02
        -0.25429E-02
        -0.11964E-02
        -0.56097E-03
        -0.85576E-04
         0.12893E-03
         0.19441E-03
         0.45979E-03
         0.93418E-03
         0.14068E-02
         0.16500E-02
         0.15538E-02
         0.12440E-02
         0.75143E-03
         0.43576E-03
         0.20190E-03
        -0.97228E-04
        -0.17318E-03
        -0.98528E-04
        -0.92022E-04
         0.13593E-03
         0.36703E-03
        -0.24289E-03
        -0.15400E-03
        -0.74321E-04
        -0.49894E-04
        -0.28331E-03
        -0.30566E-03
        -0.36873E-03
        -0.17655E-03
         0.56251E-04
        -0.17393E-03
        -0.86628E-04
        -0.18624E-03
        -0.15741E-03
        -0.11070E-03
        -0.15535E-03
        -0.13278E-04
        -0.17933E-03
        -0.16966E-03
         0.55558E-04
        -0.15864E-03
         0.13215E-03
         0.54942E-03
         0.91597E-03
         0.15711E-03
        -0.12523E-03
        -0.53686E-04
        -0.61081E-04
         0.20892E-03
        -0.31445E-04
        -0.21407E-03
        -0.32698E-03
         0.91102E-03
         0.19952E-02
         0.27407E-02
         0.31624E-02
         0.15698E-02
         0.50929E-03
        -0.11980E-03
         0.53747E-04
         0.27756E-03
         0.27793E-03
         0.40863E-03
         0.71549E-03
         0.10726E-02
         0.14136E-02
         0.82088E-03
         0.49497E-04
         0.55354E-03
        -0.37907E-03
        -0.57913E-03
        -0.53787E-03
        -0.19429E-03
         0.82369E-03
         0.28583E-02
         0.61146E-02
         0.83052E-02
         0.72966E-02
         0.42208E-02
         0.18081E-02
         0.49162E-03
        -0.32950E-04
        -0.17665E-03
        -0.79293E-04
         0.25725E-03
         0.61409E-03
         0.91268E-03
         0.15737E-02
         0.24994E-02
         0.30135E-02
         0.27873E-02
         0.19861E-02
         0.11653E-02
        -0.18829E-03
        -0.18566E-03
        -0.18904E-03
        -0.24292E-03
         0.87151E-04
         0.35330E-03
        -0.13327E-03
        -0.12907E-03
        -0.21257E-03
        -0.17463E-03
        -0.87069E-04
        -0.54620E-04
        -0.19142E-03
        -0.50645E-04
         0.23974E-03
        -0.29893E-03
        -0.27740E-03
        -0.31363E-03
        -0.29968E-03
        -0.31981E-03
        -0.17052E-03
        -0.39351E-04
        -0.30051E-03
        -0.31118E-03
        -0.24854E-03
        -0.31931E-03
        -0.45277E-06
         0.60325E-04
         0.15727E-03
        -0.26070E-03
        -0.28042E-03
        -0.25849E-03
        -0.19125E-03
         0.13826E-03
        -0.83362E-04
        -0.23879E-03
        -0.26085E-03
         0.71042E-03
         0.11934E-02
         0.15074E-02
         0.16843E-02
         0.52463E-03
         0.72593E-04
        -0.32856E-03
        -0.21514E-03
        -0.12019E-05
         0.47843E-04
         0.22506E-03
         0.61993E-03
         0.11306E-02
         0.16092E-02
         0.91514E-03
         0.13464E-04
         0.68231E-03
        -0.35733E-03
        -0.45741E-03
        -0.36603E-03
        -0.36042E-04
         0.86617E-03
         0.25494E-02
         0.46609E-02
         0.59916E-02
         0.48560E-02
         0.22636E-02
         0.15415E-02
         0.10720E-02
         0.28410E-03
        -0.23701E-03
        -0.35888E-03
        -0.99467E-04
         0.32234E-03
         0.75147E-03
         0.14332E-02
         0.24883E-02
         0.32998E-02
         0.32494E-02
         0.24325E-02
         0.14809E-02
        -0.22948E-03
        -0.18034E-03
        -0.29101E-03
        -0.47410E-03
        -0.11583E-03
        -0.28709E-04
         0.16923E-05
        -0.10203E-04
        -0.25532E-03
        -0.11882E-03
         0.13686E-03
         0.18958E-03
        -0.29796E-04
         0.14163E-03
         0.30268E-03
        -0.37932E-03
        -0.20971E-03
        -0.52315E-03
        -0.67025E-04
        -0.53500E-04
         0.29511E-03
         0.20945E-03
         0.90547E-04
        -0.12389E-03
        -0.25288E-03
        -0.33354E-03
        -0.46512E-04
        -0.43176E-03
        -0.86205E-03
        -0.32915E-03
        -0.51215E-03
        -0.32440E-03
        -0.49703E-03
        -0.20080E-03
        -0.12154E-03
        -0.22634E-03
        -0.20296E-03
         0.87278E-04
        -0.51101E-03
        -0.12322E-02
        -0.18767E-02
        -0.15101E-02
        -0.52612E-03
        -0.15718E-03
        -0.65986E-04
         0.44763E-03
         0.44778E-03
         0.45337E-03
         0.59389E-03
         0.91202E-03
         0.12629E-02
         0.48062E-03
         0.67449E-04
         0.38916E-03
        -0.21288E-03
        -0.36456E-03
        -0.20212E-03
         0.18450E-03
         0.47864E-03
         0.43391E-03
        -0.78137E-04
        -0.92254E-03
        -0.25148E-02
        -0.33594E-02
        -0.11824E-02
         0.76864E-03
         0.10552E-02
         0.55512E-03
         0.78551E-04
         0.37511E-03
         0.14149E-02
         0.24969E-02
         0.30411E-02
         0.32698E-02
         0.34235E-02
         0.29162E-02
         0.17707E-02
         0.83794E-03
        -0.31090E-04
        -0.46103E-04
        -0.20468E-03
        -0.46464E-03
         0.83955E-04
         0.35176E-03
         0.16228E-03
         0.17179E-03
         0.68650E-04
         0.15646E-03
         0.26867E-03
         0.43292E-03
         0.17689E-03
         0.20378E-03
         0.52154E-03
        -0.26137E-03
         0.29565E-03
        -0.55320E-03
         0.48988E-03
         0.59574E-03
         0.11001E-02
         0.73995E-03
         0.92885E-03
         0.35599E-03
         0.18563E-03
        -0.11143E-03
         0.51423E-04
        -0.11512E-03
        -0.35865E-03
         0.17982E-03
        -0.55907E-03
         0.56487E-04
        -0.55691E-03
         0.14699E-04
        -0.69239E-04
        -0.23239E-03
        -0.13941E-03
         0.60560E-03
         0.62812E-03
         0.29779E-03
        -0.38897E-03
        -0.10318E-02
        -0.30178E-03
         0.61319E-03
         0.10792E-02
         0.25454E-02
         0.22331E-02
         0.18953E-02
         0.18606E-02
         0.22196E-02
         0.27646E-02
         0.12991E-02
         0.21503E-04
         0.85348E-03
        -0.51978E-03
        -0.43288E-03
         0.22766E-03
         0.86718E-03
         0.15114E-02
         0.29585E-02
         0.48802E-02
         0.49955E-02
         0.12655E-02
        -0.28910E-02
        -0.22704E-02
         0.68194E-03
         0.23098E-02
         0.22678E-02
         0.19144E-02
         0.30084E-02
         0.55770E-02
         0.78382E-02
         0.84011E-02
         0.79340E-02
         0.73092E-02
         0.58459E-02
         0.37375E-02
         0.19687E-02
        -0.14295E-03
        -0.49877E-03
        -0.86170E-03
        -0.73874E-03
        -0.51701E-03
         0.58849E-03
        -0.29661E-03
         0.38328E-04
         0.29202E-03
         0.40786E-03
        -0.39443E-03
        -0.65942E-03
        -0.61359E-03
        -0.34737E-03
        -0.92343E-03
        -0.41073E-03
         0.80605E-03
        -0.74033E-03
         0.92153E-03
         0.11761E-02
         0.19165E-02
         0.46432E-03
         0.20591E-02
         0.70116E-03
         0.59987E-03
        -0.43741E-05
        -0.38329E-03
        -0.91338E-03
        -0.27476E-02
        -0.11451E-03
        -0.50195E-03
         0.84020E-03
        -0.45988E-03
         0.42871E-03
        -0.13189E-02
        -0.13689E-02
        -0.95323E-03
        -0.13407E-02
        -0.25701E-02
        -0.54247E-02
        -0.92287E-02
        -0.71184E-02
        -0.31570E-02
         0.20169E-02
         0.34827E-02
         0.66133E-02
         0.54543E-02
         0.43481E-02
         0.39353E-02
         0.42215E-02
         0.49207E-02
         0.24631E-02
        -0.17419E-02
         0.67785E-03
        -0.23625E-02
        -0.16234E-02
        -0.92387E-03
        -0.84983E-03
        -0.10990E-02
        -0.11420E-02
        -0.25797E-02
        -0.84279E-02
        -0.16377E-01
        -0.18370E-01
        -0.11320E-01
        -0.17274E-02
         0.38931E-02
         0.54871E-02
         0.61527E-02
         0.89172E-02
         0.13442E-01
         0.16476E-01
         0.16184E-01
         0.14363E-01
         0.12469E-01
         0.97513E-02
         0.64799E-02
         0.34810E-02
        -0.12407E-02
        -0.24922E-02
        -0.35522E-02
        -0.22475E-02
        -0.34009E-02
        -0.71698E-03
        -0.18239E-02
        -0.42723E-03
         0.20989E-03
         0.11233E-02
        -0.19286E-02
        -0.35891E-02
        -0.32651E-02
        -0.11440E-02
        -0.42255E-02
        -0.11314E-02
         0.19275E-02
        -0.17141E-02
         0.17989E-02
         0.30944E-02
         0.37512E-02
         0.69586E-03
         0.37278E-02
         0.10195E-02
         0.19101E-02
        -0.11057E-03
        -0.87736E-03
        -0.32411E-02
        -0.10458E-01
        -0.55394E-03
        -0.37180E-03
         0.24405E-02
        -0.36180E-03
         0.67760E-03
        -0.53133E-02
        -0.50476E-02
        -0.38637E-02
        -0.66170E-02
        -0.13402E-01
        -0.24805E-01
        -0.36750E-01
        -0.24974E-01
        -0.10118E-01
         0.42399E-02
         0.79820E-02
         0.14365E-01
         0.11844E-01
         0.93244E-02
         0.79044E-02
         0.72629E-02
         0.72498E-02
         0.29842E-02
        -0.64319E-02
        -0.15941E-02
        -0.70982E-02
        -0.53808E-02
        -0.51611E-02
        -0.67680E-02
        -0.96585E-02
        -0.15760E-01
        -0.30142E-01
        -0.52175E-01
        -0.67476E-01
        -0.59287E-01
        -0.33469E-01
        -0.73914E-02
         0.59406E-02
         0.98865E-02
         0.12875E-01
         0.19342E-01
         0.27598E-01
         0.32080E-01
         0.30164E-01
         0.25197E-01
         0.19527E-01
         0.13497E-01
         0.76437E-02
         0.30347E-02
        -0.13055E-02
        -0.32826E-02
        -0.48994E-02
        -0.27806E-02
        -0.49652E-02
        -0.14297E-02
        -0.19919E-02
         0.36300E-03
         0.10541E-02
         0.31052E-02
        -0.16367E-02
        -0.38011E-02
        -0.39542E-02
         0.17259E-04
        -0.40360E-02
        -0.91566E-03
         0.39229E-02
        -0.17054E-02
         0.31952E-02
         0.62013E-02
         0.55027E-02
         0.31150E-02
         0.43808E-02
         0.15744E-02
         0.47400E-02
         0.31905E-03
         0.96045E-03
        -0.32074E-02
        -0.16264E-01
         0.99029E-03
         0.45246E-03
         0.41336E-02
         0.43919E-03
         0.14206E-02
        -0.72274E-02
        -0.67982E-02
        -0.50826E-02
        -0.76791E-02
        -0.20235E-01
        -0.39415E-01
        -0.55256E-01
        -0.37623E-01
        -0.13183E-01
         0.53277E-02
         0.10689E-01
         0.18974E-01
         0.16390E-01
         0.13350E-01
         0.11276E-01
         0.96782E-02
         0.88184E-02
         0.34864E-02
        -0.76048E-02
        -0.21359E-02
        -0.79968E-02
        -0.57696E-02
        -0.55032E-02
        -0.74629E-02
        -0.11462E-01
        -0.21651E-01
        -0.44345E-01
        -0.72828E-01
        -0.87510E-01
        -0.73801E-01
        -0.41473E-01
        -0.92107E-02
         0.59891E-02
         0.10251E-01
         0.15020E-01
         0.23716E-01
         0.34300E-01
         0.40540E-01
         0.38483E-01
         0.31665E-01
         0.23281E-01
         0.15269E-01
         0.81609E-02
         0.29046E-02
  
SCALARS                      strain_yz  double 1
LOOKUP_TABLE default
         0.31174E-01
         0.35746E-01
         0.11141E-01
         0.32535E-01
         0.53096E-10
         0.52738E-10
         0.85734E-10
         0.60226E-10
        -0.95006E-01
        -0.79673E-01
         0.56439E-10
         0.30046E-10
         0.43291E-01
         0.32499E-01
         0.56134E-10
        -0.68000E-11
         0.45790E-02
         0.34322E-01
        -0.15120E-10
         0.19299E-10
         0.64290E-01
         0.84341E-01
         0.40592E-01
         0.16797E-10
         0.44697E-10
         0.46651E-10
         0.78204E-01
         0.13444E+00
         0.59576E-10
         0.74968E-10
        -0.13234E-01
        -0.61625E-02
         0.14246E-01
         0.57925E-11
         0.23176E-10
        -0.13541E-10
        -0.27423E-01
        -0.12791E-01
         0.16711E-10
         0.27561E-10
        -0.37009E-02
        -0.32429E-02
        -0.31038E-10
        -0.56599E-10
         0.58230E-01
         0.56633E-03
        -0.22738E-10
         0.23423E-11
         0.45862E-01
         0.27080E-10
         0.22592E-01
        -0.16340E-10
         0.11077E+00
         0.60098E-10
         0.13654E+00
         0.51669E-10
         0.12976E+00
         0.40057E-01
        -0.62462E-12
        -0.86383E-11
         0.46236E-01
         0.61974E-01
         0.78478E-11
        -0.58771E-10
         0.52804E-01
         0.73143E-10
         0.13275E-01
         0.43778E-10
        -0.13556E+00
        -0.53720E-01
        -0.43507E-11
         0.40339E-10
         0.34055E-02
         0.54981E-10
         0.19239E+00
         0.74059E-10
         0.23435E+00
         0.62574E-10
         0.23474E+00
        -0.77985E-11
         0.22477E+00
         0.14557E+00
        -0.12037E-10
        -0.38779E-10
         0.66684E-01
        -0.69846E-10
         0.12711E+00
        -0.10795E-12
         0.16245E+00
        -0.26754E-10
         0.18017E+00
         0.13155E+00
        -0.10511E-09
        -0.64321E-10
         0.10841E+00
         0.34001E-10
         0.59136E-01
         0.38572E-10
        -0.18246E-01
         0.19132E-10
        -0.11339E+00
        -0.10077E+00
        -0.47078E-10
         0.21802E-10
        -0.31835E+00
        -0.33028E+00
        -0.20886E-09
        -0.17667E-09
        -0.16277E+00
        -0.32033E-10
        -0.57594E-01
         0.10745E-10
         0.12757E-01
        -0.42553E-11
         0.99528E-01
         0.30456E-11
         0.14961E+00
         0.56502E-11
         0.16605E+00
         0.18813E-10
         0.54728E-01
         0.13404E-10
         0.17813E+00
         0.13584E-09
         0.33224E+00
         0.32589E-09
         0.37238E+00
         0.26780E-09
         0.30044E+00
         0.14494E-09
         0.19714E+00
         0.85923E-10
         0.16946E+00
         0.74023E-10
         0.22691E+00
         0.69599E-10
         0.34727E+00
         0.87527E-10
         0.39798E+00
         0.14584E-09
         0.30978E+00
         0.84020E-11
         0.22293E+00
        -0.62133E-10
         0.13301E+00
        -0.57848E-10
        -0.91617E-02
        -0.14260E-09
        -0.13191E+00
        -0.18583E-09
        -0.25421E+00
        -0.29954E-09
        -0.28903E+00
        -0.24686E-09
        -0.29651E+00
        -0.19488E-09
         0.20136E-01
         0.20158E-01
        -0.10266E-01
         0.28868E-01
        -0.11812E+00
        -0.10158E+00
         0.45802E-01
         0.36668E-01
         0.61965E-02
         0.42810E-01
         0.10287E+00
         0.15811E+00
         0.70225E-01
         0.13037E+00
         0.25219E+00
         0.86227E-02
        -0.12788E-01
         0.28249E-01
        -0.15427E-01
        -0.80305E-02
         0.32688E-01
         0.46436E-01
         0.10557E+00
         0.41554E-01
         0.58534E-01
         0.73011E-01
         0.17421E+00
         0.21251E+00
         0.23958E+00
         0.90059E-01
         0.60368E-01
         0.10757E+00
         0.39399E-01
        -0.12720E-01
        -0.14014E+00
        -0.55023E-01
         0.11472E-01
         0.33000E+00
         0.37335E+00
         0.37916E+00
         0.35862E+00
         0.28127E+00
         0.16025E+00
         0.17689E+00
         0.20669E+00
         0.19953E+00
         0.12392E+00
         0.52658E-01
        -0.31835E-01
        -0.14420E+00
        -0.25148E+00
        -0.15510E+00
        -0.28228E+00
        -0.33790E+00
        -0.14548E+00
        -0.31298E-01
         0.78064E-01
         0.19925E+00
         0.31893E+00
         0.41368E+00
         0.42166E+00
         0.26750E+00
         0.25039E+00
         0.35570E+00
         0.27062E+00
         0.15890E+00
         0.14557E+00
         0.23605E+00
         0.36070E+00
         0.38696E+00
         0.27232E+00
         0.13091E+00
        -0.34144E-01
        -0.29267E+00
        -0.57468E+00
        -0.60703E+00
        -0.44494E+00
        -0.35671E+00
         0.84018E-02
        -0.35559E-02
        -0.22266E-01
         0.75083E-02
        -0.92138E-01
        -0.96986E-01
         0.12656E-01
         0.12071E-01
         0.84676E-02
         0.17392E-01
         0.56132E-01
         0.92957E-01
         0.20900E-01
         0.81763E-01
         0.18215E+00
         0.28029E-01
        -0.63834E-02
         0.25882E-01
         0.11409E-01
         0.49781E-03
         0.62034E-01
         0.83218E-01
         0.83534E-01
         0.49381E-01
         0.29752E-01
         0.55078E-01
         0.11713E+00
         0.15835E+00
         0.21405E+00
         0.75030E-01
         0.12993E-01
         0.29670E-01
        -0.15486E-01
        -0.59996E-01
        -0.10675E+00
        -0.59912E-01
        -0.19709E-01
         0.25658E+00
         0.31270E+00
         0.36184E+00
         0.39617E+00
         0.30954E+00
         0.18633E+00
         0.85254E-01
         0.47341E-01
        -0.11733E-01
        -0.47623E-01
        -0.99480E-01
        -0.16613E+00
        -0.23455E+00
        -0.28666E+00
        -0.16611E+00
        -0.19166E+00
        -0.22682E+00
        -0.12647E+00
        -0.52650E-01
         0.16716E-01
         0.11104E+00
         0.23496E+00
         0.35356E+00
         0.42742E+00
         0.45276E+00
         0.44046E+00
         0.43397E+00
         0.36028E+00
         0.24913E+00
         0.18190E+00
         0.16006E+00
         0.13961E+00
         0.61065E-01
        -0.47562E-01
        -0.14334E+00
        -0.25906E+00
        -0.43148E+00
        -0.59658E+00
        -0.56690E+00
        -0.38121E+00
        -0.26711E+00
        -0.65126E-02
        -0.10247E-01
        -0.64671E-02
        -0.37230E-02
        -0.24917E-02
        -0.57908E-02
        -0.49077E-02
        -0.71972E-02
        -0.64011E-02
        -0.66350E-02
         0.18406E-01
         0.41595E-01
         0.18872E-02
         0.30945E-01
         0.95925E-01
         0.68050E-02
        -0.15681E-01
         0.12948E-02
        -0.25247E-02
        -0.13507E-01
         0.23174E-01
         0.46541E-01
         0.11302E-01
         0.90747E-02
        -0.11521E-02
         0.62018E-02
         0.52248E-01
         0.83632E-01
         0.12870E+00
         0.28306E-01
        -0.17637E-01
        -0.20255E-01
        -0.27543E-01
        -0.26479E-01
        -0.77365E-02
        -0.11069E-01
        -0.11065E-01
         0.15087E+00
         0.20856E+00
         0.26753E+00
         0.31024E+00
         0.21444E+00
         0.11576E+00
        -0.79209E-02
        -0.37752E-01
        -0.72362E-01
        -0.75983E-01
        -0.86529E-01
        -0.90781E-01
        -0.75530E-01
        -0.52239E-01
        -0.20549E-01
        -0.77408E-02
         0.28338E-02
        -0.10416E-01
        -0.10631E-01
         0.19615E-02
         0.54095E-01
         0.14487E+00
         0.24178E+00
         0.33494E+00
         0.40435E+00
         0.42477E+00
         0.38948E+00
         0.29481E+00
         0.18991E+00
         0.91640E-01
         0.16872E-01
        -0.38427E-01
        -0.80872E-01
        -0.11205E+00
        -0.13755E+00
        -0.14897E+00
        -0.14556E+00
        -0.12068E+00
        -0.66917E-01
        -0.79512E-02
         0.11174E-01
        -0.10582E-01
        -0.78099E-02
         0.52639E-04
        -0.58508E-02
         0.19735E-01
         0.19592E-01
        -0.75053E-02
        -0.11985E-01
        -0.13757E-01
        -0.15610E-01
         0.27967E-02
         0.16397E-01
        -0.11372E-02
         0.70649E-02
         0.44803E-01
        -0.88695E-02
        -0.21129E-01
        -0.99555E-02
        -0.14276E-01
        -0.21772E-01
        -0.40657E-03
         0.15734E-01
        -0.83294E-02
        -0.86614E-02
        -0.15406E-01
        -0.85590E-02
         0.17303E-01
         0.36696E-01
         0.67834E-01
         0.17155E-02
        -0.14048E-01
        -0.14643E-01
        -0.15355E-01
        -0.40026E-02
         0.19775E-01
         0.65360E-02
        -0.25777E-02
         0.81020E-01
         0.12611E+00
         0.17526E+00
         0.21257E+00
         0.13224E+00
         0.61761E-01
        -0.15992E-01
        -0.22724E-01
        -0.29077E-01
        -0.26832E-01
        -0.27341E-01
        -0.21443E-01
        -0.12675E-02
         0.23590E-01
         0.24008E-01
         0.41064E-01
         0.55311E-01
         0.22718E-01
         0.56137E-02
         0.31462E-02
         0.27396E-01
         0.80400E-01
         0.15421E+00
         0.24622E+00
         0.32888E+00
         0.35018E+00
         0.29173E+00
         0.20332E+00
         0.11433E+00
         0.39106E-01
        -0.91905E-02
        -0.37264E-01
        -0.45181E-01
        -0.42550E-01
        -0.42621E-01
        -0.37639E-01
        -0.18628E-01
         0.16878E-01
         0.53886E-01
         0.72377E-01
         0.67999E-01
        -0.86559E-02
        -0.67843E-02
        -0.39663E-02
        -0.49051E-02
         0.21775E-02
         0.33318E-02
        -0.79079E-02
        -0.11442E-01
        -0.11587E-01
        -0.15473E-01
        -0.51230E-02
         0.63919E-03
        -0.48841E-02
        -0.45469E-02
         0.12966E-01
        -0.86639E-02
        -0.16601E-01
        -0.70578E-02
        -0.12393E-01
        -0.17792E-01
        -0.49108E-02
         0.30880E-02
        -0.67815E-02
        -0.86892E-02
        -0.17164E-01
        -0.65727E-02
        -0.55171E-03
         0.10173E-01
         0.31479E-01
        -0.71704E-02
        -0.36795E-02
        -0.34117E-02
        -0.32408E-02
        -0.68734E-03
         0.19726E-02
        -0.20499E-02
        -0.47481E-02
         0.34465E-01
         0.66209E-01
         0.10387E+00
         0.13614E+00
         0.79461E-01
         0.31681E-01
        -0.64833E-02
        -0.40902E-02
        -0.15168E-02
         0.31248E-03
         0.14659E-02
         0.28368E-02
         0.57910E-02
         0.97443E-02
         0.64354E-02
         0.85925E-02
         0.12941E-01
         0.30863E-02
        -0.17855E-02
        -0.27118E-02
         0.57177E-02
         0.30362E-01
         0.79530E-01
         0.15635E+00
         0.23058E+00
         0.25538E+00
         0.20611E+00
         0.12594E+00
         0.59458E-01
         0.17645E-01
        -0.26736E-02
        -0.98894E-02
        -0.82881E-02
        -0.34353E-02
        -0.31171E-03
         0.22592E-02
         0.62070E-02
         0.12900E-01
         0.18746E-01
         0.18969E-01
         0.16142E-01
        -0.43565E-02
        -0.37093E-02
        -0.28905E-02
        -0.16852E-02
        -0.22021E-02
        -0.10960E-02
        -0.47162E-02
        -0.65603E-02
        -0.56492E-02
        -0.87688E-02
        -0.47843E-02
        -0.30999E-02
        -0.33707E-02
        -0.54058E-02
        -0.27827E-03
        -0.35150E-02
        -0.78196E-02
        -0.22501E-02
        -0.56257E-02
        -0.88572E-02
        -0.36187E-02
        -0.11815E-02
        -0.39106E-02
        -0.42031E-02
        -0.10080E-01
        -0.26949E-02
        -0.44230E-02
         0.12909E-03
         0.10233E-01
        -0.62611E-02
         0.58234E-03
        -0.30385E-04
         0.10692E-02
         0.49614E-03
        -0.27360E-02
        -0.30242E-02
        -0.30814E-02
         0.90545E-02
         0.26074E-01
         0.46541E-01
         0.63952E-01
         0.33928E-01
         0.10730E-01
        -0.29212E-02
        -0.86896E-03
         0.99925E-03
         0.29337E-02
         0.44123E-02
         0.39666E-02
         0.17794E-02
        -0.41596E-03
        -0.65228E-03
        -0.22369E-02
        -0.20207E-02
        -0.18683E-02
        -0.12760E-02
        -0.10082E-02
        -0.47618E-03
         0.51092E-02
         0.28969E-01
         0.76578E-01
         0.12396E+00
         0.13587E+00
         0.10098E+00
         0.53471E-01
         0.19976E-01
         0.30283E-02
        -0.34093E-02
        -0.46398E-02
        -0.34246E-02
        -0.11572E-02
         0.16691E-02
         0.32469E-02
         0.11423E-02
        -0.28776E-02
        -0.43939E-02
        -0.36150E-02
        -0.24557E-02
        -0.18087E-02
        -0.13530E-02
        -0.74526E-03
         0.45373E-04
         0.34906E-03
         0.15577E-02
        -0.17525E-02
        -0.27379E-02
        -0.19618E-02
        -0.36544E-02
        -0.22891E-02
        -0.17910E-02
        -0.61580E-03
        -0.33512E-02
        -0.34330E-02
        -0.46049E-03
        -0.22791E-02
        -0.24895E-03
        -0.12363E-02
        -0.30040E-02
        -0.19583E-02
        -0.22400E-02
        -0.20173E-02
        -0.11483E-02
        -0.45804E-02
        -0.51094E-03
        -0.42757E-02
        -0.40949E-02
        -0.20362E-02
        -0.44826E-02
         0.12516E-02
         0.48669E-03
         0.17594E-02
         0.21904E-02
         0.14158E-03
        -0.22462E-03
        -0.31457E-03
        -0.30402E-02
         0.81381E-03
         0.63396E-02
         0.11476E-01
         0.42230E-02
        -0.74789E-03
        -0.16643E-02
        -0.88848E-03
        -0.40806E-03
         0.12082E-02
         0.26229E-02
         0.32192E-02
         0.32712E-02
         0.31385E-02
         0.27422E-02
         0.12337E-02
         0.10649E-02
         0.19901E-02
         0.25940E-02
         0.27166E-02
         0.86809E-03
        -0.20807E-02
         0.13587E-02
         0.15258E-01
         0.30832E-01
         0.33538E-01
         0.23419E-01
         0.10129E-01
         0.22993E-03
        -0.35520E-02
        -0.45597E-02
        -0.48601E-02
        -0.45236E-02
        -0.35887E-02
        -0.17863E-02
         0.11920E-03
         0.59237E-03
         0.52829E-03
         0.16551E-02
         0.24885E-02
         0.18535E-02
        -0.99460E-03
        -0.62726E-03
        -0.22146E-03
         0.29135E-03
         0.11199E-02
         0.24174E-02
        -0.56791E-03
        -0.11798E-02
        -0.59275E-03
        -0.14105E-02
        -0.97526E-03
        -0.62661E-03
         0.51204E-03
        -0.21357E-02
        -0.36625E-02
         0.29640E-03
        -0.14222E-04
         0.87260E-04
         0.49494E-03
        -0.28391E-03
        -0.80876E-04
        -0.15419E-02
        -0.48966E-03
        -0.20101E-04
        -0.19425E-02
        -0.20951E-04
        -0.37998E-02
        -0.54514E-02
        -0.69595E-02
        -0.32135E-02
         0.10428E-02
         0.39215E-03
         0.15784E-02
         0.25447E-02
         0.99844E-03
         0.54888E-03
         0.54148E-03
        -0.73846E-02
        -0.10024E-01
        -0.11887E-01
        -0.12827E-01
        -0.87427E-02
        -0.49843E-02
        -0.94668E-03
        -0.77137E-03
        -0.69121E-03
         0.64668E-03
         0.20536E-02
         0.32603E-02
         0.44179E-02
         0.52670E-02
         0.41839E-02
         0.24168E-02
         0.24485E-02
         0.30932E-02
         0.36756E-02
         0.39863E-02
         0.23535E-02
        -0.26628E-02
        -0.93526E-02
        -0.14030E-01
        -0.16325E-01
        -0.17917E-01
        -0.13394E-01
        -0.82794E-02
        -0.44583E-02
        -0.13211E-02
        -0.17384E-02
        -0.34238E-02
        -0.40404E-02
        -0.38330E-02
        -0.25309E-02
        -0.19279E-03
         0.20505E-02
         0.41462E-02
         0.60262E-02
         0.58874E-02
         0.39612E-02
        -0.93443E-03
        -0.55049E-03
        -0.11542E-03
         0.13726E-03
         0.19174E-02
         0.33889E-02
        -0.32772E-03
        -0.78456E-03
        -0.29060E-03
        -0.63944E-03
        -0.75255E-03
        -0.46314E-03
         0.84793E-03
        -0.19836E-02
        -0.42254E-02
         0.98942E-04
         0.66438E-03
        -0.19915E-03
         0.99634E-03
         0.76451E-03
         0.14779E-02
        -0.34705E-03
         0.87653E-03
         0.37495E-03
        -0.87646E-03
        -0.61129E-04
        -0.39096E-02
        -0.60200E-02
        -0.83631E-02
        -0.24749E-02
         0.66413E-03
         0.23703E-03
         0.13185E-02
         0.27586E-02
         0.17322E-02
         0.91498E-03
         0.83538E-03
        -0.96134E-02
        -0.14565E-01
        -0.18438E-01
        -0.20734E-01
        -0.12511E-01
        -0.56918E-02
        -0.64062E-04
        -0.21945E-03
        -0.25096E-03
         0.73885E-03
         0.21925E-02
         0.38615E-02
         0.57394E-02
         0.73863E-02
         0.56428E-02
         0.37986E-02
         0.47318E-02
         0.39926E-02
         0.44407E-02
         0.47324E-02
         0.27618E-02
        -0.33377E-02
        -0.13702E-01
        -0.25584E-01
        -0.33617E-01
        -0.34986E-01
        -0.25110E-01
        -0.12281E-01
        -0.26488E-02
         0.28050E-02
         0.22665E-02
        -0.33179E-03
        -0.19826E-02
        -0.27792E-02
        -0.19109E-02
         0.71848E-03
         0.40308E-02
         0.75092E-02
         0.10231E-01
         0.98023E-02
         0.71234E-02
        -0.93931E-03
        -0.44756E-03
         0.68912E-06
         0.94047E-04
         0.22665E-02
         0.36890E-02
        -0.17006E-03
        -0.60584E-03
        -0.19971E-03
        -0.24307E-03
        -0.66723E-03
        -0.43011E-03
         0.11726E-02
        -0.19891E-02
        -0.49088E-02
         0.20726E-03
         0.10238E-02
        -0.27464E-03
         0.12395E-02
         0.13363E-02
         0.11451E-02
        -0.29325E-03
         0.50224E-03
         0.47505E-03
        -0.24669E-03
         0.57349E-04
        -0.40674E-02
        -0.63465E-02
        -0.87884E-02
        -0.18089E-02
         0.87510E-03
         0.40022E-03
         0.16051E-02
         0.30957E-02
         0.21800E-02
         0.12808E-02
         0.12115E-02
        -0.11651E-01
        -0.18100E-01
        -0.22659E-01
        -0.24624E-01
        -0.13250E-01
        -0.54222E-02
        -0.27167E-03
        -0.22798E-03
         0.47668E-05
         0.12344E-02
         0.30294E-02
         0.49781E-02
         0.68246E-02
         0.82771E-02
         0.61070E-02
         0.44714E-02
         0.54780E-02
         0.46950E-02
         0.52720E-02
         0.54544E-02
         0.29523E-02
        -0.44379E-02
        -0.18473E-01
        -0.36188E-01
        -0.47068E-01
        -0.44395E-01
        -0.27789E-01
        -0.13354E-01
        -0.47872E-02
         0.32360E-03
         0.36426E-03
        -0.14617E-02
        -0.23358E-02
        -0.23860E-02
        -0.94660E-03
         0.21671E-02
         0.58210E-02
         0.91563E-02
         0.11368E-01
         0.10440E-01
         0.77165E-02
        -0.92149E-03
        -0.56345E-03
        -0.23975E-03
         0.11036E-03
         0.16876E-02
         0.31615E-02
        -0.14077E-03
        -0.39708E-03
        -0.27427E-04
         0.87223E-04
        -0.57718E-03
        -0.61139E-03
         0.88668E-03
        -0.17665E-02
        -0.50934E-02
         0.45578E-03
         0.13818E-02
        -0.12112E-03
         0.14140E-02
         0.16360E-02
         0.52873E-03
        -0.80022E-03
        -0.42050E-03
         0.34576E-03
         0.54917E-04
         0.58343E-04
        -0.38717E-02
        -0.65803E-02
        -0.98631E-02
        -0.18568E-02
         0.12890E-02
         0.62096E-03
         0.20593E-02
         0.33412E-02
         0.16477E-02
         0.88050E-03
         0.83042E-03
        -0.12118E-01
        -0.19500E-01
        -0.25707E-01
        -0.29125E-01
        -0.15751E-01
        -0.64967E-02
        -0.10476E-02
        -0.53144E-03
         0.19477E-03
         0.18575E-02
         0.38751E-02
         0.56854E-02
         0.70136E-02
         0.77917E-02
         0.56205E-02
         0.36907E-02
         0.40571E-02
         0.39937E-02
         0.43370E-02
         0.45212E-02
         0.21964E-02
        -0.54958E-02
        -0.20461E-01
        -0.40405E-01
        -0.55274E-01
        -0.54271E-01
        -0.34367E-01
        -0.16998E-01
        -0.73922E-02
        -0.24112E-02
        -0.26904E-02
        -0.40411E-02
        -0.36583E-02
        -0.23027E-02
        -0.37404E-04
         0.32278E-02
         0.62733E-02
         0.84261E-02
         0.96862E-02
         0.83344E-02
         0.56647E-02
        -0.89223E-03
        -0.65323E-03
        -0.35807E-03
         0.20675E-03
         0.19302E-02
         0.38111E-02
        -0.76660E-04
        -0.24260E-03
         0.26853E-04
         0.20530E-03
        -0.48765E-03
        -0.69436E-03
         0.68083E-03
        -0.16585E-02
        -0.51612E-02
         0.38540E-03
         0.14934E-02
        -0.13805E-03
         0.14940E-02
         0.17936E-02
         0.75557E-03
        -0.61782E-03
        -0.47819E-03
         0.25947E-03
         0.26541E-04
        -0.36740E-04
        -0.38659E-02
        -0.70189E-02
        -0.11382E-01
        -0.23082E-02
         0.13127E-02
         0.71500E-03
         0.21248E-02
         0.36465E-02
         0.15230E-02
         0.46383E-03
         0.38444E-03
        -0.12166E-01
        -0.20137E-01
        -0.28107E-01
        -0.33816E-01
        -0.19267E-01
        -0.78192E-02
        -0.10843E-02
        -0.32228E-03
         0.63161E-03
         0.22237E-02
         0.40309E-02
         0.56611E-02
         0.71698E-02
         0.84067E-02
         0.64465E-02
         0.36615E-02
         0.48997E-02
         0.30616E-02
         0.31428E-02
         0.37912E-02
         0.17861E-02
        -0.58126E-02
        -0.20295E-01
        -0.40668E-01
        -0.59320E-01
        -0.63330E-01
        -0.42946E-01
        -0.19731E-01
        -0.69191E-02
        -0.18675E-02
        -0.26203E-02
        -0.39479E-02
        -0.32293E-02
        -0.16733E-02
         0.48518E-03
         0.32619E-02
         0.57489E-02
         0.81453E-02
         0.10504E-01
         0.10124E-01
         0.73025E-02
        -0.63934E-03
        -0.27814E-03
        -0.21150E-04
         0.47380E-03
         0.22852E-02
         0.42307E-02
         0.24027E-03
        -0.42594E-04
         0.10069E-03
         0.33854E-03
        -0.32130E-03
        -0.55140E-03
         0.11053E-02
        -0.15921E-02
        -0.54053E-02
         0.37189E-03
         0.15922E-02
        -0.67846E-04
         0.16073E-02
         0.21069E-02
         0.63426E-03
        -0.53902E-03
        -0.78614E-03
         0.18195E-03
         0.26053E-03
        -0.65795E-04
        -0.36942E-02
        -0.65664E-02
        -0.10929E-01
        -0.19497E-02
         0.13401E-02
         0.81531E-03
         0.20853E-02
         0.36391E-02
         0.16386E-02
         0.66316E-03
         0.78167E-03
        -0.12409E-01
        -0.19808E-01
        -0.27429E-01
        -0.33674E-01
        -0.19433E-01
        -0.78515E-02
        -0.12526E-02
        -0.24613E-03
         0.88024E-03
         0.24262E-02
         0.39496E-02
         0.52564E-02
         0.67403E-02
         0.81848E-02
         0.66004E-02
         0.34482E-02
         0.53053E-02
         0.28856E-02
         0.34513E-02
         0.43857E-02
         0.20881E-02
        -0.63692E-02
        -0.21816E-01
        -0.41233E-01
        -0.58569E-01
        -0.63978E-01
        -0.44995E-01
        -0.21749E-01
        -0.85127E-02
        -0.33035E-02
        -0.37164E-02
        -0.45862E-02
        -0.33360E-02
        -0.14050E-02
         0.67111E-03
         0.28638E-02
         0.46535E-02
         0.71286E-02
         0.10195E-01
         0.10615E-01
         0.81870E-02
        -0.57251E-03
        -0.86059E-04
         0.13276E-03
         0.42334E-03
         0.19119E-02
         0.32410E-02
         0.34986E-03
         0.96006E-05
         0.76953E-04
         0.36760E-03
        -0.27458E-03
        -0.51641E-03
         0.13602E-02
        -0.15254E-02
        -0.54796E-02
         0.24051E-03
         0.14394E-02
        -0.95427E-04
         0.13267E-02
         0.18391E-02
         0.27821E-03
        -0.84424E-03
        -0.96914E-03
        -0.20808E-04
         0.28673E-03
        -0.14287E-03
        -0.34697E-02
        -0.59919E-02
        -0.97773E-02
        -0.17782E-02
         0.13310E-02
         0.87993E-03
         0.19855E-02
         0.32045E-02
         0.17032E-02
         0.10346E-02
         0.12062E-02
        -0.12209E-01
        -0.18722E-01
        -0.25009E-01
        -0.30043E-01
        -0.17282E-01
        -0.73368E-02
        -0.11826E-02
        -0.44616E-04
         0.11318E-02
         0.26068E-02
         0.40342E-02
         0.51307E-02
         0.61375E-02
         0.68513E-02
         0.52070E-02
         0.33607E-02
         0.39388E-02
         0.35711E-02
         0.43591E-02
         0.50084E-02
         0.22437E-02
        -0.68997E-02
        -0.22620E-01
        -0.40055E-01
        -0.53889E-01
        -0.56924E-01
        -0.39863E-01
        -0.20644E-01
        -0.86200E-02
        -0.37635E-02
        -0.38232E-02
        -0.41550E-02
        -0.28517E-02
        -0.10424E-02
         0.96988E-03
         0.31710E-02
         0.47339E-02
         0.64387E-02
         0.80718E-02
         0.71875E-02
         0.52098E-02
        -0.60242E-03
        -0.74979E-04
         0.34188E-03
         0.51676E-03
         0.20214E-02
         0.30706E-02
         0.21280E-03
        -0.12458E-03
        -0.23748E-04
         0.18448E-03
        -0.39182E-03
        -0.63460E-03
         0.11570E-02
        -0.15336E-02
        -0.51147E-02
         0.15766E-03
         0.11634E-02
        -0.32496E-04
         0.10170E-02
         0.14066E-02
         0.48427E-03
        -0.98146E-03
        -0.28812E-03
         0.49565E-04
         0.89385E-04
         0.28063E-05
        -0.33770E-02
        -0.57569E-02
        -0.90133E-02
        -0.18093E-02
         0.14482E-02
         0.10449E-02
         0.21210E-02
         0.32794E-02
         0.21361E-02
         0.14111E-02
         0.12572E-02
        -0.11233E-01
        -0.17274E-01
        -0.22791E-01
        -0.26571E-01
        -0.15265E-01
        -0.68564E-02
        -0.49369E-03
         0.39017E-03
         0.12184E-02
         0.25123E-02
         0.39871E-02
         0.52327E-02
         0.62252E-02
         0.67934E-02
         0.50328E-02
         0.39547E-02
         0.37090E-02
         0.42096E-02
         0.45272E-02
         0.47294E-02
         0.20369E-02
        -0.62070E-02
        -0.20172E-01
        -0.35806E-01
        -0.47849E-01
        -0.48927E-01
        -0.34521E-01
        -0.18944E-01
        -0.69930E-02
        -0.13295E-02
        -0.13087E-02
        -0.21843E-02
        -0.18583E-02
        -0.10655E-02
         0.39651E-03
         0.28170E-02
         0.48669E-02
         0.66171E-02
         0.79553E-02
         0.65345E-02
         0.42929E-02
        -0.56693E-03
        -0.22805E-03
         0.16290E-03
         0.54251E-03
         0.17153E-02
         0.29376E-02
         0.39624E-04
        -0.22465E-03
         0.96314E-04
         0.18465E-04
        -0.53769E-03
        -0.82715E-03
         0.73313E-03
        -0.16989E-02
        -0.51128E-02
         0.62270E-03
         0.13355E-02
         0.26072E-03
         0.15178E-02
         0.17088E-02
         0.12521E-02
        -0.32265E-03
         0.37626E-03
         0.63434E-03
        -0.64407E-04
         0.45786E-03
        -0.37956E-02
        -0.64065E-02
        -0.97436E-02
        -0.18429E-02
         0.16002E-02
         0.11031E-02
         0.21508E-02
         0.31919E-02
         0.17382E-02
         0.10208E-02
         0.80831E-03
        -0.11540E-01
        -0.18316E-01
        -0.24434E-01
        -0.28557E-01
        -0.16218E-01
        -0.67749E-02
        -0.19448E-03
         0.21067E-03
         0.51382E-03
         0.17813E-02
         0.32493E-02
         0.45391E-02
         0.56831E-02
         0.65143E-02
         0.49820E-02
         0.34473E-02
         0.33274E-02
         0.35766E-02
         0.36620E-02
         0.38148E-02
         0.15235E-02
        -0.59207E-02
        -0.19338E-01
        -0.36655E-01
        -0.50745E-01
        -0.52795E-01
        -0.37488E-01
        -0.19125E-01
        -0.58840E-02
        -0.22255E-04
        -0.51083E-03
        -0.22306E-02
        -0.25909E-02
        -0.23834E-02
        -0.13491E-02
         0.97812E-03
         0.32430E-02
         0.53820E-02
         0.76349E-02
         0.68927E-02
         0.43731E-02
        -0.42491E-03
        -0.26053E-03
        -0.14177E-03
         0.41191E-03
         0.81438E-03
         0.18180E-02
         0.92847E-04
        -0.14587E-03
         0.32257E-03
         0.10053E-03
        -0.37315E-03
        -0.48928E-03
         0.71955E-03
        -0.15468E-02
        -0.46541E-02
         0.99574E-03
         0.16246E-02
         0.45139E-03
         0.18341E-02
         0.19555E-02
         0.89312E-03
        -0.62199E-03
        -0.39616E-04
         0.80851E-03
         0.97234E-05
         0.60087E-03
        -0.37660E-02
        -0.67220E-02
        -0.10904E-01
        -0.20162E-02
         0.14321E-02
         0.88253E-03
         0.17492E-02
         0.23626E-02
         0.78706E-03
         0.37957E-03
         0.48706E-03
        -0.11565E-01
        -0.19506E-01
        -0.27478E-01
        -0.33754E-01
        -0.19335E-01
        -0.79186E-02
        -0.55837E-03
        -0.28576E-03
        -0.17631E-03
         0.10792E-02
         0.22799E-02
         0.30534E-02
         0.36755E-02
         0.40665E-02
         0.32655E-02
         0.19763E-02
         0.16045E-02
         0.22704E-02
         0.28357E-02
         0.36173E-02
         0.20441E-02
        -0.50111E-02
        -0.19452E-01
        -0.40230E-01
        -0.59778E-01
        -0.65401E-01
        -0.46784E-01
        -0.22809E-01
        -0.81026E-02
        -0.25452E-02
        -0.26451E-02
        -0.36715E-02
        -0.36265E-02
        -0.32989E-02
        -0.22787E-02
        -0.57000E-03
         0.50324E-03
         0.16308E-02
         0.36243E-02
         0.35152E-02
         0.19703E-02
        -0.19574E-03
         0.33338E-05
         0.58314E-04
         0.58001E-03
         0.39044E-03
         0.11471E-02
         0.18884E-03
        -0.10098E-03
         0.51137E-03
         0.30035E-03
        -0.23560E-03
        -0.10892E-03
         0.98711E-03
        -0.12457E-02
        -0.36153E-02
         0.10580E-02
         0.18127E-02
         0.62279E-03
         0.17512E-02
         0.20410E-02
         0.18909E-03
        -0.12775E-02
        -0.37214E-03
         0.68993E-03
         0.53059E-03
         0.50340E-03
        -0.29399E-02
        -0.52260E-02
        -0.88315E-02
        -0.12673E-02
         0.11958E-02
         0.60757E-03
         0.14108E-02
         0.17078E-02
         0.39239E-03
         0.48918E-03
         0.84411E-03
        -0.94189E-02
        -0.16127E-01
        -0.23141E-01
        -0.28941E-01
        -0.16651E-01
        -0.72871E-02
        -0.72146E-03
        -0.58366E-03
        -0.68257E-03
         0.47095E-03
         0.14191E-02
         0.16964E-02
         0.17486E-02
         0.17342E-02
         0.18439E-02
         0.87553E-03
         0.44798E-04
         0.22177E-02
         0.35224E-02
         0.42492E-02
         0.28466E-02
        -0.30130E-02
        -0.15471E-01
        -0.33458E-01
        -0.50884E-01
        -0.56862E-01
        -0.41615E-01
        -0.22707E-01
        -0.10798E-01
        -0.48077E-02
        -0.34238E-02
        -0.37437E-02
        -0.38713E-02
        -0.38976E-02
        -0.31122E-02
        -0.18755E-02
        -0.18761E-02
        -0.19040E-02
        -0.23116E-03
         0.65962E-03
         0.10705E-03
        -0.32987E-03
        -0.20547E-03
        -0.25786E-03
         0.31837E-03
        -0.53024E-03
        -0.32938E-04
        -0.16224E-03
        -0.42197E-03
         0.38425E-03
         0.56502E-04
        -0.61351E-03
        -0.31154E-03
         0.73522E-03
        -0.15510E-02
        -0.35346E-02
         0.78521E-03
         0.14662E-02
         0.53624E-03
         0.12975E-02
         0.14545E-02
         0.19040E-03
        -0.13368E-02
        -0.52259E-03
         0.27600E-03
         0.18866E-03
        -0.77784E-05
        -0.30172E-02
        -0.51144E-02
        -0.85727E-02
        -0.17503E-02
         0.51356E-03
        -0.27703E-03
         0.64042E-03
         0.46765E-03
        -0.58272E-03
         0.58990E-05
         0.63411E-03
        -0.87972E-02
        -0.14845E-01
        -0.21270E-01
        -0.26421E-01
        -0.15552E-01
        -0.71505E-02
        -0.12150E-02
        -0.15916E-02
        -0.23033E-02
        -0.13152E-02
        -0.52010E-03
        -0.54724E-03
        -0.10184E-02
        -0.14823E-02
        -0.28147E-03
        -0.82185E-03
        -0.18383E-02
         0.15536E-02
         0.35278E-02
         0.42887E-02
         0.31584E-02
        -0.19439E-02
        -0.13253E-01
        -0.29579E-01
        -0.45263E-01
        -0.50453E-01
        -0.36666E-01
        -0.19516E-01
        -0.81146E-02
        -0.29552E-02
        -0.25367E-02
        -0.37736E-02
        -0.49462E-02
        -0.60009E-02
        -0.60243E-02
        -0.52451E-02
        -0.57155E-02
        -0.65974E-02
        -0.51708E-02
        -0.29371E-02
        -0.20457E-02
        -0.12301E-02
        -0.13618E-02
        -0.18838E-02
        -0.87008E-03
        -0.36037E-02
        -0.36019E-02
        -0.11857E-02
        -0.14310E-02
        -0.53235E-03
        -0.10765E-02
        -0.14805E-02
        -0.96258E-03
        -0.32140E-03
        -0.23671E-02
        -0.38744E-02
        -0.99083E-04
         0.26773E-03
        -0.17422E-03
         0.12205E-03
        -0.83421E-04
        -0.26369E-03
        -0.22315E-02
        -0.12842E-02
        -0.84201E-03
        -0.13508E-02
        -0.12359E-02
        -0.39003E-02
        -0.65541E-02
        -0.11187E-01
        -0.39275E-02
        -0.11858E-02
        -0.22570E-02
        -0.12590E-02
        -0.23554E-02
        -0.37720E-02
        -0.23744E-02
        -0.10107E-02
        -0.90173E-02
        -0.15728E-01
        -0.23775E-01
        -0.30972E-01
        -0.19907E-01
        -0.97992E-02
        -0.24758E-02
        -0.37169E-02
        -0.56896E-02
        -0.52996E-02
        -0.49776E-02
        -0.54657E-02
        -0.67323E-02
        -0.82210E-02
        -0.52966E-02
        -0.54058E-02
        -0.74059E-02
        -0.22361E-02
         0.94673E-03
         0.30765E-02
         0.29103E-02
        -0.17169E-02
        -0.12789E-01
        -0.30412E-01
        -0.49122E-01
        -0.58187E-01
        -0.45171E-01
        -0.21801E-01
        -0.53433E-02
        -0.26349E-03
        -0.17950E-02
        -0.44840E-02
        -0.70037E-02
        -0.10032E-01
        -0.12158E-01
        -0.12803E-01
        -0.14156E-01
        -0.16280E-01
        -0.15453E-01
        -0.12068E-01
        -0.92072E-02
        -0.78981E-03
        -0.83172E-03
        -0.10178E-02
         0.25611E-04
        -0.34048E-02
        -0.41385E-02
        -0.95700E-03
        -0.15162E-02
        -0.39587E-03
        -0.17916E-02
        -0.13755E-02
        -0.74581E-03
        -0.14179E-04
        -0.25637E-02
        -0.35607E-02
         0.34648E-03
        -0.33492E-03
         0.67286E-03
         0.18867E-03
        -0.12912E-02
         0.25674E-02
        -0.42817E-03
         0.20364E-02
         0.17429E-03
        -0.29902E-02
        -0.57506E-03
        -0.46703E-02
        -0.79695E-02
        -0.12519E-01
        -0.58896E-02
        -0.16178E-02
        -0.27524E-02
        -0.13515E-02
        -0.22711E-02
        -0.27674E-02
        -0.12449E-02
        -0.37329E-03
        -0.84427E-02
        -0.14770E-01
        -0.22008E-01
        -0.27598E-01
        -0.18685E-01
        -0.88397E-02
        -0.43761E-04
        -0.31577E-02
        -0.75146E-02
        -0.88573E-02
        -0.91460E-02
        -0.88022E-02
        -0.90186E-02
        -0.10353E-01
        -0.63634E-02
        -0.41018E-02
        -0.91440E-02
        -0.29406E-03
         0.18446E-02
         0.33378E-02
         0.31100E-02
        -0.84553E-03
        -0.97552E-02
        -0.24173E-01
        -0.39505E-01
        -0.46898E-01
        -0.35284E-01
        -0.10454E-01
         0.77783E-02
         0.12555E-01
         0.91332E-02
         0.34098E-02
        -0.34215E-02
        -0.11694E-01
        -0.18333E-01
        -0.20515E-01
        -0.20324E-01
        -0.20910E-01
        -0.19571E-01
        -0.16166E-01
        -0.13002E-01
         0.66472E-02
         0.74077E-02
         0.93855E-02
         0.86858E-02
         0.84039E-02
         0.54643E-02
         0.53781E-02
         0.41654E-02
         0.56043E-02
         0.16566E-02
         0.31944E-02
         0.26262E-02
         0.56718E-02
         0.60683E-03
        -0.24585E-02
         0.67797E-02
         0.32114E-02
         0.77745E-02
         0.67700E-02
         0.50736E-03
         0.15606E-01
         0.81996E-02
         0.16582E-01
         0.93956E-02
        -0.33262E-02
         0.70587E-02
        -0.44497E-02
        -0.10796E-01
        -0.15410E-01
        -0.80363E-02
         0.25269E-02
         0.17829E-02
         0.40095E-02
         0.53539E-02
         0.11319E-01
         0.11280E-01
         0.85617E-02
        -0.99394E-02
        -0.17169E-01
        -0.22043E-01
        -0.22580E-01
        -0.14822E-01
        -0.39499E-02
         0.11841E-01
         0.40259E-02
        -0.55498E-02
        -0.10556E-01
        -0.12084E-01
        -0.89731E-02
        -0.47448E-02
        -0.34184E-02
         0.22830E-02
         0.13215E-01
         0.39522E-02
         0.16381E-01
         0.12245E-01
         0.80986E-02
         0.47993E-02
        -0.73642E-03
        -0.10035E-01
        -0.22031E-01
        -0.29726E-01
        -0.29490E-01
        -0.14362E-01
         0.15223E-01
         0.38466E-01
         0.45493E-01
         0.39445E-01
         0.27134E-01
         0.10293E-01
        -0.95154E-02
        -0.25523E-01
        -0.30505E-01
        -0.25996E-01
        -0.19761E-01
        -0.13356E-01
        -0.78576E-02
        -0.30384E-02
         0.16193E-01
         0.17655E-01
         0.20767E-01
         0.18085E-01
         0.19935E-01
         0.14654E-01
         0.13573E-01
         0.11849E-01
         0.14422E-01
         0.72239E-02
         0.89552E-02
         0.65566E-02
         0.13120E-01
         0.46499E-02
        -0.26214E-02
         0.16561E-01
         0.10745E-01
         0.16710E-01
         0.18114E-01
         0.47580E-02
         0.27826E-01
         0.93352E-02
         0.29516E-01
         0.21259E-01
        -0.35458E-02
         0.15558E-01
        -0.49352E-02
        -0.19061E-01
        -0.31448E-01
        -0.16245E-01
         0.53088E-02
         0.32042E-02
         0.80899E-02
         0.11303E-01
         0.24793E-01
         0.24694E-01
         0.19577E-01
        -0.16406E-01
        -0.30036E-01
        -0.40192E-01
        -0.47455E-01
        -0.38603E-01
        -0.19576E-01
         0.19774E-01
         0.42385E-02
        -0.13000E-01
        -0.19743E-01
        -0.21175E-01
        -0.14039E-01
        -0.44690E-02
         0.21573E-03
         0.91896E-02
         0.27950E-01
         0.16333E-01
         0.32603E-01
         0.24269E-01
         0.14588E-01
         0.65710E-02
        -0.33811E-02
        -0.17513E-01
        -0.35011E-01
        -0.51684E-01
        -0.68701E-01
        -0.64153E-01
        -0.20692E-01
         0.30885E-01
         0.57865E-01
         0.54606E-01
         0.35893E-01
         0.81464E-02
        -0.22779E-01
        -0.45673E-01
        -0.50062E-01
        -0.39372E-01
        -0.25007E-01
        -0.11114E-01
        -0.20726E-03
         0.83664E-02
  
SCALARS                      strain_xz  double 1
LOOKUP_TABLE default
         0.19623E+00
         0.28479E+00
         0.26079E+00
         0.17994E+00
        -0.35025E-10
         0.29771E-09
         0.17717E-09
         0.12774E-09
         0.25089E+00
         0.19279E+00
        -0.42494E-10
         0.17824E-09
         0.27417E+00
         0.21728E+00
        -0.58732E-10
         0.11285E-09
         0.12887E+00
         0.16862E+00
        -0.34646E-10
         0.87482E-10
         0.26779E+00
         0.32260E+00
         0.31711E+00
        -0.59292E-10
         0.19655E-09
         0.17116E-09
         0.20615E+00
         0.24776E+00
        -0.74875E-10
         0.18142E-09
         0.87365E-01
         0.11358E+00
         0.97815E-01
        -0.19560E-10
        -0.73660E-11
         0.16682E-10
         0.10249E+00
         0.11895E+00
        -0.35878E-10
        -0.36204E-10
         0.10802E+00
         0.75445E-01
        -0.61953E-10
        -0.75269E-10
         0.11204E+00
         0.11177E+00
        -0.82382E-10
        -0.38140E-10
         0.13673E+00
        -0.51924E-10
         0.11091E+00
        -0.29460E-10
         0.13002E+00
        -0.53947E-10
         0.81336E-01
        -0.50867E-10
         0.50866E-01
         0.13822E+00
        -0.12736E-09
         0.15839E-09
         0.88818E-01
         0.13233E+00
        -0.20187E-10
         0.72389E-10
         0.60876E-01
        -0.45595E-10
         0.90889E-01
        -0.64634E-10
         0.27799E+00
         0.28765E+00
        -0.30360E-10
         0.18422E-09
         0.29378E+00
        -0.20287E-10
         0.73853E-01
        -0.68298E-10
        -0.33329E-01
        -0.86134E-10
        -0.10671E+00
        -0.89943E-10
        -0.16177E+00
        -0.22812E-01
        -0.70828E-10
         0.53421E-10
         0.42511E-01
        -0.83350E-10
         0.94746E-01
        -0.10200E-09
         0.91852E-01
        -0.12838E-09
         0.83806E-01
         0.11408E+00
        -0.11315E-09
         0.16738E-09
         0.42416E-01
        -0.59566E-10
        -0.67004E-02
        -0.10000E-09
         0.74089E-03
        -0.13469E-09
         0.14540E-01
         0.10565E+00
        -0.11966E-09
         0.16543E-09
         0.34005E+00
         0.43173E+00
        -0.46420E-10
         0.29335E-09
         0.24285E+00
        -0.20185E-10
         0.18410E+00
        -0.10593E-10
         0.15814E+00
        -0.18977E-10
         0.17553E+00
        -0.53317E-11
         0.12225E+00
         0.51217E-11
        -0.53729E-01
        -0.22731E-10
        -0.22367E+00
        -0.39847E-10
        -0.34733E+00
        -0.37056E-10
        -0.44723E+00
        -0.74038E-11
        -0.27240E+00
        -0.47697E-10
        -0.12552E+00
        -0.88620E-10
        -0.14713E-01
        -0.99555E-10
         0.38389E-01
        -0.13209E-09
         0.35551E-01
        -0.17141E-09
         0.52466E-03
        -0.19166E-09
        -0.43109E-01
        -0.24446E-09
        -0.31738E-01
        -0.25364E-09
        -0.50181E-01
        -0.18078E-09
        -0.11677E+00
        -0.16037E-09
        -0.13276E+00
        -0.19194E-09
        -0.10376E+00
        -0.20019E-09
        -0.72585E-01
        -0.17700E-09
        -0.23001E-02
        -0.68578E-10
         0.12816E+00
        -0.19834E-10
         0.15912E+00
         0.21432E+00
         0.19886E+00
         0.11493E+00
         0.22949E+00
         0.15965E+00
         0.24745E+00
         0.20263E+00
         0.11923E+00
         0.15212E+00
         0.23655E+00
         0.19856E+00
         0.23416E+00
         0.18954E+00
         0.12566E+00
         0.90418E-01
         0.10892E+00
         0.85630E-01
         0.13028E+00
         0.12191E+00
         0.23143E+00
         0.16445E+00
         0.25518E+00
         0.16350E+00
         0.13106E+00
         0.14254E+00
         0.12763E+00
         0.89468E-01
         0.35617E-01
         0.10230E+00
         0.10045E+00
         0.16093E+00
         0.86326E-01
         0.10840E+00
         0.29564E+00
         0.27003E+00
         0.24259E+00
         0.33512E-01
        -0.44968E-01
        -0.13275E+00
        -0.20534E+00
        -0.61443E-01
         0.65211E-01
         0.23650E+00
         0.24444E+00
         0.27922E+00
         0.22199E+00
         0.15875E+00
         0.14177E+00
         0.15718E+00
         0.16702E+00
         0.14686E+00
         0.37964E+00
         0.32652E+00
         0.33622E+00
         0.24118E+00
         0.14922E+00
         0.68414E-01
        -0.51960E-02
        -0.14011E+00
        -0.35045E+00
        -0.48034E+00
        -0.45437E+00
        -0.25319E+00
         0.39718E-02
         0.25529E+00
         0.40249E+00
         0.41892E+00
         0.36263E+00
         0.34005E+00
         0.38520E+00
         0.36094E+00
         0.29243E+00
         0.27578E+00
         0.25635E+00
         0.19620E+00
         0.18709E+00
         0.24130E+00
        -0.49926E-01
        -0.71489E-01
        -0.11377E+00
        -0.90867E-01
        -0.20502E+00
        -0.22561E+00
        -0.68404E-01
        -0.60907E-01
        -0.48623E-01
        -0.53645E-01
        -0.78388E-01
        -0.88361E-01
        -0.81763E-01
        -0.80232E-01
        -0.10316E+00
        -0.77805E-01
        -0.54380E-01
        -0.65647E-01
        -0.54026E-01
        -0.49083E-01
        -0.75490E-02
        -0.33806E-01
        -0.33023E-01
        -0.61521E-01
        -0.56940E-01
        -0.92060E-01
        -0.82349E-01
        -0.97953E-01
        -0.13597E+00
        -0.78267E-01
        -0.97930E-01
        -0.12311E+00
        -0.11270E+00
        -0.18432E+00
        -0.23018E+00
        -0.17195E+00
        -0.10905E+00
        -0.13197E+00
        -0.17662E+00
        -0.22776E+00
        -0.26042E+00
        -0.19402E+00
        -0.10593E+00
        -0.94662E-01
        -0.16071E+00
        -0.19674E+00
        -0.15305E+00
        -0.12894E+00
        -0.18328E+00
        -0.31184E+00
        -0.43293E+00
        -0.32752E+00
        -0.33366E+00
        -0.32726E+00
        -0.27586E+00
        -0.16799E+00
        -0.10805E+00
        -0.10609E+00
        -0.12619E+00
        -0.20445E+00
        -0.31961E+00
        -0.35534E+00
        -0.28402E+00
        -0.23701E+00
        -0.15422E+00
        -0.28088E-01
         0.27301E-01
        -0.14728E-01
        -0.12061E+00
        -0.24570E+00
        -0.27962E+00
        -0.20788E+00
        -0.18101E+00
        -0.31638E+00
        -0.59608E+00
        -0.74363E+00
        -0.62033E+00
        -0.41469E+00
        -0.70378E-01
        -0.81633E-01
        -0.97057E-01
        -0.74883E-01
        -0.12823E+00
        -0.10849E+00
        -0.78662E-01
        -0.71808E-01
        -0.59766E-01
        -0.57366E-01
        -0.80986E-01
        -0.84147E-01
        -0.81863E-01
        -0.79096E-01
        -0.95481E-01
        -0.65243E-01
        -0.48814E-01
        -0.64718E-01
        -0.50473E-01
        -0.42115E-01
        -0.37228E-01
        -0.46991E-01
        -0.53411E-01
        -0.60408E-01
        -0.50750E-01
        -0.75680E-01
        -0.76745E-01
        -0.86118E-01
        -0.10929E+00
        -0.61507E-01
        -0.67347E-01
        -0.87881E-01
        -0.66019E-01
        -0.85017E-01
        -0.15536E+00
        -0.13000E+00
        -0.98149E-01
        -0.12087E+00
        -0.15673E+00
        -0.19108E+00
        -0.21344E+00
        -0.15182E+00
        -0.88039E-01
        -0.83529E-01
        -0.11339E+00
        -0.12589E+00
        -0.92495E-01
        -0.60398E-01
        -0.65604E-01
        -0.10332E+00
        -0.13836E+00
        -0.12001E+00
        -0.21092E+00
        -0.17954E+00
        -0.18524E+00
        -0.12871E+00
        -0.94191E-01
        -0.95638E-01
        -0.12412E+00
        -0.20146E+00
        -0.30192E+00
        -0.32628E+00
        -0.28407E+00
        -0.22622E+00
        -0.14906E+00
        -0.73329E-01
        -0.44298E-01
        -0.58597E-01
        -0.10037E+00
        -0.15309E+00
        -0.16357E+00
        -0.10683E+00
        -0.50262E-01
        -0.61731E-01
        -0.14372E+00
        -0.20638E+00
        -0.19580E+00
        -0.16613E+00
        -0.12117E-01
        -0.10808E-01
        -0.64287E-02
        -0.41591E-02
         0.94140E-02
         0.27323E-01
        -0.11209E-01
        -0.97744E-02
        -0.93997E-02
        -0.57437E-02
        -0.15186E-01
        -0.24232E-01
        -0.13536E-01
        -0.16324E-01
        -0.39499E-01
        -0.10427E-01
        -0.49723E-02
        -0.10696E-01
        -0.55154E-02
        -0.59117E-02
        -0.47354E-02
        -0.15484E-01
        -0.52568E-02
        -0.73195E-02
        -0.78281E-02
        -0.88489E-02
        -0.20199E-01
        -0.31721E-01
        -0.52172E-01
        -0.21189E-01
        -0.17211E-02
        -0.19962E-02
         0.57648E-02
         0.24734E-01
         0.61711E-02
        -0.26353E-02
        -0.87146E-02
        -0.61628E-01
        -0.87067E-01
        -0.11213E+00
        -0.13131E+00
        -0.85075E-01
        -0.42846E-01
        -0.55507E-02
         0.56031E-03
         0.97842E-02
         0.13689E-01
         0.22629E-01
         0.38487E-01
         0.61113E-01
         0.81709E-01
         0.58287E-01
         0.23204E-01
         0.33621E-01
         0.10291E-01
        -0.74920E-02
        -0.21968E-01
        -0.46896E-01
        -0.86503E-01
        -0.14699E+00
        -0.21735E+00
        -0.24450E+00
        -0.21509E+00
        -0.14997E+00
        -0.82680E-01
        -0.35612E-01
        -0.15828E-01
        -0.77512E-02
        -0.16561E-02
         0.70777E-02
         0.18553E-01
         0.33601E-01
         0.57156E-01
         0.87639E-01
         0.11671E+00
         0.13072E+00
         0.10978E+00
         0.66092E-01
         0.52895E-02
         0.53127E-02
         0.78128E-02
         0.64909E-02
         0.15102E-01
         0.19468E-01
         0.35949E-02
         0.51296E-02
         0.47396E-02
         0.48745E-02
        -0.15396E-03
        -0.78802E-02
         0.41306E-04
        -0.11208E-02
        -0.18828E-01
         0.89237E-03
         0.27341E-02
         0.27595E-02
         0.38339E-03
        -0.21197E-02
        -0.36524E-02
        -0.10202E-01
        -0.28055E-02
        -0.71369E-03
        -0.15797E-02
         0.46759E-03
        -0.60640E-02
        -0.16911E-01
        -0.32697E-01
        -0.13729E-01
         0.38811E-02
         0.56544E-02
         0.63549E-02
         0.15054E-01
         0.16863E-01
         0.11322E-01
         0.53561E-02
        -0.34419E-01
        -0.50904E-01
        -0.66851E-01
        -0.79095E-01
        -0.52129E-01
        -0.26603E-01
         0.75293E-03
         0.86357E-02
         0.15781E-01
         0.13898E-01
         0.12850E-01
         0.17639E-01
         0.29187E-01
         0.41276E-01
         0.31368E-01
         0.29433E-01
         0.29670E-01
         0.21484E-01
         0.67814E-02
        -0.58245E-02
        -0.24188E-01
        -0.54316E-01
        -0.94048E-01
        -0.13221E+00
        -0.14636E+00
        -0.13123E+00
        -0.84671E-01
        -0.42857E-01
        -0.24702E-01
        -0.17527E-01
        -0.10267E-01
         0.16497E-03
         0.13890E-01
         0.24252E-01
         0.25750E-01
         0.27233E-01
         0.38029E-01
         0.57198E-01
         0.69528E-01
         0.62036E-01
         0.41873E-01
         0.24464E-02
         0.18151E-02
         0.12546E-02
         0.69206E-03
         0.51347E-03
        -0.68273E-03
         0.14086E-02
         0.23009E-02
         0.24657E-02
         0.20828E-02
         0.36337E-04
        -0.29009E-02
        -0.57065E-04
        -0.41385E-03
        -0.78597E-02
         0.49782E-03
         0.12140E-02
         0.97387E-03
        -0.68441E-03
        -0.16130E-02
        -0.43617E-02
        -0.58903E-02
        -0.48827E-02
        -0.20335E-02
        -0.11834E-02
        -0.13767E-02
        -0.29311E-02
        -0.80123E-02
        -0.15053E-01
        -0.67280E-02
        -0.55940E-03
        -0.55159E-03
        -0.13848E-02
        -0.19601E-02
         0.17334E-02
         0.17142E-02
         0.12229E-02
        -0.15434E-01
        -0.23072E-01
        -0.29630E-01
        -0.34287E-01
        -0.22839E-01
        -0.12116E-01
        -0.37582E-02
        -0.15141E-02
        -0.73867E-04
        -0.21699E-03
        -0.16779E-02
        -0.34191E-02
        -0.39291E-02
        -0.30527E-02
        -0.18910E-02
         0.46937E-02
         0.32460E-02
         0.47267E-02
         0.23961E-02
        -0.13426E-02
        -0.84919E-02
        -0.22441E-01
        -0.41999E-01
        -0.59796E-01
        -0.64597E-01
        -0.57034E-01
        -0.35715E-01
        -0.19529E-01
        -0.15862E-01
        -0.15188E-01
        -0.12562E-01
        -0.83453E-02
        -0.39624E-02
        -0.29269E-03
        -0.56748E-04
        -0.24849E-02
        -0.48391E-02
        -0.42810E-02
        -0.91684E-03
         0.24691E-02
         0.29367E-02
         0.37792E-03
         0.44800E-03
        -0.42426E-03
        -0.96263E-03
        -0.20249E-02
        -0.39168E-02
         0.39855E-03
         0.22184E-03
         0.46565E-03
         0.63673E-05
         0.39087E-04
        -0.13507E-03
         0.74043E-03
        -0.40812E-03
        -0.16832E-02
         0.38813E-03
         0.72694E-04
         0.41007E-04
        -0.83259E-03
        -0.10768E-02
        -0.28991E-02
        -0.22547E-02
        -0.33125E-02
        -0.15144E-02
        -0.79967E-03
        -0.90906E-03
        -0.10547E-02
        -0.17960E-02
        -0.30063E-02
        -0.19890E-02
        -0.58372E-03
        -0.85244E-03
        -0.20223E-02
        -0.40940E-02
        -0.76101E-03
         0.23005E-03
         0.95249E-03
        -0.32743E-02
        -0.40278E-02
        -0.43916E-02
        -0.47885E-02
        -0.38643E-02
        -0.26477E-02
        -0.28206E-02
        -0.22686E-02
        -0.21277E-02
        -0.16018E-02
        -0.25398E-02
        -0.50385E-02
        -0.74561E-02
        -0.86629E-02
        -0.65435E-02
         0.97003E-03
        -0.88081E-03
         0.30314E-02
         0.35449E-02
         0.21434E-02
        -0.70022E-04
        -0.39548E-02
        -0.83390E-02
        -0.97821E-02
        -0.81452E-02
        -0.74891E-02
        -0.59786E-02
        -0.46833E-02
        -0.72879E-02
        -0.85855E-02
        -0.76547E-02
        -0.61333E-02
        -0.53921E-02
        -0.39364E-02
        -0.30138E-02
        -0.48407E-02
        -0.86523E-02
        -0.11137E-01
        -0.10429E-01
        -0.70265E-02
        -0.35465E-02
        -0.14757E-03
         0.36207E-03
        -0.18200E-03
        -0.78264E-03
        -0.11477E-02
        -0.26849E-02
         0.20562E-03
        -0.56628E-03
        -0.31551E-03
        -0.99071E-03
         0.45069E-04
         0.89981E-03
         0.12322E-02
        -0.50165E-03
         0.88299E-03
         0.32368E-03
        -0.53173E-03
        -0.54630E-04
        -0.10857E-02
        -0.98009E-03
        -0.26898E-02
        -0.86585E-03
        -0.29586E-02
        -0.13922E-02
        -0.73915E-03
        -0.53488E-03
        -0.43935E-03
         0.79866E-03
         0.25285E-02
         0.14187E-03
         0.68132E-05
        -0.22799E-03
        -0.11712E-02
        -0.26269E-02
         0.33107E-03
         0.94877E-03
         0.13950E-02
         0.20459E-02
         0.44099E-02
         0.71446E-02
         0.92965E-02
         0.53943E-02
         0.18807E-02
        -0.22069E-02
        -0.15710E-02
        -0.13249E-02
        -0.61710E-03
        -0.11640E-02
        -0.29947E-02
        -0.45930E-02
        -0.52593E-02
        -0.41664E-02
         0.28421E-02
         0.65709E-03
         0.43955E-02
         0.44455E-02
         0.35236E-02
         0.29926E-02
         0.39002E-02
         0.73989E-02
         0.13402E-01
         0.18433E-01
         0.16803E-01
         0.96104E-02
         0.27820E-02
        -0.40097E-02
        -0.69276E-02
        -0.67554E-02
        -0.53923E-02
        -0.46096E-02
        -0.30626E-02
        -0.15690E-02
        -0.24613E-02
        -0.49699E-02
        -0.62368E-02
        -0.54352E-02
        -0.34452E-02
        -0.15792E-02
        -0.27950E-03
         0.28297E-03
        -0.39802E-04
        -0.61886E-03
        -0.77179E-03
        -0.22264E-02
        -0.34875E-04
        -0.94620E-03
        -0.60120E-03
        -0.14741E-02
        -0.18587E-03
         0.90422E-03
         0.92927E-03
        -0.67877E-03
         0.18226E-02
         0.27703E-03
        -0.82493E-03
         0.10878E-04
        -0.13097E-02
        -0.95829E-03
        -0.28383E-02
        -0.60047E-04
        -0.35999E-02
        -0.16786E-02
        -0.79228E-03
        -0.69825E-03
        -0.24657E-03
         0.18301E-02
         0.49342E-02
         0.10649E-02
         0.99596E-04
        -0.44331E-03
        -0.93963E-03
        -0.22165E-02
         0.72842E-03
         0.10350E-02
         0.11455E-02
         0.44744E-02
         0.81769E-02
         0.12183E-01
         0.15870E-01
         0.99645E-02
         0.43137E-02
        -0.30307E-02
        -0.25429E-02
        -0.25317E-02
        -0.13394E-02
        -0.15036E-02
        -0.29538E-02
        -0.41581E-02
        -0.44754E-02
        -0.34564E-02
         0.34469E-02
         0.12118E-02
         0.41859E-02
         0.35417E-02
         0.28750E-02
         0.33985E-02
         0.70588E-02
         0.15106E-01
         0.24546E-01
         0.30411E-01
         0.28709E-01
         0.18381E-01
         0.77516E-02
        -0.18817E-02
        -0.71608E-02
        -0.85754E-02
        -0.79618E-02
        -0.73180E-02
        -0.54208E-02
        -0.35289E-02
        -0.39111E-02
        -0.55575E-02
        -0.58510E-02
        -0.42371E-02
        -0.20882E-02
        -0.75457E-03
        -0.32911E-03
         0.25123E-03
        -0.90207E-04
        -0.71382E-03
        -0.93724E-03
        -0.26623E-02
        -0.14751E-03
        -0.11953E-02
        -0.76381E-03
        -0.18577E-02
        -0.32916E-03
         0.99672E-03
         0.83563E-03
        -0.91785E-03
         0.22858E-02
         0.25821E-03
        -0.10220E-02
         0.26736E-04
        -0.12230E-02
        -0.81288E-03
        -0.20521E-02
         0.11148E-02
        -0.30504E-02
        -0.15164E-02
        -0.94635E-03
        -0.67216E-03
        -0.37516E-03
         0.21986E-02
         0.61292E-02
         0.15845E-02
        -0.97296E-05
        -0.59839E-03
        -0.12060E-02
        -0.28279E-02
         0.68816E-03
         0.10112E-02
         0.10754E-02
         0.55647E-02
         0.10055E-01
         0.14848E-01
         0.19376E-01
         0.12556E-01
         0.61315E-02
        -0.28754E-02
        -0.27716E-02
        -0.31084E-02
        -0.20206E-02
        -0.23980E-02
        -0.41447E-02
        -0.56348E-02
        -0.60171E-02
        -0.44210E-02
         0.34994E-02
         0.10545E-02
         0.42595E-02
         0.33532E-02
         0.26438E-02
         0.39386E-02
         0.92739E-02
         0.19384E-01
         0.30939E-01
         0.37548E-01
         0.35183E-01
         0.23422E-01
         0.11887E-01
         0.12262E-02
        -0.48548E-02
        -0.70666E-02
        -0.74300E-02
        -0.76398E-02
        -0.63427E-02
        -0.51883E-02
        -0.63638E-02
        -0.85259E-02
        -0.87165E-02
        -0.63626E-02
        -0.31456E-02
        -0.11275E-02
        -0.35319E-03
         0.28593E-03
        -0.14321E-03
        -0.81994E-03
        -0.11923E-02
        -0.30827E-02
        -0.11543E-03
        -0.13363E-02
        -0.82738E-03
        -0.20524E-02
        -0.26623E-03
         0.14865E-02
         0.12644E-02
        -0.10099E-02
         0.26826E-02
         0.31541E-03
        -0.10829E-02
         0.13539E-04
        -0.11208E-02
        -0.78106E-03
        -0.17638E-02
         0.13106E-02
        -0.24591E-02
        -0.12301E-02
        -0.96385E-03
        -0.42207E-03
        -0.40337E-03
         0.26372E-02
         0.71924E-02
         0.19014E-02
        -0.80708E-04
        -0.40487E-03
        -0.14668E-02
        -0.32957E-02
         0.50108E-03
         0.10474E-02
         0.13543E-02
         0.62753E-02
         0.11666E-01
         0.17499E-01
         0.22301E-01
         0.14008E-01
         0.66510E-02
        -0.21926E-02
        -0.21119E-02
        -0.24709E-02
        -0.18536E-02
        -0.27168E-02
        -0.47652E-02
        -0.64193E-02
        -0.69363E-02
        -0.51456E-02
         0.31794E-02
         0.66600E-03
         0.45225E-02
         0.42009E-02
         0.39752E-02
         0.55755E-02
         0.10880E-01
         0.21717E-01
         0.35582E-01
         0.44414E-01
         0.40326E-01
         0.25139E-01
         0.12322E-01
         0.16123E-02
        -0.40130E-02
        -0.56500E-02
        -0.57732E-02
        -0.60835E-02
        -0.51064E-02
        -0.47459E-02
        -0.69125E-02
        -0.95583E-02
        -0.97763E-02
        -0.75556E-02
        -0.41951E-02
        -0.17288E-02
        -0.24859E-03
         0.41674E-03
        -0.46611E-04
        -0.77523E-03
        -0.12525E-02
        -0.32013E-02
        -0.15785E-04
        -0.12655E-02
        -0.76393E-03
        -0.20548E-02
        -0.12888E-03
         0.17611E-02
         0.15025E-02
        -0.85370E-03
         0.30797E-02
         0.36582E-03
        -0.11270E-02
         0.70347E-04
        -0.12514E-02
        -0.10864E-02
        -0.23022E-02
         0.33155E-03
        -0.28424E-02
        -0.13741E-02
        -0.11346E-02
        -0.46729E-03
        -0.28605E-03
         0.26127E-02
         0.67809E-02
         0.13995E-02
        -0.82191E-04
        -0.38146E-03
        -0.15101E-02
        -0.33480E-02
         0.55565E-03
         0.12297E-02
         0.16075E-02
         0.66921E-02
         0.12081E-01
         0.17633E-01
         0.21495E-01
         0.12491E-01
         0.51039E-02
        -0.24150E-02
        -0.21433E-02
        -0.22998E-02
        -0.16264E-02
        -0.25075E-02
        -0.46450E-02
        -0.63707E-02
        -0.69385E-02
        -0.52312E-02
         0.31674E-02
         0.34592E-03
         0.48078E-02
         0.47984E-02
         0.46748E-02
         0.63087E-02
         0.11767E-01
         0.22496E-01
         0.36480E-01
         0.45470E-01
         0.38946E-01
         0.20730E-01
         0.80505E-02
        -0.74560E-03
        -0.52273E-02
        -0.64984E-02
        -0.63183E-02
        -0.62460E-02
        -0.47812E-02
        -0.39432E-02
        -0.59028E-02
        -0.87519E-02
        -0.93103E-02
        -0.74808E-02
        -0.44364E-02
        -0.21575E-02
        -0.26892E-03
         0.40623E-03
        -0.47708E-04
        -0.89740E-03
        -0.12598E-02
        -0.35621E-02
        -0.37092E-04
        -0.12732E-02
        -0.73613E-03
        -0.20570E-02
        -0.14500E-03
         0.18415E-02
         0.15466E-02
        -0.90515E-03
         0.30039E-02
         0.40009E-03
        -0.11443E-02
         0.79050E-04
        -0.13567E-02
        -0.13139E-02
        -0.26611E-02
        -0.35881E-03
        -0.29572E-02
        -0.14446E-02
        -0.12602E-02
        -0.43245E-03
        -0.46547E-03
         0.21946E-02
         0.60459E-02
         0.97474E-03
         0.53621E-04
        -0.16780E-03
        -0.14790E-02
        -0.35959E-02
         0.84605E-03
         0.15030E-02
         0.17767E-02
         0.59133E-02
         0.10630E-01
         0.15879E-01
         0.19755E-01
         0.11337E-01
         0.41495E-02
        -0.22769E-02
        -0.17472E-02
        -0.16460E-02
        -0.10101E-02
        -0.18908E-02
        -0.43353E-02
        -0.66765E-02
        -0.77082E-02
        -0.58755E-02
         0.37528E-02
         0.41138E-03
         0.56294E-02
         0.55002E-02
         0.49244E-02
         0.67094E-02
         0.12141E-01
         0.20616E-01
         0.31838E-01
         0.40437E-01
         0.35975E-01
         0.19146E-01
         0.60990E-02
        -0.21994E-02
        -0.58712E-02
        -0.65609E-02
        -0.58219E-02
        -0.53445E-02
        -0.36556E-02
        -0.24854E-02
        -0.40752E-02
        -0.76482E-02
        -0.97949E-02
        -0.88112E-02
        -0.56384E-02
        -0.27521E-02
        -0.38579E-03
         0.24049E-03
        -0.19275E-03
        -0.10150E-02
        -0.13886E-02
        -0.37170E-02
        -0.20946E-03
        -0.13587E-02
        -0.71366E-03
        -0.19751E-02
        -0.31917E-03
         0.16132E-02
         0.13117E-02
        -0.10412E-02
         0.26532E-02
         0.52418E-03
        -0.97324E-03
         0.73925E-04
        -0.10678E-02
        -0.98060E-03
        -0.19609E-02
         0.49434E-03
        -0.23275E-02
        -0.10844E-02
        -0.10168E-02
        -0.17921E-03
        -0.53536E-03
         0.22239E-02
         0.64172E-02
         0.14254E-02
         0.16573E-03
        -0.27347E-04
        -0.13959E-02
        -0.36227E-02
         0.71016E-03
         0.13649E-02
         0.15901E-02
         0.53169E-02
         0.99157E-02
         0.15543E-01
         0.20497E-01
         0.12699E-01
         0.53854E-02
        -0.18591E-02
        -0.15816E-02
        -0.16462E-02
        -0.95594E-03
        -0.17141E-02
        -0.41333E-02
        -0.66391E-02
        -0.78709E-02
        -0.60581E-02
         0.35786E-02
         0.37024E-03
         0.55021E-02
         0.52409E-02
         0.44989E-02
         0.63972E-02
         0.11562E-01
         0.19153E-01
         0.29366E-01
         0.38551E-01
         0.37521E-01
         0.23547E-01
         0.96271E-02
         0.23529E-03
        -0.40509E-02
        -0.52949E-02
        -0.51748E-02
        -0.52856E-02
        -0.38492E-02
        -0.25377E-02
        -0.37579E-02
        -0.73036E-02
        -0.99012E-02
        -0.91770E-02
        -0.59355E-02
        -0.28233E-02
        -0.37961E-03
         0.20194E-03
        -0.37426E-03
        -0.10422E-02
        -0.16724E-02
        -0.35810E-02
        -0.13993E-03
        -0.11864E-02
        -0.65623E-03
        -0.17192E-02
        -0.20615E-03
         0.15072E-02
         0.12410E-02
        -0.78848E-03
         0.25807E-02
         0.50752E-03
        -0.81138E-03
         0.91981E-05
        -0.91880E-03
        -0.64041E-03
        -0.16624E-02
         0.12365E-02
        -0.23840E-02
        -0.10716E-02
        -0.69806E-03
        -0.30583E-03
        -0.15885E-03
         0.27205E-02
         0.73352E-02
         0.20106E-02
         0.52731E-04
        -0.30006E-03
        -0.13646E-02
        -0.33472E-02
         0.15792E-03
         0.93407E-03
         0.13761E-02
         0.56493E-02
         0.10877E-01
         0.17237E-01
         0.23132E-01
         0.14759E-01
         0.67753E-02
        -0.22696E-02
        -0.21946E-02
        -0.22621E-02
        -0.12831E-02
        -0.17750E-02
        -0.38496E-02
        -0.59293E-02
        -0.68460E-02
        -0.54164E-02
         0.26684E-02
        -0.11650E-03
         0.45546E-02
         0.45970E-02
         0.41321E-02
         0.57855E-02
         0.10316E-01
         0.18716E-01
         0.31474E-01
         0.42864E-01
         0.43002E-01
         0.28450E-01
         0.12793E-01
         0.17696E-02
        -0.35948E-02
        -0.56690E-02
        -0.63510E-02
        -0.67206E-02
        -0.48026E-02
        -0.30187E-02
        -0.38484E-02
        -0.67034E-02
        -0.85316E-02
        -0.74002E-02
        -0.47484E-02
        -0.26695E-02
        -0.35670E-03
         0.35083E-03
        -0.27048E-03
        -0.10066E-02
        -0.14737E-02
        -0.32359E-02
         0.10299E-03
        -0.10281E-02
        -0.76193E-03
        -0.16800E-02
         0.98836E-04
         0.18521E-02
         0.15906E-02
        -0.47938E-03
         0.30682E-02
         0.16132E-03
        -0.98738E-03
        -0.18372E-03
        -0.13572E-02
        -0.91982E-03
        -0.25313E-02
         0.61590E-03
        -0.33936E-02
        -0.17157E-02
        -0.80575E-03
        -0.84409E-03
         0.85400E-04
         0.27143E-02
         0.68932E-02
         0.16920E-02
        -0.20160E-03
        -0.62990E-03
        -0.14512E-02
        -0.31827E-02
         0.28375E-03
         0.10314E-02
         0.15822E-02
         0.64099E-02
         0.11437E-01
         0.17061E-01
         0.22280E-01
         0.13838E-01
         0.61038E-02
        -0.30127E-02
        -0.25013E-02
        -0.21943E-02
        -0.12541E-02
        -0.17527E-02
        -0.37140E-02
        -0.56248E-02
        -0.63564E-02
        -0.49305E-02
         0.27952E-02
         0.10268E-03
         0.45431E-02
         0.47987E-02
         0.47119E-02
         0.61953E-02
         0.10838E-01
         0.20527E-01
         0.34081E-01
         0.43891E-01
         0.41929E-01
         0.26656E-01
         0.11410E-01
         0.12016E-03
        -0.57659E-02
        -0.76305E-02
        -0.74100E-02
        -0.67146E-02
        -0.42223E-02
        -0.25160E-02
        -0.35906E-02
        -0.62972E-02
        -0.80351E-02
        -0.67770E-02
        -0.39952E-02
        -0.22351E-02
        -0.51649E-03
         0.28151E-03
        -0.18595E-03
        -0.97582E-03
        -0.10618E-02
        -0.27754E-02
         0.36427E-05
        -0.12420E-02
        -0.92458E-03
        -0.19350E-02
        -0.48390E-04
         0.18225E-02
         0.17319E-02
        -0.80702E-03
         0.28094E-02
        -0.37313E-04
        -0.11392E-02
        -0.29310E-03
        -0.16117E-02
        -0.11863E-02
        -0.31072E-02
        -0.25976E-03
        -0.37410E-02
        -0.19928E-02
        -0.10648E-02
        -0.10297E-02
        -0.39175E-03
         0.21774E-02
         0.59697E-02
         0.11811E-02
        -0.19057E-03
        -0.63683E-03
        -0.13150E-02
        -0.28467E-02
         0.72396E-03
         0.13183E-02
         0.17866E-02
         0.59185E-02
         0.10713E-01
         0.15745E-01
         0.19753E-01
         0.11616E-01
         0.46028E-02
        -0.30599E-02
        -0.23414E-02
        -0.19557E-02
        -0.10524E-02
        -0.14636E-02
        -0.32480E-02
        -0.49495E-02
        -0.55632E-02
        -0.43130E-02
         0.35315E-02
         0.92014E-03
         0.52988E-02
         0.56120E-02
         0.53654E-02
         0.63056E-02
         0.10985E-01
         0.20750E-01
         0.33754E-01
         0.42080E-01
         0.36916E-01
         0.20635E-01
         0.71450E-02
        -0.23431E-02
        -0.72028E-02
        -0.80857E-02
        -0.69774E-02
        -0.59640E-02
        -0.37939E-02
        -0.21817E-02
        -0.31100E-02
        -0.54160E-02
        -0.67944E-02
        -0.57223E-02
        -0.31850E-02
        -0.14111E-02
        -0.53088E-03
         0.14042E-03
        -0.87728E-04
        -0.75172E-03
        -0.45234E-03
        -0.18816E-02
        -0.17915E-03
        -0.12687E-02
        -0.86305E-03
        -0.19298E-02
        -0.34816E-03
         0.10686E-02
         0.11507E-02
        -0.11052E-02
         0.17548E-02
         0.15152E-03
        -0.96249E-03
        -0.19984E-03
        -0.12420E-02
        -0.94880E-03
        -0.24977E-02
        -0.33220E-04
        -0.28764E-02
        -0.14757E-02
        -0.10102E-02
        -0.64504E-03
        -0.79022E-03
         0.18998E-02
         0.61002E-02
         0.13398E-02
         0.15736E-03
        -0.27183E-03
        -0.81474E-03
        -0.19836E-02
         0.11175E-02
         0.12667E-02
         0.13606E-02
         0.46006E-02
         0.96976E-02
         0.15615E-01
         0.20394E-01
         0.12149E-01
         0.48439E-02
        -0.23792E-02
        -0.18607E-02
        -0.14614E-02
        -0.41945E-03
        -0.51487E-03
        -0.19084E-02
        -0.32038E-02
        -0.35786E-02
        -0.28977E-02
         0.42457E-02
         0.21446E-02
         0.51647E-02
         0.47028E-02
         0.39911E-02
         0.43963E-02
         0.82949E-02
         0.17403E-01
         0.30678E-01
         0.41261E-01
         0.38406E-01
         0.22123E-01
         0.75382E-02
        -0.18910E-02
        -0.57558E-02
        -0.63075E-02
        -0.57813E-02
        -0.53088E-02
        -0.32399E-02
        -0.11279E-02
        -0.11657E-02
        -0.26475E-02
        -0.36410E-02
        -0.28964E-02
        -0.12782E-02
        -0.44238E-05
        -0.23218E-03
         0.41092E-03
         0.61929E-03
        -0.15000E-04
         0.10507E-02
         0.63154E-04
        -0.58571E-04
        -0.95042E-03
        -0.63027E-03
        -0.15657E-02
        -0.42372E-03
         0.28558E-03
         0.63467E-03
        -0.10389E-02
         0.75841E-03
         0.41729E-03
        -0.74665E-03
         0.10550E-03
        -0.90592E-03
        -0.72452E-03
        -0.17709E-02
         0.40901E-03
        -0.19447E-02
        -0.92203E-03
        -0.69626E-03
        -0.37923E-04
        -0.61086E-03
         0.21610E-02
         0.65088E-02
         0.16373E-02
         0.98597E-03
         0.72899E-03
         0.33477E-03
        -0.51821E-04
         0.25760E-02
         0.19782E-02
         0.12595E-02
         0.36432E-02
         0.91214E-02
         0.15636E-01
         0.21036E-01
         0.12867E-01
         0.52633E-02
        -0.13340E-02
        -0.46873E-03
         0.46527E-03
         0.14720E-02
         0.15628E-02
         0.73067E-03
         0.18766E-03
         0.34917E-03
         0.97612E-04
         0.64728E-02
         0.43993E-02
         0.60424E-02
         0.37872E-02
         0.21583E-02
         0.19942E-02
         0.48609E-02
         0.13342E-01
         0.27469E-01
         0.39732E-01
         0.39255E-01
         0.23984E-01
         0.83085E-02
        -0.48305E-03
        -0.36710E-02
        -0.44211E-02
        -0.41188E-02
        -0.32145E-02
        -0.45166E-03
         0.21015E-02
         0.26974E-02
         0.22039E-02
         0.18175E-02
         0.24418E-02
         0.29039E-02
         0.27740E-02
         0.34077E-03
         0.12145E-02
         0.20511E-02
         0.11015E-02
         0.38276E-02
         0.30831E-02
         0.65113E-03
        -0.21999E-03
        -0.17237E-03
        -0.86263E-03
         0.22063E-03
         0.60267E-03
         0.11825E-02
        -0.38844E-03
         0.73909E-03
         0.91810E-03
        -0.26746E-03
         0.62030E-03
        -0.17336E-03
         0.79409E-04
        -0.25749E-03
         0.22111E-02
        -0.34017E-03
         0.82142E-04
         0.38696E-04
         0.96265E-03
        -0.17607E-04
         0.28143E-02
         0.74652E-02
         0.26944E-02
         0.21359E-02
         0.20577E-02
         0.19112E-02
         0.25346E-02
         0.56291E-02
         0.40962E-02
         0.23604E-02
         0.32268E-02
         0.85656E-02
         0.15505E-01
         0.21612E-01
         0.14395E-01
         0.71878E-02
         0.32676E-03
         0.13265E-02
         0.26242E-02
         0.35422E-02
         0.37482E-02
         0.36567E-02
         0.42453E-02
         0.52224E-02
         0.41170E-02
         0.11071E-01
         0.88965E-02
         0.97838E-02
         0.55956E-02
         0.25117E-02
         0.16844E-02
         0.34413E-02
         0.10371E-01
         0.23228E-01
         0.35919E-01
         0.38385E-01
         0.26172E-01
         0.11820E-01
         0.32929E-02
        -0.32695E-03
        -0.14109E-02
        -0.13257E-02
        -0.43860E-03
         0.24828E-02
         0.48588E-02
         0.53332E-02
         0.61878E-02
         0.75106E-02
         0.87328E-02
         0.86064E-02
         0.76892E-02
         0.11379E-03
         0.95005E-03
         0.14305E-02
         0.37202E-03
         0.32170E-02
         0.22071E-02
         0.82905E-03
        -0.54208E-04
        -0.20183E-03
        -0.44177E-03
         0.10878E-02
         0.26057E-02
         0.22013E-02
         0.61684E-03
         0.35113E-02
         0.22680E-03
        -0.22445E-03
         0.61461E-04
        -0.12217E-02
         0.31430E-03
        -0.30648E-02
         0.22536E-02
        -0.47575E-02
        -0.21581E-02
         0.10623E-02
        -0.13521E-02
         0.14360E-02
         0.56051E-02
         0.12892E-01
         0.50863E-02
         0.91630E-04
        -0.14944E-02
        -0.39508E-04
         0.63557E-04
         0.42639E-02
         0.32631E-02
         0.25810E-02
         0.68919E-02
         0.14393E-01
         0.25084E-01
         0.35031E-01
         0.23987E-01
         0.11702E-01
        -0.47959E-02
        -0.49144E-02
        -0.48498E-02
        -0.23591E-02
        -0.12794E-02
        -0.14935E-02
        -0.13287E-02
        -0.48199E-03
         0.10212E-02
         0.89725E-02
         0.90950E-02
         0.91110E-02
         0.73253E-02
         0.53410E-02
         0.62725E-02
         0.98562E-02
         0.18081E-01
         0.34296E-01
         0.53823E-01
         0.61575E-01
         0.45522E-01
         0.19316E-01
         0.52375E-03
        -0.85712E-02
        -0.11484E-01
        -0.11619E-01
        -0.11064E-01
        -0.84898E-02
        -0.60203E-02
        -0.61483E-02
        -0.56581E-02
        -0.40629E-02
        -0.58218E-03
         0.37611E-02
         0.74028E-02
        -0.91490E-02
        -0.95642E-02
        -0.11490E-01
        -0.10431E-01
        -0.13986E-01
        -0.14315E-01
        -0.98274E-02
        -0.10625E-01
        -0.91983E-02
        -0.10262E-01
        -0.84469E-02
        -0.30405E-02
        -0.52561E-02
        -0.79760E-02
         0.10716E-02
        -0.13710E-01
        -0.11919E-01
        -0.92787E-02
        -0.22039E-01
        -0.16495E-01
        -0.39654E-01
        -0.27806E-01
        -0.45942E-01
        -0.29762E-01
        -0.97653E-02
        -0.26399E-01
        -0.49968E-02
         0.24843E-03
         0.77744E-02
        -0.78869E-02
        -0.17316E-01
        -0.28141E-01
        -0.15507E-01
        -0.18658E-01
        -0.16860E-01
        -0.13215E-01
        -0.75766E-02
         0.92380E-02
         0.20888E-01
         0.33618E-01
         0.43321E-01
         0.18764E-01
        -0.79608E-02
        -0.44909E-01
        -0.44705E-01
        -0.46841E-01
        -0.36208E-01
        -0.28871E-01
        -0.28730E-01
        -0.31514E-01
        -0.32537E-01
        -0.22713E-01
        -0.19366E-01
        -0.11742E-01
        -0.12625E-01
        -0.65783E-03
         0.45246E-02
         0.94504E-02
         0.17905E-01
         0.34119E-01
         0.61803E-01
         0.87784E-01
         0.87171E-01
         0.46479E-01
        -0.18408E-01
        -0.65977E-01
        -0.82931E-01
        -0.81927E-01
        -0.74274E-01
        -0.68748E-01
        -0.64139E-01
        -0.56909E-01
        -0.53030E-01
        -0.52436E-01
        -0.51997E-01
        -0.43991E-01
        -0.28450E-01
        -0.13344E-01
        -0.22654E-01
        -0.24537E-01
        -0.28165E-01
        -0.24104E-01
        -0.33645E-01
        -0.32766E-01
        -0.25464E-01
        -0.26546E-01
        -0.22775E-01
        -0.25705E-01
        -0.23936E-01
        -0.15717E-01
        -0.18546E-01
        -0.22834E-01
        -0.83996E-02
        -0.33294E-01
        -0.29514E-01
        -0.21825E-01
        -0.52113E-01
        -0.40904E-01
        -0.87710E-01
        -0.67641E-01
        -0.98325E-01
        -0.67805E-01
        -0.26122E-01
        -0.60311E-01
        -0.16311E-01
        -0.69123E-02
         0.18966E-02
        -0.26497E-01
        -0.38120E-01
        -0.61477E-01
        -0.32338E-01
        -0.38362E-01
        -0.39695E-01
        -0.33242E-01
        -0.22871E-01
         0.86959E-02
         0.30019E-01
         0.45709E-01
         0.52697E-01
         0.11101E-01
        -0.34593E-01
        -0.94646E-01
        -0.91641E-01
        -0.93608E-01
        -0.74138E-01
        -0.57729E-01
        -0.55542E-01
        -0.60727E-01
        -0.63251E-01
        -0.47083E-01
        -0.45724E-01
        -0.33318E-01
        -0.36119E-01
        -0.14560E-01
        -0.36078E-02
         0.36291E-02
         0.17082E-01
         0.46714E-01
         0.91441E-01
         0.12459E+00
         0.11100E+00
         0.37527E-01
        -0.70351E-01
        -0.14730E+00
        -0.16718E+00
        -0.15850E+00
        -0.14102E+00
        -0.12770E+00
        -0.11936E+00
        -0.10673E+00
        -0.96813E-01
        -0.93364E-01
        -0.92208E-01
        -0.81551E-01
        -0.59500E-01
        -0.35916E-01
  
SCALARS                      strain_xy  double 1
LOOKUP_TABLE default
        -0.23955E-01
         0.32850E-01
         0.10943E+00
         0.36818E-01
        -0.18323E-09
         0.96725E-10
         0.24805E-09
        -0.12555E-10
         0.23896E+00
         0.18365E+00
         0.36012E-09
         0.42534E-09
        -0.16320E-02
        -0.19910E-01
         0.69530E-10
        -0.13143E-09
        -0.20808E-01
        -0.25117E-01
        -0.15308E-09
        -0.12376E-09
        -0.46213E-02
         0.49843E-01
         0.60065E-01
        -0.13000E-10
        -0.28311E-09
        -0.62084E-10
        -0.10116E-01
         0.33109E-01
         0.36522E-10
        -0.20969E-09
         0.71671E-02
        -0.35146E-01
        -0.82023E-02
         0.94072E-11
        -0.66930E-10
        -0.12407E-09
         0.21692E-01
        -0.30944E-01
         0.46567E-10
        -0.10035E-09
         0.14111E+00
         0.15237E+00
         0.10795E-09
         0.95017E-10
         0.13727E+00
         0.74569E-01
         0.15058E-09
         0.13571E-09
        -0.42409E-01
        -0.78792E-10
         0.63611E-01
         0.17317E-09
        -0.12562E-01
         0.44065E-10
         0.73326E-02
         0.20424E-10
         0.11573E+00
         0.58180E-02
         0.17637E-09
        -0.79890E-10
         0.11184E-01
         0.48034E-01
        -0.51562E-10
         0.19816E-09
         0.21428E-01
        -0.10664E-09
         0.73581E-01
         0.11758E-11
         0.31265E+00
         0.22838E+00
         0.60332E-09
         0.39083E-09
         0.13811E+00
         0.44406E-09
         0.34605E-01
         0.10699E-09
         0.12487E+00
         0.13293E-09
         0.35209E+00
         0.34068E-09
         0.63757E+00
         0.40157E+00
         0.47276E-09
         0.41399E-09
         0.22089E+00
         0.11771E-09
         0.12647E+00
         0.21848E-09
         0.11341E+00
         0.18729E-09
         0.73241E-01
         0.18283E-01
         0.37624E-10
         0.29262E-09
         0.22716E-01
        -0.14748E-09
         0.62883E-01
        -0.30774E-10
         0.11825E+00
         0.67229E-10
         0.16066E+00
         0.16079E+00
         0.12207E-09
         0.22006E-09
         0.43201E+00
         0.26511E+00
         0.12816E-08
         0.10773E-08
         0.35147E+00
         0.58822E-09
         0.21294E+00
         0.39708E-09
         0.13998E+00
         0.37411E-09
         0.16632E+00
         0.24993E-09
         0.16764E+00
         0.15420E-09
         0.16515E+00
         0.10992E-09
         0.46146E+00
         0.14185E-09
         0.10516E+01
         0.37865E-09
         0.11155E+01
         0.89893E-09
         0.74468E+00
         0.76519E-09
         0.48446E+00
         0.39839E-09
         0.35983E+00
         0.30845E-09
         0.25581E+00
         0.31163E-09
         0.17163E+00
         0.28667E-09
         0.11632E+00
         0.27165E-09
         0.14825E+00
         0.31460E-09
         0.11667E+00
        -0.26247E-09
         0.58762E-01
        -0.40897E-09
         0.82962E-01
        -0.24927E-09
         0.12377E+00
        -0.16409E-09
         0.16720E+00
        -0.54376E-10
         0.20413E+00
         0.40149E-09
         0.22417E+00
         0.61190E-09
         0.21699E+00
         0.55904E-09
         0.30320E-01
         0.54637E-01
         0.85083E-01
         0.22950E-01
         0.13788E+00
         0.70810E-01
         0.34171E-01
         0.26123E-01
         0.14920E-01
        -0.26840E-03
         0.16032E-01
         0.27376E-03
         0.13448E-01
         0.64175E-02
         0.70907E-02
        -0.44867E-03
        -0.19490E-01
         0.21593E-02
         0.18500E-01
         0.20308E-01
         0.13777E+00
         0.20257E+00
         0.96659E-01
         0.46438E-01
        -0.99179E-02
         0.23183E-01
        -0.70217E-02
         0.34482E-01
         0.16379E+00
         0.80805E-01
        -0.11767E-02
         0.33779E-02
        -0.46208E-02
        -0.85366E-02
         0.15848E+00
         0.10914E+00
         0.51500E-01
         0.36812E-01
         0.12531E+00
         0.30265E+00
         0.49435E+00
         0.39514E+00
         0.29147E+00
         0.47699E-01
         0.10813E-01
        -0.57241E-03
         0.59463E-03
         0.88333E-03
        -0.17363E-01
        -0.56135E-01
        -0.90548E-01
        -0.17799E-01
         0.18169E+00
         0.20300E+00
         0.90157E-01
         0.11374E-01
        -0.26244E-01
        -0.13999E-01
         0.34588E-01
         0.14120E+00
         0.38070E+00
         0.71210E+00
         0.84907E+00
         0.67659E+00
         0.50196E+00
         0.38924E+00
         0.27058E+00
         0.14412E+00
         0.39018E-01
         0.22856E-02
         0.15908E-01
         0.35622E-01
         0.20173E-01
        -0.82530E-01
        -0.21832E+00
        -0.25783E+00
        -0.11157E+00
         0.90674E-01
         0.35632E-01
         0.37069E-01
         0.27320E-01
         0.11715E-02
         0.38982E-01
        -0.23485E-01
         0.38195E-01
         0.33823E-01
         0.14848E-01
         0.91396E-02
         0.23895E-01
         0.13057E-01
         0.11027E-01
         0.19034E-01
         0.31672E-01
        -0.45126E-02
        -0.14551E-01
         0.92490E-02
        -0.47288E-02
         0.29327E-01
         0.78640E-01
         0.16955E+00
         0.24961E-01
         0.78093E-03
         0.19500E-01
        -0.60656E-02
         0.22866E-01
         0.79282E-01
         0.19541E+00
         0.10906E+00
         0.16479E-02
        -0.10998E-01
        -0.18847E-01
        -0.68184E-01
         0.42338E-01
         0.12437E-01
         0.70213E-02
         0.76052E-01
         0.15832E+00
         0.28134E+00
         0.37912E+00
         0.34758E+00
         0.26941E+00
        -0.16900E-01
        -0.44428E-01
        -0.52057E-01
        -0.26687E-01
        -0.29387E-01
        -0.84356E-01
        -0.17080E+00
        -0.21722E+00
        -0.12295E+00
         0.63966E-01
         0.98209E-01
        -0.20948E-01
        -0.31989E-01
        -0.15864E-01
         0.21660E-01
         0.72599E-01
         0.15113E+00
         0.28286E+00
         0.38204E+00
         0.38859E+00
         0.41744E+00
         0.40507E+00
         0.30602E+00
         0.17848E+00
         0.60548E-01
        -0.40021E-01
        -0.10730E+00
        -0.89097E-01
        -0.54046E-01
        -0.88976E-01
        -0.23938E+00
        -0.39608E+00
        -0.37128E+00
        -0.17689E+00
         0.74686E-02
         0.69893E-02
         0.16537E-02
        -0.10929E-01
         0.51782E-02
        -0.23791E-01
        -0.11008E-01
         0.90030E-02
         0.29601E-02
        -0.29271E-03
        -0.36093E-02
         0.10659E-01
         0.19049E-01
         0.73908E-02
         0.72320E-02
         0.31616E-01
        -0.66978E-03
        -0.84137E-02
         0.11201E-01
         0.10105E-03
         0.26945E-01
         0.52153E-01
         0.11649E+00
         0.21539E-01
         0.15285E-02
         0.14191E-01
         0.69768E-02
         0.17702E-01
         0.61806E-01
         0.13941E+00
         0.77121E-01
         0.23167E-01
         0.25873E-01
         0.13034E-01
        -0.65297E-02
        -0.46328E-01
        -0.34258E-01
        -0.11072E-01
         0.66630E-01
         0.13291E+00
         0.22170E+00
         0.28966E+00
         0.24702E+00
         0.18653E+00
         0.14424E-01
         0.22605E-01
         0.32636E-01
         0.36985E-01
         0.25823E-01
        -0.23500E-02
        -0.33237E-01
        -0.44203E-01
        -0.22844E-01
        -0.79757E-01
        -0.41971E-01
        -0.62149E-01
        -0.26063E-01
         0.17609E-02
         0.33737E-01
         0.68243E-01
         0.12977E+00
         0.24938E+00
         0.33523E+00
         0.35259E+00
         0.35636E+00
         0.30683E+00
         0.20844E+00
         0.12105E+00
         0.64261E-01
         0.30966E-01
         0.17951E-01
         0.28022E-01
         0.32593E-01
         0.42668E-02
        -0.52784E-01
        -0.94743E-01
        -0.76067E-01
        -0.20743E-01
        -0.20625E-02
        -0.13485E-02
         0.92646E-03
        -0.31861E-02
         0.50528E-02
        -0.32310E-02
         0.15718E-01
         0.45965E-02
        -0.14757E-02
        -0.48426E-02
        -0.31919E-02
         0.62624E-02
         0.13192E-01
         0.91063E-02
         0.33254E-02
         0.18439E-01
        -0.39447E-02
        -0.30383E-02
         0.93736E-03
         0.18480E-02
         0.22238E-01
         0.30836E-01
         0.72302E-01
         0.15373E-01
         0.11748E-02
         0.11048E-01
         0.59173E-02
         0.10977E-01
         0.40031E-01
         0.91335E-01
         0.52356E-01
         0.14745E-01
         0.21457E-01
         0.13718E-01
         0.16733E-01
        -0.16155E-01
        -0.87990E-02
         0.20283E-02
         0.41325E-01
         0.87124E-01
         0.14991E+00
         0.20196E+00
         0.16510E+00
         0.11932E+00
         0.19194E-01
         0.30183E-01
         0.37304E-01
         0.33902E-01
         0.28140E-01
         0.23932E-01
         0.25165E-01
         0.32476E-01
         0.28112E-01
        -0.30450E-01
        -0.75869E-02
        -0.14009E-01
         0.41785E-03
         0.92836E-02
         0.21066E-01
         0.40557E-01
         0.85812E-01
         0.18037E+00
         0.26147E+00
         0.28709E+00
         0.26405E+00
         0.19643E+00
         0.12089E+00
         0.70843E-01
         0.47787E-01
         0.41946E-01
         0.41860E-01
         0.40747E-01
         0.36804E-01
         0.26676E-01
         0.17605E-01
         0.24133E-01
         0.46469E-01
         0.55226E-01
         0.34818E-01
        -0.17428E-02
         0.21552E-02
         0.33632E-02
         0.18004E-02
         0.90523E-02
         0.13503E-01
         0.18628E-02
        -0.13473E-02
        -0.37782E-02
        -0.11155E-02
         0.10294E-02
         0.26039E-02
         0.42792E-02
         0.12819E-03
         0.49020E-02
        -0.48672E-02
        -0.80488E-03
        -0.33833E-02
        -0.50523E-03
         0.12405E-01
         0.10610E-01
         0.33149E-01
         0.32190E-02
        -0.25436E-02
         0.79125E-02
        -0.85545E-03
         0.62290E-02
         0.23843E-01
         0.53207E-01
         0.30087E-01
         0.24518E-02
         0.50476E-02
         0.42431E-02
         0.10012E-01
         0.63125E-02
         0.46403E-02
         0.48246E-02
         0.20594E-01
         0.49266E-01
         0.86806E-01
         0.11791E+00
         0.93014E-01
         0.61656E-01
         0.56729E-02
         0.98543E-02
         0.11784E-01
         0.10358E-01
         0.10894E-01
         0.14903E-01
         0.20742E-01
         0.25045E-01
         0.19500E-01
         0.67538E-02
         0.15320E-01
         0.41406E-02
         0.52780E-02
         0.46656E-02
         0.33512E-02
         0.11070E-01
         0.41939E-01
         0.10183E+00
         0.15338E+00
         0.17472E+00
         0.14960E+00
         0.94470E-01
         0.50331E-01
         0.26070E-01
         0.17763E-01
         0.17685E-01
         0.16986E-01
         0.13284E-01
         0.12496E-01
         0.16414E-01
         0.24516E-01
         0.32312E-01
         0.35047E-01
         0.30184E-01
         0.23173E-01
        -0.11776E-02
         0.69284E-03
         0.28609E-02
         0.36127E-03
         0.82435E-02
         0.75720E-02
        -0.31742E-03
        -0.10952E-02
        -0.17527E-02
         0.37660E-04
        -0.14911E-02
        -0.23171E-02
         0.71942E-04
        -0.12071E-02
        -0.14966E-02
        -0.25959E-02
         0.36639E-03
        -0.23673E-02
        -0.13339E-02
         0.48376E-02
        -0.37023E-03
         0.86114E-02
        -0.25752E-02
        -0.31016E-02
         0.45180E-02
        -0.20467E-02
         0.28724E-02
         0.10967E-01
         0.22127E-01
         0.12430E-01
        -0.46033E-03
         0.45394E-04
         0.57809E-03
         0.36655E-02
         0.75696E-02
         0.34865E-02
         0.14436E-02
         0.70459E-02
         0.20722E-01
         0.35984E-01
         0.46909E-01
         0.35305E-01
         0.21017E-01
        -0.78369E-03
         0.10484E-02
         0.21426E-02
         0.24219E-02
         0.35333E-02
         0.61202E-02
         0.94943E-02
         0.11776E-01
         0.89261E-02
         0.10706E-01
         0.15594E-01
         0.23732E-02
         0.13211E-02
        -0.22962E-03
        -0.46944E-02
        -0.35077E-02
         0.12423E-01
         0.41553E-01
         0.63349E-01
         0.70455E-01
         0.55125E-01
         0.27789E-01
         0.90974E-02
         0.16288E-02
         0.96140E-03
         0.27933E-02
         0.30435E-02
         0.25068E-02
         0.38915E-02
         0.78962E-02
         0.13586E-01
         0.18054E-01
         0.17715E-01
         0.13701E-01
         0.12913E-01
        -0.59497E-03
         0.20022E-03
         0.21905E-02
         0.61558E-03
         0.69199E-02
         0.64353E-02
        -0.48979E-03
        -0.39576E-03
        -0.48494E-03
         0.77627E-03
        -0.13585E-02
        -0.25287E-02
        -0.76516E-03
        -0.10431E-02
        -0.32511E-02
        -0.91169E-03
         0.98962E-03
        -0.10711E-02
        -0.11406E-02
         0.12772E-02
        -0.39047E-02
        -0.26037E-02
        -0.32572E-02
        -0.22019E-02
         0.25869E-02
        -0.11293E-02
         0.93470E-03
         0.33159E-02
         0.46607E-02
         0.31417E-02
         0.18842E-03
         0.29348E-03
         0.73549E-03
         0.27347E-02
         0.59365E-02
         0.21017E-02
         0.16620E-03
        -0.85279E-03
         0.29253E-02
         0.54226E-02
         0.53047E-02
         0.34357E-02
         0.44289E-04
        -0.13884E-02
         0.26814E-03
         0.17926E-02
         0.24702E-02
         0.31659E-02
         0.44085E-02
         0.63629E-02
         0.83579E-02
         0.69706E-02
         0.86054E-02
         0.13267E-01
         0.10295E-02
        -0.18557E-03
        -0.14650E-02
        -0.49764E-02
        -0.75301E-02
        -0.50577E-02
         0.20454E-02
         0.48549E-02
         0.45457E-02
        -0.19484E-03
        -0.81292E-02
        -0.94900E-02
        -0.64214E-02
        -0.33571E-02
        -0.52742E-03
         0.87812E-03
         0.23796E-02
         0.41519E-02
         0.63307E-02
         0.89671E-02
         0.11536E-01
         0.12632E-01
         0.11556E-01
         0.11457E-01
        -0.22832E-03
         0.32173E-03
         0.21757E-02
         0.10409E-02
         0.67161E-02
         0.69091E-02
        -0.17809E-03
         0.17469E-03
         0.93728E-04
         0.12678E-02
        -0.96822E-03
        -0.22575E-02
        -0.64021E-03
        -0.75880E-03
        -0.38650E-02
        -0.27156E-03
         0.12714E-02
        -0.56823E-03
        -0.86854E-03
        -0.16927E-03
        -0.49325E-02
        -0.72371E-02
        -0.30496E-02
        -0.15554E-02
         0.18578E-02
        -0.63591E-03
         0.17222E-03
         0.15286E-03
        -0.25531E-02
        -0.78382E-03
         0.53638E-03
         0.44897E-03
         0.12500E-02
         0.33874E-02
         0.55079E-02
         0.20169E-02
         0.19929E-03
        -0.44114E-02
        -0.48927E-02
        -0.74343E-02
        -0.12181E-01
        -0.10235E-01
        -0.91472E-02
        -0.12730E-02
         0.20111E-03
         0.18018E-02
         0.26120E-02
         0.35133E-02
         0.49298E-02
         0.69460E-02
         0.90574E-02
         0.77799E-02
         0.78499E-02
         0.12485E-01
         0.12954E-02
        -0.98825E-04
        -0.14351E-02
        -0.45174E-02
        -0.87934E-02
        -0.13026E-01
        -0.16366E-01
        -0.21158E-01
        -0.24143E-01
        -0.25753E-01
        -0.25040E-01
        -0.17423E-01
        -0.93962E-02
        -0.45485E-02
        -0.12644E-02
         0.53083E-03
         0.25474E-02
         0.44767E-02
         0.66284E-02
         0.93432E-02
         0.11793E-01
         0.13183E-01
         0.12708E-01
         0.12110E-01
        -0.57484E-04
         0.43939E-03
         0.22638E-02
         0.11956E-02
         0.70007E-02
         0.75297E-02
         0.30770E-04
         0.50686E-03
         0.35625E-03
         0.15772E-02
        -0.79521E-03
        -0.22491E-02
        -0.55966E-03
        -0.59982E-03
        -0.41942E-02
        -0.35356E-04
         0.14341E-02
        -0.48307E-03
        -0.11160E-02
        -0.92218E-03
        -0.66851E-02
        -0.98489E-02
        -0.42751E-02
        -0.18519E-02
         0.16540E-02
        -0.66476E-03
        -0.58745E-04
        -0.98367E-03
        -0.52122E-02
        -0.23178E-02
         0.52716E-03
         0.34742E-03
         0.13894E-02
         0.39112E-02
         0.55782E-02
         0.20130E-02
         0.24538E-03
        -0.59116E-02
        -0.80524E-02
        -0.12332E-01
        -0.18712E-01
        -0.15365E-01
        -0.12899E-01
        -0.19783E-02
        -0.18333E-03
         0.16336E-02
         0.25466E-02
         0.36332E-02
         0.54875E-02
         0.80199E-02
         0.10424E-01
         0.88048E-02
         0.78729E-02
         0.12900E-01
         0.12414E-02
        -0.75626E-04
        -0.14263E-02
        -0.46116E-02
        -0.94937E-02
        -0.16509E-01
        -0.24639E-01
        -0.31902E-01
        -0.35114E-01
        -0.35123E-01
        -0.31679E-01
        -0.22510E-01
        -0.13717E-01
        -0.76060E-02
        -0.30428E-02
        -0.22150E-03
         0.24628E-02
         0.45896E-02
         0.71999E-02
         0.10788E-01
         0.13808E-01
         0.15115E-01
         0.14093E-01
         0.13005E-01
         0.48490E-04
         0.59647E-03
         0.25821E-02
         0.12724E-02
         0.78954E-02
         0.83931E-02
         0.18867E-03
         0.73840E-03
         0.50942E-03
         0.18407E-02
        -0.71263E-03
        -0.23311E-02
        -0.52777E-03
        -0.49231E-03
        -0.44843E-02
         0.50524E-05
         0.15761E-02
        -0.53753E-03
        -0.16459E-02
        -0.14191E-02
        -0.86226E-02
        -0.11853E-01
        -0.59098E-02
        -0.25950E-02
         0.16643E-02
        -0.93578E-03
        -0.10675E-03
        -0.16308E-02
        -0.68056E-02
        -0.30537E-02
         0.57955E-03
         0.41571E-03
         0.14709E-02
         0.43248E-02
         0.63356E-02
         0.22798E-02
         0.31401E-03
        -0.68229E-02
        -0.10180E-01
        -0.15917E-01
        -0.23167E-01
        -0.18299E-01
        -0.15080E-01
        -0.28851E-02
        -0.32544E-03
         0.21073E-02
         0.31420E-02
         0.42670E-02
         0.63678E-02
         0.92945E-02
         0.11984E-01
         0.98994E-02
         0.89645E-02
         0.14585E-01
         0.13160E-02
        -0.12740E-03
        -0.15766E-02
        -0.49962E-02
        -0.10382E-01
        -0.18958E-01
        -0.30410E-01
        -0.40603E-01
        -0.43007E-01
        -0.40171E-01
        -0.35776E-01
        -0.26489E-01
        -0.17587E-01
        -0.10564E-01
        -0.46737E-02
        -0.46387E-03
         0.32441E-02
         0.56865E-02
         0.87211E-02
         0.13118E-01
         0.16655E-01
         0.17595E-01
         0.15727E-01
         0.14412E-01
         0.11408E-03
         0.79434E-03
         0.28423E-02
         0.12569E-02
         0.82800E-02
         0.85090E-02
         0.34904E-03
         0.87020E-03
         0.56673E-03
         0.19664E-02
        -0.63011E-03
        -0.23341E-02
        -0.35730E-03
        -0.42716E-03
        -0.45935E-02
        -0.38909E-04
         0.16438E-02
        -0.60581E-03
        -0.17461E-02
        -0.14935E-02
        -0.89389E-02
        -0.12254E-01
        -0.62103E-02
        -0.27806E-02
         0.15837E-02
        -0.98832E-03
        -0.14143E-03
        -0.22641E-02
        -0.86161E-02
        -0.36838E-02
         0.68757E-03
         0.62863E-03
         0.14983E-02
         0.42917E-02
         0.68965E-02
         0.27109E-02
         0.61234E-03
        -0.71727E-02
        -0.11565E-01
        -0.19273E-01
        -0.28272E-01
        -0.21669E-01
        -0.16500E-01
        -0.29287E-02
         0.92523E-05
         0.27816E-02
         0.38213E-02
         0.48938E-02
         0.68241E-02
         0.94957E-02
         0.12032E-01
         0.98821E-02
         0.97709E-02
         0.15223E-01
         0.18760E-02
         0.24560E-03
        -0.14694E-02
        -0.52592E-02
        -0.10780E-01
        -0.19640E-01
        -0.33085E-01
        -0.47244E-01
        -0.52031E-01
        -0.46878E-01
        -0.37968E-01
        -0.26952E-01
        -0.18132E-01
        -0.10981E-01
        -0.46395E-02
         0.17118E-03
         0.42419E-02
         0.68217E-02
         0.99563E-02
         0.14162E-01
         0.17214E-01
         0.17681E-01
         0.15689E-01
         0.14579E-01
         0.31786E-04
         0.78340E-03
         0.29735E-02
         0.12869E-02
         0.85587E-02
         0.86397E-02
         0.32767E-03
         0.82017E-03
         0.50133E-03
         0.20033E-02
        -0.63897E-03
        -0.23066E-02
        -0.26630E-03
        -0.46201E-03
        -0.47587E-02
        -0.79242E-04
         0.17033E-02
        -0.65434E-03
        -0.16767E-02
        -0.14765E-02
        -0.89228E-02
        -0.12733E-01
        -0.60364E-02
        -0.26783E-02
         0.16527E-02
        -0.87726E-03
        -0.95337E-04
        -0.23676E-02
        -0.95616E-02
        -0.40683E-02
         0.84644E-03
         0.88361E-03
         0.16230E-02
         0.43637E-02
         0.73052E-02
         0.29812E-02
         0.72905E-03
        -0.72641E-02
        -0.11748E-01
        -0.20647E-01
        -0.31561E-01
        -0.24391E-01
        -0.18049E-01
        -0.26207E-02
         0.45622E-03
         0.33647E-02
         0.43534E-02
         0.53473E-02
         0.70957E-02
         0.95382E-02
         0.11972E-01
         0.99072E-02
         0.10410E-01
         0.15628E-01
         0.23537E-02
         0.52205E-03
        -0.11581E-02
        -0.50515E-02
        -0.11172E-01
        -0.20160E-01
        -0.33035E-01
        -0.49393E-01
        -0.58614E-01
        -0.53760E-01
        -0.41733E-01
        -0.28058E-01
        -0.18294E-01
        -0.10810E-01
        -0.41602E-02
         0.90692E-03
         0.50561E-02
         0.76153E-02
         0.10561E-01
         0.14336E-01
         0.16979E-01
         0.17432E-01
         0.15727E-01
         0.14721E-01
        -0.25493E-05
         0.70590E-03
         0.30206E-02
         0.13904E-02
         0.90587E-02
         0.93513E-02
         0.31267E-03
         0.77724E-03
         0.44274E-03
         0.19335E-02
        -0.61151E-03
        -0.22140E-02
        -0.26973E-03
        -0.54606E-03
        -0.49541E-02
        -0.14995E-03
         0.16202E-02
        -0.67650E-03
        -0.17161E-02
        -0.16853E-02
        -0.89342E-02
        -0.13419E-01
        -0.57993E-02
        -0.25817E-02
         0.16540E-02
        -0.86688E-03
        -0.18304E-03
        -0.21904E-02
        -0.92336E-02
        -0.41902E-02
         0.83259E-03
         0.84858E-03
         0.16800E-02
         0.46624E-02
         0.76173E-02
         0.29533E-02
         0.57565E-03
        -0.74468E-02
        -0.11316E-01
        -0.19731E-01
        -0.30916E-01
        -0.24530E-01
        -0.18898E-01
        -0.24804E-02
         0.49151E-03
         0.33547E-02
         0.43088E-02
         0.52883E-02
         0.71111E-02
         0.98616E-02
         0.12765E-01
         0.10770E-01
         0.10998E-01
         0.16740E-01
         0.22202E-02
         0.25787E-03
        -0.10899E-02
        -0.47764E-02
        -0.11635E-01
        -0.20933E-01
        -0.31850E-01
        -0.47350E-01
        -0.58221E-01
        -0.55222E-01
        -0.44811E-01
        -0.29737E-01
        -0.18299E-01
        -0.10488E-01
        -0.39881E-02
         0.10045E-02
         0.51125E-02
         0.75475E-02
         0.10260E-01
         0.14054E-01
         0.17240E-01
         0.18619E-01
         0.17441E-01
         0.16153E-01
         0.41032E-04
         0.68709E-03
         0.27968E-02
         0.12744E-02
         0.87640E-02
         0.91680E-02
         0.42378E-03
         0.78820E-03
         0.43516E-03
         0.17951E-02
        -0.47231E-03
        -0.19663E-02
        -0.16354E-03
        -0.58334E-03
        -0.48606E-02
        -0.26307E-03
         0.14627E-02
        -0.69416E-03
        -0.17268E-02
        -0.18217E-02
        -0.83614E-02
        -0.13035E-01
        -0.53634E-02
        -0.24836E-02
         0.14964E-02
        -0.96365E-03
        -0.41696E-03
        -0.22433E-02
        -0.87782E-02
        -0.41821E-02
         0.70857E-03
         0.66883E-03
         0.15746E-02
         0.45324E-02
         0.72974E-02
         0.26783E-02
         0.45860E-03
        -0.75897E-02
        -0.11217E-01
        -0.18674E-01
        -0.29003E-01
        -0.23344E-01
        -0.18357E-01
        -0.24159E-02
         0.36319E-03
         0.31330E-02
         0.40467E-02
         0.50260E-02
         0.68804E-02
         0.97412E-02
         0.12768E-01
         0.10698E-01
         0.10726E-01
         0.16556E-01
         0.18526E-02
        -0.17362E-04
        -0.10794E-02
        -0.44632E-02
        -0.11328E-01
        -0.20894E-01
        -0.31463E-01
        -0.44930E-01
        -0.54393E-01
        -0.52381E-01
        -0.43268E-01
        -0.28410E-01
        -0.16749E-01
        -0.95571E-02
        -0.38149E-02
         0.94003E-03
         0.49339E-02
         0.72044E-02
         0.97395E-02
         0.13596E-01
         0.17164E-01
         0.18842E-01
         0.17633E-01
         0.16163E-01
         0.12114E-03
         0.75427E-03
         0.26679E-02
         0.11755E-02
         0.80885E-02
         0.82293E-02
         0.47466E-03
         0.74872E-03
         0.49053E-03
         0.17026E-02
        -0.49692E-03
        -0.19337E-02
        -0.10075E-03
        -0.73332E-03
        -0.49189E-02
        -0.21285E-03
         0.15013E-02
        -0.58832E-03
        -0.16382E-02
        -0.16343E-02
        -0.80396E-02
        -0.12363E-01
        -0.51963E-02
        -0.24461E-02
         0.14990E-02
        -0.96223E-03
        -0.62612E-03
        -0.22734E-02
        -0.83639E-02
        -0.38537E-02
         0.77060E-03
         0.71114E-03
         0.15696E-02
         0.41714E-02
         0.68992E-02
         0.26040E-02
         0.50274E-03
        -0.77817E-02
        -0.11338E-01
        -0.18119E-01
        -0.27556E-01
        -0.21946E-01
        -0.17132E-01
        -0.23650E-02
         0.41601E-03
         0.31888E-02
         0.40791E-02
         0.50141E-02
         0.67089E-02
         0.91830E-02
         0.11701E-01
         0.95925E-02
         0.10156E-01
         0.15233E-01
         0.17900E-02
        -0.89805E-04
        -0.10974E-02
        -0.43773E-02
        -0.10958E-01
        -0.20713E-01
        -0.31818E-01
        -0.43671E-01
        -0.51070E-01
        -0.48462E-01
        -0.39772E-01
        -0.27089E-01
        -0.15909E-01
        -0.89809E-02
        -0.34990E-02
         0.11334E-02
         0.49848E-02
         0.71711E-02
         0.96435E-02
         0.13280E-01
         0.16340E-01
         0.17270E-01
         0.15621E-01
         0.14367E-01
         0.25012E-03
         0.82986E-03
         0.26915E-02
         0.12647E-02
         0.77438E-02
         0.77484E-02
         0.46992E-03
         0.76459E-03
         0.61470E-03
         0.16928E-02
        -0.56341E-03
        -0.19969E-02
        -0.12840E-03
        -0.80374E-03
        -0.49642E-02
        -0.48442E-05
         0.15737E-02
        -0.36091E-03
        -0.16864E-02
        -0.16424E-02
        -0.85076E-02
        -0.12410E-01
        -0.56475E-02
        -0.25777E-02
         0.13976E-02
        -0.89877E-03
        -0.74080E-03
        -0.26308E-02
        -0.90578E-02
        -0.39912E-02
         0.89410E-03
         0.76480E-03
         0.16690E-02
         0.40926E-02
         0.66812E-02
         0.26116E-02
         0.54395E-03
        -0.80191E-02
        -0.12233E-01
        -0.19926E-01
        -0.29762E-01
        -0.22737E-01
        -0.17010E-01
        -0.25693E-02
         0.30327E-03
         0.29829E-02
         0.38915E-02
         0.48354E-02
         0.65151E-02
         0.88726E-02
         0.11150E-01
         0.90312E-02
         0.97232E-02
         0.14362E-01
         0.17497E-02
        -0.89355E-04
        -0.11131E-02
        -0.43672E-02
        -0.10674E-01
        -0.20870E-01
        -0.34069E-01
        -0.48493E-01
        -0.55571E-01
        -0.49237E-01
        -0.38133E-01
        -0.27065E-01
        -0.16891E-01
        -0.97686E-02
        -0.38730E-02
         0.87297E-03
         0.45478E-02
         0.66551E-02
         0.92015E-02
         0.12795E-01
         0.15750E-01
         0.16420E-01
         0.14428E-01
         0.13211E-01
         0.23882E-03
         0.66451E-03
         0.24116E-02
         0.11181E-02
         0.71690E-02
         0.70981E-02
         0.38156E-03
         0.82948E-03
         0.64549E-03
         0.17529E-02
        -0.41628E-03
        -0.17153E-02
        -0.24301E-03
        -0.44032E-03
        -0.41736E-02
         0.54861E-04
         0.14718E-02
        -0.32694E-03
        -0.17649E-02
        -0.19379E-02
        -0.86216E-02
        -0.12725E-01
        -0.56641E-02
        -0.25394E-02
         0.11594E-02
        -0.85563E-03
        -0.46404E-03
        -0.29768E-02
        -0.10203E-01
        -0.45759E-02
         0.77275E-03
         0.63859E-03
         0.14809E-02
         0.37200E-02
         0.61261E-02
         0.22488E-02
         0.30686E-03
        -0.73236E-02
        -0.12636E-01
        -0.22017E-01
        -0.32932E-01
        -0.24603E-01
        -0.17824E-01
        -0.26333E-02
         0.92002E-04
         0.26006E-02
         0.34679E-02
         0.43161E-02
         0.58943E-02
         0.81436E-02
         0.10242E-01
         0.82309E-02
         0.89642E-02
         0.13460E-01
         0.13092E-02
        -0.32104E-03
        -0.10927E-02
        -0.37425E-02
        -0.93502E-02
        -0.19496E-01
        -0.34900E-01
        -0.53396E-01
        -0.62136E-01
        -0.52846E-01
        -0.38839E-01
        -0.27074E-01
        -0.16868E-01
        -0.99342E-02
        -0.42675E-02
         0.36246E-03
         0.39973E-02
         0.59833E-02
         0.82525E-02
         0.11556E-01
         0.14492E-01
         0.15152E-01
         0.13164E-01
         0.12189E-01
         0.23681E-03
         0.46337E-03
         0.18190E-02
         0.74767E-03
         0.58740E-02
         0.57154E-02
         0.33774E-03
         0.90825E-03
         0.64317E-03
         0.17855E-02
        -0.24396E-03
        -0.14689E-02
        -0.36560E-03
        -0.51103E-04
        -0.32976E-02
         0.22968E-05
         0.13066E-02
        -0.38488E-03
        -0.15379E-02
        -0.18629E-02
        -0.74779E-02
        -0.11453E-01
        -0.48734E-02
        -0.21776E-02
         0.10155E-02
        -0.80977E-03
        -0.19990E-04
        -0.27306E-02
        -0.10094E-01
        -0.45832E-02
         0.51073E-03
         0.43580E-03
         0.10333E-02
         0.27767E-02
         0.48028E-02
         0.14456E-02
        -0.60518E-04
        -0.59700E-02
        -0.11351E-01
        -0.21128E-01
        -0.32157E-01
        -0.24011E-01
        -0.16869E-01
        -0.23888E-02
        -0.52297E-04
         0.22793E-02
         0.30299E-02
         0.36151E-02
         0.47555E-02
         0.64208E-02
         0.80097E-02
         0.64260E-02
         0.70799E-02
         0.11443E-01
         0.18610E-03
        -0.83058E-03
        -0.11840E-02
        -0.33292E-02
        -0.79945E-02
        -0.16640E-01
        -0.31328E-01
        -0.50379E-01
        -0.60491E-01
        -0.51410E-01
        -0.36050E-01
        -0.23826E-01
        -0.14629E-01
        -0.87377E-02
        -0.40235E-02
         0.78836E-04
         0.36550E-02
         0.53799E-02
         0.69466E-02
         0.93832E-02
         0.11582E-01
         0.11936E-01
         0.10475E-01
         0.10193E-01
         0.32781E-03
         0.28344E-03
         0.98178E-03
         0.17756E-03
         0.40331E-02
         0.37604E-02
         0.22399E-03
         0.91502E-03
         0.64713E-03
         0.16484E-02
        -0.58161E-03
        -0.21690E-02
        -0.84820E-03
        -0.35023E-03
        -0.39826E-02
        -0.95421E-04
         0.11654E-02
        -0.51226E-03
        -0.13228E-02
        -0.16806E-02
        -0.63272E-02
        -0.10074E-01
        -0.42391E-02
        -0.19603E-02
         0.75551E-03
        -0.94634E-03
        -0.37680E-03
        -0.32246E-02
        -0.10840E-01
        -0.47492E-02
        -0.22590E-04
        -0.11227E-03
         0.18210E-03
         0.12052E-02
         0.26301E-02
        -0.92713E-04
        -0.78724E-03
        -0.65645E-02
        -0.12117E-01
        -0.22325E-01
        -0.34010E-01
        -0.25087E-01
        -0.16385E-01
        -0.24553E-02
        -0.73844E-03
         0.11692E-02
         0.18549E-02
         0.21729E-02
         0.27334E-02
         0.36261E-02
         0.46735E-02
         0.38058E-02
         0.38586E-02
         0.87424E-02
        -0.25284E-02
        -0.20660E-02
        -0.19390E-02
        -0.44754E-02
        -0.92013E-02
        -0.17384E-01
        -0.32475E-01
        -0.52265E-01
        -0.63732E-01
        -0.53920E-01
        -0.33839E-01
        -0.20232E-01
        -0.12355E-01
        -0.75077E-02
        -0.39869E-02
        -0.95090E-03
         0.21967E-02
         0.36289E-02
         0.45425E-02
         0.59194E-02
         0.71437E-02
         0.73910E-02
         0.68759E-02
         0.74717E-02
         0.44488E-03
        -0.13749E-03
        -0.60007E-03
        -0.12145E-02
         0.82179E-03
        -0.30822E-03
        -0.11157E-03
         0.83269E-03
         0.74660E-03
         0.14325E-02
        -0.15747E-02
        -0.39974E-02
        -0.20890E-02
        -0.14699E-02
        -0.63890E-02
        -0.27227E-03
         0.12544E-02
        -0.92392E-03
        -0.15620E-02
        -0.18101E-02
        -0.73975E-02
        -0.11530E-01
        -0.51975E-02
        -0.25250E-02
         0.49320E-03
        -0.16048E-02
        -0.16428E-02
        -0.45742E-02
        -0.12719E-01
        -0.54592E-02
        -0.12059E-02
        -0.14026E-02
        -0.16924E-02
        -0.21425E-02
        -0.75181E-03
        -0.28538E-02
        -0.24556E-02
        -0.92365E-02
        -0.14976E-01
        -0.25753E-01
        -0.39070E-01
        -0.29269E-01
        -0.19127E-01
        -0.35181E-02
        -0.24395E-02
        -0.13097E-02
        -0.66121E-03
        -0.68214E-03
        -0.11057E-02
        -0.16507E-02
        -0.17202E-02
        -0.15988E-02
        -0.65285E-03
         0.44327E-02
        -0.74594E-02
        -0.51237E-02
        -0.41589E-02
        -0.72048E-02
        -0.12756E-01
        -0.21523E-01
        -0.37095E-01
        -0.58077E-01
        -0.73102E-01
        -0.65350E-01
        -0.41404E-01
        -0.24333E-01
        -0.14725E-01
        -0.87257E-02
        -0.49816E-02
        -0.30996E-02
        -0.10500E-02
        -0.16903E-03
         0.82958E-05
        -0.14471E-03
        -0.45364E-03
        -0.82996E-03
        -0.55340E-03
         0.15331E-02
         0.87594E-03
        -0.30413E-03
        -0.23386E-02
        -0.25585E-02
        -0.36986E-02
        -0.57180E-02
        -0.15604E-03
         0.97098E-03
         0.11403E-02
         0.14284E-02
        -0.22755E-02
        -0.53606E-02
        -0.31083E-02
        -0.23345E-02
        -0.80571E-02
        -0.93941E-04
         0.18553E-02
        -0.89615E-03
        -0.25747E-02
        -0.21345E-02
        -0.12325E-01
        -0.16589E-01
        -0.90129E-02
        -0.43289E-02
         0.73460E-03
        -0.23408E-02
        -0.24961E-02
        -0.51715E-02
        -0.13545E-01
        -0.59235E-02
        -0.16477E-02
        -0.21898E-02
        -0.27887E-02
        -0.51987E-02
        -0.45967E-02
        -0.53658E-02
        -0.38752E-02
        -0.10647E-01
        -0.15928E-01
        -0.26472E-01
        -0.40891E-01
        -0.32894E-01
        -0.24144E-01
        -0.54712E-02
        -0.40020E-02
        -0.35871E-02
        -0.26781E-02
        -0.24445E-02
        -0.34254E-02
        -0.58039E-02
        -0.78423E-02
        -0.77089E-02
        -0.56531E-02
        -0.27792E-02
        -0.11408E-01
        -0.81436E-02
        -0.63736E-02
        -0.89546E-02
        -0.14478E-01
        -0.22642E-01
        -0.36454E-01
        -0.56499E-01
        -0.74699E-01
        -0.76212E-01
        -0.57419E-01
        -0.38376E-01
        -0.25006E-01
        -0.14658E-01
        -0.71753E-02
        -0.50509E-02
        -0.46311E-02
        -0.43830E-02
        -0.36983E-02
        -0.40443E-02
        -0.59875E-02
        -0.85664E-02
        -0.94499E-02
        -0.73023E-02
         0.18923E-02
         0.14297E-02
        -0.60923E-03
         0.57309E-03
        -0.56832E-02
        -0.52038E-02
         0.14544E-02
         0.19771E-02
         0.26420E-02
         0.34395E-02
         0.89694E-03
        -0.32375E-03
         0.66654E-03
         0.11106E-02
        -0.18753E-02
         0.32893E-02
         0.44534E-02
         0.28097E-02
        -0.38950E-02
        -0.46676E-02
        -0.26717E-01
        -0.36154E-01
        -0.17908E-01
        -0.63200E-02
         0.29104E-02
        -0.47713E-03
         0.16828E-02
        -0.21968E-02
        -0.16439E-01
        -0.96366E-02
         0.40166E-02
         0.20881E-02
         0.41427E-02
         0.14778E-02
        -0.41612E-02
        -0.77117E-03
         0.81373E-03
        -0.40331E-02
        -0.10519E-01
        -0.26759E-01
        -0.51096E-01
        -0.49316E-01
        -0.44668E-01
        -0.82140E-02
        -0.22632E-02
        -0.44299E-04
         0.28592E-02
         0.55980E-02
         0.70229E-02
         0.46571E-02
         0.86159E-03
        -0.29225E-02
        -0.68655E-02
        -0.11166E-01
        -0.18878E-02
        -0.10182E-02
        -0.18930E-02
        -0.35481E-02
        -0.72898E-02
        -0.13956E-01
        -0.27178E-01
        -0.53877E-01
        -0.89749E-01
        -0.11487E+00
        -0.10835E+00
        -0.85057E-01
        -0.59272E-01
        -0.35602E-01
        -0.16287E-01
        -0.59860E-02
        -0.32641E-02
        -0.19718E-02
         0.34241E-02
         0.81748E-02
         0.72806E-02
         0.14964E-02
        -0.53566E-02
        -0.99549E-02
         0.27688E-02
         0.53084E-02
         0.62510E-02
         0.10835E-01
        -0.37337E-02
         0.51701E-02
         0.46140E-02
         0.33900E-02
         0.57499E-02
         0.83174E-02
         0.91817E-02
         0.13476E-01
         0.10832E-01
         0.10531E-01
         0.15080E-01
         0.12612E-01
         0.10064E-01
         0.12876E-01
        -0.36545E-02
        -0.11882E-01
        -0.51574E-01
        -0.79656E-01
        -0.30429E-01
        -0.60156E-02
         0.68663E-02
         0.58520E-02
         0.13323E-01
         0.41344E-02
        -0.28834E-01
        -0.23069E-01
         0.18543E-01
         0.12992E-01
         0.23403E-01
         0.23126E-01
         0.21760E-02
         0.13668E-01
         0.13937E-01
         0.12977E-01
        -0.29443E-03
        -0.34764E-01
        -0.82144E-01
        -0.91913E-01
        -0.94816E-01
        -0.11208E-01
         0.32408E-02
         0.95742E-02
         0.16609E-01
         0.25261E-01
         0.33335E-01
         0.33024E-01
         0.28037E-01
         0.18258E-01
        -0.33137E-02
        -0.19858E-01
         0.24089E-01
         0.19280E-01
         0.11303E-01
         0.10640E-01
         0.90074E-02
         0.19797E-02
        -0.16946E-01
        -0.62525E-01
        -0.13470E+00
        -0.19637E+00
        -0.20565E+00
        -0.17418E+00
        -0.12217E+00
        -0.73210E-01
        -0.34756E-01
        -0.74658E-02
         0.28581E-02
         0.65168E-02
         0.21605E-01
         0.36558E-01
         0.39078E-01
         0.30700E-01
         0.16323E-01
        -0.18079E-02
  
SCALARS                      strain_eq  double 1
LOOKUP_TABLE default
         0.30004E+00
         0.39285E+00
         0.38259E+00
         0.28756E+00
         0.34091E-09
         0.42344E-09
         0.39306E-09
         0.27151E-09
         0.45891E+00
         0.37788E+00
         0.46035E-09
         0.59035E-09
         0.37845E+00
         0.31822E+00
         0.25867E-09
         0.25933E-09
         0.24148E+00
         0.27800E+00
         0.24598E-09
         0.21242E-09
         0.36633E+00
         0.43153E+00
         0.43976E+00
         0.24664E-09
         0.44757E-09
         0.31066E-09
         0.30399E+00
         0.34534E+00
         0.25993E-09
         0.34494E-09
         0.20986E+00
         0.23864E+00
         0.21817E+00
         0.12535E-09
         0.14148E-09
         0.21122E-09
         0.23463E+00
         0.25196E+00
         0.14713E-09
         0.17553E-09
         0.31162E+00
         0.28767E+00
         0.20532E-09
         0.18838E-09
         0.32944E+00
         0.25799E+00
         0.26681E-09
         0.22165E-09
         0.26791E+00
         0.16305E-09
         0.25007E+00
         0.26058E-09
         0.25427E+00
         0.18275E-09
         0.24707E+00
         0.14990E-09
         0.26809E+00
         0.26245E+00
         0.34669E-09
         0.28066E-09
         0.23003E+00
         0.27718E+00
         0.14978E-09
         0.31560E-09
         0.21583E+00
         0.21030E-09
         0.23601E+00
         0.25847E-09
         0.54660E+00
         0.47227E+00
         0.73951E-09
         0.51642E-09
         0.42951E+00
         0.57571E-09
         0.24707E+00
         0.20798E-09
         0.32979E+00
         0.21931E-09
         0.53628E+00
         0.45156E-09
         0.82365E+00
         0.51316E+00
         0.60959E-09
         0.57880E-09
         0.32071E+00
         0.26041E-09
         0.34725E+00
         0.36154E-09
         0.36040E+00
         0.37857E-09
         0.35915E+00
         0.31034E+00
         0.31130E-09
         0.44960E-09
         0.25438E+00
         0.28030E-09
         0.22369E+00
         0.22832E-09
         0.24207E+00
         0.29365E-09
         0.30694E+00
         0.32272E+00
         0.37658E-09
         0.48103E-09
         0.77497E+00
         0.75959E+00
         0.15317E-08
         0.14984E-08
         0.55059E+00
         0.71811E-09
         0.36524E+00
         0.50562E-09
         0.31598E+00
         0.51461E-09
         0.35829E+00
         0.34179E-09
         0.35804E+00
         0.19665E-09
         0.42865E+00
         0.13542E-09
         0.87040E+00
         0.17712E-09
         0.15265E+01
         0.53488E-09
         0.15778E+01
         0.11981E-08
         0.10411E+01
         0.96881E-09
         0.70913E+00
         0.53460E-09
         0.52232E+00
         0.40343E-09
         0.46119E+00
         0.41224E-09
         0.47925E+00
         0.44040E-09
         0.57943E+00
         0.50433E-09
         0.61962E+00
         0.73075E-09
         0.49805E+00
         0.55323E-09
         0.38582E+00
         0.54397E-09
         0.32892E+00
         0.38453E-09
         0.30098E+00
         0.43064E-09
         0.35140E+00
         0.47905E-09
         0.45568E+00
         0.85928E-09
         0.48906E+00
         0.90014E-09
         0.51302E+00
         0.80172E-09
         0.19730E+00
         0.27172E+00
         0.26864E+00
         0.15223E+00
         0.36115E+00
         0.24643E+00
         0.31103E+00
         0.25240E+00
         0.14766E+00
         0.19369E+00
         0.31787E+00
         0.31588E+00
         0.31115E+00
         0.28146E+00
         0.33738E+00
         0.11792E+00
         0.13717E+00
         0.11527E+00
         0.16363E+00
         0.15256E+00
         0.32163E+00
         0.31231E+00
         0.34708E+00
         0.21248E+00
         0.17812E+00
         0.19477E+00
         0.26288E+00
         0.28531E+00
         0.35926E+00
         0.19934E+00
         0.14251E+00
         0.22548E+00
         0.12133E+00
         0.14447E+00
         0.45839E+00
         0.37769E+00
         0.31665E+00
         0.39531E+00
         0.47748E+00
         0.61097E+00
         0.77703E+00
         0.58797E+00
         0.40724E+00
         0.35031E+00
         0.37043E+00
         0.39951E+00
         0.29659E+00
         0.19892E+00
         0.18911E+00
         0.28670E+00
         0.39434E+00
         0.26381E+00
         0.65178E+00
         0.63618E+00
         0.50117E+00
         0.33999E+00
         0.25495E+00
         0.27471E+00
         0.37640E+00
         0.54233E+00
         0.83352E+00
         0.11762E+01
         0.12659E+01
         0.97559E+00
         0.68962E+00
         0.57700E+00
         0.59203E+00
         0.58830E+00
         0.59841E+00
         0.59971E+00
         0.56094E+00
         0.48019E+00
         0.41511E+00
         0.57268E+00
         0.84601E+00
         0.84960E+00
         0.61058E+00
         0.53798E+00
         0.71883E-01
         0.97827E-01
         0.14828E+00
         0.10792E+00
         0.27751E+00
         0.29343E+00
         0.10031E+00
         0.85239E-01
         0.59712E-01
         0.67403E-01
         0.12699E+00
         0.16927E+00
         0.12194E+00
         0.14239E+00
         0.25673E+00
         0.96474E-01
         0.66971E-01
         0.82574E-01
         0.67711E-01
         0.67376E-01
         0.12177E+00
         0.22659E+00
         0.11264E+00
         0.93448E-01
         0.77647E-01
         0.12539E+00
         0.17070E+00
         0.23991E+00
         0.38277E+00
         0.18166E+00
         0.11624E+00
         0.15194E+00
         0.13700E+00
         0.24470E+00
         0.32252E+00
         0.23529E+00
         0.14632E+00
         0.35480E+00
         0.46782E+00
         0.61278E+00
         0.72790E+00
         0.60348E+00
         0.40948E+00
         0.15364E+00
         0.21114E+00
         0.25399E+00
         0.20394E+00
         0.20320E+00
         0.31513E+00
         0.50827E+00
         0.66878E+00
         0.46027E+00
         0.48972E+00
         0.49504E+00
         0.39801E+00
         0.24661E+00
         0.17441E+00
         0.21913E+00
         0.34557E+00
         0.52319E+00
         0.71862E+00
         0.82496E+00
         0.78435E+00
         0.78037E+00
         0.67820E+00
         0.47612E+00
         0.31330E+00
         0.21478E+00
         0.23540E+00
         0.34075E+00
         0.37253E+00
         0.33121E+00
         0.40875E+00
         0.70655E+00
         0.11028E+01
         0.11940E+01
         0.89434E+00
         0.58962E+00
         0.82082E-01
         0.95261E-01
         0.11320E+00
         0.87949E-01
         0.15184E+00
         0.13250E+00
         0.92393E-01
         0.83910E-01
         0.69916E-01
         0.67710E-01
         0.98211E-01
         0.11541E+00
         0.99100E-01
         0.99218E-01
         0.16401E+00
         0.76670E-01
         0.61775E-01
         0.76904E-01
         0.61306E-01
         0.62997E-01
         0.87242E-01
         0.16109E+00
         0.73729E-01
         0.72731E-01
         0.62472E-01
         0.89546E-01
         0.10943E+00
         0.15939E+00
         0.26156E+00
         0.12208E+00
         0.86975E-01
         0.10990E+00
         0.86720E-01
         0.10956E+00
         0.18788E+00
         0.15628E+00
         0.11638E+00
         0.24083E+00
         0.34740E+00
         0.47402E+00
         0.57032E+00
         0.43178E+00
         0.28175E+00
         0.10096E+00
         0.14183E+00
         0.17315E+00
         0.14575E+00
         0.12631E+00
         0.13220E+00
         0.16373E+00
         0.19786E+00
         0.15862E+00
         0.26118E+00
         0.21518E+00
         0.22746E+00
         0.15585E+00
         0.11950E+00
         0.14908E+00
         0.25018E+00
         0.40883E+00
         0.61453E+00
         0.74050E+00
         0.74847E+00
         0.69220E+00
         0.54012E+00
         0.35298E+00
         0.20171E+00
         0.11973E+00
         0.13630E+00
         0.20349E+00
         0.23456E+00
         0.21188E+00
         0.19339E+00
         0.20481E+00
         0.26068E+00
         0.29464E+00
         0.25548E+00
         0.20500E+00
         0.19813E-01
         0.17513E-01
         0.14826E-01
         0.15848E-01
         0.33537E-01
         0.50064E-01
         0.19110E-01
         0.20567E-01
         0.21959E-01
         0.24058E-01
         0.21987E-01
         0.39344E-01
         0.23621E-01
         0.23176E-01
         0.72977E-01
         0.19436E-01
         0.28824E-01
         0.19785E-01
         0.23707E-01
         0.41310E-01
         0.46255E-01
         0.93366E-01
         0.29650E-01
         0.19577E-01
         0.30277E-01
         0.19342E-01
         0.35975E-01
         0.76750E-01
         0.15070E+00
         0.69617E-01
         0.25885E-01
         0.30918E-01
         0.29059E-01
         0.43531E-01
         0.39573E-01
         0.24642E-01
         0.19162E-01
         0.12867E+00
         0.20879E+00
         0.30634E+00
         0.38564E+00
         0.27368E+00
         0.16930E+00
         0.32026E-01
         0.44416E-01
         0.58060E-01
         0.53841E-01
         0.54864E-01
         0.66373E-01
         0.90893E-01
         0.11986E+00
         0.89292E-01
         0.74240E-01
         0.80755E-01
         0.50010E-01
         0.30416E-01
         0.36387E-01
         0.73227E-01
         0.15046E+00
         0.27208E+00
         0.44397E+00
         0.58011E+00
         0.60373E+00
         0.50926E+00
         0.35517E+00
         0.20942E+00
         0.11106E+00
         0.67652E-01
         0.67939E-01
         0.75557E-01
         0.80468E-01
         0.88804E-01
         0.10528E+00
         0.13709E+00
         0.17127E+00
         0.19318E+00
         0.17453E+00
         0.12141E+00
         0.12482E-01
         0.10850E-01
         0.11107E-01
         0.98899E-02
         0.21006E-01
         0.28511E-01
         0.11765E-01
         0.16129E-01
         0.16237E-01
         0.21530E-01
         0.95151E-02
         0.12801E-01
         0.10311E-01
         0.99190E-02
         0.28364E-01
         0.12299E-01
         0.21476E-01
         0.10164E-01
         0.16526E-01
         0.28110E-01
         0.20881E-01
         0.44413E-01
         0.13504E-01
         0.12360E-01
         0.26328E-01
         0.86660E-02
         0.15296E-01
         0.39548E-01
         0.84557E-01
         0.42421E-01
         0.72926E-02
         0.98880E-02
         0.10206E-01
         0.21783E-01
         0.21488E-01
         0.15117E-01
         0.11496E-01
         0.62743E-01
         0.11564E+00
         0.18097E+00
         0.23664E+00
         0.15979E+00
         0.89678E-01
         0.11395E-01
         0.16314E-01
         0.23322E-01
         0.20268E-01
         0.19860E-01
         0.27993E-01
         0.43745E-01
         0.59069E-01
         0.44806E-01
         0.36954E-01
         0.42155E-01
         0.27188E-01
         0.14718E-01
         0.14388E-01
         0.32697E-01
         0.77625E-01
         0.15716E+00
         0.27496E+00
         0.37765E+00
         0.40697E+00
         0.32628E+00
         0.19823E+00
         0.10187E+00
         0.50642E-01
         0.29473E-01
         0.25338E-01
         0.28169E-01
         0.33327E-01
         0.33903E-01
         0.37932E-01
         0.55981E-01
         0.81431E-01
         0.95898E-01
         0.84910E-01
         0.59708E-01
         0.61159E-02
         0.50601E-02
         0.49383E-02
         0.22461E-02
         0.99917E-02
         0.93510E-02
         0.63261E-02
         0.87439E-02
         0.77786E-02
         0.11620E-01
         0.70903E-02
         0.76305E-02
         0.55173E-02
         0.80211E-02
         0.11256E-01
         0.53101E-02
         0.99637E-02
         0.41286E-02
         0.72814E-02
         0.13186E-01
         0.85912E-02
         0.14705E-01
         0.83045E-02
         0.66093E-02
         0.14955E-01
         0.42358E-02
         0.95192E-02
         0.17987E-01
         0.35138E-01
         0.19894E-01
         0.12716E-02
         0.97404E-03
         0.22624E-02
         0.53363E-02
         0.95129E-02
         0.58084E-02
         0.50303E-02
         0.24226E-01
         0.49633E-01
         0.80098E-01
         0.10491E+00
         0.65225E-01
         0.32562E-01
         0.61626E-02
         0.40782E-02
         0.50512E-02
         0.52313E-02
         0.72143E-02
         0.98882E-02
         0.13064E-01
         0.15492E-01
         0.11606E-01
         0.13762E-01
         0.18959E-01
         0.67963E-02
         0.63561E-02
         0.64053E-02
         0.13465E-01
         0.30865E-01
         0.68928E-01
         0.13437E+00
         0.19119E+00
         0.20048E+00
         0.14659E+00
         0.76743E-01
         0.34450E-01
         0.20807E-01
         0.16443E-01
         0.13371E-01
         0.10153E-01
         0.80625E-02
         0.88169E-02
         0.12952E-01
         0.18929E-01
         0.23663E-01
         0.23367E-01
         0.18844E-01
         0.16815E-01
         0.23050E-02
         0.18442E-02
         0.27337E-02
         0.14104E-02
         0.84982E-02
         0.91070E-02
         0.24746E-02
         0.33568E-02
         0.24943E-02
         0.46980E-02
         0.36562E-02
         0.47628E-02
         0.30926E-02
         0.46179E-02
         0.70720E-02
         0.14713E-02
         0.31418E-02
         0.15133E-02
         0.22469E-02
         0.45897E-02
         0.62959E-02
         0.57095E-02
         0.63768E-02
         0.34761E-02
         0.69538E-02
         0.19598E-02
         0.60219E-02
         0.77569E-02
         0.88101E-02
         0.79119E-02
         0.17558E-02
         0.15445E-02
         0.32777E-02
         0.63360E-02
         0.69714E-02
         0.27597E-02
         0.26999E-02
         0.79824E-02
         0.10423E-01
         0.15502E-01
         0.19803E-01
         0.99573E-02
         0.50931E-02
         0.51939E-02
         0.42569E-02
         0.44999E-02
         0.40154E-02
         0.56702E-02
         0.87122E-02
         0.12179E-01
         0.14700E-01
         0.11742E-01
         0.10194E-01
         0.15874E-01
         0.49108E-02
         0.68821E-02
         0.64413E-02
         0.73838E-02
         0.12756E-01
         0.20864E-01
         0.35856E-01
         0.50102E-01
         0.47973E-01
         0.30585E-01
         0.16326E-01
         0.14567E-01
         0.13522E-01
         0.12198E-01
         0.11115E-01
         0.10218E-01
         0.83489E-02
         0.71777E-02
         0.96686E-02
         0.14833E-01
         0.19017E-01
         0.19599E-01
         0.16474E-01
         0.14659E-01
         0.12147E-02
         0.11264E-02
         0.25938E-02
         0.15730E-02
         0.82387E-02
         0.93147E-02
         0.10460E-02
         0.15462E-02
         0.79165E-03
         0.25649E-02
         0.19039E-02
         0.35676E-02
         0.28177E-02
         0.28164E-02
         0.67762E-02
         0.64280E-03
         0.16830E-02
         0.74613E-03
         0.18622E-02
         0.15067E-02
         0.66459E-02
         0.87406E-02
         0.57322E-02
         0.27849E-02
         0.34765E-02
         0.13590E-02
         0.46498E-02
         0.69443E-02
         0.10088E-01
         0.43327E-02
         0.13986E-02
         0.11830E-02
         0.27476E-02
         0.59193E-02
         0.66430E-02
         0.30697E-02
         0.28735E-02
         0.11112E-01
         0.15430E-01
         0.20517E-01
         0.25649E-01
         0.18013E-01
         0.12758E-01
         0.44377E-02
         0.35421E-02
         0.37959E-02
         0.34635E-02
         0.50117E-02
         0.78500E-02
         0.11187E-01
         0.13918E-01
         0.11609E-01
         0.10249E-01
         0.15321E-01
         0.69172E-02
         0.78848E-02
         0.74903E-02
         0.75891E-02
         0.12540E-01
         0.22701E-01
         0.33729E-01
         0.43221E-01
         0.45066E-01
         0.38456E-01
         0.32581E-01
         0.22470E-01
         0.13956E-01
         0.10862E-01
         0.94256E-02
         0.87930E-02
         0.75330E-02
         0.66116E-02
         0.83250E-02
         0.12743E-01
         0.16545E-01
         0.18405E-01
         0.17227E-01
         0.15537E-01
         0.11402E-02
         0.10802E-02
         0.26809E-02
         0.16074E-02
         0.87495E-02
         0.10284E-01
         0.82775E-03
         0.15873E-02
         0.88717E-03
         0.26860E-02
         0.15532E-02
         0.33773E-02
         0.27217E-02
         0.25669E-02
         0.75123E-02
         0.37453E-03
         0.21539E-02
         0.66671E-03
         0.25227E-02
         0.19294E-02
         0.88549E-02
         0.11498E-01
         0.74568E-02
         0.34330E-02
         0.24680E-02
         0.16547E-02
         0.46320E-02
         0.77844E-02
         0.13585E-01
         0.43326E-02
         0.10089E-02
         0.12905E-02
         0.25409E-02
         0.63275E-02
         0.69810E-02
         0.32509E-02
         0.28563E-02
         0.14598E-01
         0.22613E-01
         0.31300E-01
         0.39608E-01
         0.26879E-01
         0.17527E-01
         0.55671E-02
         0.44146E-02
         0.45855E-02
         0.37601E-02
         0.53623E-02
         0.87588E-02
         0.12834E-01
         0.16246E-01
         0.13206E-01
         0.11075E-01
         0.16648E-01
         0.74062E-02
         0.78553E-02
         0.76608E-02
         0.79138E-02
         0.14782E-01
         0.31473E-01
         0.52524E-01
         0.68644E-01
         0.71389E-01
         0.57804E-01
         0.42558E-01
         0.27516E-01
         0.18740E-01
         0.14717E-01
         0.11673E-01
         0.10388E-01
         0.87717E-02
         0.75119E-02
         0.97480E-02
         0.15297E-01
         0.20176E-01
         0.22606E-01
         0.20874E-01
         0.18075E-01
         0.11640E-02
         0.11548E-02
         0.30374E-02
         0.17254E-02
         0.98728E-02
         0.11462E-01
         0.94492E-03
         0.18637E-02
         0.11010E-02
         0.31493E-02
         0.15592E-02
         0.36124E-02
         0.31094E-02
         0.26333E-02
         0.84130E-02
         0.42423E-03
         0.25572E-02
         0.80911E-03
         0.30477E-02
         0.25912E-02
         0.10738E-01
         0.13862E-01
         0.88927E-02
         0.41819E-02
         0.23093E-02
         0.20863E-02
         0.47837E-02
         0.83769E-02
         0.15603E-01
         0.46634E-02
         0.12509E-02
         0.17803E-02
         0.29561E-02
         0.72203E-02
         0.79401E-02
         0.36746E-02
         0.32463E-02
         0.17388E-01
         0.27818E-01
         0.38552E-01
         0.48064E-01
         0.31429E-01
         0.20342E-01
         0.65925E-02
         0.52976E-02
         0.58492E-02
         0.50408E-02
         0.68575E-02
         0.10829E-01
         0.15381E-01
         0.18919E-01
         0.14921E-01
         0.12455E-01
         0.18824E-01
         0.80975E-02
         0.87010E-02
         0.84809E-02
         0.87815E-02
         0.17396E-01
         0.38850E-01
         0.67636E-01
         0.88784E-01
         0.88663E-01
         0.67194E-01
         0.48611E-01
         0.32188E-01
         0.21788E-01
         0.16331E-01
         0.12811E-01
         0.11546E-01
         0.10398E-01
         0.97049E-02
         0.12983E-01
         0.19748E-01
         0.24958E-01
         0.26391E-01
         0.23177E-01
         0.20005E-01
         0.11584E-02
         0.13954E-02
         0.33506E-02
         0.17626E-02
         0.10141E-01
         0.11472E-01
         0.10705E-02
         0.20286E-02
         0.11757E-02
         0.34202E-02
         0.14957E-02
         0.39469E-02
         0.32921E-02
         0.24345E-02
         0.87880E-02
         0.65542E-03
         0.28636E-02
         0.82953E-03
         0.31910E-02
         0.28360E-02
         0.10949E-01
         0.14369E-01
         0.89465E-02
         0.42272E-02
         0.22076E-02
         0.20699E-02
         0.45301E-02
         0.89523E-02
         0.18229E-01
         0.54652E-02
         0.17312E-02
         0.19881E-02
         0.34783E-02
         0.76090E-02
         0.83479E-02
         0.39569E-02
         0.33908E-02
         0.18297E-01
         0.30533E-01
         0.44411E-01
         0.56627E-01
         0.36801E-01
         0.22629E-01
         0.64473E-02
         0.50888E-02
         0.60860E-02
         0.59442E-02
         0.81314E-02
         0.12029E-01
         0.16125E-01
         0.19140E-01
         0.14950E-01
         0.12775E-01
         0.18951E-01
         0.79646E-02
         0.85882E-02
         0.85581E-02
         0.99151E-02
         0.19290E-01
         0.42127E-01
         0.75112E-01
         0.10291E+00
         0.10512E+00
         0.78894E-01
         0.53449E-01
         0.33532E-01
         0.22301E-01
         0.16275E-01
         0.12474E-01
         0.10927E-01
         0.10237E-01
         0.10544E-01
         0.14822E-01
         0.21515E-01
         0.25709E-01
         0.26028E-01
         0.22160E-01
         0.19215E-01
         0.10852E-02
         0.14649E-02
         0.35154E-02
         0.17834E-02
         0.10525E-01
         0.11915E-01
         0.10011E-02
         0.19104E-02
         0.10748E-02
         0.34623E-02
         0.13491E-02
         0.39451E-02
         0.32583E-02
         0.22467E-02
         0.90801E-02
         0.64202E-03
         0.30191E-02
         0.87800E-03
         0.32548E-02
         0.30946E-02
         0.11070E-01
         0.14851E-01
         0.88730E-02
         0.41383E-02
         0.23773E-02
         0.19595E-02
         0.45155E-02
         0.94325E-02
         0.19800E-01
         0.58466E-02
         0.18719E-02
         0.22012E-02
         0.36526E-02
         0.78981E-02
         0.87891E-02
         0.41698E-02
         0.34131E-02
         0.18595E-01
         0.31420E-01
         0.47181E-01
         0.61879E-01
         0.40585E-01
         0.24317E-01
         0.63061E-02
         0.51455E-02
         0.65462E-02
         0.66143E-02
         0.86150E-02
         0.12220E-01
         0.16234E-01
         0.19412E-01
         0.15450E-01
         0.13431E-01
         0.19625E-01
         0.77483E-02
         0.83320E-02
         0.84737E-02
         0.10070E-01
         0.20294E-01
         0.42893E-01
         0.75910E-01
         0.10770E+00
         0.11558E+00
         0.88956E-01
         0.57927E-01
         0.34779E-01
         0.22756E-01
         0.16453E-01
         0.12473E-01
         0.10950E-01
         0.10489E-01
         0.10997E-01
         0.14947E-01
         0.21092E-01
         0.25123E-01
         0.26100E-01
         0.23183E-01
         0.20113E-01
         0.82817E-03
         0.11816E-02
         0.35382E-02
         0.20305E-02
         0.11227E-01
         0.12989E-01
         0.90887E-03
         0.18649E-02
         0.10146E-02
         0.34155E-02
         0.11123E-02
         0.37297E-02
         0.32386E-02
         0.22185E-02
         0.93532E-02
         0.68354E-03
         0.30347E-02
         0.89659E-03
         0.34107E-02
         0.36270E-02
         0.11231E-01
         0.15708E-01
         0.87059E-02
         0.40481E-02
         0.24771E-02
         0.18944E-02
         0.43557E-02
         0.87707E-02
         0.18792E-01
         0.55975E-02
         0.18950E-02
         0.21987E-02
         0.36474E-02
         0.82697E-02
         0.91988E-02
         0.41774E-02
         0.34074E-02
         0.18593E-01
         0.30236E-01
         0.45124E-01
         0.60246E-01
         0.40067E-01
         0.24833E-01
         0.61190E-02
         0.48817E-02
         0.63078E-02
         0.65532E-02
         0.83375E-02
         0.11830E-01
         0.16381E-01
         0.20297E-01
         0.16604E-01
         0.14184E-01
         0.21088E-01
         0.81331E-02
         0.88738E-02
         0.88283E-02
         0.10151E-01
         0.21115E-01
         0.43222E-01
         0.72924E-01
         0.10292E+00
         0.11400E+00
         0.90291E-01
         0.61279E-01
         0.37312E-01
         0.23323E-01
         0.16490E-01
         0.12270E-01
         0.10255E-01
         0.98061E-02
         0.10393E-01
         0.13738E-01
         0.19829E-01
         0.25080E-01
         0.27453E-01
         0.25415E-01
         0.22230E-01
         0.83041E-03
         0.10056E-02
         0.32673E-02
         0.19755E-02
         0.10802E-01
         0.12436E-01
         0.94629E-03
         0.19426E-02
         0.98177E-03
         0.32367E-02
         0.94280E-03
         0.32986E-02
         0.30212E-02
         0.22396E-02
         0.91985E-02
         0.78119E-03
         0.27213E-02
         0.94424E-03
         0.30698E-02
         0.33991E-02
         0.10385E-01
         0.15353E-01
         0.79119E-02
         0.36965E-02
         0.21799E-02
         0.17848E-02
         0.41453E-02
         0.82095E-02
         0.17656E-01
         0.56242E-02
         0.18161E-02
         0.20441E-02
         0.34431E-02
         0.79094E-02
         0.88066E-02
         0.38266E-02
         0.31926E-02
         0.18235E-01
         0.28829E-01
         0.42165E-01
         0.56143E-01
         0.37975E-01
         0.24309E-01
         0.55770E-02
         0.44528E-02
         0.60058E-02
         0.63726E-02
         0.81120E-02
         0.11447E-01
         0.15915E-01
         0.19695E-01
         0.15916E-01
         0.13787E-01
         0.20456E-01
         0.80736E-02
         0.88542E-02
         0.86960E-02
         0.96519E-02
         0.20660E-01
         0.42848E-01
         0.70232E-01
         0.96435E-01
         0.10581E+00
         0.85016E-01
         0.59563E-01
         0.35942E-01
         0.21274E-01
         0.14921E-01
         0.11204E-01
         0.95738E-02
         0.94346E-02
         0.10033E-01
         0.13183E-01
         0.19208E-01
         0.24794E-01
         0.26879E-01
         0.23989E-01
         0.20947E-01
         0.85431E-03
         0.10326E-02
         0.31559E-02
         0.19361E-02
         0.10068E-01
         0.11298E-01
         0.89713E-03
         0.17592E-02
         0.95377E-03
         0.29145E-02
         0.97609E-03
         0.32386E-02
         0.27996E-02
         0.21671E-02
         0.89149E-02
         0.72106E-03
         0.24728E-02
         0.84080E-03
         0.26921E-02
         0.27669E-02
         0.98269E-02
         0.14577E-01
         0.75474E-02
         0.35637E-02
         0.19520E-02
         0.17493E-02
         0.40505E-02
         0.82366E-02
         0.17360E-01
         0.55667E-02
         0.19638E-02
         0.22006E-02
         0.35242E-02
         0.74751E-02
         0.84263E-02
         0.37164E-02
         0.29920E-02
         0.17577E-01
         0.28098E-01
         0.41026E-01
         0.54125E-01
         0.36690E-01
         0.23359E-01
         0.55102E-02
         0.47889E-02
         0.63455E-02
         0.64422E-02
         0.80949E-02
         0.11237E-01
         0.15104E-01
         0.18182E-01
         0.14453E-01
         0.13085E-01
         0.18746E-01
         0.76236E-02
         0.83216E-02
         0.81371E-02
         0.90023E-02
         0.19136E-01
         0.40606E-01
         0.68303E-01
         0.93664E-01
         0.10067E+00
         0.80712E-01
         0.56251E-01
         0.33887E-01
         0.19577E-01
         0.13750E-01
         0.10978E-01
         0.10415E-01
         0.10080E-01
         0.10167E-01
         0.13037E-01
         0.18695E-01
         0.23448E-01
         0.24611E-01
         0.21254E-01
         0.18484E-01
         0.85449E-03
         0.11679E-02
         0.31616E-02
         0.20115E-02
         0.95731E-02
         0.10632E-01
         0.88660E-03
         0.16567E-02
         0.11473E-02
         0.28548E-02
         0.11258E-02
         0.35605E-02
         0.28198E-02
         0.22558E-02
         0.91255E-02
         0.76899E-03
         0.27120E-02
         0.69396E-03
         0.32490E-02
         0.30390E-02
         0.10647E-01
         0.14490E-01
         0.85393E-02
         0.41334E-02
         0.18819E-02
         0.21131E-02
         0.45450E-02
         0.90457E-02
         0.18315E-01
         0.56565E-02
         0.22010E-02
         0.24148E-02
         0.36586E-02
         0.72634E-02
         0.80812E-02
         0.35911E-02
         0.28936E-02
         0.18281E-01
         0.29777E-01
         0.43573E-01
         0.57193E-01
         0.37901E-01
         0.23128E-01
         0.62347E-02
         0.51355E-02
         0.61055E-02
         0.58884E-02
         0.74121E-02
         0.10547E-01
         0.14344E-01
         0.17271E-01
         0.13672E-01
         0.12483E-01
         0.17646E-01
         0.71738E-02
         0.78924E-02
         0.79090E-02
         0.92009E-02
         0.19128E-01
         0.41178E-01
         0.71915E-01
         0.99949E-01
         0.10726E+00
         0.83997E-01
         0.54839E-01
         0.33237E-01
         0.21162E-01
         0.15627E-01
         0.12177E-01
         0.10808E-01
         0.98459E-02
         0.95372E-02
         0.12037E-01
         0.17501E-01
         0.22149E-01
         0.23334E-01
         0.19979E-01
         0.17175E-01
         0.87713E-03
         0.94892E-03
         0.28314E-02
         0.18356E-02
         0.86983E-02
         0.94317E-02
         0.71630E-03
         0.18576E-02
         0.13774E-02
         0.31235E-02
         0.83163E-03
         0.31314E-02
         0.27685E-02
         0.20899E-02
         0.80340E-02
         0.11637E-02
         0.29341E-02
         0.79989E-03
         0.37199E-02
         0.35841E-02
         0.11038E-01
         0.14877E-01
         0.89115E-02
         0.44356E-02
         0.18524E-02
         0.23580E-02
         0.44632E-02
         0.92205E-02
         0.19451E-01
         0.61026E-02
         0.19629E-02
         0.22233E-02
         0.31415E-02
         0.62908E-02
         0.73023E-02
         0.31696E-02
         0.27847E-02
         0.17609E-01
         0.30534E-01
         0.46482E-01
         0.61919E-01
         0.40366E-01
         0.23926E-01
         0.64728E-02
         0.50097E-02
         0.55401E-02
         0.50499E-02
         0.62135E-02
         0.89151E-02
         0.12318E-01
         0.14908E-01
         0.11866E-01
         0.11524E-01
         0.16334E-01
         0.70198E-02
         0.81011E-02
         0.82096E-02
         0.89670E-02
         0.17867E-01
         0.40465E-01
         0.74705E-01
         0.10858E+00
         0.11875E+00
         0.91043E-01
         0.56247E-01
         0.33917E-01
         0.22155E-01
         0.16603E-01
         0.12639E-01
         0.10537E-01
         0.93945E-02
         0.87842E-02
         0.10666E-01
         0.15346E-01
         0.19397E-01
         0.20214E-01
         0.17190E-01
         0.15318E-01
         0.80818E-03
         0.59577E-03
         0.21298E-02
         0.14700E-02
         0.70585E-02
         0.74037E-02
         0.59598E-03
         0.19051E-02
         0.14202E-02
         0.31746E-02
         0.64413E-03
         0.22476E-02
         0.22158E-02
         0.19348E-02
         0.61239E-02
         0.12672E-02
         0.29198E-02
         0.96076E-03
         0.33963E-02
         0.35695E-02
         0.97465E-02
         0.13569E-01
         0.79332E-02
         0.39391E-02
         0.18700E-02
         0.21741E-02
         0.35833E-02
         0.74676E-02
         0.17713E-01
         0.58305E-02
         0.15972E-02
         0.18946E-02
         0.23040E-02
         0.45857E-02
         0.58189E-02
         0.23733E-02
         0.23131E-02
         0.14314E-01
         0.26253E-01
         0.42051E-01
         0.57630E-01
         0.38069E-01
         0.22639E-01
         0.59846E-02
         0.46789E-02
         0.50349E-02
         0.42609E-02
         0.48054E-02
         0.65280E-02
         0.89404E-02
         0.10873E-01
         0.88302E-02
         0.97435E-02
         0.14018E-01
         0.66313E-02
         0.75142E-02
         0.73137E-02
         0.73017E-02
         0.13984E-01
         0.33698E-01
         0.65405E-01
         0.98833E-01
         0.11085E+00
         0.85845E-01
         0.53154E-01
         0.31581E-01
         0.20130E-01
         0.14949E-01
         0.11705E-01
         0.99919E-02
         0.90354E-02
         0.81831E-02
         0.88259E-02
         0.11965E-01
         0.14878E-01
         0.15104E-01
         0.13137E-01
         0.12639E-01
         0.78447E-03
         0.64337E-03
         0.14184E-02
         0.75264E-03
         0.50205E-02
         0.45813E-02
         0.45185E-03
         0.17353E-02
         0.12238E-02
         0.27900E-02
         0.11380E-02
         0.27407E-02
         0.20002E-02
         0.22028E-02
         0.63951E-02
         0.10877E-02
         0.24613E-02
         0.10400E-02
         0.27338E-02
         0.28888E-02
         0.82152E-02
         0.12014E-01
         0.67934E-02
         0.33100E-02
         0.13774E-02
         0.19305E-02
         0.36762E-02
         0.77556E-02
         0.18381E-01
         0.62888E-02
         0.14075E-02
         0.18044E-02
         0.10560E-02
         0.16519E-02
         0.43447E-02
         0.23329E-02
         0.22816E-02
         0.13806E-01
         0.25447E-01
         0.41602E-01
         0.57836E-01
         0.38894E-01
         0.22396E-01
         0.54610E-02
         0.44321E-02
         0.47601E-02
         0.37513E-02
         0.33510E-02
         0.35141E-02
         0.45947E-02
         0.59596E-02
         0.46424E-02
         0.88093E-02
         0.11965E-01
         0.78617E-02
         0.70827E-02
         0.64814E-02
         0.69406E-02
         0.12582E-01
         0.30325E-01
         0.61610E-01
         0.95545E-01
         0.10956E+00
         0.86384E-01
         0.50416E-01
         0.26750E-01
         0.16362E-01
         0.12414E-01
         0.10445E-01
         0.93229E-02
         0.90983E-02
         0.93078E-02
         0.91063E-02
         0.10304E-01
         0.11885E-01
         0.11262E-01
         0.97932E-02
         0.10189E-01
         0.17267E-02
         0.21315E-02
         0.34798E-02
         0.24264E-02
         0.62356E-02
         0.54956E-02
         0.15974E-02
         0.21206E-02
         0.12403E-02
         0.25542E-02
         0.25444E-02
         0.50446E-02
         0.31729E-02
         0.32942E-02
         0.90030E-02
         0.11341E-02
         0.17349E-02
         0.15289E-02
         0.21000E-02
         0.23069E-02
         0.87953E-02
         0.13944E-01
         0.69038E-02
         0.34348E-02
         0.18046E-02
         0.28504E-02
         0.50602E-02
         0.10137E-01
         0.22066E-01
         0.85011E-02
         0.32290E-02
         0.40949E-02
         0.35307E-02
         0.49512E-02
         0.81134E-02
         0.65932E-02
         0.42438E-02
         0.15970E-01
         0.27967E-01
         0.45836E-01
         0.64943E-01
         0.45663E-01
         0.26978E-01
         0.61053E-02
         0.64952E-02
         0.83955E-02
         0.78133E-02
         0.74469E-02
         0.79781E-02
         0.97642E-02
         0.11771E-01
         0.81013E-02
         0.14475E-01
         0.14483E-01
         0.14744E-01
         0.91506E-02
         0.70961E-02
         0.95532E-02
         0.16077E-01
         0.32443E-01
         0.63639E-01
         0.10051E+00
         0.12119E+00
         0.10206E+00
         0.59990E-01
         0.30392E-01
         0.17432E-01
         0.11537E-01
         0.99513E-02
         0.11023E-01
         0.13753E-01
         0.16655E-01
         0.17467E-01
         0.19044E-01
         0.21668E-01
         0.21164E-01
         0.17500E-01
         0.14181E-01
         0.17051E-02
         0.17367E-02
         0.42406E-02
         0.35090E-02
         0.75788E-02
         0.89089E-02
         0.14998E-02
         0.23196E-02
         0.16425E-02
         0.29463E-02
         0.34212E-02
         0.73001E-02
         0.46627E-02
         0.42277E-02
         0.11502E-01
         0.71208E-03
         0.24634E-02
         0.16113E-02
         0.35864E-02
         0.32351E-02
         0.15091E-01
         0.19418E-01
         0.12479E-01
         0.58877E-02
         0.38119E-02
         0.36218E-02
         0.65603E-02
         0.13040E-01
         0.26590E-01
         0.11395E-01
         0.27199E-02
         0.48526E-02
         0.40201E-02
         0.72059E-02
         0.93852E-02
         0.85046E-02
         0.56399E-02
         0.18356E-01
         0.31081E-01
         0.50598E-01
         0.71798E-01
         0.53082E-01
         0.33285E-01
         0.96309E-02
         0.99642E-02
         0.13267E-01
         0.12106E-01
         0.11612E-01
         0.11791E-01
         0.13598E-01
         0.16265E-01
         0.12360E-01
         0.14727E-01
         0.15454E-01
         0.18396E-01
         0.13256E-01
         0.10621E-01
         0.13610E-01
         0.21103E-01
         0.36551E-01
         0.66019E-01
         0.10370E+00
         0.12800E+00
         0.11503E+00
         0.74828E-01
         0.46350E-01
         0.33995E-01
         0.24617E-01
         0.18446E-01
         0.18397E-01
         0.21794E-01
         0.26701E-01
         0.28373E-01
         0.27571E-01
         0.27921E-01
         0.26645E-01
         0.23351E-01
         0.19631E-01
         0.13328E-01
         0.14245E-01
         0.17414E-01
         0.15797E-01
         0.20399E-01
         0.18953E-01
         0.13151E-01
         0.13428E-01
         0.12870E-01
         0.12758E-01
         0.10613E-01
         0.58565E-02
         0.94331E-02
         0.93907E-02
         0.61593E-02
         0.18164E-01
         0.15324E-01
         0.14426E-01
         0.27472E-01
         0.20199E-01
         0.59001E-01
         0.54176E-01
         0.61520E-01
         0.37592E-01
         0.12510E-01
         0.32307E-01
         0.81232E-02
         0.13473E-01
         0.29760E-01
         0.17461E-01
         0.20799E-01
         0.33461E-01
         0.19126E-01
         0.22558E-01
         0.24568E-01
         0.20607E-01
         0.13692E-01
         0.18044E-01
         0.36217E-01
         0.60753E-01
         0.88922E-01
         0.68189E-01
         0.54486E-01
         0.56506E-01
         0.54395E-01
         0.57461E-01
         0.45351E-01
         0.37520E-01
         0.36403E-01
         0.37888E-01
         0.38535E-01
         0.26931E-01
         0.29266E-01
         0.20376E-01
         0.25116E-01
         0.15232E-01
         0.11884E-01
         0.14474E-01
         0.24481E-01
         0.47011E-01
         0.87025E-01
         0.13310E+00
         0.16203E+00
         0.15795E+00
         0.13702E+00
         0.13475E+00
         0.13027E+00
         0.11462E+00
         0.96358E-01
         0.85228E-01
         0.80497E-01
         0.77231E-01
         0.74934E-01
         0.71528E-01
         0.66994E-01
         0.54638E-01
         0.35877E-01
         0.20862E-01
         0.32361E-01
         0.35588E-01
         0.41740E-01
         0.37328E-01
         0.46272E-01
         0.42198E-01
         0.33950E-01
         0.33835E-01
         0.31972E-01
         0.32528E-01
         0.31406E-01
         0.25360E-01
         0.29835E-01
         0.29619E-01
         0.20813E-01
         0.46296E-01
         0.38948E-01
         0.35108E-01
         0.67407E-01
         0.52928E-01
         0.12941E+00
         0.12851E+00
         0.13108E+00
         0.87101E-01
         0.32620E-01
         0.75857E-01
         0.25011E-01
         0.25802E-01
         0.54935E-01
         0.48133E-01
         0.49717E-01
         0.75627E-01
         0.47434E-01
         0.54039E-01
         0.55334E-01
         0.51365E-01
         0.38611E-01
         0.27624E-01
         0.53096E-01
         0.90117E-01
         0.13787E+00
         0.12557E+00
         0.12614E+00
         0.11964E+00
         0.11269E+00
         0.11583E+00
         0.93740E-01
         0.77648E-01
         0.78009E-01
         0.81502E-01
         0.80754E-01
         0.59585E-01
         0.63300E-01
         0.50429E-01
         0.63792E-01
         0.39941E-01
         0.22447E-01
         0.16400E-01
         0.25360E-01
         0.61724E-01
         0.12204E+00
         0.18484E+00
         0.23550E+00
         0.26418E+00
         0.27301E+00
         0.28047E+00
         0.25909E+00
         0.22040E+00
         0.18208E+00
         0.15759E+00
         0.14913E+00
         0.14028E+00
         0.13215E+00
         0.12838E+00
         0.12195E+00
         0.10253E+00
         0.71830E-01
         0.44136E-01
  
SCALARS                     nodal_mass  double 1
LOOKUP_TABLE default
         0.24608E-05
         0.19551E-05
         0.20945E-05
         0.35953E-05
         0.12304E-05
         0.97770E-06
         0.10472E-05
         0.17973E-05
         0.19315E-05
         0.24627E-05
         0.96570E-06
         0.12312E-05
         0.13823E-05
         0.16614E-05
         0.69133E-06
         0.83095E-06
         0.27274E-05
         0.20125E-05
         0.13635E-05
         0.10066E-05
         0.81737E-06
         0.15393E-05
         0.16929E-05
         0.40889E-06
         0.76975E-06
         0.84649E-06
         0.13859E-05
         0.17532E-05
         0.69345E-06
         0.87672E-06
         0.32470E-05
         0.25355E-05
         0.32225E-05
         0.16233E-05
         0.12675E-05
         0.16109E-05
         0.18980E-05
         0.21673E-05
         0.94902E-06
         0.10836E-05
         0.20482E-05
         0.22683E-05
         0.10242E-05
         0.11342E-05
         0.17426E-05
         0.10823E-05
         0.87140E-06
         0.54121E-06
         0.20598E-05
         0.10301E-05
         0.17103E-05
         0.85523E-06
         0.17977E-05
         0.89958E-06
         0.18362E-05
         0.91859E-06
         0.15911E-05
         0.19369E-05
         0.79575E-06
         0.96860E-06
         0.24553E-05
         0.17361E-05
         0.12277E-05
         0.86816E-06
         0.27409E-05
         0.13702E-05
         0.23792E-05
         0.11891E-05
         0.10821E-05
         0.16705E-05
         0.54106E-06
         0.83538E-06
         0.18955E-05
         0.94787E-06
         0.20026E-05
         0.10014E-05
         0.19316E-05
         0.96578E-06
         0.15181E-05
         0.75906E-06
         0.95443E-06
         0.15782E-05
         0.47723E-06
         0.78918E-06
         0.20886E-05
         0.10443E-05
         0.16867E-05
         0.84342E-06
         0.14838E-05
         0.74203E-06
         0.97224E-06
         0.16569E-05
         0.48620E-06
         0.82849E-06
         0.22482E-05
         0.11241E-05
         0.23568E-05
         0.11783E-05
         0.19018E-05
         0.95085E-06
         0.11709E-05
         0.20091E-05
         0.58544E-06
         0.10044E-05
         0.74681E-06
         0.94889E-06
         0.37348E-06
         0.47447E-06
         0.88885E-06
         0.44455E-06
         0.10466E-05
         0.52333E-06
         0.10205E-05
         0.51021E-06
         0.99108E-06
         0.49550E-06
         0.10560E-05
         0.52791E-06
         0.11142E-05
         0.55694E-06
         0.10497E-05
         0.52469E-06
         0.82085E-06
         0.41039E-06
         0.66950E-06
         0.33475E-06
         0.86397E-06
         0.43199E-06
         0.11504E-05
         0.57519E-06
         0.12637E-05
         0.63182E-06
         0.12132E-05
         0.60658E-06
         0.10948E-05
         0.54745E-06
         0.99429E-06
         0.49718E-06
         0.80759E-06
         0.40382E-06
         0.67982E-06
         0.33995E-06
         0.88797E-06
         0.44401E-06
         0.11753E-05
         0.58766E-06
         0.12140E-05
         0.60702E-06
         0.98236E-06
         0.49125E-06
         0.79766E-06
         0.39889E-06
         0.97540E-06
         0.48769E-06
         0.11548E-05
         0.57743E-06
         0.24609E-05
         0.19547E-05
         0.20946E-05
         0.35969E-05
         0.19318E-05
         0.24634E-05
         0.13815E-05
         0.16603E-05
         0.27283E-05
         0.20111E-05
         0.81658E-06
         0.15390E-05
         0.16927E-05
         0.13839E-05
         0.17528E-05
         0.32479E-05
         0.25367E-05
         0.32241E-05
         0.18980E-05
         0.21675E-05
         0.20481E-05
         0.22684E-05
         0.17424E-05
         0.10822E-05
         0.20589E-05
         0.17102E-05
         0.17950E-05
         0.18344E-05
         0.15904E-05
         0.19365E-05
         0.24555E-05
         0.17359E-05
         0.27423E-05
         0.23814E-05
         0.10820E-05
         0.16702E-05
         0.18953E-05
         0.20025E-05
         0.19317E-05
         0.15181E-05
         0.95442E-06
         0.15780E-05
         0.20884E-05
         0.16864E-05
         0.14835E-05
         0.97197E-06
         0.16567E-05
         0.22482E-05
         0.23571E-05
         0.19022E-05
         0.11709E-05
         0.20101E-05
         0.74658E-06
         0.94886E-06
         0.88841E-06
         0.10467E-05
         0.10207E-05
         0.99128E-06
         0.10565E-05
         0.11150E-05
         0.10503E-05
         0.82102E-06
         0.66954E-06
         0.86398E-06
         0.11506E-05
         0.12640E-05
         0.12133E-05
         0.10948E-05
         0.99421E-06
         0.80751E-06
         0.67970E-06
         0.88789E-06
         0.11752E-05
         0.12140E-05
         0.98215E-06
         0.79747E-06
         0.97551E-06
         0.11548E-05
         0.24611E-05
         0.19543E-05
         0.20949E-05
         0.35987E-05
         0.19321E-05
         0.24642E-05
         0.13808E-05
         0.16594E-05
         0.27293E-05
         0.20098E-05
         0.81582E-06
         0.15388E-05
         0.16927E-05
         0.13821E-05
         0.17525E-05
         0.32489E-05
         0.25379E-05
         0.32257E-05
         0.18982E-05
         0.21678E-05
         0.20480E-05
         0.22685E-05
         0.17423E-05
         0.10821E-05
         0.20580E-05
         0.17101E-05
         0.17924E-05
         0.18326E-05
         0.15898E-05
         0.19361E-05
         0.24558E-05
         0.17357E-05
         0.27438E-05
         0.23836E-05
         0.10821E-05
         0.16699E-05
         0.18951E-05
         0.20024E-05
         0.19318E-05
         0.15183E-05
         0.95445E-06
         0.15778E-05
         0.20884E-05
         0.16862E-05
         0.14831E-05
         0.97174E-06
         0.16566E-05
         0.22483E-05
         0.23575E-05
         0.19026E-05
         0.11709E-05
         0.20112E-05
         0.74636E-06
         0.94886E-06
         0.88800E-06
         0.10467E-05
         0.10210E-05
         0.99152E-06
         0.10570E-05
         0.11159E-05
         0.10509E-05
         0.82122E-06
         0.66961E-06
         0.86402E-06
         0.11507E-05
         0.12643E-05
         0.12135E-05
         0.10948E-05
         0.99417E-06
         0.80747E-06
         0.67961E-06
         0.88784E-06
         0.11752E-05
         0.12140E-05
         0.98197E-06
         0.79731E-06
         0.97565E-06
         0.11548E-05
         0.24612E-05
         0.19539E-05
         0.20950E-05
         0.36004E-05
         0.19324E-05
         0.24650E-05
         0.13801E-05
         0.16584E-05
         0.27303E-05
         0.20085E-05
         0.81504E-06
         0.15385E-05
         0.16925E-05
         0.13801E-05
         0.17521E-05
         0.32498E-05
         0.25390E-05
         0.32274E-05
         0.18982E-05
         0.21681E-05
         0.20479E-05
         0.22686E-05
         0.17421E-05
         0.10820E-05
         0.20571E-05
         0.17099E-05
         0.17897E-05
         0.18308E-05
         0.15891E-05
         0.19356E-05
         0.24561E-05
         0.17355E-05
         0.27453E-05
         0.23857E-05
         0.10820E-05
         0.16696E-05
         0.18948E-05
         0.20022E-05
         0.19320E-05
         0.15183E-05
         0.95445E-06
         0.15776E-05
         0.20883E-05
         0.16859E-05
         0.14828E-05
         0.97149E-06
         0.16564E-05
         0.22483E-05
         0.23578E-05
         0.19030E-05
         0.11710E-05
         0.20122E-05
         0.74613E-06
         0.94884E-06
         0.88756E-06
         0.10467E-05
         0.10212E-05
         0.99173E-06
         0.10574E-05
         0.11167E-05
         0.10515E-05
         0.82140E-06
         0.66966E-06
         0.86404E-06
         0.11509E-05
         0.12646E-05
         0.12136E-05
         0.10947E-05
         0.99410E-06
         0.80740E-06
         0.67950E-06
         0.88777E-06
         0.11752E-05
         0.12140E-05
         0.98177E-06
         0.79713E-06
         0.97576E-06
         0.11547E-05
         0.24613E-05
         0.19535E-05
         0.20952E-05
         0.36022E-05
         0.19327E-05
         0.24657E-05
         0.13794E-05
         0.16574E-05
         0.27313E-05
         0.20072E-05
         0.81426E-06
         0.15382E-05
         0.16924E-05
         0.13782E-05
         0.17517E-05
         0.32508E-05
         0.25402E-05
         0.32290E-05
         0.18983E-05
         0.21684E-05
         0.20479E-05
         0.22687E-05
         0.17420E-05
         0.10819E-05
         0.20563E-05
         0.17098E-05
         0.17870E-05
         0.18290E-05
         0.15884E-05
         0.19352E-05
         0.24563E-05
         0.17353E-05
         0.27467E-05
         0.23879E-05
         0.10820E-05
         0.16693E-05
         0.18946E-05
         0.20021E-05
         0.19321E-05
         0.15184E-05
         0.95445E-06
         0.15773E-05
         0.20882E-05
         0.16857E-05
         0.14824E-05
         0.97124E-06
         0.16563E-05
         0.22484E-05
         0.23582E-05
         0.19034E-05
         0.11710E-05
         0.20132E-05
         0.74590E-06
         0.94883E-06
         0.88713E-06
         0.10468E-05
         0.10215E-05
         0.99194E-06
         0.10579E-05
         0.11175E-05
         0.10521E-05
         0.82159E-06
         0.66972E-06
         0.86406E-06
         0.11510E-05
         0.12649E-05
         0.12138E-05
         0.10947E-05
         0.99404E-06
         0.80734E-06
         0.67940E-06
         0.88771E-06
         0.11752E-05
         0.12140E-05
         0.98157E-06
         0.79696E-06
         0.97588E-06
         0.11547E-05
         0.24615E-05
         0.19531E-05
         0.20954E-05
         0.36039E-05
         0.19331E-05
         0.24665E-05
         0.13787E-05
         0.16564E-05
         0.27322E-05
         0.20059E-05
         0.81349E-06
         0.15380E-05
         0.16923E-05
         0.13763E-05
         0.17514E-05
         0.32518E-05
         0.25414E-05
         0.32306E-05
         0.18984E-05
         0.21687E-05
         0.20478E-05
         0.22688E-05
         0.17418E-05
         0.10818E-05
         0.20554E-05
         0.17096E-05
         0.17843E-05
         0.18272E-05
         0.15878E-05
         0.19347E-05
         0.24566E-05
         0.17351E-05
         0.27482E-05
         0.23901E-05
         0.10820E-05
         0.16690E-05
         0.18943E-05
         0.20019E-05
         0.19322E-05
         0.15185E-05
         0.95446E-06
         0.15771E-05
         0.20881E-05
         0.16855E-05
         0.14821E-05
         0.97100E-06
         0.16562E-05
         0.22484E-05
         0.23586E-05
         0.19038E-05
         0.11710E-05
         0.20142E-05
         0.74568E-06
         0.94882E-06
         0.88671E-06
         0.10468E-05
         0.10217E-05
         0.99216E-06
         0.10583E-05
         0.11183E-05
         0.10528E-05
         0.82178E-06
         0.66977E-06
         0.86408E-06
         0.11512E-05
         0.12652E-05
         0.12139E-05
         0.10947E-05
         0.99398E-06
         0.80728E-06
         0.67930E-06
         0.88766E-06
         0.11752E-05
         0.12140E-05
         0.98138E-06
         0.79679E-06
         0.97601E-06
         0.11547E-05
         0.24616E-05
         0.19527E-05
         0.20956E-05
         0.36056E-05
         0.19334E-05
         0.24672E-05
         0.13779E-05
         0.16554E-05
         0.27332E-05
         0.20046E-05
         0.81271E-06
         0.15377E-05
         0.16922E-05
         0.13744E-05
         0.17510E-05
         0.32527E-05
         0.25425E-05
         0.32322E-05
         0.18984E-05
         0.21689E-05
         0.20477E-05
         0.22689E-05
         0.17416E-05
         0.10816E-05
         0.20545E-05
         0.17095E-05
         0.17817E-05
         0.18254E-05
         0.15871E-05
         0.19343E-05
         0.24568E-05
         0.17349E-05
         0.27496E-05
         0.23922E-05
         0.10820E-05
         0.16686E-05
         0.18941E-05
         0.20018E-05
         0.19324E-05
         0.15186E-05
         0.95446E-06
         0.15769E-05
         0.20880E-05
         0.16852E-05
         0.14817E-05
         0.97074E-06
         0.16560E-05
         0.22484E-05
         0.23589E-05
         0.19042E-05
         0.11710E-05
         0.20152E-05
         0.74544E-06
         0.94880E-06
         0.88627E-06
         0.10469E-05
         0.10219E-05
         0.99237E-06
         0.10588E-05
         0.11191E-05
         0.10534E-05
         0.82196E-06
         0.66982E-06
         0.86410E-06
         0.11513E-05
         0.12654E-05
         0.12140E-05
         0.10947E-05
         0.99391E-06
         0.80721E-06
         0.67919E-06
         0.88759E-06
         0.11751E-05
         0.12140E-05
         0.98118E-06
         0.79661E-06
         0.97612E-06
         0.11546E-05
         0.24618E-05
         0.19523E-05
         0.20957E-05
         0.36073E-05
         0.19337E-05
         0.24680E-05
         0.13772E-05
         0.16545E-05
         0.27341E-05
         0.20033E-05
         0.81194E-06
         0.15374E-05
         0.16921E-05
         0.13725E-05
         0.17506E-05
         0.32537E-05
         0.25437E-05
         0.32339E-05
         0.18985E-05
         0.21692E-05
         0.20476E-05
         0.22690E-05
         0.17414E-05
         0.10815E-05
         0.20536E-05
         0.17093E-05
         0.17790E-05
         0.18236E-05
         0.15864E-05
         0.19339E-05
         0.24571E-05
         0.17347E-05
         0.27511E-05
         0.23944E-05
         0.10820E-05
         0.16683E-05
         0.18938E-05
         0.20016E-05
         0.19325E-05
         0.15186E-05
         0.95446E-06
         0.15767E-05
         0.20878E-05
         0.16850E-05
         0.14814E-05
         0.97050E-06
         0.16559E-05
         0.22484E-05
         0.23593E-05
         0.19046E-05
         0.11711E-05
         0.20162E-05
         0.74522E-06
         0.94878E-06
         0.88584E-06
         0.10469E-05
         0.10222E-05
         0.99258E-06
         0.10593E-05
         0.11199E-05
         0.10540E-05
         0.82215E-06
         0.66988E-06
         0.86413E-06
         0.11515E-05
         0.12657E-05
         0.12142E-05
         0.10946E-05
         0.99385E-06
         0.80715E-06
         0.67909E-06
         0.88752E-06
         0.11751E-05
         0.12140E-05
         0.98098E-06
         0.79643E-06
         0.97624E-06
         0.11546E-05
         0.24619E-05
         0.19519E-05
         0.20959E-05
         0.36091E-05
         0.19340E-05
         0.24688E-05
         0.13765E-05
         0.16535E-05
         0.27351E-05
         0.20020E-05
         0.81117E-06
         0.15372E-05
         0.16920E-05
         0.13706E-05
         0.17503E-05
         0.32546E-05
         0.25448E-05
         0.32355E-05
         0.18986E-05
         0.21695E-05
         0.20475E-05
         0.22691E-05
         0.17413E-05
         0.10814E-05
         0.20527E-05
         0.17092E-05
         0.17763E-05
         0.18219E-05
         0.15858E-05
         0.19334E-05
         0.24573E-05
         0.17345E-05
         0.27525E-05
         0.23966E-05
         0.10820E-05
         0.16680E-05
         0.18936E-05
         0.20015E-05
         0.19326E-05
         0.15187E-05
         0.95447E-06
         0.15765E-05
         0.20878E-05
         0.16848E-05
         0.14810E-05
         0.97025E-06
         0.16557E-05
         0.22485E-05
         0.23597E-05
         0.19050E-05
         0.11711E-05
         0.20172E-05
         0.74499E-06
         0.94877E-06
         0.88541E-06
         0.10469E-05
         0.10224E-05
         0.99280E-06
         0.10597E-05
         0.11207E-05
         0.10546E-05
         0.82234E-06
         0.66994E-06
         0.86415E-06
         0.11517E-05
         0.12660E-05
         0.12143E-05
         0.10946E-05
         0.99379E-06
         0.80709E-06
         0.67898E-06
         0.88746E-06
         0.11751E-05
         0.12140E-05
         0.98079E-06
         0.79626E-06
         0.97636E-06
         0.11546E-05
         0.24621E-05
         0.19515E-05
         0.20961E-05
         0.36108E-05
         0.19343E-05
         0.24695E-05
         0.13758E-05
         0.16525E-05
         0.27361E-05
         0.20006E-05
         0.81039E-06
         0.15369E-05
         0.16919E-05
         0.13686E-05
         0.17499E-05
         0.32556E-05
         0.25460E-05
         0.32371E-05
         0.18986E-05
         0.21697E-05
         0.20474E-05
         0.22692E-05
         0.17411E-05
         0.10813E-05
         0.20519E-05
         0.17091E-05
         0.17736E-05
         0.18201E-05
         0.15851E-05
         0.19330E-05
         0.24575E-05
         0.17342E-05
         0.27540E-05
         0.23987E-05
         0.10820E-05
         0.16677E-05
         0.18933E-05
         0.20014E-05
         0.19328E-05
         0.15188E-05
         0.95448E-06
         0.15763E-05
         0.20876E-05
         0.16845E-05
         0.14807E-05
         0.97000E-06
         0.16556E-05
         0.22485E-05
         0.23600E-05
         0.19053E-05
         0.11711E-05
         0.20182E-05
         0.74476E-06
         0.94875E-06
         0.88498E-06
         0.10470E-05
         0.10227E-05
         0.99301E-06
         0.10602E-05
         0.11215E-05
         0.10553E-05
         0.82252E-06
         0.66999E-06
         0.86417E-06
         0.11518E-05
         0.12663E-05
         0.12145E-05
         0.10946E-05
         0.99373E-06
         0.80702E-06
         0.67888E-06
         0.88740E-06
         0.11751E-05
         0.12140E-05
         0.98058E-06
         0.79608E-06
         0.97648E-06
         0.11546E-05
         0.24622E-05
         0.19511E-05
         0.20963E-05
         0.36125E-05
         0.19346E-05
         0.24703E-05
         0.13751E-05
         0.16515E-05
         0.27370E-05
         0.19993E-05
         0.80962E-06
         0.15366E-05
         0.16917E-05
         0.13667E-05
         0.17495E-05
         0.32565E-05
         0.25471E-05
         0.32388E-05
         0.18987E-05
         0.21700E-05
         0.20473E-05
         0.22693E-05
         0.17409E-05
         0.10812E-05
         0.20510E-05
         0.17089E-05
         0.17710E-05
         0.18183E-05
         0.15844E-05
         0.19325E-05
         0.24578E-05
         0.17340E-05
         0.27554E-05
         0.24009E-05
         0.10820E-05
         0.16674E-05
         0.18931E-05
         0.20012E-05
         0.19329E-05
         0.15189E-05
         0.95448E-06
         0.15760E-05
         0.20875E-05
         0.16843E-05
         0.14803E-05
         0.96975E-06
         0.16555E-05
         0.22485E-05
         0.23604E-05
         0.19057E-05
         0.11712E-05
         0.20192E-05
         0.74453E-06
         0.94874E-06
         0.88455E-06
         0.10470E-05
         0.10229E-05
         0.99322E-06
         0.10606E-05
         0.11223E-05
         0.10559E-05
         0.82270E-06
         0.67004E-06
         0.86419E-06
         0.11520E-05
         0.12666E-05
         0.12146E-05
         0.10945E-05
         0.99366E-06
         0.80696E-06
         0.67877E-06
         0.88733E-06
         0.11751E-05
         0.12140E-05
         0.98038E-06
         0.79590E-06
         0.97660E-06
         0.11545E-05
         0.24623E-05
         0.19507E-05
         0.20964E-05
         0.36142E-05
         0.19349E-05
         0.24710E-05
         0.13743E-05
         0.16505E-05
         0.27380E-05
         0.19980E-05
         0.80885E-06
         0.15364E-05
         0.16916E-05
         0.13648E-05
         0.17492E-05
         0.32575E-05
         0.25483E-05
         0.32404E-05
         0.18988E-05
         0.21703E-05
         0.20473E-05
         0.22694E-05
         0.17407E-05
         0.10811E-05
         0.20501E-05
         0.17088E-05
         0.17683E-05
         0.18165E-05
         0.15837E-05
         0.19321E-05
         0.24580E-05
         0.17338E-05
         0.27569E-05
         0.24031E-05
         0.10820E-05
         0.16670E-05
         0.18928E-05
         0.20011E-05
         0.19330E-05
         0.15189E-05
         0.95448E-06
         0.15758E-05
         0.20874E-05
         0.16840E-05
         0.14800E-05
         0.96950E-06
         0.16553E-05
         0.22485E-05
         0.23608E-05
         0.19061E-05
         0.11712E-05
         0.20202E-05
         0.74430E-06
         0.94872E-06
         0.88412E-06
         0.10470E-05
         0.10231E-05
         0.99344E-06
         0.10611E-05
         0.11231E-05
         0.10565E-05
         0.82289E-06
         0.67009E-06
         0.86422E-06
         0.11521E-05
         0.12669E-05
         0.12147E-05
         0.10945E-05
         0.99360E-06
         0.80690E-06
         0.67867E-06
         0.88727E-06
         0.11750E-05
         0.12140E-05
         0.98019E-06
         0.79573E-06
         0.97672E-06
         0.11545E-05
         0.24625E-05
         0.19503E-05
         0.20966E-05
         0.36160E-05
         0.19352E-05
         0.24718E-05
         0.13736E-05
         0.16496E-05
         0.27389E-05
         0.19967E-05
         0.80807E-06
         0.15361E-05
         0.16915E-05
         0.13629E-05
         0.17488E-05
         0.32584E-05
         0.25495E-05
         0.32420E-05
         0.18988E-05
         0.21705E-05
         0.20472E-05
         0.22695E-05
         0.17406E-05
         0.10810E-05
         0.20492E-05
         0.17086E-05
         0.17656E-05
         0.18147E-05
         0.15831E-05
         0.19317E-05
         0.24583E-05
         0.17336E-05
         0.27583E-05
         0.24053E-05
         0.10820E-05
         0.16667E-05
         0.18926E-05
         0.20009E-05
         0.19331E-05
         0.15190E-05
         0.95449E-06
         0.15756E-05
         0.20873E-05
         0.16838E-05
         0.14796E-05
         0.96925E-06
         0.16552E-05
         0.22486E-05
         0.23611E-05
         0.19065E-05
         0.11712E-05
         0.20212E-05
         0.74407E-06
         0.94870E-06
         0.88368E-06
         0.10471E-05
         0.10234E-05
         0.99365E-06
         0.10616E-05
         0.11239E-05
         0.10571E-05
         0.82307E-06
         0.67014E-06
         0.86424E-06
         0.11523E-05
         0.12672E-05
         0.12149E-05
         0.10945E-05
         0.99354E-06
         0.80683E-06
         0.67856E-06
         0.88721E-06
         0.11750E-05
         0.12140E-05
         0.97999E-06
         0.79555E-06
         0.97684E-06
         0.11545E-05
         0.24626E-05
         0.19499E-05
         0.20968E-05
         0.36177E-05
         0.19355E-05
         0.24725E-05
         0.13729E-05
         0.16486E-05
         0.27399E-05
         0.19954E-05
         0.80730E-06
         0.15358E-05
         0.16914E-05
         0.13610E-05
         0.17484E-05
         0.32594E-05
         0.25506E-05
         0.32437E-05
         0.18989E-05
         0.21708E-05
         0.20471E-05
         0.22696E-05
         0.17404E-05
         0.10808E-05
         0.20483E-05
         0.17085E-05
         0.17629E-05
         0.18129E-05
         0.15824E-05
         0.19312E-05
         0.24585E-05
         0.17334E-05
         0.27598E-05
         0.24074E-05
         0.10820E-05
         0.16664E-05
         0.18923E-05
         0.20008E-05
         0.19333E-05
         0.15191E-05
         0.95449E-06
         0.15754E-05
         0.20872E-05
         0.16835E-05
         0.14793E-05
         0.96901E-06
         0.16550E-05
         0.22486E-05
         0.23615E-05
         0.19069E-05
         0.11713E-05
         0.20222E-05
         0.74384E-06
         0.94869E-06
         0.88325E-06
         0.10471E-05
         0.10236E-05
         0.99386E-06
         0.10620E-05
         0.11247E-05
         0.10577E-05
         0.82326E-06
         0.67020E-06
         0.86426E-06
         0.11524E-05
         0.12674E-05
         0.12150E-05
         0.10944E-05
         0.99348E-06
         0.80677E-06
         0.67846E-06
         0.88714E-06
         0.11750E-05
         0.12140E-05
         0.97979E-06
         0.79538E-06
         0.97696E-06
         0.11544E-05
         0.24628E-05
         0.19495E-05
         0.20970E-05
         0.36194E-05
         0.19358E-05
         0.24733E-05
         0.13722E-05
         0.16476E-05
         0.27409E-05
         0.19941E-05
         0.80652E-06
         0.15355E-05
         0.16913E-05
         0.13591E-05
         0.17481E-05
         0.32604E-05
         0.25518E-05
         0.32453E-05
         0.18990E-05
         0.21711E-05
         0.20470E-05
         0.22697E-05
         0.17402E-05
         0.10807E-05
         0.20474E-05
         0.17084E-05
         0.17603E-05
         0.18111E-05
         0.15817E-05
         0.19308E-05
         0.24588E-05
         0.17332E-05
         0.27613E-05
         0.24096E-05
         0.10819E-05
         0.16661E-05
         0.18921E-05
         0.20006E-05
         0.19334E-05
         0.15192E-05
         0.95450E-06
         0.15752E-05
         0.20871E-05
         0.16833E-05
         0.14789E-05
         0.96876E-06
         0.16549E-05
         0.22486E-05
         0.23619E-05
         0.19073E-05
         0.11713E-05
         0.20232E-05
         0.74362E-06
         0.94868E-06
         0.88282E-06
         0.10472E-05
         0.10238E-05
         0.99408E-06
         0.10625E-05
         0.11255E-05
         0.10584E-05
         0.82345E-06
         0.67025E-06
         0.86428E-06
         0.11526E-05
         0.12677E-05
         0.12152E-05
         0.10944E-05
         0.99342E-06
         0.80671E-06
         0.67836E-06
         0.88709E-06
         0.11750E-05
         0.12140E-05
         0.97959E-06
         0.79521E-06
         0.97708E-06
         0.11544E-05
         0.24629E-05
         0.19491E-05
         0.20972E-05
         0.36212E-05
         0.19361E-05
         0.24741E-05
         0.13715E-05
         0.16466E-05
         0.27418E-05
         0.19928E-05
         0.80575E-06
         0.15353E-05
         0.16912E-05
         0.13572E-05
         0.17477E-05
         0.32613E-05
         0.25529E-05
         0.32469E-05
         0.18990E-05
         0.21714E-05
         0.20469E-05
         0.22698E-05
         0.17400E-05
         0.10806E-05
         0.20466E-05
         0.17082E-05
         0.17576E-05
         0.18093E-05
         0.15810E-05
         0.19303E-05
         0.24590E-05
         0.17330E-05
         0.27627E-05
         0.24118E-05
         0.10819E-05
         0.16658E-05
         0.18919E-05
         0.20005E-05
         0.19335E-05
         0.15192E-05
         0.95450E-06
         0.15750E-05
         0.20870E-05
         0.16831E-05
         0.14786E-05
         0.96851E-06
         0.16548E-05
         0.22487E-05
         0.23622E-05
         0.19077E-05
         0.11713E-05
         0.20242E-05
         0.74339E-06
         0.94866E-06
         0.88239E-06
         0.10472E-05
         0.10241E-05
         0.99429E-06
         0.10630E-05
         0.11263E-05
         0.10590E-05
         0.82363E-06
         0.67030E-06
         0.86430E-06
         0.11527E-05
         0.12680E-05
         0.12153E-05
         0.10944E-05
         0.99335E-06
         0.80665E-06
         0.67825E-06
         0.88702E-06
         0.11749E-05
         0.12140E-05
         0.97939E-06
         0.79503E-06
         0.97720E-06
         0.11544E-05
         0.24631E-05
         0.19487E-05
         0.20973E-05
         0.36229E-05
         0.19364E-05
         0.24748E-05
         0.13707E-05
         0.16456E-05
         0.27428E-05
         0.19915E-05
         0.80498E-06
         0.15350E-05
         0.16911E-05
         0.13553E-05
         0.17473E-05
         0.32623E-05
         0.25541E-05
         0.32486E-05
         0.18991E-05
         0.21716E-05
         0.20468E-05
         0.22699E-05
         0.17399E-05
         0.10805E-05
         0.20457E-05
         0.17081E-05
         0.17549E-05
         0.18075E-05
         0.15804E-05
         0.19299E-05
         0.24592E-05
         0.17328E-05
         0.27642E-05
         0.24140E-05
         0.10819E-05
         0.16654E-05
         0.18916E-05
         0.20003E-05
         0.19337E-05
         0.15193E-05
         0.95450E-06
         0.15748E-05
         0.20869E-05
         0.16828E-05
         0.14782E-05
         0.96826E-06
         0.16546E-05
         0.22487E-05
         0.23626E-05
         0.19081E-05
         0.11714E-05
         0.20253E-05
         0.74316E-06
         0.94864E-06
         0.88196E-06
         0.10472E-05
         0.10243E-05
         0.99450E-06
         0.10634E-05
         0.11271E-05
         0.10596E-05
         0.82381E-06
         0.67036E-06
         0.86432E-06
         0.11529E-05
         0.12683E-05
         0.12154E-05
         0.10943E-05
         0.99329E-06
         0.80658E-06
         0.67815E-06
         0.88696E-06
         0.11749E-05
         0.12140E-05
         0.97919E-06
         0.79485E-06
         0.97732E-06
         0.11544E-05
         0.24632E-05
         0.19483E-05
         0.20975E-05
         0.36246E-05
         0.19368E-05
         0.24756E-05
         0.13700E-05
         0.16447E-05
         0.27437E-05
         0.19902E-05
         0.80421E-06
         0.15347E-05
         0.16910E-05
         0.13534E-05
         0.17470E-05
         0.32632E-05
         0.25552E-05
         0.32502E-05
         0.18992E-05
         0.21719E-05
         0.20467E-05
         0.22700E-05
         0.17397E-05
         0.10804E-05
         0.20448E-05
         0.17079E-05
         0.17523E-05
         0.18057E-05
         0.15797E-05
         0.19295E-05
         0.24595E-05
         0.17326E-05
         0.27656E-05
         0.24161E-05
         0.10819E-05
         0.16651E-05
         0.18914E-05
         0.20002E-05
         0.19338E-05
         0.15194E-05
         0.95451E-06
         0.15745E-05
         0.20868E-05
         0.16826E-05
         0.14779E-05
         0.96801E-06
         0.16545E-05
         0.22487E-05
         0.23630E-05
         0.19085E-05
         0.11714E-05
         0.20263E-05
         0.74293E-06
         0.94863E-06
         0.88153E-06
         0.10473E-05
         0.10245E-05
         0.99472E-06
         0.10639E-05
         0.11279E-05
         0.10602E-05
         0.82400E-06
         0.67041E-06
         0.86435E-06
         0.11530E-05
         0.12686E-05
         0.12156E-05
         0.10943E-05
         0.99323E-06
         0.80652E-06
         0.67804E-06
         0.88690E-06
         0.11749E-05
         0.12140E-05
         0.97900E-06
         0.79468E-06
         0.97744E-06
         0.11543E-05
         0.24633E-05
         0.19479E-05
         0.20977E-05
         0.36264E-05
         0.19371E-05
         0.24763E-05
         0.13693E-05
         0.16437E-05
         0.27447E-05
         0.19888E-05
         0.80343E-06
         0.15345E-05
         0.16908E-05
         0.13515E-05
         0.17466E-05
         0.32642E-05
         0.25564E-05
         0.32518E-05
         0.18992E-05
         0.21722E-05
         0.20466E-05
         0.22701E-05
         0.17395E-05
         0.10803E-05
         0.20439E-05
         0.17078E-05
         0.17496E-05
         0.18039E-05
         0.15790E-05
         0.19290E-05
         0.24597E-05
         0.17323E-05
         0.27671E-05
         0.24183E-05
         0.10819E-05
         0.16648E-05
         0.18911E-05
         0.20001E-05
         0.19339E-05
         0.15195E-05
         0.95452E-06
         0.15743E-05
         0.20867E-05
         0.16823E-05
         0.14775E-05
         0.96776E-06
         0.16543E-05
         0.22487E-05
         0.23633E-05
         0.19089E-05
         0.11714E-05
         0.20273E-05
         0.74270E-06
         0.94861E-06
         0.88109E-06
         0.10473E-05
         0.10248E-05
         0.99493E-06
         0.10643E-05
         0.11287E-05
         0.10609E-05
         0.82418E-06
         0.67046E-06
         0.86437E-06
         0.11532E-05
         0.12689E-05
         0.12157E-05
         0.10943E-05
         0.99316E-06
         0.80646E-06
         0.67794E-06
         0.88683E-06
         0.11749E-05
         0.12140E-05
         0.97879E-06
         0.79450E-06
         0.97755E-06
         0.11543E-05
         0.24635E-05
         0.19475E-05
         0.20979E-05
         0.36281E-05
         0.19374E-05
         0.24771E-05
         0.13686E-05
         0.16427E-05
         0.27456E-05
         0.19875E-05
         0.80266E-06
         0.15342E-05
         0.16907E-05
         0.13496E-05
         0.17463E-05
         0.32651E-05
         0.25575E-05
         0.32534E-05
         0.18993E-05
         0.21724E-05
         0.20466E-05
         0.22702E-05
         0.17393E-05
         0.10802E-05
         0.20430E-05
         0.17076E-05
         0.17469E-05
         0.18021E-05
         0.15784E-05
         0.19286E-05
         0.24600E-05
         0.17321E-05
         0.27685E-05
         0.24205E-05
         0.10819E-05
         0.16645E-05
         0.18909E-05
         0.19999E-05
         0.19341E-05
         0.15195E-05
         0.95452E-06
         0.15741E-05
         0.20866E-05
         0.16821E-05
         0.14772E-05
         0.96751E-06
         0.16542E-05
         0.22488E-05
         0.23637E-05
         0.19092E-05
         0.11715E-05
         0.20283E-05
         0.74247E-06
         0.94860E-06
         0.88066E-06
         0.10473E-05
         0.10250E-05
         0.99514E-06
         0.10648E-05
         0.11295E-05
         0.10615E-05
         0.82437E-06
         0.67052E-06
         0.86439E-06
         0.11533E-05
         0.12691E-05
         0.12159E-05
         0.10942E-05
         0.99310E-06
         0.80639E-06
         0.67783E-06
         0.88676E-06
         0.11748E-05
         0.12140E-05
         0.97859E-06
         0.79433E-06
         0.97767E-06
         0.11543E-05
         0.24636E-05
         0.19471E-05
         0.20980E-05
         0.36298E-05
         0.19377E-05
         0.24779E-05
         0.13679E-05
         0.16417E-05
         0.27466E-05
         0.19862E-05
         0.80189E-06
         0.15339E-05
         0.16906E-05
         0.13477E-05
         0.17459E-05
         0.32661E-05
         0.25587E-05
         0.32551E-05
         0.18994E-05
         0.21727E-05
         0.20465E-05
         0.22703E-05
         0.17392E-05
         0.10800E-05
         0.20421E-05
         0.17075E-05
         0.17443E-05
         0.18003E-05
         0.15777E-05
         0.19281E-05
         0.24602E-05
         0.17319E-05
         0.27700E-05
         0.24227E-05
         0.10819E-05
         0.16642E-05
         0.18906E-05
         0.19998E-05
         0.19342E-05
         0.15196E-05
         0.95453E-06
         0.15739E-05
         0.20865E-05
         0.16819E-05
         0.14768E-05
         0.96727E-06
         0.16541E-05
         0.22488E-05
         0.23640E-05
         0.19096E-05
         0.11715E-05
         0.20293E-05
         0.74225E-06
         0.94859E-06
         0.88023E-06
         0.10474E-05
         0.10253E-05
         0.99535E-06
         0.10653E-05
         0.11303E-05
         0.10621E-05
         0.82456E-06
         0.67057E-06
         0.86441E-06
         0.11535E-05
         0.12694E-05
         0.12160E-05
         0.10942E-05
         0.99304E-06
         0.80633E-06
         0.67773E-06
         0.88671E-06
         0.11748E-05
         0.12140E-05
         0.97840E-06
         0.79415E-06
         0.97780E-06
         0.11542E-05
         0.24637E-05
         0.19466E-05
         0.20982E-05
         0.36315E-05
         0.19380E-05
         0.24786E-05
         0.13671E-05
         0.16407E-05
         0.27475E-05
         0.19849E-05
         0.80110E-06
         0.15336E-05
         0.16905E-05
         0.13457E-05
         0.17455E-05
         0.32669E-05
         0.25598E-05
         0.32567E-05
         0.18994E-05
         0.21729E-05
         0.20464E-05
         0.22703E-05
         0.17390E-05
         0.10799E-05
         0.20412E-05
         0.17073E-05
         0.17416E-05
         0.17985E-05
         0.15770E-05
         0.19277E-05
         0.24604E-05
         0.17317E-05
         0.27714E-05
         0.24248E-05
         0.10819E-05
         0.16638E-05
         0.18903E-05
         0.19996E-05
         0.19343E-05
         0.15196E-05
         0.95451E-06
         0.15737E-05
         0.20864E-05
         0.16816E-05
         0.14765E-05
         0.96700E-06
         0.16539E-05
         0.22488E-05
         0.23644E-05
         0.19100E-05
         0.11715E-05
         0.20303E-05
         0.74200E-06
         0.94855E-06
         0.87978E-06
         0.10474E-05
         0.10255E-05
         0.99555E-06
         0.10657E-05
         0.11311E-05
         0.10627E-05
         0.82472E-06
         0.67061E-06
         0.86442E-06
         0.11536E-05
         0.12697E-05
         0.12161E-05
         0.10941E-05
         0.99295E-06
         0.80625E-06
         0.67761E-06
         0.88662E-06
         0.11748E-05
         0.12140E-05
         0.97818E-06
         0.79396E-06
         0.97790E-06
         0.11542E-05
         0.24639E-05
         0.19463E-05
         0.20984E-05
         0.36333E-05
         0.19383E-05
         0.24794E-05
         0.13664E-05
         0.16398E-05
         0.27485E-05
         0.19836E-05
         0.80034E-06
         0.15334E-05
         0.16904E-05
         0.13439E-05
         0.17452E-05
         0.32679E-05
         0.25610E-05
         0.32583E-05
         0.18995E-05
         0.21732E-05
         0.20463E-05
         0.22704E-05
         0.17388E-05
         0.10798E-05
         0.20404E-05
         0.17072E-05
         0.17389E-05
         0.17967E-05
         0.15763E-05
         0.19272E-05
         0.24607E-05
         0.17315E-05
         0.27729E-05
         0.24270E-05
         0.10819E-05
         0.16635E-05
         0.18901E-05
         0.19995E-05
         0.19345E-05
         0.15197E-05
         0.95453E-06
         0.15735E-05
         0.20863E-05
         0.16814E-05
         0.14761E-05
         0.96677E-06
         0.16538E-05
         0.22488E-05
         0.23647E-05
         0.19104E-05
         0.11716E-05
         0.20313E-05
         0.74179E-06
         0.94855E-06
         0.87936E-06
         0.10475E-05
         0.10257E-05
         0.99577E-06
         0.10662E-05
         0.11319E-05
         0.10633E-05
         0.82492E-06
         0.67068E-06
         0.86446E-06
         0.11538E-05
         0.12700E-05
         0.12163E-05
         0.10941E-05
         0.99291E-06
         0.80620E-06
         0.67752E-06
         0.88657E-06
         0.11748E-05
         0.12140E-05
         0.97800E-06
         0.79380E-06
         0.97803E-06
         0.11542E-05
         0.12320E-05
         0.97306E-06
         0.10493E-05
         0.18171E-05
         0.96926E-06
         0.12399E-05
         0.68306E-06
         0.81967E-06
         0.13745E-05
         0.99152E-06
         0.39999E-06
         0.76665E-06
         0.84519E-06
         0.67148E-06
         0.87252E-06
         0.16343E-05
         0.12808E-05
         0.16296E-05
         0.94981E-06
         0.10867E-05
         0.10232E-05
         0.11353E-05
         0.86940E-06
         0.53990E-06
         0.10200E-05
         0.85360E-06
         0.86884E-06
         0.89793E-06
         0.78802E-06
         0.96354E-06
         0.12305E-05
         0.86572E-06
         0.13869E-05
         0.12141E-05
         0.54095E-06
         0.83170E-06
         0.94503E-06
         0.99975E-06
         0.96729E-06
         0.75992E-06
         0.47728E-06
         0.78670E-06
         0.10432E-05
         0.84065E-06
         0.73800E-06
         0.48334E-06
         0.82688E-06
         0.11245E-05
         0.11825E-05
         0.95534E-06
         0.58581E-06
         0.10159E-05
         0.37085E-06
         0.47429E-06
         0.43959E-06
         0.52375E-06
         0.51294E-06
         0.49796E-06
         0.53322E-06
         0.56619E-06
         0.53185E-06
         0.41252E-06
         0.33536E-06
         0.43225E-06
         0.57696E-06
         0.63509E-06
         0.60820E-06
         0.54708E-06
         0.49646E-06
         0.40310E-06
         0.33875E-06
         0.44329E-06
         0.58740E-06
         0.60700E-06
         0.48897E-06
         0.39687E-06
         0.48906E-06
         0.57710E-06
  
SCALARS                 Poissons_ratio  double 1
LOOKUP_TABLE default
         0.30000E+00
         0.30000E+00
         0.30000E+00
         0.30000E+00
         0.30000E+00
         0.30000E+00
         0.30000E+00
         0.30000E+00
         0.30000E+00
         0.30000E+00
         0.30000E+00
         0.30000E+00
         0.30000E+00
         0.30000E+00
         0.30000E+00
         0.30000E+00
         0.30000E+00
         0.30000E+00
         0.30000E+00
         0.30000E+00
         0.30000E+00
         0.30000E+00
         0.30000E+00
         0.30000E+00
         0.30000E+00
         0.30000E+00
         0.30000E+00
         0.30000E+00
         0.30000E+00
         0.30000E+00
         0.30000E+00
         0.30000E+00
         0.30000E+00
         0.30000E+00
         0.30000E+00
         0.30000E+00
         0.30000E+00
         0.30000E+00
         0.30000E+00
         0.30000E+00
         0.30000E+00
         0.30000E+00
         0.30000E+00
         0.30000E+00
         0.30000E+00
         0.30000E+00
         0.30000E+00
         0.30000E+00
         0.30000E+00
         0.30000E+00
         0.30000E+00
         0.30000E+00
         0.30000E+00
         0.30000E+00
         0.30000E+00
         0.30000E+00
         0.30000E+00
         0.30000E+00
         0.30000E+00
         0.30000E+00
         0.30000E+00
         0.30000E+00
         0.30000E+00
         0.30000E+00
         0.30000E+00
         0.30000E+00
         0.30000E+00
         0.30000E+00
         0.30000E+00
         0.30000E+00
         0.30000E+00
         0.30000E+00
         0.30000E+00
         0.30000E+00
         0.30000E+00
         0.30000E+00
         0.30000E+00
         0.30000E+00
         0.30000E+00
         0.30000E+00
         0.30000E+00
         0.30000E+00
         0.30000E+00
         0.30000E+00
         0.30000E+00
         0.30000E+00
         0.30000E+00
         0.30000E+00
         0.30000E+00
         0.30000E+00
         0.30000E+00
         0.30000E+00
         0.30000E+00
         0.30000E+00
         0.30000E+00
         0.30000E+00
         0.30000E+00
         0.30000E+00
         0.30000E+00
         0.30000E+00
         0.30000E+00
         0.30000E+00
         0.30000E+00
         0.30000E+00
         0.30000E+00
         0.30000E+00
         0.30000E+00
         0.30000E+00
         0.30000E+00
         0.30000E+00
         0.30000E+00
         0.30000E+00
         0.30000E+00
         0.30000E+00
         0.30000E+00
         0.30000E+00
         0.30000E+00
         0.30000E+00
         0.30000E+00
         0.30000E+00
         0.30000E+00
         0.30000E+00
         0.30000E+00
         0.30000E+00
         0.30000E+00
         0.30000E+00
         0.30000E+00
         0.30000E+00
         0.30000E+00
         0.30000E+00
         0.30000E+00
         0.30000E+00
         0.30000E+00
         0.30000E+00
         0.30000E+00
         0.30000E+00
         0.30000E+00
         0.30000E+00
         0.30000E+00
         0.30000E+00
         0.30000E+00
         0.30000E+00
         0.30000E+00
         0.30000E+00
         0.30000E+00
         0.30000E+00
         0.30000E+00
         0.30000E+00
         0.30000E+00
         0.30000E+00
         0.30000E+00
         0.30000E+00
         0.30000E+00
         0.30000E+00
         0.30000E+00
         0.30000E+00
         0.30000E+00
         0.30000E+00
         0.30000E+00
         0.30000E+00
         0.30000E+00
         0.30000E+00
         0.30000E+00
         0.30000E+00
         0.30000E+00
         0.30000E+00
         0.30000E+00
         0.30000E+00
         0.30000E+00
         0.30000E+00
         0.30000E+00
         0.30000E+00
         0.30000E+00
         0.30000E+00
         0.30000E+00
         0.30000E+00
         0.30000E+00
         0.30000E+00
         0.30000E+00
         0.30000E+00
         0.30000E+00
         0.30000E+00
         0.30000E+00
         0.30000E+00
         0.30000E+00
         0.30000E+00
         0.30000E+00
         0.30000E+00
         0.30000E+00
         0.30000E+00
         0.30000E+00
         0.30000E+00
         0.30000E+00
         0.30000E+00
         0.30000E+00
         0.30000E+00
         0.30000E+00
         0.30000E+00
         0.30000E+00
         0.30000E+00
         0.30000E+00
         0.30000E+00
         0.30000E+00
         0.30000E+00
         0.30000E+00
         0.30000E+00
         0.30000E+00
         0.30000E+00
         0.30000E+00
         0.30000E+00
         0.30000E+00
         0.30000E+00
         0.30000E+00
         0.30000E+00
         0.30000E+00
         0.30000E+00
         0.30000E+00
         0.30000E+00
         0.30000E+00
         0.30000E+00
         0.30000E+00
         0.30000E+00
         0.30000E+00
         0.30000E+00
         0.30000E+00
         0.30000E+00
         0.30000E+00
         0.30000E+00
         0.30000E+00
         0.30000E+00
         0.30000E+00
         0.30000E+00
         0.30000E+00
         0.30000E+00
         0.30000E+00
         0.30000E+00
         0.30000E+00
         0.30000E+00
         0.30000E+00
         0.30000E+00
         0.30000E+00
         0.30000E+00
         0.30000E+00
         0.30000E+00
         0.30000E+00
         0.30000E+00
         0.30000E+00
         0.30000E+00
         0.30000E+00
         0.30000E+00
         0.30000E+00
         0.30000E+00
         0.30000E+00
         0.30000E+00
         0.30000E+00
         0.30000E+00
         0.30000E+00
         0.30000E+00
         0.30000E+00
         0.30000E+00
         0.30000E+00
         0.30000E+00
         0.30000E+00
         0.30000E+00
         0.30000E+00
         0.30000E+00
         0.30000E+00
         0.30000E+00
         0.30000E+00
         0.30000E+00
         0.30000E+00
         0.30000E+00
         0.30000E+00
         0.30000E+00
         0.30000E+00
         0.30000E+00
         0.30000E+00
         0.30000E+00
         0.30000E+00
         0.30000E+00
         0.30000E+00
         0.30000E+00
         0.30000E+00
         0.30000E+00
         0.30000E+00
         0.30000E+00
         0.30000E+00
         0.30000E+00
         0.30000E+00
         0.30000E+00
         0.30000E+00
         0.30000E+00
         0.30000E+00
         0.30000E+00
         0.30000E+00
         0.30000E+00
         0.30000E+00
         0.30000E+00
         0.30000E+00
         0.30000E+00
         0.30000E+00
         0.30000E+00
         0.30000E+00
         0.30000E+00
         0.30000E+00
         0.30000E+00
         0.30000E+00
         0.30000E+00
         0.30000E+00
         0.30000E+00
         0.30000E+00
         0.30000E+00
         0.30000E+00
         0.30000E+00
         0.30000E+00
         0.30000E+00
         0.30000E+00
         0.30000E+00
         0.30000E+00
         0.30000E+00
         0.30000E+00
         0.30000E+00
         0.30000E+00
         0.30000E+00
         0.30000E+00
         0.30000E+00
         0.30000E+00
         0.30000E+00
         0.30000E+00
         0.30000E+00
         0.30000E+00
         0.30000E+00
         0.30000E+00
         0.30000E+00
         0.30000E+00
         0.30000E+00
         0.30000E+00
         0.30000E+00
         0.30000E+00
         0.30000E+00
         0.30000E+00
         0.30000E+00
         0.30000E+00
         0.30000E+00
         0.30000E+00
         0.30000E+00
         0.30000E+00
         0.30000E+00
         0.30000E+00
         0.30000E+00
         0.30000E+00
         0.30000E+00
         0.30000E+00
         0.30000E+00
         0.30000E+00
         0.30000E+00
         0.30000E+00
         0.30000E+00
         0.30000E+00
         0.30000E+00
         0.30000E+00
         0.30000E+00
         0.30000E+00
         0.30000E+00
         0.30000E+00
         0.30000E+00
         0.30000E+00
         0.30000E+00
         0.30000E+00
         0.30000E+00
         0.30000E+00
         0.30000E+00
         0.30000E+00
         0.30000E+00
         0.30000E+00
         0.30000E+00
         0.30000E+00
         0.30000E+00
         0.30000E+00
         0.30000E+00
         0.30000E+00
         0.30000E+00
         0.30000E+00
         0.30000E+00
         0.30000E+00
         0.30000E+00
         0.30000E+00
         0.30000E+00
         0.30000E+00
         0.30000E+00
         0.30000E+00
         0.30000E+00
         0.30000E+00
         0.30000E+00
         0.30000E+00
         0.30000E+00
         0.30000E+00
         0.30000E+00
         0.30000E+00
         0.30000E+00
         0.30000E+00
         0.30000E+00
         0.30000E+00
         0.30000E+00
         0.30000E+00
         0.30000E+00
         0.30000E+00
         0.30000E+00
         0.30000E+00
         0.30000E+00
         0.30000E+00
         0.30000E+00
         0.30000E+00
         0.30000E+00
         0.30000E+00
         0.30000E+00
         0.30000E+00
         0.30000E+00
         0.30000E+00
         0.30000E+00
         0.30000E+00
         0.30000E+00
         0.30000E+00
         0.30000E+00
         0.30000E+00
         0.30000E+00
         0.30000E+00
         0.30000E+00
         0.30000E+00
         0.30000E+00
         0.30000E+00
         0.30000E+00
         0.30000E+00
         0.30000E+00
         0.30000E+00
         0.30000E+00
         0.30000E+00
         0.30000E+00
         0.30000E+00
         0.30000E+00
         0.30000E+00
         0.30000E+00
         0.30000E+00
         0.30000E+00
         0.30000E+00
         0.30000E+00
         0.30000E+00
         0.30000E+00
         0.30000E+00
         0.30000E+00
         0.30000E+00
         0.30000E+00
         0.30000E+00
         0.30000E+00
         0.30000E+00
         0.30000E+00
         0.30000E+00
         0.30000E+00
         0.30000E+00
         0.30000E+00
         0.30000E+00
         0.30000E+00
         0.30000E+00
         0.30000E+00
         0.30000E+00
         0.30000E+00
         0.30000E+00
         0.30000E+00
         0.30000E+00
         0.30000E+00
         0.30000E+00
         0.30000E+00
         0.30000E+00
         0.30000E+00
         0.30000E+00
         0.30000E+00
         0.30000E+00
         0.30000E+00
         0.30000E+00
         0.30000E+00
         0.30000E+00
         0.30000E+00
         0.30000E+00
         0.30000E+00
         0.30000E+00
         0.30000E+00
         0.30000E+00
         0.30000E+00
         0.30000E+00
         0.30000E+00
         0.30000E+00
         0.30000E+00
         0.30000E+00
         0.30000E+00
         0.30000E+00
         0.30000E+00
         0.30000E+00
         0.30000E+00
         0.30000E+00
         0.30000E+00
         0.30000E+00
         0.30000E+00
         0.30000E+00
         0.30000E+00
         0.30000E+00
         0.30000E+00
         0.30000E+00
         0.30000E+00
         0.30000E+00
         0.30000E+00
         0.30000E+00
         0.30000E+00
         0.30000E+00
         0.30000E+00
         0.30000E+00
         0.30000E+00
         0.30000E+00
         0.30000E+00
         0.30000E+00
         0.30000E+00
         0.30000E+00
         0.30000E+00
         0.30000E+00
         0.30000E+00
         0.30000E+00
         0.30000E+00
         0.30000E+00
         0.30000E+00
         0.30000E+00
         0.30000E+00
         0.30000E+00
         0.30000E+00
         0.30000E+00
         0.30000E+00
         0.30000E+00
         0.30000E+00
         0.30000E+00
         0.30000E+00
         0.30000E+00
         0.30000E+00
         0.30000E+00
         0.30000E+00
         0.30000E+00
         0.30000E+00
         0.30000E+00
         0.30000E+00
         0.30000E+00
         0.30000E+00
         0.30000E+00
         0.30000E+00
         0.30000E+00
         0.30000E+00
         0.30000E+00
         0.30000E+00
         0.30000E+00
         0.30000E+00
         0.30000E+00
         0.30000E+00
         0.30000E+00
         0.30000E+00
         0.30000E+00
         0.30000E+00
         0.30000E+00
         0.30000E+00
         0.30000E+00
         0.30000E+00
         0.30000E+00
         0.30000E+00
         0.30000E+00
         0.30000E+00
         0.30000E+00
         0.30000E+00
         0.30000E+00
         0.30000E+00
         0.30000E+00
         0.30000E+00
         0.30000E+00
         0.30000E+00
         0.30000E+00
         0.30000E+00
         0.30000E+00
         0.30000E+00
         0.30000E+00
         0.30000E+00
         0.30000E+00
         0.30000E+00
         0.30000E+00
         0.30000E+00
         0.30000E+00
         0.30000E+00
         0.30000E+00
         0.30000E+00
         0.30000E+00
         0.30000E+00
         0.30000E+00
         0.30000E+00
         0.30000E+00
         0.30000E+00
         0.30000E+00
         0.30000E+00
         0.30000E+00
         0.30000E+00
         0.30000E+00
         0.30000E+00
         0.30000E+00
         0.30000E+00
         0.30000E+00
         0.30000E+00
         0.30000E+00
         0.30000E+00
         0.30000E+00
         0.30000E+00
         0.30000E+00
         0.30000E+00
         0.30000E+00
         0.30000E+00
         0.30000E+00
         0.30000E+00
         0.30000E+00
         0.30000E+00
         0.30000E+00
         0.30000E+00
         0.30000E+00
         0.30000E+00
         0.30000E+00
         0.30000E+00
         0.30000E+00
         0.30000E+00
         0.30000E+00
         0.30000E+00
         0.30000E+00
         0.30000E+00
         0.30000E+00
         0.30000E+00
         0.30000E+00
         0.30000E+00
         0.30000E+00
         0.30000E+00
         0.30000E+00
         0.30000E+00
         0.30000E+00
         0.30000E+00
         0.30000E+00
         0.30000E+00
         0.30000E+00
         0.30000E+00
         0.30000E+00
         0.30000E+00
         0.30000E+00
         0.30000E+00
         0.30000E+00
         0.30000E+00
         0.30000E+00
         0.30000E+00
         0.30000E+00
         0.30000E+00
         0.30000E+00
         0.30000E+00
         0.30000E+00
         0.30000E+00
         0.30000E+00
         0.30000E+00
         0.30000E+00
         0.30000E+00
         0.30000E+00
         0.30000E+00
         0.30000E+00
         0.30000E+00
         0.30000E+00
         0.30000E+00
         0.30000E+00
         0.30000E+00
         0.30000E+00
         0.30000E+00
         0.30000E+00
         0.30000E+00
         0.30000E+00
         0.30000E+00
         0.30000E+00
         0.30000E+00
         0.30000E+00
         0.30000E+00
         0.30000E+00
         0.30000E+00
         0.30000E+00
         0.30000E+00
         0.30000E+00
         0.30000E+00
         0.30000E+00
         0.30000E+00
         0.30000E+00
         0.30000E+00
         0.30000E+00
         0.30000E+00
         0.30000E+00
         0.30000E+00
         0.30000E+00
         0.30000E+00
         0.30000E+00
         0.30000E+00
         0.30000E+00
         0.30000E+00
         0.30000E+00
         0.30000E+00
         0.30000E+00
         0.30000E+00
         0.30000E+00
         0.30000E+00
         0.30000E+00
         0.30000E+00
         0.30000E+00
         0.30000E+00
         0.30000E+00
         0.30000E+00
         0.30000E+00
         0.30000E+00
         0.30000E+00
         0.30000E+00
         0.30000E+00
         0.30000E+00
         0.30000E+00
         0.30000E+00
         0.30000E+00
         0.30000E+00
         0.30000E+00
         0.30000E+00
         0.30000E+00
         0.30000E+00
         0.30000E+00
         0.30000E+00
         0.30000E+00
         0.30000E+00
         0.30000E+00
         0.30000E+00
         0.30000E+00
         0.30000E+00
         0.30000E+00
         0.30000E+00
         0.30000E+00
         0.30000E+00
         0.30000E+00
         0.30000E+00
         0.30000E+00
         0.30000E+00
         0.30000E+00
         0.30000E+00
         0.30000E+00
         0.30000E+00
         0.30000E+00
         0.30000E+00
         0.30000E+00
         0.30000E+00
         0.30000E+00
         0.30000E+00
         0.30000E+00
         0.30000E+00
         0.30000E+00
         0.30000E+00
         0.30000E+00
         0.30000E+00
         0.30000E+00
         0.30000E+00
         0.30000E+00
         0.30000E+00
         0.30000E+00
         0.30000E+00
         0.30000E+00
         0.30000E+00
         0.30000E+00
         0.30000E+00
         0.30000E+00
         0.30000E+00
         0.30000E+00
         0.30000E+00
         0.30000E+00
         0.30000E+00
         0.30000E+00
         0.30000E+00
         0.30000E+00
         0.30000E+00
         0.30000E+00
         0.30000E+00
         0.30000E+00
         0.30000E+00
         0.30000E+00
         0.30000E+00
         0.30000E+00
         0.30000E+00
         0.30000E+00
         0.30000E+00
         0.30000E+00
         0.30000E+00
         0.30000E+00
         0.30000E+00
         0.30000E+00
         0.30000E+00
         0.30000E+00
         0.30000E+00
         0.30000E+00
         0.30000E+00
         0.30000E+00
         0.30000E+00
         0.30000E+00
         0.30000E+00
         0.30000E+00
         0.30000E+00
         0.30000E+00
         0.30000E+00
         0.30000E+00
         0.30000E+00
         0.30000E+00
         0.30000E+00
         0.30000E+00
         0.30000E+00
         0.30000E+00
         0.30000E+00
         0.30000E+00
         0.30000E+00
         0.30000E+00
         0.30000E+00
         0.30000E+00
         0.30000E+00
         0.30000E+00
         0.30000E+00
         0.30000E+00
         0.30000E+00
         0.30000E+00
         0.30000E+00
         0.30000E+00
         0.30000E+00
         0.30000E+00
         0.30000E+00
         0.30000E+00
         0.30000E+00
         0.30000E+00
         0.30000E+00
         0.30000E+00
         0.30000E+00
         0.30000E+00
         0.30000E+00
         0.30000E+00
         0.30000E+00
         0.30000E+00
         0.30000E+00
         0.30000E+00
         0.30000E+00
         0.30000E+00
         0.30000E+00
         0.30000E+00
         0.30000E+00
         0.30000E+00
         0.30000E+00
         0.30000E+00
         0.30000E+00
         0.30000E+00
         0.30000E+00
         0.30000E+00
         0.30000E+00
         0.30000E+00
         0.30000E+00
         0.30000E+00
         0.30000E+00
         0.30000E+00
         0.30000E+00
         0.30000E+00
         0.30000E+00
         0.30000E+00
         0.30000E+00
         0.30000E+00
         0.30000E+00
         0.30000E+00
         0.30000E+00
         0.30000E+00
         0.30000E+00
         0.30000E+00
         0.30000E+00
         0.30000E+00
         0.30000E+00
         0.30000E+00
         0.30000E+00
         0.30000E+00
         0.30000E+00
         0.30000E+00
         0.30000E+00
         0.30000E+00
         0.30000E+00
         0.30000E+00
         0.30000E+00
         0.30000E+00
         0.30000E+00
         0.30000E+00
         0.30000E+00
         0.30000E+00
         0.30000E+00
         0.30000E+00
         0.30000E+00
         0.30000E+00
         0.30000E+00
         0.30000E+00
         0.30000E+00
         0.30000E+00
         0.30000E+00
         0.30000E+00
         0.30000E+00
         0.30000E+00
         0.30000E+00
         0.30000E+00
         0.30000E+00
         0.30000E+00
         0.30000E+00
         0.30000E+00
         0.30000E+00
         0.30000E+00
         0.30000E+00
         0.30000E+00
         0.30000E+00
         0.30000E+00
         0.30000E+00
         0.30000E+00
         0.30000E+00
         0.30000E+00
         0.30000E+00
         0.30000E+00
         0.30000E+00
         0.30000E+00
         0.30000E+00
         0.30000E+00
         0.30000E+00
         0.30000E+00
         0.30000E+00
         0.30000E+00
         0.30000E+00
         0.30000E+00
         0.30000E+00
         0.30000E+00
         0.30000E+00
         0.30000E+00
         0.30000E+00
         0.30000E+00
         0.30000E+00
         0.30000E+00
         0.30000E+00
         0.30000E+00
         0.30000E+00
         0.30000E+00
         0.30000E+00
         0.30000E+00
         0.30000E+00
         0.30000E+00
         0.30000E+00
         0.30000E+00
         0.30000E+00
         0.30000E+00
         0.30000E+00
         0.30000E+00
         0.30000E+00
         0.30000E+00
         0.30000E+00
         0.30000E+00
         0.30000E+00
         0.30000E+00
         0.30000E+00
         0.30000E+00
         0.30000E+00
         0.30000E+00
         0.30000E+00
         0.30000E+00
         0.30000E+00
         0.30000E+00
         0.30000E+00
         0.30000E+00
         0.30000E+00
         0.30000E+00
         0.30000E+00
         0.30000E+00
         0.30000E+00
         0.30000E+00
         0.30000E+00
         0.30000E+00
         0.30000E+00
         0.30000E+00
         0.30000E+00
         0.30000E+00
         0.30000E+00
         0.30000E+00
         0.30000E+00
         0.30000E+00
         0.30000E+00
         0.30000E+00
         0.30000E+00
         0.30000E+00
         0.30000E+00
         0.30000E+00
         0.30000E+00
         0.30000E+00
         0.30000E+00
         0.30000E+00
         0.30000E+00
         0.30000E+00
         0.30000E+00
         0.30000E+00
         0.30000E+00
         0.30000E+00
         0.30000E+00
         0.30000E+00
         0.30000E+00
         0.30000E+00
         0.30000E+00
         0.30000E+00
         0.30000E+00
         0.30000E+00
         0.30000E+00
         0.30000E+00
         0.30000E+00
         0.30000E+00
         0.30000E+00
         0.30000E+00
         0.30000E+00
         0.30000E+00
         0.30000E+00
         0.30000E+00
         0.30000E+00
         0.30000E+00
         0.30000E+00
         0.30000E+00
         0.30000E+00
         0.30000E+00
         0.30000E+00
         0.30000E+00
         0.30000E+00
         0.30000E+00
         0.30000E+00
         0.30000E+00
         0.30000E+00
         0.30000E+00
         0.30000E+00
         0.30000E+00
         0.30000E+00
         0.30000E+00
         0.30000E+00
         0.30000E+00
         0.30000E+00
         0.30000E+00
         0.30000E+00
         0.30000E+00
         0.30000E+00
         0.30000E+00
         0.30000E+00
         0.30000E+00
         0.30000E+00
         0.30000E+00
         0.30000E+00
         0.30000E+00
         0.30000E+00
         0.30000E+00
         0.30000E+00
         0.30000E+00
         0.30000E+00
         0.30000E+00
         0.30000E+00
         0.30000E+00
         0.30000E+00
         0.30000E+00
         0.30000E+00
         0.30000E+00
         0.30000E+00
         0.30000E+00
         0.30000E+00
         0.30000E+00
         0.30000E+00
         0.30000E+00
         0.30000E+00
         0.30000E+00
         0.30000E+00
         0.30000E+00
         0.30000E+00
         0.30000E+00
         0.30000E+00
         0.30000E+00
         0.30000E+00
         0.30000E+00
         0.30000E+00
         0.30000E+00
         0.30000E+00
         0.30000E+00
         0.30000E+00
         0.30000E+00
         0.30000E+00
         0.30000E+00
         0.30000E+00
         0.30000E+00
         0.30000E+00
         0.30000E+00
         0.30000E+00
         0.30000E+00
         0.30000E+00
         0.30000E+00
         0.30000E+00
         0.30000E+00
         0.30000E+00
         0.30000E+00
         0.30000E+00
         0.30000E+00
         0.30000E+00
         0.30000E+00
         0.30000E+00
         0.30000E+00
         0.30000E+00
         0.30000E+00
         0.30000E+00
         0.30000E+00
         0.30000E+00
         0.30000E+00
         0.30000E+00
         0.30000E+00
         0.30000E+00
         0.30000E+00
         0.30000E+00
         0.30000E+00
         0.30000E+00
         0.30000E+00
         0.30000E+00
         0.30000E+00
         0.30000E+00
         0.30000E+00
         0.30000E+00
         0.30000E+00
         0.30000E+00
         0.30000E+00
         0.30000E+00
         0.30000E+00
         0.30000E+00
         0.30000E+00
         0.30000E+00
         0.30000E+00
         0.30000E+00
         0.30000E+00
         0.30000E+00
         0.30000E+00
         0.30000E+00
         0.30000E+00
         0.30000E+00
         0.30000E+00
         0.30000E+00
         0.30000E+00
         0.30000E+00
         0.30000E+00
         0.30000E+00
         0.30000E+00
         0.30000E+00
         0.30000E+00
         0.30000E+00
         0.30000E+00
         0.30000E+00
         0.30000E+00
         0.30000E+00
         0.30000E+00
         0.30000E+00
         0.30000E+00
         0.30000E+00
         0.30000E+00
         0.30000E+00
         0.30000E+00
         0.30000E+00
         0.30000E+00
         0.30000E+00
         0.30000E+00
         0.30000E+00
         0.30000E+00
         0.30000E+00
         0.30000E+00
         0.30000E+00
         0.30000E+00
         0.30000E+00
         0.30000E+00
         0.30000E+00
         0.30000E+00
         0.30000E+00
         0.30000E+00
         0.30000E+00
         0.30000E+00
         0.30000E+00
         0.30000E+00
         0.30000E+00
         0.30000E+00
         0.30000E+00
         0.30000E+00
         0.30000E+00
         0.30000E+00
         0.30000E+00
         0.30000E+00
         0.30000E+00
         0.30000E+00
         0.30000E+00
         0.30000E+00
         0.30000E+00
         0.30000E+00
         0.30000E+00
         0.30000E+00
         0.30000E+00
         0.30000E+00
         0.30000E+00
         0.30000E+00
         0.30000E+00
         0.30000E+00
         0.30000E+00
         0.30000E+00
         0.30000E+00
         0.30000E+00
         0.30000E+00
         0.30000E+00
         0.30000E+00
         0.30000E+00
         0.30000E+00
         0.30000E+00
         0.30000E+00
         0.30000E+00
         0.30000E+00
         0.30000E+00
         0.30000E+00
         0.30000E+00
         0.30000E+00
         0.30000E+00
         0.30000E+00
         0.30000E+00
         0.30000E+00
         0.30000E+00
         0.30000E+00
         0.30000E+00
         0.30000E+00
         0.30000E+00
         0.30000E+00
         0.30000E+00
         0.30000E+00
         0.30000E+00
         0.30000E+00
         0.30000E+00
         0.30000E+00
         0.30000E+00
         0.30000E+00
         0.30000E+00
         0.30000E+00
         0.30000E+00
         0.30000E+00
         0.30000E+00
         0.30000E+00
         0.30000E+00
         0.30000E+00
         0.30000E+00
         0.30000E+00
         0.30000E+00
         0.30000E+00
         0.30000E+00
         0.30000E+00
         0.30000E+00
         0.30000E+00
         0.30000E+00
         0.30000E+00
         0.30000E+00
         0.30000E+00
         0.30000E+00
         0.30000E+00
         0.30000E+00
         0.30000E+00
         0.30000E+00
         0.30000E+00
         0.30000E+00
         0.30000E+00
         0.30000E+00
         0.30000E+00
         0.30000E+00
         0.30000E+00
         0.30000E+00
         0.30000E+00
         0.30000E+00
         0.30000E+00
         0.30000E+00
         0.30000E+00
         0.30000E+00
         0.30000E+00
         0.30000E+00
         0.30000E+00
         0.30000E+00
         0.30000E+00
         0.30000E+00
         0.30000E+00
         0.30000E+00
         0.30000E+00
         0.30000E+00
         0.30000E+00
         0.30000E+00
         0.30000E+00
         0.30000E+00
         0.30000E+00
         0.30000E+00
         0.30000E+00
         0.30000E+00
         0.30000E+00
         0.30000E+00
         0.30000E+00
         0.30000E+00
         0.30000E+00
         0.30000E+00
         0.30000E+00
         0.30000E+00
         0.30000E+00
         0.30000E+00
         0.30000E+00
         0.30000E+00
         0.30000E+00
         0.30000E+00
         0.30000E+00
         0.30000E+00
         0.30000E+00
         0.30000E+00
         0.30000E+00
         0.30000E+00
         0.30000E+00
         0.30000E+00
         0.30000E+00
         0.30000E+00
         0.30000E+00
         0.30000E+00
         0.30000E+00
         0.30000E+00
         0.30000E+00
         0.30000E+00
         0.30000E+00
         0.30000E+00
         0.30000E+00
         0.30000E+00
         0.30000E+00
         0.30000E+00
         0.30000E+00
         0.30000E+00
         0.30000E+00
         0.30000E+00
         0.30000E+00
         0.30000E+00
         0.30000E+00
         0.30000E+00
         0.30000E+00
         0.30000E+00
         0.30000E+00
         0.30000E+00
         0.30000E+00
         0.30000E+00
         0.30000E+00
         0.30000E+00
         0.30000E+00
         0.30000E+00
         0.30000E+00
         0.30000E+00
         0.30000E+00
         0.30000E+00
         0.30000E+00
         0.30000E+00
         0.30000E+00
         0.30000E+00
         0.30000E+00
         0.30000E+00
         0.30000E+00
         0.30000E+00
         0.30000E+00
         0.30000E+00
         0.30000E+00
         0.30000E+00
         0.30000E+00
         0.30000E+00
         0.30000E+00
         0.30000E+00
         0.30000E+00
         0.30000E+00
         0.30000E+00
         0.30000E+00
         0.30000E+00
         0.30000E+00
         0.30000E+00
         0.30000E+00
         0.30000E+00
         0.30000E+00
         0.30000E+00
         0.30000E+00
         0.30000E+00
         0.30000E+00
         0.30000E+00
         0.30000E+00
         0.30000E+00
         0.30000E+00
         0.30000E+00
         0.30000E+00
         0.30000E+00
         0.30000E+00
         0.30000E+00
         0.30000E+00
         0.30000E+00
         0.30000E+00
         0.30000E+00
         0.30000E+00
         0.30000E+00
         0.30000E+00
         0.30000E+00
         0.30000E+00
         0.30000E+00
         0.30000E+00
         0.30000E+00
         0.30000E+00
         0.30000E+00
         0.30000E+00
         0.30000E+00
         0.30000E+00
         0.30000E+00
         0.30000E+00
         0.30000E+00
         0.30000E+00
         0.30000E+00
         0.30000E+00
         0.30000E+00
         0.30000E+00
         0.30000E+00
         0.30000E+00
         0.30000E+00
         0.30000E+00
         0.30000E+00
         0.30000E+00
         0.30000E+00
         0.30000E+00
         0.30000E+00
         0.30000E+00
         0.30000E+00
         0.30000E+00
         0.30000E+00
         0.30000E+00
         0.30000E+00
         0.30000E+00
         0.30000E+00
         0.30000E+00
         0.30000E+00
         0.30000E+00
         0.30000E+00
         0.30000E+00
         0.30000E+00
         0.30000E+00
         0.30000E+00
         0.30000E+00
         0.30000E+00
         0.30000E+00
         0.30000E+00
         0.30000E+00
         0.30000E+00
         0.30000E+00
         0.30000E+00
         0.30000E+00
         0.30000E+00
         0.30000E+00
         0.30000E+00
         0.30000E+00
         0.30000E+00
         0.30000E+00
         0.30000E+00
         0.30000E+00
         0.30000E+00
         0.30000E+00
         0.30000E+00
         0.30000E+00
         0.30000E+00
         0.30000E+00
         0.30000E+00
         0.30000E+00
         0.30000E+00
         0.30000E+00
         0.30000E+00
         0.30000E+00
         0.30000E+00
         0.30000E+00
         0.30000E+00
         0.30000E+00
         0.30000E+00
         0.30000E+00
         0.30000E+00
         0.30000E+00
         0.30000E+00
         0.30000E+00
         0.30000E+00
         0.30000E+00
         0.30000E+00
         0.30000E+00
         0.30000E+00
         0.30000E+00
         0.30000E+00
         0.30000E+00
         0.30000E+00
         0.30000E+00
         0.30000E+00
         0.30000E+00
         0.30000E+00
         0.30000E+00
         0.30000E+00
         0.30000E+00
         0.30000E+00
         0.30000E+00
         0.30000E+00
         0.30000E+00
         0.30000E+00
         0.30000E+00
         0.30000E+00
         0.30000E+00
         0.30000E+00
         0.30000E+00
         0.30000E+00
         0.30000E+00
         0.30000E+00
         0.30000E+00
         0.30000E+00
         0.30000E+00
         0.30000E+00
         0.30000E+00
         0.30000E+00
         0.30000E+00
         0.30000E+00
         0.30000E+00
         0.30000E+00
         0.30000E+00
         0.30000E+00
         0.30000E+00
         0.30000E+00
         0.30000E+00
         0.30000E+00
         0.30000E+00
         0.30000E+00
         0.30000E+00
         0.30000E+00
         0.30000E+00
         0.30000E+00
         0.30000E+00
         0.30000E+00
         0.30000E+00
         0.30000E+00
         0.30000E+00
         0.30000E+00
         0.30000E+00
         0.30000E+00
         0.30000E+00
         0.30000E+00
         0.30000E+00
         0.30000E+00
         0.30000E+00
         0.30000E+00
         0.30000E+00
         0.30000E+00
         0.30000E+00
         0.30000E+00
         0.30000E+00
         0.30000E+00
         0.30000E+00
         0.30000E+00
         0.30000E+00
         0.30000E+00
         0.30000E+00
         0.30000E+00
         0.30000E+00
         0.30000E+00
         0.30000E+00
         0.30000E+00
         0.30000E+00
         0.30000E+00
         0.30000E+00
         0.30000E+00
         0.30000E+00
         0.30000E+00
         0.30000E+00
         0.30000E+00
         0.30000E+00
         0.30000E+00
         0.30000E+00
         0.30000E+00
         0.30000E+00
         0.30000E+00
         0.30000E+00
         0.30000E+00
         0.30000E+00
         0.30000E+00
         0.30000E+00
         0.30000E+00
         0.30000E+00
         0.30000E+00
         0.30000E+00
         0.30000E+00
         0.30000E+00
         0.30000E+00
         0.30000E+00
         0.30000E+00
         0.30000E+00
         0.30000E+00
         0.30000E+00
         0.30000E+00
         0.30000E+00
         0.30000E+00
         0.30000E+00
         0.30000E+00
         0.30000E+00
         0.30000E+00
         0.30000E+00
         0.30000E+00
         0.30000E+00
         0.30000E+00
         0.30000E+00
         0.30000E+00
         0.30000E+00
         0.30000E+00
         0.30000E+00
         0.30000E+00
         0.30000E+00
         0.30000E+00
         0.30000E+00
         0.30000E+00
         0.30000E+00
         0.30000E+00
         0.30000E+00
         0.30000E+00
         0.30000E+00
         0.30000E+00
         0.30000E+00
         0.30000E+00
         0.30000E+00
         0.30000E+00
         0.30000E+00
         0.30000E+00
         0.30000E+00
         0.30000E+00
         0.30000E+00
         0.30000E+00
         0.30000E+00
         0.30000E+00
         0.30000E+00
         0.30000E+00
         0.30000E+00
         0.30000E+00
         0.30000E+00
         0.30000E+00
         0.30000E+00
         0.30000E+00
         0.30000E+00
         0.30000E+00
         0.30000E+00
         0.30000E+00
         0.30000E+00
         0.30000E+00
         0.30000E+00
         0.30000E+00
         0.30000E+00
         0.30000E+00
         0.30000E+00
         0.30000E+00
         0.30000E+00
         0.30000E+00
         0.30000E+00
         0.30000E+00
         0.30000E+00
         0.30000E+00
         0.30000E+00
         0.30000E+00
         0.30000E+00
         0.30000E+00
         0.30000E+00
         0.30000E+00
         0.30000E+00
         0.30000E+00
         0.30000E+00
         0.30000E+00
         0.30000E+00
         0.30000E+00
         0.30000E+00
         0.30000E+00
         0.30000E+00
         0.30000E+00
         0.30000E+00
         0.30000E+00
         0.30000E+00
         0.30000E+00
         0.30000E+00
         0.30000E+00
         0.30000E+00
         0.30000E+00
         0.30000E+00
         0.30000E+00
         0.30000E+00
         0.30000E+00
         0.30000E+00
         0.30000E+00
         0.30000E+00
         0.30000E+00
         0.30000E+00
         0.30000E+00
         0.30000E+00
         0.30000E+00
         0.30000E+00
         0.30000E+00
         0.30000E+00
         0.30000E+00
         0.30000E+00
         0.30000E+00
         0.30000E+00
         0.30000E+00
         0.30000E+00
         0.30000E+00
         0.30000E+00
         0.30000E+00
         0.30000E+00
         0.30000E+00
         0.30000E+00
         0.30000E+00
         0.30000E+00
         0.30000E+00
         0.30000E+00
         0.30000E+00
         0.30000E+00
         0.30000E+00
         0.30000E+00
         0.30000E+00
         0.30000E+00
         0.30000E+00
         0.30000E+00
         0.30000E+00
         0.30000E+00
         0.30000E+00
         0.30000E+00
         0.30000E+00
         0.30000E+00
         0.30000E+00
         0.30000E+00
         0.30000E+00
         0.30000E+00
         0.30000E+00
         0.30000E+00
         0.30000E+00
         0.30000E+00
         0.30000E+00
         0.30000E+00
         0.30000E+00
         0.30000E+00
         0.30000E+00
         0.30000E+00
         0.30000E+00
         0.30000E+00
         0.30000E+00
         0.30000E+00
         0.30000E+00
         0.30000E+00
         0.30000E+00
         0.30000E+00
         0.30000E+00
         0.30000E+00
         0.30000E+00
         0.30000E+00
         0.30000E+00
         0.30000E+00
         0.30000E+00
         0.30000E+00
         0.30000E+00
         0.30000E+00
         0.30000E+00
         0.30000E+00
         0.30000E+00
         0.30000E+00
         0.30000E+00
         0.30000E+00
         0.30000E+00
         0.30000E+00
         0.30000E+00
         0.30000E+00
         0.30000E+00
         0.30000E+00
         0.30000E+00
         0.30000E+00
         0.30000E+00
         0.30000E+00
         0.30000E+00
         0.30000E+00
         0.30000E+00
         0.30000E+00
         0.30000E+00
         0.30000E+00
         0.30000E+00
         0.30000E+00
         0.30000E+00
         0.30000E+00
         0.30000E+00
         0.30000E+00
         0.30000E+00
         0.30000E+00
         0.30000E+00
         0.30000E+00
         0.30000E+00
         0.30000E+00
         0.30000E+00
         0.30000E+00
         0.30000E+00
         0.30000E+00
         0.30000E+00
         0.30000E+00
         0.30000E+00
         0.30000E+00
         0.30000E+00
         0.30000E+00
         0.30000E+00
         0.30000E+00
         0.30000E+00
         0.30000E+00
         0.30000E+00
         0.30000E+00
         0.30000E+00
         0.30000E+00
         0.30000E+00
         0.30000E+00
         0.30000E+00
         0.30000E+00
         0.30000E+00
         0.30000E+00
         0.30000E+00
         0.30000E+00
         0.30000E+00
         0.30000E+00
         0.30000E+00
         0.30000E+00
         0.30000E+00
         0.30000E+00
         0.30000E+00
         0.30000E+00
         0.30000E+00
         0.30000E+00
         0.30000E+00
         0.30000E+00
         0.30000E+00
         0.30000E+00
         0.30000E+00
         0.30000E+00
         0.30000E+00
         0.30000E+00
         0.30000E+00
         0.30000E+00
         0.30000E+00
         0.30000E+00
         0.30000E+00
         0.30000E+00
         0.30000E+00
         0.30000E+00
         0.30000E+00
         0.30000E+00
         0.30000E+00
         0.30000E+00
         0.30000E+00
         0.30000E+00
         0.30000E+00
         0.30000E+00
         0.30000E+00
         0.30000E+00
         0.30000E+00
         0.30000E+00
         0.30000E+00
         0.30000E+00
         0.30000E+00
         0.30000E+00
         0.30000E+00
         0.30000E+00
         0.30000E+00
         0.30000E+00
         0.30000E+00
         0.30000E+00
         0.30000E+00
         0.30000E+00
         0.30000E+00
         0.30000E+00
         0.30000E+00
         0.30000E+00
         0.30000E+00
         0.30000E+00
         0.30000E+00
         0.30000E+00
         0.30000E+00
         0.30000E+00
         0.30000E+00
         0.30000E+00
         0.30000E+00
         0.30000E+00
         0.30000E+00
         0.30000E+00
         0.30000E+00
         0.30000E+00
         0.30000E+00
         0.30000E+00
         0.30000E+00
         0.30000E+00
         0.30000E+00
         0.30000E+00
         0.30000E+00
         0.30000E+00
         0.30000E+00
         0.30000E+00
         0.30000E+00
         0.30000E+00
         0.30000E+00
         0.30000E+00
         0.30000E+00
         0.30000E+00
         0.30000E+00
         0.30000E+00
         0.30000E+00
         0.30000E+00
         0.30000E+00
         0.30000E+00
         0.30000E+00
         0.30000E+00
         0.30000E+00
         0.30000E+00
         0.30000E+00
         0.30000E+00
         0.30000E+00
         0.30000E+00
         0.30000E+00
         0.30000E+00
         0.30000E+00
         0.30000E+00
         0.30000E+00
         0.30000E+00
         0.30000E+00
         0.30000E+00
         0.30000E+00
         0.30000E+00
         0.30000E+00
         0.30000E+00
         0.30000E+00
         0.30000E+00
         0.30000E+00
         0.30000E+00
         0.30000E+00
         0.30000E+00
         0.30000E+00
         0.30000E+00
         0.30000E+00
         0.30000E+00
         0.30000E+00
         0.30000E+00
         0.30000E+00
         0.30000E+00
         0.30000E+00
         0.30000E+00
         0.30000E+00
         0.30000E+00
         0.30000E+00
  
SCALARS                 Youngs_modulus  double 1
LOOKUP_TABLE default
         0.78200E+11
         0.78200E+11
         0.78200E+11
         0.78200E+11
         0.78200E+11
         0.78200E+11
         0.78200E+11
         0.78200E+11
         0.78200E+11
         0.78200E+11
         0.78200E+11
         0.78200E+11
         0.78200E+11
         0.78200E+11
         0.78200E+11
         0.78200E+11
         0.78200E+11
         0.78200E+11
         0.78200E+11
         0.78200E+11
         0.78200E+11
         0.78200E+11
         0.78200E+11
         0.78200E+11
         0.78200E+11
         0.78200E+11
         0.78200E+11
         0.78200E+11
         0.78200E+11
         0.78200E+11
         0.78200E+11
         0.78200E+11
         0.78200E+11
         0.78200E+11
         0.78200E+11
         0.78200E+11
         0.78200E+11
         0.78200E+11
         0.78200E+11
         0.78200E+11
         0.78200E+11
         0.78200E+11
         0.78200E+11
         0.78200E+11
         0.78200E+11
         0.78200E+11
         0.78200E+11
         0.78200E+11
         0.78200E+11
         0.78200E+11
         0.78200E+11
         0.78200E+11
         0.78200E+11
         0.78200E+11
         0.78200E+11
         0.78200E+11
         0.78200E+11
         0.78200E+11
         0.78200E+11
         0.78200E+11
         0.78200E+11
         0.78200E+11
         0.78200E+11
         0.78200E+11
         0.78200E+11
         0.78200E+11
         0.78200E+11
         0.78200E+11
         0.78200E+11
         0.78200E+11
         0.78200E+11
         0.78200E+11
         0.78200E+11
         0.78200E+11
         0.78200E+11
         0.78200E+11
         0.78200E+11
         0.78200E+11
         0.78200E+11
         0.78200E+11
         0.78200E+11
         0.78200E+11
         0.78200E+11
         0.78200E+11
         0.78200E+11
         0.78200E+11
         0.78200E+11
         0.78200E+11
         0.78200E+11
         0.78200E+11
         0.78200E+11
         0.78200E+11
         0.78200E+11
         0.78200E+11
         0.78200E+11
         0.78200E+11
         0.78200E+11
         0.78200E+11
         0.78200E+11
         0.78200E+11
         0.78200E+11
         0.78200E+11
         0.78200E+11
         0.78200E+11
         0.78200E+11
         0.78200E+11
         0.78200E+11
         0.78200E+11
         0.78200E+11
         0.78200E+11
         0.78200E+11
         0.78200E+11
         0.78200E+11
         0.78200E+11
         0.78200E+11
         0.78200E+11
         0.78200E+11
         0.78200E+11
         0.78200E+11
         0.78200E+11
         0.78200E+11
         0.78200E+11
         0.78200E+11
         0.78200E+11
         0.78200E+11
         0.78200E+11
         0.78200E+11
         0.78200E+11
         0.78200E+11
         0.78200E+11
         0.78200E+11
         0.78200E+11
         0.78200E+11
         0.78200E+11
         0.78200E+11
         0.78200E+11
         0.78200E+11
         0.78200E+11
         0.78200E+11
         0.78200E+11
         0.78200E+11
         0.78200E+11
         0.78200E+11
         0.78200E+11
         0.78200E+11
         0.78200E+11
         0.78200E+11
         0.78200E+11
         0.78200E+11
         0.78200E+11
         0.78200E+11
         0.78200E+11
         0.78200E+11
         0.78200E+11
         0.78200E+11
         0.78200E+11
         0.78200E+11
         0.78200E+11
         0.78200E+11
         0.78200E+11
         0.78200E+11
         0.78200E+11
         0.78200E+11
         0.78200E+11
         0.78200E+11
         0.78200E+11
         0.78200E+11
         0.78200E+11
         0.78200E+11
         0.78200E+11
         0.78200E+11
         0.78200E+11
         0.78200E+11
         0.78200E+11
         0.78200E+11
         0.78200E+11
         0.78200E+11
         0.78200E+11
         0.78200E+11
         0.78200E+11
         0.78200E+11
         0.78200E+11
         0.78200E+11
         0.78200E+11
         0.78200E+11
         0.78200E+11
         0.78200E+11
         0.78200E+11
         0.78200E+11
         0.78200E+11
         0.78200E+11
         0.78200E+11
         0.78200E+11
         0.78200E+11
         0.78200E+11
         0.78200E+11
         0.78200E+11
         0.78200E+11
         0.78200E+11
         0.78200E+11
         0.78200E+11
         0.78200E+11
         0.78200E+11
         0.78200E+11
         0.78200E+11
         0.78200E+11
         0.78200E+11
         0.78200E+11
         0.78200E+11
         0.78200E+11
         0.78200E+11
         0.78200E+11
         0.78200E+11
         0.78200E+11
         0.78200E+11
         0.78200E+11
         0.78200E+11
         0.78200E+11
         0.78200E+11
         0.78200E+11
         0.78200E+11
         0.78200E+11
         0.78200E+11
         0.78200E+11
         0.78200E+11
         0.78200E+11
         0.78200E+11
         0.78200E+11
         0.78200E+11
         0.78200E+11
         0.78200E+11
         0.78200E+11
         0.78200E+11
         0.78200E+11
         0.78200E+11
         0.78200E+11
         0.78200E+11
         0.78200E+11
         0.78200E+11
         0.78200E+11
         0.78200E+11
         0.78200E+11
         0.78200E+11
         0.78200E+11
         0.78200E+11
         0.78200E+11
         0.78200E+11
         0.78200E+11
         0.78200E+11
         0.78200E+11
         0.78200E+11
         0.78200E+11
         0.78200E+11
         0.78200E+11
         0.78200E+11
         0.78200E+11
         0.78200E+11
         0.78200E+11
         0.78200E+11
         0.78200E+11
         0.78200E+11
         0.78200E+11
         0.78200E+11
         0.78200E+11
         0.78200E+11
         0.78200E+11
         0.78200E+11
         0.78200E+11
         0.78200E+11
         0.78200E+11
         0.78200E+11
         0.78200E+11
         0.78200E+11
         0.78200E+11
         0.78200E+11
         0.78200E+11
         0.78200E+11
         0.78200E+11
         0.78200E+11
         0.78200E+11
         0.78200E+11
         0.78200E+11
         0.78200E+11
         0.78200E+11
         0.78200E+11
         0.78200E+11
         0.78200E+11
         0.78200E+11
         0.78200E+11
         0.78200E+11
         0.78200E+11
         0.78200E+11
         0.78200E+11
         0.78200E+11
         0.78200E+11
         0.78200E+11
         0.78200E+11
         0.78200E+11
         0.78200E+11
         0.78200E+11
         0.78200E+11
         0.78200E+11
         0.78200E+11
         0.78200E+11
         0.78200E+11
         0.78200E+11
         0.78200E+11
         0.78200E+11
         0.78200E+11
         0.78200E+11
         0.78200E+11
         0.78200E+11
         0.78200E+11
         0.78200E+11
         0.78200E+11
         0.78200E+11
         0.78200E+11
         0.78200E+11
         0.78200E+11
         0.78200E+11
         0.78200E+11
         0.78200E+11
         0.78200E+11
         0.78200E+11
         0.78200E+11
         0.78200E+11
         0.78200E+11
         0.78200E+11
         0.78200E+11
         0.78200E+11
         0.78200E+11
         0.78200E+11
         0.78200E+11
         0.78200E+11
         0.78200E+11
         0.78200E+11
         0.78200E+11
         0.78200E+11
         0.78200E+11
         0.78200E+11
         0.78200E+11
         0.78200E+11
         0.78200E+11
         0.78200E+11
         0.78200E+11
         0.78200E+11
         0.78200E+11
         0.78200E+11
         0.78200E+11
         0.78200E+11
         0.78200E+11
         0.78200E+11
         0.78200E+11
         0.78200E+11
         0.78200E+11
         0.78200E+11
         0.78200E+11
         0.78200E+11
         0.78200E+11
         0.78200E+11
         0.78200E+11
         0.78200E+11
         0.78200E+11
         0.78200E+11
         0.78200E+11
         0.78200E+11
         0.78200E+11
         0.78200E+11
         0.78200E+11
         0.78200E+11
         0.78200E+11
         0.78200E+11
         0.78200E+11
         0.78200E+11
         0.78200E+11
         0.78200E+11
         0.78200E+11
         0.78200E+11
         0.78200E+11
         0.78200E+11
         0.78200E+11
         0.78200E+11
         0.78200E+11
         0.78200E+11
         0.78200E+11
         0.78200E+11
         0.78200E+11
         0.78200E+11
         0.78200E+11
         0.78200E+11
         0.78200E+11
         0.78200E+11
         0.78200E+11
         0.78200E+11
         0.78200E+11
         0.78200E+11
         0.78200E+11
         0.78200E+11
         0.78200E+11
         0.78200E+11
         0.78200E+11
         0.78200E+11
         0.78200E+11
         0.78200E+11
         0.78200E+11
         0.78200E+11
         0.78200E+11
         0.78200E+11
         0.78200E+11
         0.78200E+11
         0.78200E+11
         0.78200E+11
         0.78200E+11
         0.78200E+11
         0.78200E+11
         0.78200E+11
         0.78200E+11
         0.78200E+11
         0.78200E+11
         0.78200E+11
         0.78200E+11
         0.78200E+11
         0.78200E+11
         0.78200E+11
         0.78200E+11
         0.78200E+11
         0.78200E+11
         0.78200E+11
         0.78200E+11
         0.78200E+11
         0.78200E+11
         0.78200E+11
         0.78200E+11
         0.78200E+11
         0.78200E+11
         0.78200E+11
         0.78200E+11
         0.78200E+11
         0.78200E+11
         0.78200E+11
         0.78200E+11
         0.78200E+11
         0.78200E+11
         0.78200E+11
         0.78200E+11
         0.78200E+11
         0.78200E+11
         0.78200E+11
         0.78200E+11
         0.78200E+11
         0.78200E+11
         0.78200E+11
         0.78200E+11
         0.78200E+11
         0.78200E+11
         0.78200E+11
         0.78200E+11
         0.78200E+11
         0.78200E+11
         0.78200E+11
         0.78200E+11
         0.78200E+11
         0.78200E+11
         0.78200E+11
         0.78200E+11
         0.78200E+11
         0.78200E+11
         0.78200E+11
         0.78200E+11
         0.78200E+11
         0.78200E+11
         0.78200E+11
         0.78200E+11
         0.78200E+11
         0.78200E+11
         0.78200E+11
         0.78200E+11
         0.78200E+11
         0.78200E+11
         0.78200E+11
         0.78200E+11
         0.78200E+11
         0.78200E+11
         0.78200E+11
         0.78200E+11
         0.78200E+11
         0.78200E+11
         0.78200E+11
         0.78200E+11
         0.78200E+11
         0.78200E+11
         0.78200E+11
         0.78200E+11
         0.78200E+11
         0.78200E+11
         0.78200E+11
         0.78200E+11
         0.78200E+11
         0.78200E+11
         0.78200E+11
         0.78200E+11
         0.78200E+11
         0.78200E+11
         0.78200E+11
         0.78200E+11
         0.78200E+11
         0.78200E+11
         0.78200E+11
         0.78200E+11
         0.78200E+11
         0.78200E+11
         0.78200E+11
         0.78200E+11
         0.78200E+11
         0.78200E+11
         0.78200E+11
         0.78200E+11
         0.78200E+11
         0.78200E+11
         0.78200E+11
         0.78200E+11
         0.78200E+11
         0.78200E+11
         0.78200E+11
         0.78200E+11
         0.78200E+11
         0.78200E+11
         0.78200E+11
         0.78200E+11
         0.78200E+11
         0.78200E+11
         0.78200E+11
         0.78200E+11
         0.78200E+11
         0.78200E+11
         0.78200E+11
         0.78200E+11
         0.78200E+11
         0.78200E+11
         0.78200E+11
         0.78200E+11
         0.78200E+11
         0.78200E+11
         0.78200E+11
         0.78200E+11
         0.78200E+11
         0.78200E+11
         0.78200E+11
         0.78200E+11
         0.78200E+11
         0.78200E+11
         0.78200E+11
         0.78200E+11
         0.78200E+11
         0.78200E+11
         0.78200E+11
         0.78200E+11
         0.78200E+11
         0.78200E+11
         0.78200E+11
         0.78200E+11
         0.78200E+11
         0.78200E+11
         0.78200E+11
         0.78200E+11
         0.78200E+11
         0.78200E+11
         0.78200E+11
         0.78200E+11
         0.78200E+11
         0.78200E+11
         0.78200E+11
         0.78200E+11
         0.78200E+11
         0.78200E+11
         0.78200E+11
         0.78200E+11
         0.78200E+11
         0.78200E+11
         0.78200E+11
         0.78200E+11
         0.78200E+11
         0.78200E+11
         0.78200E+11
         0.78200E+11
         0.78200E+11
         0.78200E+11
         0.78200E+11
         0.78200E+11
         0.78200E+11
         0.78200E+11
         0.78200E+11
         0.78200E+11
         0.78200E+11
         0.78200E+11
         0.78200E+11
         0.78200E+11
         0.78200E+11
         0.78200E+11
         0.78200E+11
         0.78200E+11
         0.78200E+11
         0.78200E+11
         0.78200E+11
         0.78200E+11
         0.78200E+11
         0.78200E+11
         0.78200E+11
         0.78200E+11
         0.78200E+11
         0.78200E+11
         0.78200E+11
         0.78200E+11
         0.78200E+11
         0.78200E+11
         0.78200E+11
         0.78200E+11
         0.78200E+11
         0.78200E+11
         0.78200E+11
         0.78200E+11
         0.78200E+11
         0.78200E+11
         0.78200E+11
         0.78200E+11
         0.78200E+11
         0.78200E+11
         0.78200E+11
         0.78200E+11
         0.78200E+11
         0.78200E+11
         0.78200E+11
         0.78200E+11
         0.78200E+11
         0.78200E+11
         0.78200E+11
         0.78200E+11
         0.78200E+11
         0.78200E+11
         0.78200E+11
         0.78200E+11
         0.78200E+11
         0.78200E+11
         0.78200E+11
         0.78200E+11
         0.78200E+11
         0.78200E+11
         0.78200E+11
         0.78200E+11
         0.78200E+11
         0.78200E+11
         0.78200E+11
         0.78200E+11
         0.78200E+11
         0.78200E+11
         0.78200E+11
         0.78200E+11
         0.78200E+11
         0.78200E+11
         0.78200E+11
         0.78200E+11
         0.78200E+11
         0.78200E+11
         0.78200E+11
         0.78200E+11
         0.78200E+11
         0.78200E+11
         0.78200E+11
         0.78200E+11
         0.78200E+11
         0.78200E+11
         0.78200E+11
         0.78200E+11
         0.78200E+11
         0.78200E+11
         0.78200E+11
         0.78200E+11
         0.78200E+11
         0.78200E+11
         0.78200E+11
         0.78200E+11
         0.78200E+11
         0.78200E+11
         0.78200E+11
         0.78200E+11
         0.78200E+11
         0.78200E+11
         0.78200E+11
         0.78200E+11
         0.78200E+11
         0.78200E+11
         0.78200E+11
         0.78200E+11
         0.78200E+11
         0.78200E+11
         0.78200E+11
         0.78200E+11
         0.78200E+11
         0.78200E+11
         0.78200E+11
         0.78200E+11
         0.78200E+11
         0.78200E+11
         0.78200E+11
         0.78200E+11
         0.78200E+11
         0.78200E+11
         0.78200E+11
         0.78200E+11
         0.78200E+11
         0.78200E+11
         0.78200E+11
         0.78200E+11
         0.78200E+11
         0.78200E+11
         0.78200E+11
         0.78200E+11
         0.78200E+11
         0.78200E+11
         0.78200E+11
         0.78200E+11
         0.78200E+11
         0.78200E+11
         0.78200E+11
         0.78200E+11
         0.78200E+11
         0.78200E+11
         0.78200E+11
         0.78200E+11
         0.78200E+11
         0.78200E+11
         0.78200E+11
         0.78200E+11
         0.78200E+11
         0.78200E+11
         0.78200E+11
         0.78200E+11
         0.78200E+11
         0.78200E+11
         0.78200E+11
         0.78200E+11
         0.78200E+11
         0.78200E+11
         0.78200E+11
         0.78200E+11
         0.78200E+11
         0.78200E+11
         0.78200E+11
         0.78200E+11
         0.78200E+11
         0.78200E+11
         0.78200E+11
         0.78200E+11
         0.78200E+11
         0.78200E+11
         0.78200E+11
         0.78200E+11
         0.78200E+11
         0.78200E+11
         0.78200E+11
         0.78200E+11
         0.78200E+11
         0.78200E+11
         0.78200E+11
         0.78200E+11
         0.78200E+11
         0.78200E+11
         0.78200E+11
         0.78200E+11
         0.78200E+11
         0.78200E+11
         0.78200E+11
         0.78200E+11
         0.78200E+11
         0.78200E+11
         0.78200E+11
         0.78200E+11
         0.78200E+11
         0.78200E+11
         0.78200E+11
         0.78200E+11
         0.78200E+11
         0.78200E+11
         0.78200E+11
         0.78200E+11
         0.78200E+11
         0.78200E+11
         0.78200E+11
         0.78200E+11
         0.78200E+11
         0.78200E+11
         0.78200E+11
         0.78200E+11
         0.78200E+11
         0.78200E+11
         0.78200E+11
         0.78200E+11
         0.78200E+11
         0.78200E+11
         0.78200E+11
         0.78200E+11
         0.78200E+11
         0.78200E+11
         0.78200E+11
         0.78200E+11
         0.78200E+11
         0.78200E+11
         0.78200E+11
         0.78200E+11
         0.78200E+11
         0.78200E+11
         0.78200E+11
         0.78200E+11
         0.78200E+11
         0.78200E+11
         0.78200E+11
         0.78200E+11
         0.78200E+11
         0.78200E+11
         0.78200E+11
         0.78200E+11
         0.78200E+11
         0.78200E+11
         0.78200E+11
         0.78200E+11
         0.78200E+11
         0.78200E+11
         0.78200E+11
         0.78200E+11
         0.78200E+11
         0.78200E+11
         0.78200E+11
         0.78200E+11
         0.78200E+11
         0.78200E+11
         0.78200E+11
         0.78200E+11
         0.78200E+11
         0.78200E+11
         0.78200E+11
         0.78200E+11
         0.78200E+11
         0.78200E+11
         0.78200E+11
         0.78200E+11
         0.78200E+11
         0.78200E+11
         0.78200E+11
         0.78200E+11
         0.78200E+11
         0.78200E+11
         0.78200E+11
         0.78200E+11
         0.78200E+11
         0.78200E+11
         0.78200E+11
         0.78200E+11
         0.78200E+11
         0.78200E+11
         0.78200E+11
         0.78200E+11
         0.78200E+11
         0.78200E+11
         0.78200E+11
         0.78200E+11
         0.78200E+11
         0.78200E+11
         0.78200E+11
         0.78200E+11
         0.78200E+11
         0.78200E+11
         0.78200E+11
         0.78200E+11
         0.78200E+11
         0.78200E+11
         0.78200E+11
         0.78200E+11
         0.78200E+11
         0.78200E+11
         0.78200E+11
         0.78200E+11
         0.78200E+11
         0.78200E+11
         0.78200E+11
         0.78200E+11
         0.78200E+11
         0.78200E+11
         0.78200E+11
         0.78200E+11
         0.78200E+11
         0.78200E+11
         0.78200E+11
         0.78200E+11
         0.78200E+11
         0.78200E+11
         0.78200E+11
         0.78200E+11
         0.78200E+11
         0.78200E+11
         0.78200E+11
         0.78200E+11
         0.78200E+11
         0.78200E+11
         0.78200E+11
         0.78200E+11
         0.78200E+11
         0.78200E+11
         0.78200E+11
         0.78200E+11
         0.78200E+11
         0.78200E+11
         0.78200E+11
         0.78200E+11
         0.78200E+11
         0.78200E+11
         0.78200E+11
         0.78200E+11
         0.78200E+11
         0.78200E+11
         0.78200E+11
         0.78200E+11
         0.78200E+11
         0.78200E+11
         0.78200E+11
         0.78200E+11
         0.78200E+11
         0.78200E+11
         0.78200E+11
         0.78200E+11
         0.78200E+11
         0.78200E+11
         0.78200E+11
         0.78200E+11
         0.78200E+11
         0.78200E+11
         0.78200E+11
         0.78200E+11
         0.78200E+11
         0.78200E+11
         0.78200E+11
         0.78200E+11
         0.78200E+11
         0.78200E+11
         0.78200E+11
         0.78200E+11
         0.78200E+11
         0.78200E+11
         0.78200E+11
         0.78200E+11
         0.78200E+11
         0.78200E+11
         0.78200E+11
         0.78200E+11
         0.78200E+11
         0.78200E+11
         0.78200E+11
         0.78200E+11
         0.78200E+11
         0.78200E+11
         0.78200E+11
         0.78200E+11
         0.78200E+11
         0.78200E+11
         0.78200E+11
         0.78200E+11
         0.78200E+11
         0.78200E+11
         0.78200E+11
         0.78200E+11
         0.78200E+11
         0.78200E+11
         0.78200E+11
         0.78200E+11
         0.78200E+11
         0.78200E+11
         0.78200E+11
         0.78200E+11
         0.78200E+11
         0.78200E+11
         0.78200E+11
         0.78200E+11
         0.78200E+11
         0.78200E+11
         0.78200E+11
         0.78200E+11
         0.78200E+11
         0.78200E+11
         0.78200E+11
         0.78200E+11
         0.78200E+11
         0.78200E+11
         0.78200E+11
         0.78200E+11
         0.78200E+11
         0.78200E+11
         0.78200E+11
         0.78200E+11
         0.78200E+11
         0.78200E+11
         0.78200E+11
         0.78200E+11
         0.78200E+11
         0.78200E+11
         0.78200E+11
         0.78200E+11
         0.78200E+11
         0.78200E+11
         0.78200E+11
         0.78200E+11
         0.78200E+11
         0.78200E+11
         0.78200E+11
         0.78200E+11
         0.78200E+11
         0.78200E+11
         0.78200E+11
         0.78200E+11
         0.78200E+11
         0.78200E+11
         0.78200E+11
         0.78200E+11
         0.78200E+11
         0.78200E+11
         0.78200E+11
         0.78200E+11
         0.78200E+11
         0.78200E+11
         0.78200E+11
         0.78200E+11
         0.78200E+11
         0.78200E+11
         0.78200E+11
         0.78200E+11
         0.78200E+11
         0.78200E+11
         0.78200E+11
         0.78200E+11
         0.78200E+11
         0.78200E+11
         0.78200E+11
         0.78200E+11
         0.78200E+11
         0.78200E+11
         0.78200E+11
         0.78200E+11
         0.78200E+11
         0.78200E+11
         0.78200E+11
         0.78200E+11
         0.78200E+11
         0.78200E+11
         0.78200E+11
         0.78200E+11
         0.78200E+11
         0.78200E+11
         0.78200E+11
         0.78200E+11
         0.78200E+11
         0.78200E+11
         0.78200E+11
         0.78200E+11
         0.78200E+11
         0.78200E+11
         0.78200E+11
         0.78200E+11
         0.78200E+11
         0.78200E+11
         0.78200E+11
         0.78200E+11
         0.78200E+11
         0.78200E+11
         0.78200E+11
         0.78200E+11
         0.78200E+11
         0.78200E+11
         0.78200E+11
         0.78200E+11
         0.78200E+11
         0.78200E+11
         0.78200E+11
         0.78200E+11
         0.78200E+11
         0.78200E+11
         0.78200E+11
         0.78200E+11
         0.78200E+11
         0.78200E+11
         0.78200E+11
         0.78200E+11
         0.78200E+11
         0.78200E+11
         0.78200E+11
         0.78200E+11
         0.78200E+11
         0.78200E+11
         0.78200E+11
         0.78200E+11
         0.78200E+11
         0.78200E+11
         0.78200E+11
         0.78200E+11
         0.78200E+11
         0.78200E+11
         0.78200E+11
         0.78200E+11
         0.78200E+11
         0.78200E+11
         0.78200E+11
         0.78200E+11
         0.78200E+11
         0.78200E+11
         0.78200E+11
         0.78200E+11
         0.78200E+11
         0.78200E+11
         0.78200E+11
         0.78200E+11
         0.78200E+11
         0.78200E+11
         0.78200E+11
         0.78200E+11
         0.78200E+11
         0.78200E+11
         0.78200E+11
         0.78200E+11
         0.78200E+11
         0.78200E+11
         0.78200E+11
         0.78200E+11
         0.78200E+11
         0.78200E+11
         0.78200E+11
         0.78200E+11
         0.78200E+11
         0.78200E+11
         0.78200E+11
         0.78200E+11
         0.78200E+11
         0.78200E+11
         0.78200E+11
         0.78200E+11
         0.78200E+11
         0.78200E+11
         0.78200E+11
         0.78200E+11
         0.78200E+11
         0.78200E+11
         0.78200E+11
         0.78200E+11
         0.78200E+11
         0.78200E+11
         0.78200E+11
         0.78200E+11
         0.78200E+11
         0.78200E+11
         0.78200E+11
         0.78200E+11
         0.78200E+11
         0.78200E+11
         0.78200E+11
         0.78200E+11
         0.78200E+11
         0.78200E+11
         0.78200E+11
         0.78200E+11
         0.78200E+11
         0.78200E+11
         0.78200E+11
         0.78200E+11
         0.78200E+11
         0.78200E+11
         0.78200E+11
         0.78200E+11
         0.78200E+11
         0.78200E+11
         0.78200E+11
         0.78200E+11
         0.78200E+11
         0.78200E+11
         0.78200E+11
         0.78200E+11
         0.78200E+11
         0.78200E+11
         0.78200E+11
         0.78200E+11
         0.78200E+11
         0.78200E+11
         0.78200E+11
         0.78200E+11
         0.78200E+11
         0.78200E+11
         0.78200E+11
         0.78200E+11
         0.78200E+11
         0.78200E+11
         0.78200E+11
         0.78200E+11
         0.78200E+11
         0.78200E+11
         0.78200E+11
         0.78200E+11
         0.78200E+11
         0.78200E+11
         0.78200E+11
         0.78200E+11
         0.78200E+11
         0.78200E+11
         0.78200E+11
         0.78200E+11
         0.78200E+11
         0.78200E+11
         0.78200E+11
         0.78200E+11
         0.78200E+11
         0.78200E+11
         0.78200E+11
         0.78200E+11
         0.78200E+11
         0.78200E+11
         0.78200E+11
         0.78200E+11
         0.78200E+11
         0.78200E+11
         0.78200E+11
         0.78200E+11
         0.78200E+11
         0.78200E+11
         0.78200E+11
         0.78200E+11
         0.78200E+11
         0.78200E+11
         0.78200E+11
         0.78200E+11
         0.78200E+11
         0.78200E+11
         0.78200E+11
         0.78200E+11
         0.78200E+11
         0.78200E+11
         0.78200E+11
         0.78200E+11
         0.78200E+11
         0.78200E+11
         0.78200E+11
         0.78200E+11
         0.78200E+11
         0.78200E+11
         0.78200E+11
         0.78200E+11
         0.78200E+11
         0.78200E+11
         0.78200E+11
         0.78200E+11
         0.78200E+11
         0.78200E+11
         0.78200E+11
         0.78200E+11
         0.78200E+11
         0.78200E+11
         0.78200E+11
         0.78200E+11
         0.78200E+11
         0.78200E+11
         0.78200E+11
         0.78200E+11
         0.78200E+11
         0.78200E+11
         0.78200E+11
         0.78200E+11
         0.78200E+11
         0.78200E+11
         0.78200E+11
         0.78200E+11
         0.78200E+11
         0.78200E+11
         0.78200E+11
         0.78200E+11
         0.78200E+11
         0.78200E+11
         0.78200E+11
         0.78200E+11
         0.78200E+11
         0.78200E+11
         0.78200E+11
         0.78200E+11
         0.78200E+11
         0.78200E+11
         0.78200E+11
         0.78200E+11
         0.78200E+11
         0.78200E+11
         0.78200E+11
         0.78200E+11
         0.78200E+11
         0.78200E+11
         0.78200E+11
         0.78200E+11
         0.78200E+11
         0.78200E+11
         0.78200E+11
         0.78200E+11
         0.78200E+11
         0.78200E+11
         0.78200E+11
         0.78200E+11
         0.78200E+11
         0.78200E+11
         0.78200E+11
         0.78200E+11
         0.78200E+11
         0.78200E+11
         0.78200E+11
         0.78200E+11
         0.78200E+11
         0.78200E+11
         0.78200E+11
         0.78200E+11
         0.78200E+11
         0.78200E+11
         0.78200E+11
         0.78200E+11
         0.78200E+11
         0.78200E+11
         0.78200E+11
         0.78200E+11
         0.78200E+11
         0.78200E+11
         0.78200E+11
         0.78200E+11
         0.78200E+11
         0.78200E+11
         0.78200E+11
         0.78200E+11
         0.78200E+11
         0.78200E+11
         0.78200E+11
         0.78200E+11
         0.78200E+11
         0.78200E+11
         0.78200E+11
         0.78200E+11
         0.78200E+11
         0.78200E+11
         0.78200E+11
         0.78200E+11
         0.78200E+11
         0.78200E+11
         0.78200E+11
         0.78200E+11
         0.78200E+11
         0.78200E+11
         0.78200E+11
         0.78200E+11
         0.78200E+11
         0.78200E+11
         0.78200E+11
         0.78200E+11
         0.78200E+11
         0.78200E+11
         0.78200E+11
         0.78200E+11
         0.78200E+11
         0.78200E+11
         0.78200E+11
         0.78200E+11
         0.78200E+11
         0.78200E+11
         0.78200E+11
         0.78200E+11
         0.78200E+11
         0.78200E+11
         0.78200E+11
         0.78200E+11
         0.78200E+11
         0.78200E+11
         0.78200E+11
         0.78200E+11
         0.78200E+11
         0.78200E+11
         0.78200E+11
         0.78200E+11
         0.78200E+11
         0.78200E+11
         0.78200E+11
         0.78200E+11
         0.78200E+11
         0.78200E+11
         0.78200E+11
         0.78200E+11
         0.78200E+11
         0.78200E+11
         0.78200E+11
         0.78200E+11
         0.78200E+11
         0.78200E+11
         0.78200E+11
         0.78200E+11
         0.78200E+11
         0.78200E+11
         0.78200E+11
         0.78200E+11
         0.78200E+11
         0.78200E+11
         0.78200E+11
         0.78200E+11
         0.78200E+11
         0.78200E+11
         0.78200E+11
         0.78200E+11
         0.78200E+11
         0.78200E+11
         0.78200E+11
         0.78200E+11
         0.78200E+11
         0.78200E+11
         0.78200E+11
         0.78200E+11
         0.78200E+11
         0.78200E+11
         0.78200E+11
         0.78200E+11
         0.78200E+11
         0.78200E+11
         0.78200E+11
         0.78200E+11
         0.78200E+11
         0.78200E+11
         0.78200E+11
         0.78200E+11
         0.78200E+11
         0.78200E+11
         0.78200E+11
         0.78200E+11
         0.78200E+11
         0.78200E+11
         0.78200E+11
         0.78200E+11
         0.78200E+11
         0.78200E+11
         0.78200E+11
         0.78200E+11
         0.78200E+11
         0.78200E+11
         0.78200E+11
         0.78200E+11
         0.78200E+11
         0.78200E+11
         0.78200E+11
         0.78200E+11
         0.78200E+11
         0.78200E+11
         0.78200E+11
         0.78200E+11
         0.78200E+11
         0.78200E+11
         0.78200E+11
         0.78200E+11
         0.78200E+11
         0.78200E+11
         0.78200E+11
         0.78200E+11
         0.78200E+11
         0.78200E+11
         0.78200E+11
         0.78200E+11
         0.78200E+11
         0.78200E+11
         0.78200E+11
         0.78200E+11
         0.78200E+11
         0.78200E+11
         0.78200E+11
         0.78200E+11
         0.78200E+11
         0.78200E+11
         0.78200E+11
         0.78200E+11
         0.78200E+11
         0.78200E+11
         0.78200E+11
         0.78200E+11
         0.78200E+11
         0.78200E+11
         0.78200E+11
         0.78200E+11
         0.78200E+11
         0.78200E+11
         0.78200E+11
         0.78200E+11
         0.78200E+11
         0.78200E+11
         0.78200E+11
         0.78200E+11
         0.78200E+11
         0.78200E+11
         0.78200E+11
         0.78200E+11
         0.78200E+11
         0.78200E+11
         0.78200E+11
         0.78200E+11
         0.78200E+11
         0.78200E+11
         0.78200E+11
         0.78200E+11
         0.78200E+11
         0.78200E+11
         0.78200E+11
         0.78200E+11
         0.78200E+11
         0.78200E+11
         0.78200E+11
         0.78200E+11
         0.78200E+11
         0.78200E+11
         0.78200E+11
         0.78200E+11
         0.78200E+11
         0.78200E+11
         0.78200E+11
         0.78200E+11
         0.78200E+11
         0.78200E+11
         0.78200E+11
         0.78200E+11
         0.78200E+11
         0.78200E+11
         0.78200E+11
         0.78200E+11
         0.78200E+11
         0.78200E+11
         0.78200E+11
         0.78200E+11
         0.78200E+11
         0.78200E+11
         0.78200E+11
         0.78200E+11
         0.78200E+11
         0.78200E+11
         0.78200E+11
         0.78200E+11
         0.78200E+11
         0.78200E+11
         0.78200E+11
         0.78200E+11
         0.78200E+11
         0.78200E+11
         0.78200E+11
         0.78200E+11
         0.78200E+11
         0.78200E+11
         0.78200E+11
         0.78200E+11
         0.78200E+11
         0.78200E+11
         0.78200E+11
         0.78200E+11
         0.78200E+11
         0.78200E+11
         0.78200E+11
         0.78200E+11
         0.78200E+11
         0.78200E+11
         0.78200E+11
         0.78200E+11
         0.78200E+11
         0.78200E+11
         0.78200E+11
         0.78200E+11
         0.78200E+11
         0.78200E+11
         0.78200E+11
         0.78200E+11
         0.78200E+11
         0.78200E+11
         0.78200E+11
         0.78200E+11
         0.78200E+11
         0.78200E+11
         0.78200E+11
         0.78200E+11
         0.78200E+11
         0.78200E+11
         0.78200E+11
         0.78200E+11
         0.78200E+11
         0.78200E+11
         0.78200E+11
         0.78200E+11
         0.78200E+11
         0.78200E+11
         0.78200E+11
         0.78200E+11
         0.78200E+11
         0.78200E+11
         0.78200E+11
         0.78200E+11
         0.78200E+11
         0.78200E+11
         0.78200E+11
         0.78200E+11
         0.78200E+11
         0.78200E+11
         0.78200E+11
         0.78200E+11
         0.78200E+11
         0.78200E+11
         0.78200E+11
         0.78200E+11
         0.78200E+11
         0.78200E+11
         0.78200E+11
         0.78200E+11
         0.78200E+11
         0.78200E+11
         0.78200E+11
         0.78200E+11
         0.78200E+11
         0.78200E+11
         0.78200E+11
         0.78200E+11
         0.78200E+11
         0.78200E+11
         0.78200E+11
         0.78200E+11
         0.78200E+11
         0.78200E+11
         0.78200E+11
         0.78200E+11
         0.78200E+11
         0.78200E+11
         0.78200E+11
         0.78200E+11
         0.78200E+11
         0.78200E+11
         0.78200E+11
         0.78200E+11
         0.78200E+11
         0.78200E+11
         0.78200E+11
         0.78200E+11
         0.78200E+11
         0.78200E+11
         0.78200E+11
         0.78200E+11
         0.78200E+11
         0.78200E+11
         0.78200E+11
         0.78200E+11
         0.78200E+11
         0.78200E+11
         0.78200E+11
         0.78200E+11
         0.78200E+11
         0.78200E+11
         0.78200E+11
         0.78200E+11
         0.78200E+11
         0.78200E+11
         0.78200E+11
         0.78200E+11
         0.78200E+11
         0.78200E+11
         0.78200E+11
         0.78200E+11
         0.78200E+11
         0.78200E+11
         0.78200E+11
         0.78200E+11
         0.78200E+11
         0.78200E+11
         0.78200E+11
         0.78200E+11
         0.78200E+11
         0.78200E+11
         0.78200E+11
         0.78200E+11
         0.78200E+11
         0.78200E+11
         0.78200E+11
         0.78200E+11
         0.78200E+11
         0.78200E+11
         0.78200E+11
         0.78200E+11
         0.78200E+11
         0.78200E+11
         0.78200E+11
         0.78200E+11
         0.78200E+11
         0.78200E+11
         0.78200E+11
         0.78200E+11
         0.78200E+11
         0.78200E+11
         0.78200E+11
         0.78200E+11
         0.78200E+11
         0.78200E+11
         0.78200E+11
         0.78200E+11
         0.78200E+11
         0.78200E+11
         0.78200E+11
         0.78200E+11
         0.78200E+11
         0.78200E+11
         0.78200E+11
         0.78200E+11
         0.78200E+11
         0.78200E+11
         0.78200E+11
         0.78200E+11
         0.78200E+11
         0.78200E+11
         0.78200E+11
         0.78200E+11
         0.78200E+11
         0.78200E+11
         0.78200E+11
         0.78200E+11
         0.78200E+11
         0.78200E+11
         0.78200E+11
         0.78200E+11
         0.78200E+11
         0.78200E+11
         0.78200E+11
         0.78200E+11
         0.78200E+11
         0.78200E+11
         0.78200E+11
         0.78200E+11
         0.78200E+11
         0.78200E+11
         0.78200E+11
         0.78200E+11
         0.78200E+11
         0.78200E+11
         0.78200E+11
         0.78200E+11
         0.78200E+11
         0.78200E+11
         0.78200E+11
         0.78200E+11
         0.78200E+11
         0.78200E+11
         0.78200E+11
         0.78200E+11
         0.78200E+11
         0.78200E+11
         0.78200E+11
         0.78200E+11
         0.78200E+11
         0.78200E+11
         0.78200E+11
         0.78200E+11
         0.78200E+11
         0.78200E+11
         0.78200E+11
         0.78200E+11
         0.78200E+11
         0.78200E+11
         0.78200E+11
         0.78200E+11
         0.78200E+11
         0.78200E+11
         0.78200E+11
         0.78200E+11
         0.78200E+11
         0.78200E+11
         0.78200E+11
         0.78200E+11
         0.78200E+11
         0.78200E+11
         0.78200E+11
         0.78200E+11
         0.78200E+11
         0.78200E+11
         0.78200E+11
         0.78200E+11
         0.78200E+11
         0.78200E+11
         0.78200E+11
         0.78200E+11
         0.78200E+11
         0.78200E+11
         0.78200E+11
         0.78200E+11
         0.78200E+11
         0.78200E+11
         0.78200E+11
         0.78200E+11
         0.78200E+11
         0.78200E+11
         0.78200E+11
         0.78200E+11
         0.78200E+11
         0.78200E+11
         0.78200E+11
         0.78200E+11
         0.78200E+11
         0.78200E+11
         0.78200E+11
         0.78200E+11
         0.78200E+11
         0.78200E+11
         0.78200E+11
         0.78200E+11
         0.78200E+11
         0.78200E+11
         0.78200E+11
         0.78200E+11
         0.78200E+11
         0.78200E+11
         0.78200E+11
         0.78200E+11
         0.78200E+11
         0.78200E+11
         0.78200E+11
         0.78200E+11
         0.78200E+11
         0.78200E+11
         0.78200E+11
         0.78200E+11
         0.78200E+11
         0.78200E+11
         0.78200E+11
         0.78200E+11
         0.78200E+11
         0.78200E+11
         0.78200E+11
         0.78200E+11
         0.78200E+11
         0.78200E+11
         0.78200E+11
         0.78200E+11
         0.78200E+11
         0.78200E+11
         0.78200E+11
         0.78200E+11
         0.78200E+11
         0.78200E+11
         0.78200E+11
         0.78200E+11
         0.78200E+11
         0.78200E+11
         0.78200E+11
         0.78200E+11
         0.78200E+11
         0.78200E+11
         0.78200E+11
         0.78200E+11
         0.78200E+11
         0.78200E+11
         0.78200E+11
         0.78200E+11
         0.78200E+11
         0.78200E+11
         0.78200E+11
         0.78200E+11
         0.78200E+11
         0.78200E+11
         0.78200E+11
         0.78200E+11
         0.78200E+11
         0.78200E+11
         0.78200E+11
         0.78200E+11
         0.78200E+11
         0.78200E+11
         0.78200E+11
         0.78200E+11
         0.78200E+11
         0.78200E+11
         0.78200E+11
         0.78200E+11
         0.78200E+11
         0.78200E+11
         0.78200E+11
         0.78200E+11
         0.78200E+11
         0.78200E+11
         0.78200E+11
         0.78200E+11
         0.78200E+11
         0.78200E+11
         0.78200E+11
         0.78200E+11
         0.78200E+11
         0.78200E+11
         0.78200E+11
         0.78200E+11
         0.78200E+11
         0.78200E+11
         0.78200E+11
         0.78200E+11
         0.78200E+11
         0.78200E+11
         0.78200E+11
         0.78200E+11
         0.78200E+11
         0.78200E+11
         0.78200E+11
         0.78200E+11
         0.78200E+11
         0.78200E+11
         0.78200E+11
         0.78200E+11
         0.78200E+11
         0.78200E+11
         0.78200E+11
         0.78200E+11
         0.78200E+11
         0.78200E+11
         0.78200E+11
         0.78200E+11
         0.78200E+11
         0.78200E+11
         0.78200E+11
         0.78200E+11
         0.78200E+11
         0.78200E+11
         0.78200E+11
         0.78200E+11
         0.78200E+11
         0.78200E+11
         0.78200E+11
         0.78200E+11
         0.78200E+11
         0.78200E+11
         0.78200E+11
         0.78200E+11
         0.78200E+11
         0.78200E+11
         0.78200E+11
         0.78200E+11
         0.78200E+11
         0.78200E+11
         0.78200E+11
         0.78200E+11
         0.78200E+11
         0.78200E+11
         0.78200E+11
         0.78200E+11
         0.78200E+11
         0.78200E+11
         0.78200E+11
         0.78200E+11
         0.78200E+11
  
SCALARS                        density  double 1
LOOKUP_TABLE default
         0.27000E+04
         0.27000E+04
         0.27000E+04
         0.27000E+04
         0.27000E+04
         0.27000E+04
         0.27000E+04
         0.27000E+04
         0.27000E+04
         0.27000E+04
         0.27000E+04
         0.27000E+04
         0.27000E+04
         0.27000E+04
         0.27000E+04
         0.27000E+04
         0.27000E+04
         0.27000E+04
         0.27000E+04
         0.27000E+04
         0.27000E+04
         0.27000E+04
         0.27000E+04
         0.27000E+04
         0.27000E+04
         0.27000E+04
         0.27000E+04
         0.27000E+04
         0.27000E+04
         0.27000E+04
         0.27000E+04
         0.27000E+04
         0.27000E+04
         0.27000E+04
         0.27000E+04
         0.27000E+04
         0.27000E+04
         0.27000E+04
         0.27000E+04
         0.27000E+04
         0.27000E+04
         0.27000E+04
         0.27000E+04
         0.27000E+04
         0.27000E+04
         0.27000E+04
         0.27000E+04
         0.27000E+04
         0.27000E+04
         0.27000E+04
         0.27000E+04
         0.27000E+04
         0.27000E+04
         0.27000E+04
         0.27000E+04
         0.27000E+04
         0.27000E+04
         0.27000E+04
         0.27000E+04
         0.27000E+04
         0.27000E+04
         0.27000E+04
         0.27000E+04
         0.27000E+04
         0.27000E+04
         0.27000E+04
         0.27000E+04
         0.27000E+04
         0.27000E+04
         0.27000E+04
         0.27000E+04
         0.27000E+04
         0.27000E+04
         0.27000E+04
         0.27000E+04
         0.27000E+04
         0.27000E+04
         0.27000E+04
         0.27000E+04
         0.27000E+04
         0.27000E+04
         0.27000E+04
         0.27000E+04
         0.27000E+04
         0.27000E+04
         0.27000E+04
         0.27000E+04
         0.27000E+04
         0.27000E+04
         0.27000E+04
         0.27000E+04
         0.27000E+04
         0.27000E+04
         0.27000E+04
         0.27000E+04
         0.27000E+04
         0.27000E+04
         0.27000E+04
         0.27000E+04
         0.27000E+04
         0.27000E+04
         0.27000E+04
         0.27000E+04
         0.27000E+04
         0.27000E+04
         0.27000E+04
         0.27000E+04
         0.27000E+04
         0.27000E+04
         0.27000E+04
         0.27000E+04
         0.27000E+04
         0.27000E+04
         0.27000E+04
         0.27000E+04
         0.27000E+04
         0.27000E+04
         0.27000E+04
         0.27000E+04
         0.27000E+04
         0.27000E+04
         0.27000E+04
         0.27000E+04
         0.27000E+04
         0.27000E+04
         0.27000E+04
         0.27000E+04
         0.27000E+04
         0.27000E+04
         0.27000E+04
         0.27000E+04
         0.27000E+04
         0.27000E+04
         0.27000E+04
         0.27000E+04
         0.27000E+04
         0.27000E+04
         0.27000E+04
         0.27000E+04
         0.27000E+04
         0.27000E+04
         0.27000E+04
         0.27000E+04
         0.27000E+04
         0.27000E+04
         0.27000E+04
         0.27000E+04
         0.27000E+04
         0.27000E+04
         0.27000E+04
         0.27000E+04
         0.27000E+04
         0.27000E+04
         0.27000E+04
         0.27000E+04
         0.27000E+04
         0.27000E+04
         0.27000E+04
         0.27000E+04
         0.27000E+04
         0.27000E+04
         0.27000E+04
         0.27000E+04
         0.27000E+04
         0.27000E+04
         0.27000E+04
         0.27000E+04
         0.27000E+04
         0.27000E+04
         0.27000E+04
         0.27000E+04
         0.27000E+04
         0.27000E+04
         0.27000E+04
         0.27000E+04
         0.27000E+04
         0.27000E+04
         0.27000E+04
         0.27000E+04
         0.27000E+04
         0.27000E+04
         0.27000E+04
         0.27000E+04
         0.27000E+04
         0.27000E+04
         0.27000E+04
         0.27000E+04
         0.27000E+04
         0.27000E+04
         0.27000E+04
         0.27000E+04
         0.27000E+04
         0.27000E+04
         0.27000E+04
         0.27000E+04
         0.27000E+04
         0.27000E+04
         0.27000E+04
         0.27000E+04
         0.27000E+04
         0.27000E+04
         0.27000E+04
         0.27000E+04
         0.27000E+04
         0.27000E+04
         0.27000E+04
         0.27000E+04
         0.27000E+04
         0.27000E+04
         0.27000E+04
         0.27000E+04
         0.27000E+04
         0.27000E+04
         0.27000E+04
         0.27000E+04
         0.27000E+04
         0.27000E+04
         0.27000E+04
         0.27000E+04
         0.27000E+04
         0.27000E+04
         0.27000E+04
         0.27000E+04
         0.27000E+04
         0.27000E+04
         0.27000E+04
         0.27000E+04
         0.27000E+04
         0.27000E+04
         0.27000E+04
         0.27000E+04
         0.27000E+04
         0.27000E+04
         0.27000E+04
         0.27000E+04
         0.27000E+04
         0.27000E+04
         0.27000E+04
         0.27000E+04
         0.27000E+04
         0.27000E+04
         0.27000E+04
         0.27000E+04
         0.27000E+04
         0.27000E+04
         0.27000E+04
         0.27000E+04
         0.27000E+04
         0.27000E+04
         0.27000E+04
         0.27000E+04
         0.27000E+04
         0.27000E+04
         0.27000E+04
         0.27000E+04
         0.27000E+04
         0.27000E+04
         0.27000E+04
         0.27000E+04
         0.27000E+04
         0.27000E+04
         0.27000E+04
         0.27000E+04
         0.27000E+04
         0.27000E+04
         0.27000E+04
         0.27000E+04
         0.27000E+04
         0.27000E+04
         0.27000E+04
         0.27000E+04
         0.27000E+04
         0.27000E+04
         0.27000E+04
         0.27000E+04
         0.27000E+04
         0.27000E+04
         0.27000E+04
         0.27000E+04
         0.27000E+04
         0.27000E+04
         0.27000E+04
         0.27000E+04
         0.27000E+04
         0.27000E+04
         0.27000E+04
         0.27000E+04
         0.27000E+04
         0.27000E+04
         0.27000E+04
         0.27000E+04
         0.27000E+04
         0.27000E+04
         0.27000E+04
         0.27000E+04
         0.27000E+04
         0.27000E+04
         0.27000E+04
         0.27000E+04
         0.27000E+04
         0.27000E+04
         0.27000E+04
         0.27000E+04
         0.27000E+04
         0.27000E+04
         0.27000E+04
         0.27000E+04
         0.27000E+04
         0.27000E+04
         0.27000E+04
         0.27000E+04
         0.27000E+04
         0.27000E+04
         0.27000E+04
         0.27000E+04
         0.27000E+04
         0.27000E+04
         0.27000E+04
         0.27000E+04
         0.27000E+04
         0.27000E+04
         0.27000E+04
         0.27000E+04
         0.27000E+04
         0.27000E+04
         0.27000E+04
         0.27000E+04
         0.27000E+04
         0.27000E+04
         0.27000E+04
         0.27000E+04
         0.27000E+04
         0.27000E+04
         0.27000E+04
         0.27000E+04
         0.27000E+04
         0.27000E+04
         0.27000E+04
         0.27000E+04
         0.27000E+04
         0.27000E+04
         0.27000E+04
         0.27000E+04
         0.27000E+04
         0.27000E+04
         0.27000E+04
         0.27000E+04
         0.27000E+04
         0.27000E+04
         0.27000E+04
         0.27000E+04
         0.27000E+04
         0.27000E+04
         0.27000E+04
         0.27000E+04
         0.27000E+04
         0.27000E+04
         0.27000E+04
         0.27000E+04
         0.27000E+04
         0.27000E+04
         0.27000E+04
         0.27000E+04
         0.27000E+04
         0.27000E+04
         0.27000E+04
         0.27000E+04
         0.27000E+04
         0.27000E+04
         0.27000E+04
         0.27000E+04
         0.27000E+04
         0.27000E+04
         0.27000E+04
         0.27000E+04
         0.27000E+04
         0.27000E+04
         0.27000E+04
         0.27000E+04
         0.27000E+04
         0.27000E+04
         0.27000E+04
         0.27000E+04
         0.27000E+04
         0.27000E+04
         0.27000E+04
         0.27000E+04
         0.27000E+04
         0.27000E+04
         0.27000E+04
         0.27000E+04
         0.27000E+04
         0.27000E+04
         0.27000E+04
         0.27000E+04
         0.27000E+04
         0.27000E+04
         0.27000E+04
         0.27000E+04
         0.27000E+04
         0.27000E+04
         0.27000E+04
         0.27000E+04
         0.27000E+04
         0.27000E+04
         0.27000E+04
         0.27000E+04
         0.27000E+04
         0.27000E+04
         0.27000E+04
         0.27000E+04
         0.27000E+04
         0.27000E+04
         0.27000E+04
         0.27000E+04
         0.27000E+04
         0.27000E+04
         0.27000E+04
         0.27000E+04
         0.27000E+04
         0.27000E+04
         0.27000E+04
         0.27000E+04
         0.27000E+04
         0.27000E+04
         0.27000E+04
         0.27000E+04
         0.27000E+04
         0.27000E+04
         0.27000E+04
         0.27000E+04
         0.27000E+04
         0.27000E+04
         0.27000E+04
         0.27000E+04
         0.27000E+04
         0.27000E+04
         0.27000E+04
         0.27000E+04
         0.27000E+04
         0.27000E+04
         0.27000E+04
         0.27000E+04
         0.27000E+04
         0.27000E+04
         0.27000E+04
         0.27000E+04
         0.27000E+04
         0.27000E+04
         0.27000E+04
         0.27000E+04
         0.27000E+04
         0.27000E+04
         0.27000E+04
         0.27000E+04
         0.27000E+04
         0.27000E+04
         0.27000E+04
         0.27000E+04
         0.27000E+04
         0.27000E+04
         0.27000E+04
         0.27000E+04
         0.27000E+04
         0.27000E+04
         0.27000E+04
         0.27000E+04
         0.27000E+04
         0.27000E+04
         0.27000E+04
         0.27000E+04
         0.27000E+04
         0.27000E+04
         0.27000E+04
         0.27000E+04
         0.27000E+04
         0.27000E+04
         0.27000E+04
         0.27000E+04
         0.27000E+04
         0.27000E+04
         0.27000E+04
         0.27000E+04
         0.27000E+04
         0.27000E+04
         0.27000E+04
         0.27000E+04
         0.27000E+04
         0.27000E+04
         0.27000E+04
         0.27000E+04
         0.27000E+04
         0.27000E+04
         0.27000E+04
         0.27000E+04
         0.27000E+04
         0.27000E+04
         0.27000E+04
         0.27000E+04
         0.27000E+04
         0.27000E+04
         0.27000E+04
         0.27000E+04
         0.27000E+04
         0.27000E+04
         0.27000E+04
         0.27000E+04
         0.27000E+04
         0.27000E+04
         0.27000E+04
         0.27000E+04
         0.27000E+04
         0.27000E+04
         0.27000E+04
         0.27000E+04
         0.27000E+04
         0.27000E+04
         0.27000E+04
         0.27000E+04
         0.27000E+04
         0.27000E+04
         0.27000E+04
         0.27000E+04
         0.27000E+04
         0.27000E+04
         0.27000E+04
         0.27000E+04
         0.27000E+04
         0.27000E+04
         0.27000E+04
         0.27000E+04
         0.27000E+04
         0.27000E+04
         0.27000E+04
         0.27000E+04
         0.27000E+04
         0.27000E+04
         0.27000E+04
         0.27000E+04
         0.27000E+04
         0.27000E+04
         0.27000E+04
         0.27000E+04
         0.27000E+04
         0.27000E+04
         0.27000E+04
         0.27000E+04
         0.27000E+04
         0.27000E+04
         0.27000E+04
         0.27000E+04
         0.27000E+04
         0.27000E+04
         0.27000E+04
         0.27000E+04
         0.27000E+04
         0.27000E+04
         0.27000E+04
         0.27000E+04
         0.27000E+04
         0.27000E+04
         0.27000E+04
         0.27000E+04
         0.27000E+04
         0.27000E+04
         0.27000E+04
         0.27000E+04
         0.27000E+04
         0.27000E+04
         0.27000E+04
         0.27000E+04
         0.27000E+04
         0.27000E+04
         0.27000E+04
         0.27000E+04
         0.27000E+04
         0.27000E+04
         0.27000E+04
         0.27000E+04
         0.27000E+04
         0.27000E+04
         0.27000E+04
         0.27000E+04
         0.27000E+04
         0.27000E+04
         0.27000E+04
         0.27000E+04
         0.27000E+04
         0.27000E+04
         0.27000E+04
         0.27000E+04
         0.27000E+04
         0.27000E+04
         0.27000E+04
         0.27000E+04
         0.27000E+04
         0.27000E+04
         0.27000E+04
         0.27000E+04
         0.27000E+04
         0.27000E+04
         0.27000E+04
         0.27000E+04
         0.27000E+04
         0.27000E+04
         0.27000E+04
         0.27000E+04
         0.27000E+04
         0.27000E+04
         0.27000E+04
         0.27000E+04
         0.27000E+04
         0.27000E+04
         0.27000E+04
         0.27000E+04
         0.27000E+04
         0.27000E+04
         0.27000E+04
         0.27000E+04
         0.27000E+04
         0.27000E+04
         0.27000E+04
         0.27000E+04
         0.27000E+04
         0.27000E+04
         0.27000E+04
         0.27000E+04
         0.27000E+04
         0.27000E+04
         0.27000E+04
         0.27000E+04
         0.27000E+04
         0.27000E+04
         0.27000E+04
         0.27000E+04
         0.27000E+04
         0.27000E+04
         0.27000E+04
         0.27000E+04
         0.27000E+04
         0.27000E+04
         0.27000E+04
         0.27000E+04
         0.27000E+04
         0.27000E+04
         0.27000E+04
         0.27000E+04
         0.27000E+04
         0.27000E+04
         0.27000E+04
         0.27000E+04
         0.27000E+04
         0.27000E+04
         0.27000E+04
         0.27000E+04
         0.27000E+04
         0.27000E+04
         0.27000E+04
         0.27000E+04
         0.27000E+04
         0.27000E+04
         0.27000E+04
         0.27000E+04
         0.27000E+04
         0.27000E+04
         0.27000E+04
         0.27000E+04
         0.27000E+04
         0.27000E+04
         0.27000E+04
         0.27000E+04
         0.27000E+04
         0.27000E+04
         0.27000E+04
         0.27000E+04
         0.27000E+04
         0.27000E+04
         0.27000E+04
         0.27000E+04
         0.27000E+04
         0.27000E+04
         0.27000E+04
         0.27000E+04
         0.27000E+04
         0.27000E+04
         0.27000E+04
         0.27000E+04
         0.27000E+04
         0.27000E+04
         0.27000E+04
         0.27000E+04
         0.27000E+04
         0.27000E+04
         0.27000E+04
         0.27000E+04
         0.27000E+04
         0.27000E+04
         0.27000E+04
         0.27000E+04
         0.27000E+04
         0.27000E+04
         0.27000E+04
         0.27000E+04
         0.27000E+04
         0.27000E+04
         0.27000E+04
         0.27000E+04
         0.27000E+04
         0.27000E+04
         0.27000E+04
         0.27000E+04
         0.27000E+04
         0.27000E+04
         0.27000E+04
         0.27000E+04
         0.27000E+04
         0.27000E+04
         0.27000E+04
         0.27000E+04
         0.27000E+04
         0.27000E+04
         0.27000E+04
         0.27000E+04
         0.27000E+04
         0.27000E+04
         0.27000E+04
         0.27000E+04
         0.27000E+04
         0.27000E+04
         0.27000E+04
         0.27000E+04
         0.27000E+04
         0.27000E+04
         0.27000E+04
         0.27000E+04
         0.27000E+04
         0.27000E+04
         0.27000E+04
         0.27000E+04
         0.27000E+04
         0.27000E+04
         0.27000E+04
         0.27000E+04
         0.27000E+04
         0.27000E+04
         0.27000E+04
         0.27000E+04
         0.27000E+04
         0.27000E+04
         0.27000E+04
         0.27000E+04
         0.27000E+04
         0.27000E+04
         0.27000E+04
         0.27000E+04
         0.27000E+04
         0.27000E+04
         0.27000E+04
         0.27000E+04
         0.27000E+04
         0.27000E+04
         0.27000E+04
         0.27000E+04
         0.27000E+04
         0.27000E+04
         0.27000E+04
         0.27000E+04
         0.27000E+04
         0.27000E+04
         0.27000E+04
         0.27000E+04
         0.27000E+04
         0.27000E+04
         0.27000E+04
         0.27000E+04
         0.27000E+04
         0.27000E+04
         0.27000E+04
         0.27000E+04
         0.27000E+04
         0.27000E+04
         0.27000E+04
         0.27000E+04
         0.27000E+04
         0.27000E+04
         0.27000E+04
         0.27000E+04
         0.27000E+04
         0.27000E+04
         0.27000E+04
         0.27000E+04
         0.27000E+04
         0.27000E+04
         0.27000E+04
         0.27000E+04
         0.27000E+04
         0.27000E+04
         0.27000E+04
         0.27000E+04
         0.27000E+04
         0.27000E+04
         0.27000E+04
         0.27000E+04
         0.27000E+04
         0.27000E+04
         0.27000E+04
         0.27000E+04
         0.27000E+04
         0.27000E+04
         0.27000E+04
         0.27000E+04
         0.27000E+04
         0.27000E+04
         0.27000E+04
         0.27000E+04
         0.27000E+04
         0.27000E+04
         0.27000E+04
         0.27000E+04
         0.27000E+04
         0.27000E+04
         0.27000E+04
         0.27000E+04
         0.27000E+04
         0.27000E+04
         0.27000E+04
         0.27000E+04
         0.27000E+04
         0.27000E+04
         0.27000E+04
         0.27000E+04
         0.27000E+04
         0.27000E+04
         0.27000E+04
         0.27000E+04
         0.27000E+04
         0.27000E+04
         0.27000E+04
         0.27000E+04
         0.27000E+04
         0.27000E+04
         0.27000E+04
         0.27000E+04
         0.27000E+04
         0.27000E+04
         0.27000E+04
         0.27000E+04
         0.27000E+04
         0.27000E+04
         0.27000E+04
         0.27000E+04
         0.27000E+04
         0.27000E+04
         0.27000E+04
         0.27000E+04
         0.27000E+04
         0.27000E+04
         0.27000E+04
         0.27000E+04
         0.27000E+04
         0.27000E+04
         0.27000E+04
         0.27000E+04
         0.27000E+04
         0.27000E+04
         0.27000E+04
         0.27000E+04
         0.27000E+04
         0.27000E+04
         0.27000E+04
         0.27000E+04
         0.27000E+04
         0.27000E+04
         0.27000E+04
         0.27000E+04
         0.27000E+04
         0.27000E+04
         0.27000E+04
         0.27000E+04
         0.27000E+04
         0.27000E+04
         0.27000E+04
         0.27000E+04
         0.27000E+04
         0.27000E+04
         0.27000E+04
         0.27000E+04
         0.27000E+04
         0.27000E+04
         0.27000E+04
         0.27000E+04
         0.27000E+04
         0.27000E+04
         0.27000E+04
         0.27000E+04
         0.27000E+04
         0.27000E+04
         0.27000E+04
         0.27000E+04
         0.27000E+04
         0.27000E+04
         0.27000E+04
         0.27000E+04
         0.27000E+04
         0.27000E+04
         0.27000E+04
         0.27000E+04
         0.27000E+04
         0.27000E+04
         0.27000E+04
         0.27000E+04
         0.27000E+04
         0.27000E+04
         0.27000E+04
         0.27000E+04
         0.27000E+04
         0.27000E+04
         0.27000E+04
         0.27000E+04
         0.27000E+04
         0.27000E+04
         0.27000E+04
         0.27000E+04
         0.27000E+04
         0.27000E+04
         0.27000E+04
         0.27000E+04
         0.27000E+04
         0.27000E+04
         0.27000E+04
         0.27000E+04
         0.27000E+04
         0.27000E+04
         0.27000E+04
         0.27000E+04
         0.27000E+04
         0.27000E+04
         0.27000E+04
         0.27000E+04
         0.27000E+04
         0.27000E+04
         0.27000E+04
         0.27000E+04
         0.27000E+04
         0.27000E+04
         0.27000E+04
         0.27000E+04
         0.27000E+04
         0.27000E+04
         0.27000E+04
         0.27000E+04
         0.27000E+04
         0.27000E+04
         0.27000E+04
         0.27000E+04
         0.27000E+04
         0.27000E+04
         0.27000E+04
         0.27000E+04
         0.27000E+04
         0.27000E+04
         0.27000E+04
         0.27000E+04
         0.27000E+04
         0.27000E+04
         0.27000E+04
         0.27000E+04
         0.27000E+04
         0.27000E+04
         0.27000E+04
         0.27000E+04
         0.27000E+04
         0.27000E+04
         0.27000E+04
         0.27000E+04
         0.27000E+04
         0.27000E+04
         0.27000E+04
         0.27000E+04
         0.27000E+04
         0.27000E+04
         0.27000E+04
         0.27000E+04
         0.27000E+04
         0.27000E+04
         0.27000E+04
         0.27000E+04
         0.27000E+04
         0.27000E+04
         0.27000E+04
         0.27000E+04
         0.27000E+04
         0.27000E+04
         0.27000E+04
         0.27000E+04
         0.27000E+04
         0.27000E+04
         0.27000E+04
         0.27000E+04
         0.27000E+04
         0.27000E+04
         0.27000E+04
         0.27000E+04
         0.27000E+04
         0.27000E+04
         0.27000E+04
         0.27000E+04
         0.27000E+04
         0.27000E+04
         0.27000E+04
         0.27000E+04
         0.27000E+04
         0.27000E+04
         0.27000E+04
         0.27000E+04
         0.27000E+04
         0.27000E+04
         0.27000E+04
         0.27000E+04
         0.27000E+04
         0.27000E+04
         0.27000E+04
         0.27000E+04
         0.27000E+04
         0.27000E+04
         0.27000E+04
         0.27000E+04
         0.27000E+04
         0.27000E+04
         0.27000E+04
         0.27000E+04
         0.27000E+04
         0.27000E+04
         0.27000E+04
         0.27000E+04
         0.27000E+04
         0.27000E+04
         0.27000E+04
         0.27000E+04
         0.27000E+04
         0.27000E+04
         0.27000E+04
         0.27000E+04
         0.27000E+04
         0.27000E+04
         0.27000E+04
         0.27000E+04
         0.27000E+04
         0.27000E+04
         0.27000E+04
         0.27000E+04
         0.27000E+04
         0.27000E+04
         0.27000E+04
         0.27000E+04
         0.27000E+04
         0.27000E+04
         0.27000E+04
         0.27000E+04
         0.27000E+04
         0.27000E+04
         0.27000E+04
         0.27000E+04
         0.27000E+04
         0.27000E+04
         0.27000E+04
         0.27000E+04
         0.27000E+04
         0.27000E+04
         0.27000E+04
         0.27000E+04
         0.27000E+04
         0.27000E+04
         0.27000E+04
         0.27000E+04
         0.27000E+04
         0.27000E+04
         0.27000E+04
         0.27000E+04
         0.27000E+04
         0.27000E+04
         0.27000E+04
         0.27000E+04
         0.27000E+04
         0.27000E+04
         0.27000E+04
         0.27000E+04
         0.27000E+04
         0.27000E+04
         0.27000E+04
         0.27000E+04
         0.27000E+04
         0.27000E+04
         0.27000E+04
         0.27000E+04
         0.27000E+04
         0.27000E+04
         0.27000E+04
         0.27000E+04
         0.27000E+04
         0.27000E+04
         0.27000E+04
         0.27000E+04
         0.27000E+04
         0.27000E+04
         0.27000E+04
         0.27000E+04
         0.27000E+04
         0.27000E+04
         0.27000E+04
         0.27000E+04
         0.27000E+04
         0.27000E+04
         0.27000E+04
         0.27000E+04
         0.27000E+04
         0.27000E+04
         0.27000E+04
         0.27000E+04
         0.27000E+04
         0.27000E+04
         0.27000E+04
         0.27000E+04
         0.27000E+04
         0.27000E+04
         0.27000E+04
         0.27000E+04
         0.27000E+04
         0.27000E+04
         0.27000E+04
         0.27000E+04
         0.27000E+04
         0.27000E+04
         0.27000E+04
         0.27000E+04
         0.27000E+04
         0.27000E+04
         0.27000E+04
         0.27000E+04
         0.27000E+04
         0.27000E+04
         0.27000E+04
         0.27000E+04
         0.27000E+04
         0.27000E+04
         0.27000E+04
         0.27000E+04
         0.27000E+04
         0.27000E+04
         0.27000E+04
         0.27000E+04
         0.27000E+04
         0.27000E+04
         0.27000E+04
         0.27000E+04
         0.27000E+04
         0.27000E+04
         0.27000E+04
         0.27000E+04
         0.27000E+04
         0.27000E+04
         0.27000E+04
         0.27000E+04
         0.27000E+04
         0.27000E+04
         0.27000E+04
         0.27000E+04
         0.27000E+04
         0.27000E+04
         0.27000E+04
         0.27000E+04
         0.27000E+04
         0.27000E+04
         0.27000E+04
         0.27000E+04
         0.27000E+04
         0.27000E+04
         0.27000E+04
         0.27000E+04
         0.27000E+04
         0.27000E+04
         0.27000E+04
         0.27000E+04
         0.27000E+04
         0.27000E+04
         0.27000E+04
         0.27000E+04
         0.27000E+04
         0.27000E+04
         0.27000E+04
         0.27000E+04
         0.27000E+04
         0.27000E+04
         0.27000E+04
         0.27000E+04
         0.27000E+04
         0.27000E+04
         0.27000E+04
         0.27000E+04
         0.27000E+04
         0.27000E+04
         0.27000E+04
         0.27000E+04
         0.27000E+04
         0.27000E+04
         0.27000E+04
         0.27000E+04
         0.27000E+04
         0.27000E+04
         0.27000E+04
         0.27000E+04
         0.27000E+04
         0.27000E+04
         0.27000E+04
         0.27000E+04
         0.27000E+04
         0.27000E+04
         0.27000E+04
         0.27000E+04
         0.27000E+04
         0.27000E+04
         0.27000E+04
         0.27000E+04
         0.27000E+04
         0.27000E+04
         0.27000E+04
         0.27000E+04
         0.27000E+04
         0.27000E+04
         0.27000E+04
         0.27000E+04
         0.27000E+04
         0.27000E+04
         0.27000E+04
         0.27000E+04
         0.27000E+04
         0.27000E+04
         0.27000E+04
         0.27000E+04
         0.27000E+04
         0.27000E+04
         0.27000E+04
         0.27000E+04
         0.27000E+04
         0.27000E+04
         0.27000E+04
         0.27000E+04
         0.27000E+04
         0.27000E+04
         0.27000E+04
         0.27000E+04
         0.27000E+04
         0.27000E+04
         0.27000E+04
         0.27000E+04
         0.27000E+04
         0.27000E+04
         0.27000E+04
         0.27000E+04
         0.27000E+04
         0.27000E+04
         0.27000E+04
         0.27000E+04
         0.27000E+04
         0.27000E+04
         0.27000E+04
         0.27000E+04
         0.27000E+04
         0.27000E+04
         0.27000E+04
         0.27000E+04
         0.27000E+04
         0.27000E+04
         0.27000E+04
         0.27000E+04
         0.27000E+04
         0.27000E+04
         0.27000E+04
         0.27000E+04
         0.27000E+04
         0.27000E+04
         0.27000E+04
         0.27000E+04
         0.27000E+04
         0.27000E+04
         0.27000E+04
         0.27000E+04
         0.27000E+04
         0.27000E+04
         0.27000E+04
         0.27000E+04
         0.27000E+04
         0.27000E+04
         0.27000E+04
         0.27000E+04
         0.27000E+04
         0.27000E+04
         0.27000E+04
         0.27000E+04
         0.27000E+04
         0.27000E+04
         0.27000E+04
         0.27000E+04
         0.27000E+04
         0.27000E+04
         0.27000E+04
         0.27000E+04
         0.27000E+04
         0.27000E+04
         0.27000E+04
         0.27000E+04
         0.27000E+04
         0.27000E+04
         0.27000E+04
         0.27000E+04
         0.27000E+04
         0.27000E+04
         0.27000E+04
         0.27000E+04
         0.27000E+04
         0.27000E+04
         0.27000E+04
         0.27000E+04
         0.27000E+04
         0.27000E+04
         0.27000E+04
         0.27000E+04
         0.27000E+04
         0.27000E+04
         0.27000E+04
         0.27000E+04
         0.27000E+04
         0.27000E+04
         0.27000E+04
         0.27000E+04
         0.27000E+04
         0.27000E+04
         0.27000E+04
         0.27000E+04
         0.27000E+04
         0.27000E+04
         0.27000E+04
         0.27000E+04
         0.27000E+04
         0.27000E+04
         0.27000E+04
         0.27000E+04
         0.27000E+04
         0.27000E+04
         0.27000E+04
         0.27000E+04
         0.27000E+04
         0.27000E+04
         0.27000E+04
         0.27000E+04
         0.27000E+04
         0.27000E+04
         0.27000E+04
         0.27000E+04
         0.27000E+04
         0.27000E+04
         0.27000E+04
         0.27000E+04
         0.27000E+04
         0.27000E+04
         0.27000E+04
         0.27000E+04
         0.27000E+04
         0.27000E+04
         0.27000E+04
         0.27000E+04
         0.27000E+04
         0.27000E+04
         0.27000E+04
         0.27000E+04
         0.27000E+04
         0.27000E+04
         0.27000E+04
         0.27000E+04
         0.27000E+04
         0.27000E+04
         0.27000E+04
         0.27000E+04
         0.27000E+04
         0.27000E+04
         0.27000E+04
         0.27000E+04
         0.27000E+04
         0.27000E+04
         0.27000E+04
         0.27000E+04
         0.27000E+04
         0.27000E+04
         0.27000E+04
         0.27000E+04
         0.27000E+04
         0.27000E+04
         0.27000E+04
         0.27000E+04
         0.27000E+04
         0.27000E+04
         0.27000E+04
         0.27000E+04
         0.27000E+04
         0.27000E+04
         0.27000E+04
         0.27000E+04
         0.27000E+04
         0.27000E+04
         0.27000E+04
         0.27000E+04
         0.27000E+04
         0.27000E+04
         0.27000E+04
         0.27000E+04
         0.27000E+04
         0.27000E+04
         0.27000E+04
         0.27000E+04
         0.27000E+04
         0.27000E+04
         0.27000E+04
         0.27000E+04
         0.27000E+04
         0.27000E+04
         0.27000E+04
         0.27000E+04
         0.27000E+04
         0.27000E+04
         0.27000E+04
         0.27000E+04
         0.27000E+04
         0.27000E+04
         0.27000E+04
         0.27000E+04
         0.27000E+04
         0.27000E+04
         0.27000E+04
         0.27000E+04
         0.27000E+04
         0.27000E+04
         0.27000E+04
         0.27000E+04
         0.27000E+04
         0.27000E+04
         0.27000E+04
         0.27000E+04
         0.27000E+04
         0.27000E+04
         0.27000E+04
         0.27000E+04
         0.27000E+04
         0.27000E+04
         0.27000E+04
         0.27000E+04
         0.27000E+04
         0.27000E+04
         0.27000E+04
         0.27000E+04
         0.27000E+04
         0.27000E+04
         0.27000E+04
         0.27000E+04
         0.27000E+04
         0.27000E+04
         0.27000E+04
         0.27000E+04
         0.27000E+04
         0.27000E+04
         0.27000E+04
         0.27000E+04
         0.27000E+04
         0.27000E+04
         0.27000E+04
         0.27000E+04
         0.27000E+04
         0.27000E+04
         0.27000E+04
         0.27000E+04
         0.27000E+04
         0.27000E+04
         0.27000E+04
         0.27000E+04
         0.27000E+04
         0.27000E+04
         0.27000E+04
         0.27000E+04
         0.27000E+04
         0.27000E+04
         0.27000E+04
         0.27000E+04
         0.27000E+04
         0.27000E+04
         0.27000E+04
         0.27000E+04
         0.27000E+04
         0.27000E+04
         0.27000E+04
         0.27000E+04
         0.27000E+04
         0.27000E+04
         0.27000E+04
         0.27000E+04
         0.27000E+04
         0.27000E+04
         0.27000E+04
         0.27000E+04
         0.27000E+04
         0.27000E+04
         0.27000E+04
         0.27000E+04
         0.27000E+04
         0.27000E+04
         0.27000E+04
         0.27000E+04
         0.27000E+04
         0.27000E+04
         0.27000E+04
         0.27000E+04
         0.27000E+04
         0.27000E+04
         0.27000E+04
         0.27000E+04
         0.27000E+04
         0.27000E+04
         0.27000E+04
         0.27000E+04
         0.27000E+04
         0.27000E+04
         0.27000E+04
         0.27000E+04
         0.27000E+04
         0.27000E+04
         0.27000E+04
         0.27000E+04
         0.27000E+04
         0.27000E+04
         0.27000E+04
         0.27000E+04
         0.27000E+04
         0.27000E+04
         0.27000E+04
         0.27000E+04
         0.27000E+04
         0.27000E+04
         0.27000E+04
         0.27000E+04
         0.27000E+04
         0.27000E+04
         0.27000E+04
         0.27000E+04
         0.27000E+04
         0.27000E+04
         0.27000E+04
         0.27000E+04
         0.27000E+04
         0.27000E+04
         0.27000E+04
         0.27000E+04
         0.27000E+04
         0.27000E+04
         0.27000E+04
         0.27000E+04
         0.27000E+04
         0.27000E+04
         0.27000E+04
         0.27000E+04
         0.27000E+04
         0.27000E+04
         0.27000E+04
         0.27000E+04
         0.27000E+04
         0.27000E+04
         0.27000E+04
         0.27000E+04
         0.27000E+04
         0.27000E+04
         0.27000E+04
         0.27000E+04
         0.27000E+04
         0.27000E+04
         0.27000E+04
         0.27000E+04
         0.27000E+04
         0.27000E+04
         0.27000E+04
         0.27000E+04
         0.27000E+04
         0.27000E+04
         0.27000E+04
         0.27000E+04
         0.27000E+04
         0.27000E+04
         0.27000E+04
         0.27000E+04
         0.27000E+04
         0.27000E+04
         0.27000E+04
         0.27000E+04
         0.27000E+04
         0.27000E+04
         0.27000E+04
         0.27000E+04
         0.27000E+04
         0.27000E+04
         0.27000E+04
         0.27000E+04
         0.27000E+04
         0.27000E+04
         0.27000E+04
         0.27000E+04
         0.27000E+04
         0.27000E+04
         0.27000E+04
         0.27000E+04
         0.27000E+04
         0.27000E+04
         0.27000E+04
         0.27000E+04
         0.27000E+04
         0.27000E+04
         0.27000E+04
         0.27000E+04
         0.27000E+04
         0.27000E+04
         0.27000E+04
         0.27000E+04
         0.27000E+04
         0.27000E+04
         0.27000E+04
         0.27000E+04
         0.27000E+04
         0.27000E+04
         0.27000E+04
         0.27000E+04
         0.27000E+04
         0.27000E+04
         0.27000E+04
         0.27000E+04
         0.27000E+04
         0.27000E+04
         0.27000E+04
         0.27000E+04
         0.27000E+04
         0.27000E+04
         0.27000E+04
         0.27000E+04
         0.27000E+04
         0.27000E+04
         0.27000E+04
         0.27000E+04
         0.27000E+04
         0.27000E+04
         0.27000E+04
         0.27000E+04
         0.27000E+04
         0.27000E+04
         0.27000E+04
         0.27000E+04
         0.27000E+04
         0.27000E+04
         0.27000E+04
         0.27000E+04
         0.27000E+04
         0.27000E+04
         0.27000E+04
         0.27000E+04
         0.27000E+04
         0.27000E+04
         0.27000E+04
         0.27000E+04
         0.27000E+04
         0.27000E+04
         0.27000E+04
         0.27000E+04
         0.27000E+04
         0.27000E+04
         0.27000E+04
         0.27000E+04
         0.27000E+04
         0.27000E+04
         0.27000E+04
         0.27000E+04
         0.27000E+04
         0.27000E+04
         0.27000E+04
         0.27000E+04
         0.27000E+04
         0.27000E+04
         0.27000E+04
         0.27000E+04
         0.27000E+04
         0.27000E+04
         0.27000E+04
         0.27000E+04
         0.27000E+04
         0.27000E+04
         0.27000E+04
         0.27000E+04
         0.27000E+04
         0.27000E+04
         0.27000E+04
         0.27000E+04
         0.27000E+04
         0.27000E+04
         0.27000E+04
         0.27000E+04
         0.27000E+04
         0.27000E+04
         0.27000E+04
         0.27000E+04
         0.27000E+04
         0.27000E+04
         0.27000E+04
         0.27000E+04
         0.27000E+04
         0.27000E+04
         0.27000E+04
         0.27000E+04
         0.27000E+04
         0.27000E+04
         0.27000E+04
         0.27000E+04
         0.27000E+04
         0.27000E+04
         0.27000E+04
         0.27000E+04
         0.27000E+04
         0.27000E+04
         0.27000E+04
         0.27000E+04
         0.27000E+04
         0.27000E+04
         0.27000E+04
         0.27000E+04
         0.27000E+04
         0.27000E+04
         0.27000E+04
         0.27000E+04
         0.27000E+04
         0.27000E+04
         0.27000E+04
         0.27000E+04
         0.27000E+04
         0.27000E+04
         0.27000E+04
         0.27000E+04
         0.27000E+04
         0.27000E+04
         0.27000E+04
         0.27000E+04
         0.27000E+04
         0.27000E+04
         0.27000E+04
         0.27000E+04
         0.27000E+04
         0.27000E+04
         0.27000E+04
         0.27000E+04
         0.27000E+04
         0.27000E+04
         0.27000E+04
         0.27000E+04
         0.27000E+04
         0.27000E+04
         0.27000E+04
         0.27000E+04
         0.27000E+04
         0.27000E+04
         0.27000E+04
         0.27000E+04
         0.27000E+04
         0.27000E+04
         0.27000E+04
         0.27000E+04
         0.27000E+04
         0.27000E+04
         0.27000E+04
         0.27000E+04
         0.27000E+04
         0.27000E+04
         0.27000E+04
         0.27000E+04
         0.27000E+04
         0.27000E+04
         0.27000E+04
         0.27000E+04
         0.27000E+04
         0.27000E+04
         0.27000E+04
         0.27000E+04
         0.27000E+04
         0.27000E+04
         0.27000E+04
         0.27000E+04
         0.27000E+04
         0.27000E+04
         0.27000E+04
         0.27000E+04
         0.27000E+04
         0.27000E+04
         0.27000E+04
         0.27000E+04
         0.27000E+04
         0.27000E+04
         0.27000E+04
         0.27000E+04
         0.27000E+04
         0.27000E+04
         0.27000E+04
         0.27000E+04
         0.27000E+04
         0.27000E+04
         0.27000E+04
         0.27000E+04
         0.27000E+04
         0.27000E+04
         0.27000E+04
         0.27000E+04
         0.27000E+04
         0.27000E+04
         0.27000E+04
         0.27000E+04
         0.27000E+04
         0.27000E+04
         0.27000E+04
         0.27000E+04
         0.27000E+04
         0.27000E+04
         0.27000E+04
         0.27000E+04
         0.27000E+04
         0.27000E+04
         0.27000E+04
         0.27000E+04
         0.27000E+04
         0.27000E+04
         0.27000E+04
         0.27000E+04
         0.27000E+04
         0.27000E+04
         0.27000E+04
         0.27000E+04
         0.27000E+04
         0.27000E+04
         0.27000E+04
         0.27000E+04
         0.27000E+04
         0.27000E+04
         0.27000E+04
         0.27000E+04
         0.27000E+04
         0.27000E+04
         0.27000E+04
         0.27000E+04
         0.27000E+04
         0.27000E+04
         0.27000E+04
         0.27000E+04
         0.27000E+04
         0.27000E+04
         0.27000E+04
         0.27000E+04
         0.27000E+04
         0.27000E+04
         0.27000E+04
         0.27000E+04
         0.27000E+04
         0.27000E+04
         0.27000E+04
         0.27000E+04
         0.27000E+04
         0.27000E+04
         0.27000E+04
         0.27000E+04
         0.27000E+04
         0.27000E+04
         0.27000E+04
         0.27000E+04
         0.27000E+04
         0.27000E+04
         0.27000E+04
         0.27000E+04
         0.27000E+04
         0.27000E+04
         0.27000E+04
         0.27000E+04
         0.27000E+04
         0.27000E+04
         0.27000E+04
         0.27000E+04
         0.27000E+04
         0.27000E+04
         0.27000E+04
         0.27000E+04
         0.27000E+04
         0.27000E+04
         0.27000E+04
         0.27000E+04
         0.27000E+04
         0.27000E+04
         0.27000E+04
         0.27000E+04
         0.27000E+04
         0.27000E+04
         0.27000E+04
         0.27000E+04
         0.27000E+04
         0.27000E+04
         0.27000E+04
         0.27000E+04
         0.27000E+04
         0.27000E+04
         0.27000E+04
         0.27000E+04
         0.27000E+04
         0.27000E+04
         0.27000E+04
         0.27000E+04
         0.27000E+04
         0.27000E+04
         0.27000E+04
         0.27000E+04
         0.27000E+04
         0.27000E+04
         0.27000E+04
         0.27000E+04
         0.27000E+04
         0.27000E+04
         0.27000E+04
         0.27000E+04
         0.27000E+04
         0.27000E+04
         0.27000E+04
         0.27000E+04
         0.27000E+04
         0.27000E+04
         0.27000E+04
         0.27000E+04
         0.27000E+04
         0.27000E+04
         0.27000E+04
         0.27000E+04
         0.27000E+04
         0.27000E+04
         0.27000E+04
         0.27000E+04
         0.27000E+04
         0.27000E+04
         0.27000E+04
